# vtk DataFile Version 2.0
               (MEGA VTK FILE)
ASCII
DATASET UNSTRUCTURED_GRID
POINTS       1950    double
  0.10378E-02  0.67292E-03 -0.18245E-01
  0.17452E-02  0.12308E-02 -0.18233E-01
  0.23177E-02  0.59151E-03 -0.18231E-01
  0.16698E-02 -0.33775E-03 -0.18254E-01
  0.10379E-02  0.67237E-03 -0.11750E-01
  0.17453E-02  0.12301E-02 -0.11750E-01
  0.23178E-02  0.59098E-03 -0.11750E-01
  0.16700E-02 -0.33851E-03 -0.11750E-01
  0.30377E-02  0.14882E-03 -0.18209E-01
  0.27791E-02 -0.67643E-03 -0.18236E-01
  0.30377E-02  0.14846E-03 -0.11750E-01
  0.27788E-02 -0.67692E-03 -0.11750E-01
  0.12850E-02  0.18412E-02 -0.18220E-01
  0.65139E-03  0.14576E-02 -0.18237E-01
  0.12851E-02  0.18410E-02 -0.11750E-01
  0.65164E-03  0.14566E-02 -0.11750E-01
  0.12757E-03  0.29933E-03 -0.18246E-01
 -0.12822E-03  0.11672E-02 -0.18249E-01
  0.12783E-03  0.29819E-03 -0.11750E-01
 -0.12804E-03  0.11655E-02 -0.11750E-01
  0.94500E-03  0.22748E-02 -0.18211E-01
  0.11327E-02  0.28286E-02 -0.18201E-01
  0.17490E-02  0.24238E-02 -0.18206E-01
  0.94533E-03  0.22746E-02 -0.11750E-01
  0.11330E-02  0.28291E-02 -0.11750E-01
  0.17494E-02  0.24236E-02 -0.11750E-01
  0.40588E-03  0.21685E-02 -0.18232E-01
  0.39779E-03  0.29366E-02 -0.18225E-01
  0.40594E-03  0.21684E-02 -0.11750E-01
  0.39781E-03  0.29369E-02 -0.11750E-01
 -0.76303E-03 -0.10033E-02 -0.18256E-01
 -0.86604E-03  0.78969E-04 -0.18261E-01
  0.46119E-03 -0.70318E-03 -0.18252E-01
 -0.76268E-03 -0.10032E-02 -0.11750E-01
 -0.86593E-03  0.78160E-04 -0.11750E-01
  0.46164E-03 -0.70391E-03 -0.11750E-01
 -0.18300E-02 -0.71196E-03 -0.18232E-01
 -0.18440E-02  0.82749E-04 -0.18256E-01
 -0.18297E-02 -0.71210E-03 -0.11750E-01
 -0.18441E-02  0.82626E-04 -0.11750E-01
 -0.27238E-02 -0.77865E-03 -0.18225E-01
 -0.28028E-02  0.40713E-04 -0.18245E-01
 -0.27238E-02 -0.77882E-03 -0.11750E-01
 -0.28031E-02  0.40439E-04 -0.11750E-01
 -0.25365E-02 -0.15195E-02 -0.18206E-01
 -0.19287E-02 -0.13230E-02 -0.18216E-01
 -0.25363E-02 -0.15195E-02 -0.11750E-01
 -0.19283E-02 -0.13231E-02 -0.11750E-01
 -0.99363E-03  0.98847E-03 -0.18263E-01
 -0.99377E-03  0.98712E-03 -0.11750E-01
 -0.14380E-02 -0.17325E-02 -0.18229E-01
 -0.14377E-02 -0.17325E-02 -0.11750E-01
 -0.31574E-03  0.20220E-02 -0.18254E-01
 -0.31594E-03  0.20217E-02 -0.11750E-01
 -0.11068E-02  0.18615E-02 -0.18262E-01
 -0.11071E-02  0.18616E-02 -0.11750E-01
 -0.18845E-02  0.17175E-02 -0.18241E-01
 -0.18713E-02  0.90940E-03 -0.18257E-01
 -0.18846E-02  0.17175E-02 -0.11750E-01
 -0.18714E-02  0.90916E-03 -0.11750E-01
 -0.15871E-03 -0.19800E-02 -0.18250E-01
 -0.94089E-03 -0.23489E-02 -0.18229E-01
 -0.15844E-03 -0.19800E-02 -0.11750E-01
 -0.94029E-03 -0.23489E-02 -0.11750E-01
  0.78856E-03 -0.17074E-02 -0.18249E-01
  0.78922E-03 -0.17074E-02 -0.11750E-01
  0.17211E-02 -0.14894E-02 -0.18240E-01
  0.17211E-02 -0.14892E-02 -0.11750E-01
  0.32050E-02  0.76036E-03 -0.18176E-01
  0.28046E-02  0.12477E-02 -0.18202E-01
  0.32047E-02  0.75936E-03 -0.11750E-01
  0.28047E-02  0.12473E-02 -0.11750E-01
  0.23059E-02  0.18665E-02 -0.18211E-01
  0.23060E-02  0.18664E-02 -0.11750E-01
 -0.40614E-03  0.29038E-02 -0.18239E-01
 -0.40627E-03  0.29049E-02 -0.11750E-01
 -0.12092E-02  0.27207E-02 -0.18237E-01
 -0.12092E-02  0.27212E-02 -0.11750E-01
 -0.19448E-02  0.24642E-02 -0.18212E-01
 -0.19448E-02  0.24645E-02 -0.11750E-01
 -0.25029E-02  0.22359E-02 -0.18184E-01
 -0.26371E-02  0.16503E-02 -0.18219E-01
 -0.25029E-02  0.22359E-02 -0.11750E-01
 -0.26372E-02  0.16503E-02 -0.11750E-01
 -0.27671E-02  0.87493E-03 -0.18248E-01
 -0.27674E-02  0.87466E-03 -0.11750E-01
 -0.21123E-02 -0.21373E-02 -0.18208E-01
 -0.21122E-02 -0.21373E-02 -0.11750E-01
 -0.16087E-02 -0.26931E-02 -0.18198E-01
 -0.16087E-02 -0.26931E-02 -0.11750E-01
 -0.11939E-02 -0.31291E-02 -0.18173E-01
 -0.58641E-03 -0.30382E-02 -0.18208E-01
 -0.11937E-02 -0.31291E-02 -0.11750E-01
 -0.58606E-03 -0.30382E-02 -0.11750E-01
  0.20912E-03 -0.28748E-02 -0.18231E-01
  0.20952E-03 -0.28748E-02 -0.11750E-01
  0.10586E-02 -0.26423E-02 -0.18228E-01
  0.10589E-02 -0.26420E-02 -0.11750E-01
  0.18413E-02 -0.23707E-02 -0.18209E-01
  0.18413E-02 -0.23705E-02 -0.11750E-01
  0.24544E-02 -0.21445E-02 -0.18182E-01
  0.26022E-02 -0.15105E-02 -0.18213E-01
  0.24543E-02 -0.21439E-02 -0.11750E-01
  0.26021E-02 -0.15106E-02 -0.11750E-01
  0.37964E-02  0.93572E-03 -0.18105E-01
  0.39100E-02  0.00000E+00 -0.18117E-01
  0.37964E-02  0.93572E-03 -0.11750E-01
  0.39100E-02  0.00000E+00 -0.11750E-01
  0.34621E-02  0.18171E-02 -0.18116E-01
  0.34621E-02  0.18171E-02 -0.11750E-01
  0.29267E-02  0.25928E-02 -0.18107E-01
  0.29267E-02  0.25928E-02 -0.11750E-01
  0.22211E-02  0.32179E-02 -0.18107E-01
  0.22211E-02  0.32179E-02 -0.11750E-01
  0.13865E-02  0.36559E-02 -0.18106E-01
  0.13865E-02  0.36559E-02 -0.11750E-01
  0.47130E-03  0.38815E-02 -0.18113E-01
  0.47130E-03  0.38815E-02 -0.11750E-01
 -0.47130E-03  0.38815E-02 -0.18116E-01
 -0.47130E-03  0.38815E-02 -0.11750E-01
 -0.13865E-02  0.36559E-02 -0.18115E-01
 -0.13865E-02  0.36559E-02 -0.11750E-01
 -0.22211E-02  0.32179E-02 -0.18113E-01
 -0.22211E-02  0.32179E-02 -0.11750E-01
 -0.29267E-02  0.25928E-02 -0.18102E-01
 -0.29267E-02  0.25928E-02 -0.11750E-01
 -0.34621E-02  0.18171E-02 -0.18116E-01
 -0.34621E-02  0.18171E-02 -0.11750E-01
 -0.37964E-02  0.93572E-03 -0.18121E-01
 -0.37964E-02  0.93572E-03 -0.11750E-01
 -0.39100E-02  0.22152E-17 -0.18120E-01
 -0.39100E-02 -0.47884E-18 -0.11750E-01
 -0.37964E-02 -0.93572E-03 -0.18114E-01
 -0.37964E-02 -0.93572E-03 -0.11750E-01
 -0.34621E-02 -0.18171E-02 -0.18109E-01
 -0.34621E-02 -0.18171E-02 -0.11750E-01
 -0.29267E-02 -0.25928E-02 -0.18106E-01
 -0.29267E-02 -0.25928E-02 -0.11750E-01
 -0.22211E-02 -0.32179E-02 -0.18114E-01
 -0.22211E-02 -0.32179E-02 -0.11750E-01
 -0.13865E-02 -0.36559E-02 -0.18106E-01
 -0.13865E-02 -0.36559E-02 -0.11750E-01
 -0.47130E-03 -0.38815E-02 -0.18119E-01
 -0.47130E-03 -0.38815E-02 -0.11750E-01
  0.47130E-03 -0.38815E-02 -0.18114E-01
  0.47130E-03 -0.38815E-02 -0.11750E-01
  0.13865E-02 -0.36559E-02 -0.18110E-01
  0.13865E-02 -0.36559E-02 -0.11750E-01
  0.22211E-02 -0.32179E-02 -0.18117E-01
  0.22211E-02 -0.32179E-02 -0.11750E-01
  0.29267E-02 -0.25928E-02 -0.18107E-01
  0.29267E-02 -0.25928E-02 -0.11750E-01
  0.34621E-02 -0.18171E-02 -0.18117E-01
  0.34621E-02 -0.18171E-02 -0.11750E-01
  0.37964E-02 -0.93572E-03 -0.18118E-01
  0.37964E-02 -0.93572E-03 -0.11750E-01
  0.10376E-02  0.67348E-03 -0.20327E-01
  0.17450E-02  0.12314E-02 -0.20324E-01
  0.23175E-02  0.59203E-03 -0.20324E-01
  0.16696E-02 -0.33700E-03 -0.20327E-01
  0.30377E-02  0.14918E-03 -0.20321E-01
  0.27795E-02 -0.67594E-03 -0.20325E-01
  0.12849E-02  0.18414E-02 -0.20322E-01
  0.65115E-03  0.14586E-02 -0.20325E-01
  0.12731E-03  0.30048E-03 -0.20327E-01
 -0.12841E-03  0.11690E-02 -0.20327E-01
  0.94467E-03  0.22749E-02 -0.20321E-01
  0.11323E-02  0.28282E-02 -0.20320E-01
  0.17487E-02  0.24239E-02 -0.20320E-01
  0.40583E-03  0.21685E-02 -0.20324E-01
  0.39777E-03  0.29364E-02 -0.20323E-01
 -0.76338E-03 -0.10035E-02 -0.20328E-01
 -0.86615E-03  0.79778E-04 -0.20329E-01
  0.46074E-03 -0.70245E-03 -0.20328E-01
 -0.18303E-02 -0.71182E-03 -0.20324E-01
 -0.18439E-02  0.82873E-04 -0.20328E-01
 -0.27238E-02 -0.77848E-03 -0.20323E-01
 -0.28025E-02  0.40986E-04 -0.20327E-01
 -0.25366E-02 -0.15194E-02 -0.20320E-01
 -0.19292E-02 -0.13228E-02 -0.20322E-01
 -0.99349E-03  0.98983E-03 -0.20329E-01
 -0.14384E-02 -0.17324E-02 -0.20324E-01
 -0.31554E-03  0.20223E-02 -0.20328E-01
 -0.11064E-02  0.18614E-02 -0.20329E-01
 -0.18845E-02  0.17175E-02 -0.20326E-01
 -0.18712E-02  0.90964E-03 -0.20328E-01
 -0.15899E-03 -0.19800E-02 -0.20327E-01
 -0.94149E-03 -0.23489E-02 -0.20324E-01
  0.78790E-03 -0.17074E-02 -0.20327E-01
  0.17210E-02 -0.14896E-02 -0.20325E-01
  0.32053E-02  0.76137E-03 -0.20316E-01
  0.28046E-02  0.12481E-02 -0.20320E-01
  0.23058E-02  0.18665E-02 -0.20321E-01
 -0.40600E-03  0.29027E-02 -0.20326E-01
 -0.12092E-02  0.27202E-02 -0.20325E-01
 -0.19447E-02  0.24640E-02 -0.20321E-01
 -0.25028E-02  0.22359E-02 -0.20317E-01
 -0.26370E-02  0.16503E-02 -0.20322E-01
 -0.27668E-02  0.87519E-03 -0.20327E-01
 -0.21125E-02 -0.21373E-02 -0.20321E-01
 -0.16088E-02 -0.26932E-02 -0.20319E-01
 -0.11940E-02 -0.31291E-02 -0.20316E-01
 -0.58676E-03 -0.30382E-02 -0.20320E-01
  0.20871E-03 -0.28748E-02 -0.20324E-01
  0.10583E-02 -0.26426E-02 -0.20324E-01
  0.18413E-02 -0.23709E-02 -0.20321E-01
  0.24545E-02 -0.21450E-02 -0.20317E-01
  0.26022E-02 -0.15104E-02 -0.20321E-01
  0.37964E-02  0.93572E-03 -0.20309E-01
  0.39100E-02  0.00000E+00 -0.20311E-01
  0.34621E-02  0.18171E-02 -0.20311E-01
  0.29267E-02  0.25928E-02 -0.20310E-01
  0.22211E-02  0.32179E-02 -0.20310E-01
  0.13865E-02  0.36559E-02 -0.20310E-01
  0.47130E-03  0.38815E-02 -0.20311E-01
 -0.47130E-03  0.38815E-02 -0.20311E-01
 -0.13865E-02  0.36559E-02 -0.20310E-01
 -0.22211E-02  0.32179E-02 -0.20310E-01
 -0.29267E-02  0.25928E-02 -0.20308E-01
 -0.34621E-02  0.18171E-02 -0.20310E-01
 -0.37964E-02  0.93572E-03 -0.20312E-01
 -0.39100E-02 -0.47884E-18 -0.20311E-01
 -0.37964E-02 -0.93572E-03 -0.20311E-01
 -0.34621E-02 -0.18171E-02 -0.20310E-01
 -0.29267E-02 -0.25928E-02 -0.20309E-01
 -0.22211E-02 -0.32179E-02 -0.20311E-01
 -0.13865E-02 -0.36559E-02 -0.20309E-01
 -0.47130E-03 -0.38815E-02 -0.20311E-01
  0.47130E-03 -0.38815E-02 -0.20311E-01
  0.13865E-02 -0.36559E-02 -0.20310E-01
  0.22211E-02 -0.32179E-02 -0.20311E-01
  0.29267E-02 -0.25928E-02 -0.20309E-01
  0.34621E-02 -0.18171E-02 -0.20311E-01
  0.37964E-02 -0.93572E-03 -0.20311E-01
  0.10375E-02  0.67403E-03 -0.19598E-01
  0.17448E-02  0.12321E-02 -0.19598E-01
  0.23174E-02  0.59255E-03 -0.19598E-01
  0.16694E-02 -0.33624E-03 -0.19598E-01
  0.30377E-02  0.14955E-03 -0.19598E-01
  0.27798E-02 -0.67544E-03 -0.19598E-01
  0.12848E-02  0.18415E-02 -0.19598E-01
  0.65090E-03  0.14596E-02 -0.19598E-01
  0.12705E-03  0.30163E-03 -0.19598E-01
 -0.12859E-03  0.11707E-02 -0.19598E-01
  0.94434E-03  0.22750E-02 -0.19598E-01
  0.11320E-02  0.28277E-02 -0.19598E-01
  0.17483E-02  0.24241E-02 -0.19598E-01
  0.40577E-03  0.21685E-02 -0.19598E-01
  0.39776E-03  0.29361E-02 -0.19598E-01
 -0.76374E-03 -0.10036E-02 -0.19598E-01
 -0.86626E-03  0.80588E-04 -0.19598E-01
  0.46029E-03 -0.70173E-03 -0.19598E-01
 -0.18306E-02 -0.71168E-03 -0.19598E-01
 -0.18438E-02  0.82996E-04 -0.19598E-01
 -0.27238E-02 -0.77831E-03 -0.19598E-01
 -0.28022E-02  0.41259E-04 -0.19598E-01
 -0.25368E-02 -0.15194E-02 -0.19598E-01
 -0.19296E-02 -0.13227E-02 -0.19598E-01
 -0.99334E-03  0.99119E-03 -0.19598E-01
 -0.14387E-02 -0.17324E-02 -0.19598E-01
 -0.31534E-03  0.20226E-02 -0.19598E-01
 -0.11061E-02  0.18613E-02 -0.19598E-01
 -0.18844E-02  0.17175E-02 -0.19598E-01
 -0.18710E-02  0.90988E-03 -0.19598E-01
 -0.15926E-03 -0.19801E-02 -0.19598E-01
 -0.94209E-03 -0.23490E-02 -0.19598E-01
  0.78724E-03 -0.17074E-02 -0.19598E-01
  0.17210E-02 -0.14899E-02 -0.19598E-01
  0.32056E-02  0.76237E-03 -0.19598E-01
  0.28046E-02  0.12485E-02 -0.19598E-01
  0.23057E-02  0.18666E-02 -0.19598E-01
 -0.40586E-03  0.29017E-02 -0.19598E-01
 -0.12092E-02  0.27198E-02 -0.19598E-01
 -0.19447E-02  0.24638E-02 -0.19598E-01
 -0.25028E-02  0.22359E-02 -0.19598E-01
 -0.26369E-02  0.16503E-02 -0.19598E-01
 -0.27665E-02  0.87545E-03 -0.19598E-01
 -0.21126E-02 -0.21374E-02 -0.19598E-01
 -0.16088E-02 -0.26932E-02 -0.19598E-01
 -0.11941E-02 -0.31291E-02 -0.19598E-01
 -0.58711E-03 -0.30382E-02 -0.19598E-01
  0.20830E-03 -0.28748E-02 -0.19598E-01
  0.10580E-02 -0.26428E-02 -0.19598E-01
  0.18414E-02 -0.23711E-02 -0.19598E-01
  0.24546E-02 -0.21456E-02 -0.19598E-01
  0.26023E-02 -0.15103E-02 -0.19598E-01
  0.37964E-02  0.93572E-03 -0.19598E-01
  0.39100E-02  0.00000E+00 -0.19598E-01
  0.34621E-02  0.18171E-02 -0.19598E-01
  0.29267E-02  0.25928E-02 -0.19598E-01
  0.22211E-02  0.32179E-02 -0.19598E-01
  0.13865E-02  0.36559E-02 -0.19598E-01
  0.47130E-03  0.38815E-02 -0.19598E-01
 -0.47130E-03  0.38815E-02 -0.19598E-01
 -0.13865E-02  0.36559E-02 -0.19598E-01
 -0.22211E-02  0.32179E-02 -0.19598E-01
 -0.29267E-02  0.25928E-02 -0.19598E-01
 -0.34621E-02  0.18171E-02 -0.19598E-01
 -0.37964E-02  0.93572E-03 -0.19598E-01
 -0.39100E-02  0.39516E-17 -0.19598E-01
 -0.37964E-02 -0.93572E-03 -0.19598E-01
 -0.34621E-02 -0.18171E-02 -0.19598E-01
 -0.29267E-02 -0.25928E-02 -0.19598E-01
 -0.22211E-02 -0.32179E-02 -0.19598E-01
 -0.13865E-02 -0.36559E-02 -0.19598E-01
 -0.47130E-03 -0.38815E-02 -0.19598E-01
  0.47130E-03 -0.38815E-02 -0.19598E-01
  0.13865E-02 -0.36559E-02 -0.19598E-01
  0.22211E-02 -0.32179E-02 -0.19598E-01
  0.29267E-02 -0.25928E-02 -0.19598E-01
  0.34621E-02 -0.18171E-02 -0.19598E-01
  0.37964E-02 -0.93572E-03 -0.19598E-01
  0.10374E-02  0.67459E-03 -0.18619E-01
  0.17446E-02  0.12328E-02 -0.18619E-01
  0.23173E-02  0.59308E-03 -0.18619E-01
  0.16692E-02 -0.33549E-03 -0.18619E-01
  0.30376E-02  0.14991E-03 -0.18619E-01
  0.27801E-02 -0.67495E-03 -0.18619E-01
  0.12847E-02  0.18417E-02 -0.18619E-01
  0.65065E-03  0.14606E-02 -0.18619E-01
  0.12678E-03  0.30278E-03 -0.18619E-01
 -0.12878E-03  0.11725E-02 -0.18619E-01
  0.94401E-03  0.22752E-02 -0.18619E-01
  0.11316E-02  0.28273E-02 -0.18619E-01
  0.17479E-02  0.24242E-02 -0.18619E-01
  0.40572E-03  0.21686E-02 -0.18619E-01
  0.39774E-03  0.29359E-02 -0.18619E-01
 -0.76409E-03 -0.10038E-02 -0.18619E-01
 -0.86637E-03  0.81397E-04 -0.18619E-01
  0.45985E-03 -0.70100E-03 -0.18619E-01
 -0.18309E-02 -0.71154E-03 -0.18619E-01
 -0.18437E-02  0.83120E-04 -0.18619E-01
 -0.27237E-02 -0.77814E-03 -0.18619E-01
 -0.28020E-02  0.41533E-04 -0.18619E-01
 -0.25369E-02 -0.15193E-02 -0.18619E-01
 -0.19300E-02 -0.13227E-02 -0.18619E-01
 -0.99320E-03  0.99254E-03 -0.18619E-01
 -0.14391E-02 -0.17324E-02 -0.18619E-01
 -0.31514E-03  0.20228E-02 -0.18619E-01
 -0.11057E-02  0.18611E-02 -0.18619E-01
 -0.18844E-02  0.17175E-02 -0.18619E-01
 -0.18709E-02  0.91012E-03 -0.18619E-01
 -0.15954E-03 -0.19801E-02 -0.18619E-01
 -0.94269E-03 -0.23490E-02 -0.18619E-01
  0.78658E-03 -0.17074E-02 -0.18619E-01
  0.17209E-02 -0.14901E-02 -0.18619E-01
  0.32060E-02  0.76338E-03 -0.18619E-01
  0.28046E-02  0.12490E-02 -0.18619E-01
  0.23056E-02  0.18666E-02 -0.18619E-01
 -0.40572E-03  0.29006E-02 -0.18619E-01
 -0.12092E-02  0.27193E-02 -0.18619E-01
 -0.19446E-02  0.24636E-02 -0.18619E-01
 -0.25028E-02  0.22359E-02 -0.18619E-01
 -0.26368E-02  0.16503E-02 -0.18619E-01
 -0.27662E-02  0.87571E-03 -0.18619E-01
 -0.21128E-02 -0.21374E-02 -0.18619E-01
 -0.16088E-02 -0.26932E-02 -0.18619E-01
 -0.11942E-02 -0.31291E-02 -0.18619E-01
 -0.58746E-03 -0.30382E-02 -0.18619E-01
  0.20790E-03 -0.28748E-02 -0.18619E-01
  0.10577E-02 -0.26431E-02 -0.18619E-01
  0.18414E-02 -0.23713E-02 -0.18619E-01
  0.24548E-02 -0.21461E-02 -0.18619E-01
  0.26024E-02 -0.15102E-02 -0.18619E-01
  0.37964E-02  0.93572E-03 -0.18619E-01
  0.39100E-02  0.00000E+00 -0.18619E-01
  0.34621E-02  0.18171E-02 -0.18619E-01
  0.29267E-02  0.25928E-02 -0.18619E-01
  0.22211E-02  0.32179E-02 -0.18619E-01
  0.13865E-02  0.36559E-02 -0.18619E-01
  0.47130E-03  0.38815E-02 -0.18619E-01
 -0.47130E-03  0.38815E-02 -0.18619E-01
 -0.13865E-02  0.36559E-02 -0.18619E-01
 -0.22211E-02  0.32179E-02 -0.18619E-01
 -0.29267E-02  0.25928E-02 -0.18619E-01
 -0.34621E-02  0.18171E-02 -0.18619E-01
 -0.37964E-02  0.93572E-03 -0.18619E-01
 -0.39100E-02 -0.47884E-18 -0.18619E-01
 -0.37964E-02 -0.93572E-03 -0.18619E-01
 -0.34621E-02 -0.18171E-02 -0.18619E-01
 -0.29267E-02 -0.25928E-02 -0.18619E-01
 -0.22211E-02 -0.32179E-02 -0.18619E-01
 -0.13865E-02 -0.36559E-02 -0.18619E-01
 -0.47130E-03 -0.38815E-02 -0.18619E-01
  0.47130E-03 -0.38815E-02 -0.18619E-01
  0.13865E-02 -0.36559E-02 -0.18619E-01
  0.22211E-02 -0.32179E-02 -0.18619E-01
  0.29267E-02 -0.25928E-02 -0.18619E-01
  0.34621E-02 -0.18171E-02 -0.18619E-01
  0.37964E-02 -0.93572E-03 -0.18619E-01
  0.10373E-02  0.67514E-03 -0.17640E-01
  0.17445E-02  0.12334E-02 -0.17640E-01
  0.23172E-02  0.59360E-03 -0.17640E-01
  0.16689E-02 -0.33474E-03 -0.17640E-01
  0.30376E-02  0.15027E-03 -0.17640E-01
  0.27805E-02 -0.67446E-03 -0.17640E-01
  0.12846E-02  0.18419E-02 -0.17640E-01
  0.65041E-03  0.14616E-02 -0.17640E-01
  0.12652E-03  0.30393E-03 -0.17640E-01
 -0.12896E-03  0.11742E-02 -0.17640E-01
  0.94367E-03  0.22753E-02 -0.17640E-01
  0.11313E-02  0.28269E-02 -0.17640E-01
  0.17475E-02  0.24244E-02 -0.17640E-01
  0.40566E-03  0.21686E-02 -0.17640E-01
  0.39772E-03  0.29356E-02 -0.17640E-01
 -0.76444E-03 -0.10039E-02 -0.17640E-01
 -0.86648E-03  0.82206E-04 -0.17640E-01
  0.45940E-03 -0.70028E-03 -0.17640E-01
 -0.18312E-02 -0.71140E-03 -0.17640E-01
 -0.18436E-02  0.83243E-04 -0.17640E-01
 -0.27237E-02 -0.77797E-03 -0.17640E-01
 -0.28017E-02  0.41806E-04 -0.17640E-01
 -0.25371E-02 -0.15193E-02 -0.17640E-01
 -0.19305E-02 -0.13226E-02 -0.17640E-01
 -0.99305E-03  0.99390E-03 -0.17640E-01
 -0.14394E-02 -0.17323E-02 -0.17640E-01
 -0.31494E-03  0.20231E-02 -0.17640E-01
 -0.11054E-02  0.18610E-02 -0.17640E-01
 -0.18843E-02  0.17175E-02 -0.17640E-01
 -0.18708E-02  0.91036E-03 -0.17640E-01
 -0.15981E-03 -0.19801E-02 -0.17640E-01
 -0.94328E-03 -0.23490E-02 -0.17640E-01
  0.78592E-03 -0.17074E-02 -0.17640E-01
  0.17209E-02 -0.14904E-02 -0.17640E-01
  0.32063E-02  0.76439E-03 -0.17640E-01
  0.28045E-02  0.12494E-02 -0.17640E-01
  0.23055E-02  0.18666E-02 -0.17640E-01
 -0.40558E-03  0.28995E-02 -0.17640E-01
 -0.12092E-02  0.27188E-02 -0.17640E-01
 -0.19446E-02  0.24633E-02 -0.17640E-01
 -0.25027E-02  0.22359E-02 -0.17640E-01
 -0.26367E-02  0.16503E-02 -0.17640E-01
 -0.27658E-02  0.87597E-03 -0.17640E-01
 -0.21129E-02 -0.21374E-02 -0.17640E-01
 -0.16089E-02 -0.26932E-02 -0.17640E-01
 -0.11943E-02 -0.31291E-02 -0.17640E-01
 -0.58781E-03 -0.30382E-02 -0.17640E-01
  0.20749E-03 -0.28748E-02 -0.17640E-01
  0.10574E-02 -0.26434E-02 -0.17640E-01
  0.18415E-02 -0.23715E-02 -0.17640E-01
  0.24549E-02 -0.21467E-02 -0.17640E-01
  0.26025E-02 -0.15101E-02 -0.17640E-01
  0.37964E-02  0.93572E-03 -0.17640E-01
  0.39100E-02  0.00000E+00 -0.17640E-01
  0.34621E-02  0.18171E-02 -0.17640E-01
  0.29267E-02  0.25928E-02 -0.17640E-01
  0.22211E-02  0.32179E-02 -0.17640E-01
  0.13865E-02  0.36559E-02 -0.17640E-01
  0.47130E-03  0.38815E-02 -0.17640E-01
 -0.47130E-03  0.38815E-02 -0.17640E-01
 -0.13865E-02  0.36559E-02 -0.17640E-01
 -0.22211E-02  0.32179E-02 -0.17640E-01
 -0.29267E-02  0.25928E-02 -0.17640E-01
 -0.34621E-02  0.18171E-02 -0.17640E-01
 -0.37964E-02  0.93572E-03 -0.17640E-01
 -0.39100E-02 -0.47884E-18 -0.17640E-01
 -0.37964E-02 -0.93572E-03 -0.17640E-01
 -0.34621E-02 -0.18171E-02 -0.17640E-01
 -0.29267E-02 -0.25928E-02 -0.17640E-01
 -0.22211E-02 -0.32179E-02 -0.17640E-01
 -0.13865E-02 -0.36559E-02 -0.17640E-01
 -0.47130E-03 -0.38815E-02 -0.17640E-01
  0.47130E-03 -0.38815E-02 -0.17640E-01
  0.13865E-02 -0.36559E-02 -0.17640E-01
  0.22211E-02 -0.32179E-02 -0.17640E-01
  0.29267E-02 -0.25928E-02 -0.17640E-01
  0.34621E-02 -0.18171E-02 -0.17640E-01
  0.37964E-02 -0.93572E-03 -0.17640E-01
  0.10372E-02  0.67570E-03 -0.16661E-01
  0.17443E-02  0.12341E-02 -0.16661E-01
  0.23171E-02  0.59412E-03 -0.16661E-01
  0.16687E-02 -0.33398E-03 -0.16661E-01
  0.30376E-02  0.15064E-03 -0.16661E-01
  0.27808E-02 -0.67396E-03 -0.16661E-01
  0.12845E-02  0.18421E-02 -0.16661E-01
  0.65016E-03  0.14626E-02 -0.16661E-01
  0.12626E-03  0.30507E-03 -0.16661E-01
 -0.12915E-03  0.11760E-02 -0.16661E-01
  0.94334E-03  0.22754E-02 -0.16661E-01
  0.11310E-02  0.28264E-02 -0.16661E-01
  0.17471E-02  0.24245E-02 -0.16661E-01
  0.40561E-03  0.21686E-02 -0.16661E-01
  0.39770E-03  0.29353E-02 -0.16661E-01
 -0.76480E-03 -0.10040E-02 -0.16661E-01
 -0.86659E-03  0.83015E-04 -0.16661E-01
  0.45895E-03 -0.69955E-03 -0.16661E-01
 -0.18315E-02 -0.71126E-03 -0.16661E-01
 -0.18435E-02  0.83367E-04 -0.16661E-01
 -0.27237E-02 -0.77780E-03 -0.16661E-01
 -0.28014E-02  0.42080E-04 -0.16661E-01
 -0.25372E-02 -0.15192E-02 -0.16661E-01
 -0.19309E-02 -0.13224E-02 -0.16661E-01
 -0.99291E-03  0.99526E-03 -0.16661E-01
 -0.14398E-02 -0.17323E-02 -0.16661E-01
 -0.31474E-03  0.20234E-02 -0.16661E-01
 -0.11051E-02  0.18609E-02 -0.16661E-01
 -0.18843E-02  0.17175E-02 -0.16661E-01
 -0.18706E-02  0.91060E-03 -0.16661E-01
 -0.16009E-03 -0.19801E-02 -0.16661E-01
 -0.94388E-03 -0.23490E-02 -0.16661E-01
  0.78526E-03 -0.17074E-02 -0.16661E-01
  0.17208E-02 -0.14906E-02 -0.16661E-01
  0.32066E-02  0.76539E-03 -0.16661E-01
  0.28045E-02  0.12498E-02 -0.16661E-01
  0.23053E-02  0.18667E-02 -0.16661E-01
 -0.40545E-03  0.28984E-02 -0.16661E-01
 -0.12092E-02  0.27184E-02 -0.16661E-01
 -0.19446E-02  0.24631E-02 -0.16661E-01
 -0.25027E-02  0.22359E-02 -0.16661E-01
 -0.26366E-02  0.16503E-02 -0.16661E-01
 -0.27655E-02  0.87623E-03 -0.16661E-01
 -0.21130E-02 -0.21374E-02 -0.16661E-01
 -0.16089E-02 -0.26932E-02 -0.16661E-01
 -0.11944E-02 -0.31291E-02 -0.16661E-01
 -0.58816E-03 -0.30382E-02 -0.16661E-01
  0.20709E-03 -0.28748E-02 -0.16661E-01
  0.10571E-02 -0.26436E-02 -0.16661E-01
  0.18415E-02 -0.23717E-02 -0.16661E-01
  0.24550E-02 -0.21472E-02 -0.16661E-01
  0.26025E-02 -0.15100E-02 -0.16661E-01
  0.37964E-02  0.93572E-03 -0.16661E-01
  0.39100E-02  0.00000E+00 -0.16661E-01
  0.34621E-02  0.18171E-02 -0.16661E-01
  0.29267E-02  0.25928E-02 -0.16661E-01
  0.22211E-02  0.32179E-02 -0.16661E-01
  0.13865E-02  0.36559E-02 -0.16661E-01
  0.47130E-03  0.38815E-02 -0.16661E-01
 -0.47130E-03  0.38815E-02 -0.16661E-01
 -0.13865E-02  0.36559E-02 -0.16661E-01
 -0.22211E-02  0.32179E-02 -0.16661E-01
 -0.29267E-02  0.25928E-02 -0.16661E-01
 -0.34621E-02  0.18171E-02 -0.16661E-01
 -0.37964E-02  0.93572E-03 -0.16661E-01
 -0.39100E-02 -0.47884E-18 -0.16661E-01
 -0.37964E-02 -0.93572E-03 -0.16661E-01
 -0.34621E-02 -0.18171E-02 -0.16661E-01
 -0.29267E-02 -0.25928E-02 -0.16661E-01
 -0.22211E-02 -0.32179E-02 -0.16661E-01
 -0.13865E-02 -0.36559E-02 -0.16661E-01
 -0.47130E-03 -0.38815E-02 -0.16661E-01
  0.47130E-03 -0.38815E-02 -0.16661E-01
  0.13865E-02 -0.36559E-02 -0.16661E-01
  0.22211E-02 -0.32179E-02 -0.16661E-01
  0.29267E-02 -0.25928E-02 -0.16661E-01
  0.34621E-02 -0.18171E-02 -0.16661E-01
  0.37964E-02 -0.93572E-03 -0.16661E-01
  0.10371E-02  0.67625E-03 -0.15681E-01
  0.17441E-02  0.12348E-02 -0.15681E-01
  0.23169E-02  0.59465E-03 -0.15681E-01
  0.16685E-02 -0.33323E-03 -0.15681E-01
  0.30376E-02  0.15100E-03 -0.15681E-01
  0.27812E-02 -0.67347E-03 -0.15681E-01
  0.12844E-02  0.18423E-02 -0.15681E-01
  0.64992E-03  0.14636E-02 -0.15681E-01
  0.12600E-03  0.30622E-03 -0.15681E-01
 -0.12933E-03  0.11777E-02 -0.15681E-01
  0.94301E-03  0.22755E-02 -0.15681E-01
  0.11306E-02  0.28260E-02 -0.15681E-01
  0.17467E-02  0.24247E-02 -0.15681E-01
  0.40556E-03  0.21687E-02 -0.15681E-01
  0.39769E-03  0.29351E-02 -0.15681E-01
 -0.76515E-03 -0.10042E-02 -0.15681E-01
 -0.86670E-03  0.83825E-04 -0.15681E-01
  0.45850E-03 -0.69882E-03 -0.15681E-01
 -0.18318E-02 -0.71112E-03 -0.15681E-01
 -0.18434E-02  0.83490E-04 -0.15681E-01
 -0.27236E-02 -0.77763E-03 -0.15681E-01
 -0.28011E-02  0.42353E-04 -0.15681E-01
 -0.25374E-02 -0.15192E-02 -0.15681E-01
 -0.19313E-02 -0.13223E-02 -0.15681E-01
 -0.99277E-03  0.99661E-03 -0.15681E-01
 -0.14401E-02 -0.17322E-02 -0.15681E-01
 -0.31454E-03  0.20237E-02 -0.15681E-01
 -0.11047E-02  0.18607E-02 -0.15681E-01
 -0.18842E-02  0.17175E-02 -0.15681E-01
 -0.18705E-02  0.91084E-03 -0.15681E-01
 -0.16036E-03 -0.19801E-02 -0.15681E-01
 -0.94448E-03 -0.23491E-02 -0.15681E-01
  0.78460E-03 -0.17074E-02 -0.15681E-01
  0.17208E-02 -0.14909E-02 -0.15681E-01
  0.32070E-02  0.76640E-03 -0.15681E-01
  0.28045E-02  0.12503E-02 -0.15681E-01
  0.23052E-02  0.18667E-02 -0.15681E-01
 -0.40531E-03  0.28974E-02 -0.15681E-01
 -0.12092E-02  0.27179E-02 -0.15681E-01
 -0.19445E-02  0.24629E-02 -0.15681E-01
 -0.25027E-02  0.22359E-02 -0.15681E-01
 -0.26366E-02  0.16503E-02 -0.15681E-01
 -0.27652E-02  0.87650E-03 -0.15681E-01
 -0.21132E-02 -0.21374E-02 -0.15681E-01
 -0.16090E-02 -0.26933E-02 -0.15681E-01
 -0.11946E-02 -0.31291E-02 -0.15681E-01
 -0.58851E-03 -0.30382E-02 -0.15681E-01
  0.20668E-03 -0.28749E-02 -0.15681E-01
  0.10567E-02 -0.26439E-02 -0.15681E-01
  0.18416E-02 -0.23719E-02 -0.15681E-01
  0.24551E-02 -0.21478E-02 -0.15681E-01
  0.26026E-02 -0.15099E-02 -0.15681E-01
  0.37964E-02  0.93572E-03 -0.15681E-01
  0.39100E-02  0.00000E+00 -0.15681E-01
  0.34621E-02  0.18171E-02 -0.15681E-01
  0.29267E-02  0.25928E-02 -0.15681E-01
  0.22211E-02  0.32179E-02 -0.15681E-01
  0.13865E-02  0.36559E-02 -0.15681E-01
  0.47130E-03  0.38815E-02 -0.15681E-01
 -0.47130E-03  0.38815E-02 -0.15681E-01
 -0.13865E-02  0.36559E-02 -0.15681E-01
 -0.22211E-02  0.32179E-02 -0.15681E-01
 -0.29267E-02  0.25928E-02 -0.15681E-01
 -0.34621E-02  0.18171E-02 -0.15681E-01
 -0.37964E-02  0.93572E-03 -0.15681E-01
 -0.39100E-02 -0.47884E-18 -0.15681E-01
 -0.37964E-02 -0.93572E-03 -0.15681E-01
 -0.34621E-02 -0.18171E-02 -0.15681E-01
 -0.29267E-02 -0.25928E-02 -0.15681E-01
 -0.22211E-02 -0.32179E-02 -0.15681E-01
 -0.13865E-02 -0.36559E-02 -0.15681E-01
 -0.47130E-03 -0.38815E-02 -0.15681E-01
  0.47130E-03 -0.38815E-02 -0.15681E-01
  0.13865E-02 -0.36559E-02 -0.15681E-01
  0.22211E-02 -0.32179E-02 -0.15681E-01
  0.29267E-02 -0.25928E-02 -0.15681E-01
  0.34621E-02 -0.18171E-02 -0.15681E-01
  0.37964E-02 -0.93572E-03 -0.15681E-01
  0.10370E-02  0.67680E-03 -0.14702E-01
  0.17439E-02  0.12354E-02 -0.14702E-01
  0.23168E-02  0.59517E-03 -0.14702E-01
  0.16683E-02 -0.33247E-03 -0.14702E-01
  0.30375E-02  0.15136E-03 -0.14702E-01
  0.27815E-02 -0.67298E-03 -0.14702E-01
  0.12843E-02  0.18425E-02 -0.14702E-01
  0.64967E-03  0.14646E-02 -0.14702E-01
  0.12573E-03  0.30737E-03 -0.14702E-01
 -0.12952E-03  0.11795E-02 -0.14702E-01
  0.94268E-03  0.22757E-02 -0.14702E-01
  0.11303E-02  0.28255E-02 -0.14702E-01
  0.17463E-02  0.24248E-02 -0.14702E-01
  0.40550E-03  0.21687E-02 -0.14702E-01
  0.39767E-03  0.29348E-02 -0.14702E-01
 -0.76551E-03 -0.10043E-02 -0.14702E-01
 -0.86680E-03  0.84634E-04 -0.14702E-01
  0.45806E-03 -0.69810E-03 -0.14702E-01
 -0.18321E-02 -0.71098E-03 -0.14702E-01
 -0.18433E-02  0.83614E-04 -0.14702E-01
 -0.27236E-02 -0.77746E-03 -0.14702E-01
 -0.28009E-02  0.42626E-04 -0.14702E-01
 -0.25375E-02 -0.15191E-02 -0.14702E-01
 -0.19317E-02 -0.13223E-02 -0.14702E-01
 -0.99262E-03  0.99797E-03 -0.14702E-01
 -0.14405E-02 -0.17322E-02 -0.14702E-01
 -0.31434E-03  0.20240E-02 -0.14702E-01
 -0.11044E-02  0.18606E-02 -0.14702E-01
 -0.18842E-02  0.17175E-02 -0.14702E-01
 -0.18704E-02  0.91108E-03 -0.14702E-01
 -0.16064E-03 -0.19802E-02 -0.14702E-01
 -0.94508E-03 -0.23491E-02 -0.14702E-01
  0.78394E-03 -0.17074E-02 -0.14702E-01
  0.17208E-02 -0.14911E-02 -0.14702E-01
  0.32073E-02  0.76740E-03 -0.14702E-01
  0.28045E-02  0.12507E-02 -0.14702E-01
  0.23051E-02  0.18668E-02 -0.14702E-01
 -0.40517E-03  0.28963E-02 -0.14702E-01
 -0.12092E-02  0.27174E-02 -0.14702E-01
 -0.19445E-02  0.24627E-02 -0.14702E-01
 -0.25026E-02  0.22358E-02 -0.14702E-01
 -0.26365E-02  0.16503E-02 -0.14702E-01
 -0.27649E-02  0.87676E-03 -0.14702E-01
 -0.21133E-02 -0.21374E-02 -0.14702E-01
 -0.16090E-02 -0.26933E-02 -0.14702E-01
 -0.11947E-02 -0.31291E-02 -0.14702E-01
 -0.58886E-03 -0.30382E-02 -0.14702E-01
  0.20627E-03 -0.28749E-02 -0.14702E-01
  0.10564E-02 -0.26442E-02 -0.14702E-01
  0.18416E-02 -0.23721E-02 -0.14702E-01
  0.24553E-02 -0.21483E-02 -0.14702E-01
  0.26027E-02 -0.15097E-02 -0.14702E-01
  0.37964E-02  0.93572E-03 -0.14702E-01
  0.39100E-02  0.00000E+00 -0.14702E-01
  0.34621E-02  0.18171E-02 -0.14702E-01
  0.29267E-02  0.25928E-02 -0.14702E-01
  0.22211E-02  0.32179E-02 -0.14702E-01
  0.13865E-02  0.36559E-02 -0.14702E-01
  0.47130E-03  0.38815E-02 -0.14702E-01
 -0.47130E-03  0.38815E-02 -0.14702E-01
 -0.13865E-02  0.36559E-02 -0.14702E-01
 -0.22211E-02  0.32179E-02 -0.14702E-01
 -0.29267E-02  0.25928E-02 -0.14702E-01
 -0.34621E-02  0.18171E-02 -0.14702E-01
 -0.37964E-02  0.93572E-03 -0.14702E-01
 -0.39100E-02 -0.47884E-18 -0.14702E-01
 -0.37964E-02 -0.93572E-03 -0.14702E-01
 -0.34621E-02 -0.18171E-02 -0.14702E-01
 -0.29267E-02 -0.25928E-02 -0.14702E-01
 -0.22211E-02 -0.32179E-02 -0.14702E-01
 -0.13865E-02 -0.36559E-02 -0.14702E-01
 -0.47130E-03 -0.38815E-02 -0.14702E-01
  0.47130E-03 -0.38815E-02 -0.14702E-01
  0.13865E-02 -0.36559E-02 -0.14702E-01
  0.22211E-02 -0.32179E-02 -0.14702E-01
  0.29267E-02 -0.25928E-02 -0.14702E-01
  0.34621E-02 -0.18171E-02 -0.14702E-01
  0.37964E-02 -0.93572E-03 -0.14702E-01
  0.10368E-02  0.67736E-03 -0.13723E-01
  0.17438E-02  0.12361E-02 -0.13723E-01
  0.23167E-02  0.59570E-03 -0.13723E-01
  0.16681E-02 -0.33172E-03 -0.13723E-01
  0.30375E-02  0.15173E-03 -0.13723E-01
  0.27819E-02 -0.67248E-03 -0.13723E-01
  0.12842E-02  0.18427E-02 -0.13723E-01
  0.64943E-03  0.14656E-02 -0.13723E-01
  0.12547E-03  0.30852E-03 -0.13723E-01
 -0.12970E-03  0.11812E-02 -0.13723E-01
  0.94235E-03  0.22758E-02 -0.13723E-01
  0.11300E-02  0.28251E-02 -0.13723E-01
  0.17459E-02  0.24249E-02 -0.13723E-01
  0.40545E-03  0.21688E-02 -0.13723E-01
  0.39766E-03  0.29345E-02 -0.13723E-01
 -0.76586E-03 -0.10044E-02 -0.13723E-01
 -0.86691E-03  0.85443E-04 -0.13723E-01
  0.45761E-03 -0.69737E-03 -0.13723E-01
 -0.18324E-02 -0.71084E-03 -0.13723E-01
 -0.18432E-02  0.83737E-04 -0.13723E-01
 -0.27236E-02 -0.77729E-03 -0.13723E-01
 -0.28006E-02  0.42899E-04 -0.13723E-01
 -0.25377E-02 -0.15191E-02 -0.13723E-01
 -0.19322E-02 -0.13222E-02 -0.13723E-01
 -0.99248E-03  0.99932E-03 -0.13723E-01
 -0.14408E-02 -0.17322E-02 -0.13723E-01
 -0.31414E-03  0.20243E-02 -0.13723E-01
 -0.11040E-02  0.18605E-02 -0.13723E-01
 -0.18841E-02  0.17175E-02 -0.13723E-01
 -0.18703E-02  0.91132E-03 -0.13723E-01
 -0.16091E-03 -0.19802E-02 -0.13723E-01
 -0.94568E-03 -0.23491E-02 -0.13723E-01
  0.78328E-03 -0.17074E-02 -0.13723E-01
  0.17207E-02 -0.14914E-02 -0.13723E-01
  0.32076E-02  0.76841E-03 -0.13723E-01
  0.28044E-02  0.12511E-02 -0.13723E-01
  0.23050E-02  0.18668E-02 -0.13723E-01
 -0.40503E-03  0.28952E-02 -0.13723E-01
 -0.12092E-02  0.27170E-02 -0.13723E-01
 -0.19445E-02  0.24624E-02 -0.13723E-01
 -0.25026E-02  0.22358E-02 -0.13723E-01
 -0.26364E-02  0.16503E-02 -0.13723E-01
 -0.27646E-02  0.87702E-03 -0.13723E-01
 -0.21134E-02 -0.21374E-02 -0.13723E-01
 -0.16091E-02 -0.26933E-02 -0.13723E-01
 -0.11948E-02 -0.31291E-02 -0.13723E-01
 -0.58921E-03 -0.30382E-02 -0.13723E-01
  0.20587E-03 -0.28749E-02 -0.13723E-01
  0.10561E-02 -0.26444E-02 -0.13723E-01
  0.18416E-02 -0.23723E-02 -0.13723E-01
  0.24554E-02 -0.21489E-02 -0.13723E-01
  0.26027E-02 -0.15096E-02 -0.13723E-01
  0.37964E-02  0.93572E-03 -0.13723E-01
  0.39100E-02  0.00000E+00 -0.13723E-01
  0.34621E-02  0.18171E-02 -0.13723E-01
  0.29267E-02  0.25928E-02 -0.13723E-01
  0.22211E-02  0.32179E-02 -0.13723E-01
  0.13865E-02  0.36559E-02 -0.13723E-01
  0.47130E-03  0.38815E-02 -0.13723E-01
 -0.47130E-03  0.38815E-02 -0.13723E-01
 -0.13865E-02  0.36559E-02 -0.13723E-01
 -0.22211E-02  0.32179E-02 -0.13723E-01
 -0.29267E-02  0.25928E-02 -0.13723E-01
 -0.34621E-02  0.18171E-02 -0.13723E-01
 -0.37964E-02  0.93572E-03 -0.13723E-01
 -0.39100E-02 -0.47884E-18 -0.13723E-01
 -0.37964E-02 -0.93572E-03 -0.13723E-01
 -0.34621E-02 -0.18171E-02 -0.13723E-01
 -0.29267E-02 -0.25928E-02 -0.13723E-01
 -0.22211E-02 -0.32179E-02 -0.13723E-01
 -0.13865E-02 -0.36559E-02 -0.13723E-01
 -0.47130E-03 -0.38815E-02 -0.13723E-01
  0.47130E-03 -0.38815E-02 -0.13723E-01
  0.13865E-02 -0.36559E-02 -0.13723E-01
  0.22211E-02 -0.32179E-02 -0.13723E-01
  0.29267E-02 -0.25928E-02 -0.13723E-01
  0.34621E-02 -0.18171E-02 -0.13723E-01
  0.37964E-02 -0.93572E-03 -0.13723E-01
  0.10367E-02  0.67791E-03 -0.12744E-01
  0.17436E-02  0.12368E-02 -0.12744E-01
  0.23166E-02  0.59622E-03 -0.12744E-01
  0.16679E-02 -0.33096E-03 -0.12744E-01
  0.30375E-02  0.15209E-03 -0.12744E-01
  0.27822E-02 -0.67199E-03 -0.12744E-01
  0.12841E-02  0.18429E-02 -0.12744E-01
  0.64918E-03  0.14666E-02 -0.12744E-01
  0.12521E-03  0.30967E-03 -0.12744E-01
 -0.12989E-03  0.11830E-02 -0.12744E-01
  0.94202E-03  0.22759E-02 -0.12744E-01
  0.11296E-02  0.28247E-02 -0.12744E-01
  0.17455E-02  0.24251E-02 -0.12744E-01
  0.40539E-03  0.21688E-02 -0.12744E-01
  0.39764E-03  0.29343E-02 -0.12744E-01
 -0.76621E-03 -0.10046E-02 -0.12744E-01
 -0.86702E-03  0.86253E-04 -0.12744E-01
  0.45716E-03 -0.69665E-03 -0.12744E-01
 -0.18326E-02 -0.71070E-03 -0.12744E-01
 -0.18431E-02  0.83861E-04 -0.12744E-01
 -0.27235E-02 -0.77712E-03 -0.12744E-01
 -0.28003E-02  0.43173E-04 -0.12744E-01
 -0.25379E-02 -0.15190E-02 -0.12744E-01
 -0.19326E-02 -0.13220E-02 -0.12744E-01
 -0.99233E-03  0.10007E-02 -0.12744E-01
 -0.14412E-02 -0.17321E-02 -0.12744E-01
 -0.31394E-03  0.20245E-02 -0.12744E-01
 -0.11037E-02  0.18603E-02 -0.12744E-01
 -0.18841E-02  0.17175E-02 -0.12744E-01
 -0.18701E-02  0.91156E-03 -0.12744E-01
 -0.16119E-03 -0.19802E-02 -0.12744E-01
 -0.94628E-03 -0.23491E-02 -0.12744E-01
  0.78262E-03 -0.17074E-02 -0.12744E-01
  0.17207E-02 -0.14916E-02 -0.12744E-01
  0.32079E-02  0.76941E-03 -0.12744E-01
  0.28044E-02  0.12515E-02 -0.12744E-01
  0.23049E-02  0.18668E-02 -0.12744E-01
 -0.40490E-03  0.28942E-02 -0.12744E-01
 -0.12093E-02  0.27165E-02 -0.12744E-01
 -0.19444E-02  0.24622E-02 -0.12744E-01
 -0.25026E-02  0.22358E-02 -0.12744E-01
 -0.26363E-02  0.16503E-02 -0.12744E-01
 -0.27643E-02  0.87728E-03 -0.12744E-01
 -0.21136E-02 -0.21374E-02 -0.12744E-01
 -0.16091E-02 -0.26933E-02 -0.12744E-01
 -0.11949E-02 -0.31291E-02 -0.12744E-01
 -0.58956E-03 -0.30382E-02 -0.12744E-01
  0.20546E-03 -0.28749E-02 -0.12744E-01
  0.10558E-02 -0.26447E-02 -0.12744E-01
  0.18417E-02 -0.23725E-02 -0.12744E-01
  0.24555E-02 -0.21494E-02 -0.12744E-01
  0.26028E-02 -0.15095E-02 -0.12744E-01
  0.37964E-02  0.93572E-03 -0.12744E-01
  0.39100E-02  0.00000E+00 -0.12744E-01
  0.34621E-02  0.18171E-02 -0.12744E-01
  0.29267E-02  0.25928E-02 -0.12744E-01
  0.22211E-02  0.32179E-02 -0.12744E-01
  0.13865E-02  0.36559E-02 -0.12744E-01
  0.47130E-03  0.38815E-02 -0.12744E-01
 -0.47130E-03  0.38815E-02 -0.12744E-01
 -0.13865E-02  0.36559E-02 -0.12744E-01
 -0.22211E-02  0.32179E-02 -0.12744E-01
 -0.29267E-02  0.25928E-02 -0.12744E-01
 -0.34621E-02  0.18171E-02 -0.12744E-01
 -0.37964E-02  0.93572E-03 -0.12744E-01
 -0.39100E-02 -0.47884E-18 -0.12744E-01
 -0.37964E-02 -0.93572E-03 -0.12744E-01
 -0.34621E-02 -0.18171E-02 -0.12744E-01
 -0.29267E-02 -0.25928E-02 -0.12744E-01
 -0.22211E-02 -0.32179E-02 -0.12744E-01
 -0.13865E-02 -0.36559E-02 -0.12744E-01
 -0.47130E-03 -0.38815E-02 -0.12744E-01
  0.47130E-03 -0.38815E-02 -0.12744E-01
  0.13865E-02 -0.36559E-02 -0.12744E-01
  0.22211E-02 -0.32179E-02 -0.12744E-01
  0.29267E-02 -0.25928E-02 -0.12744E-01
  0.34621E-02 -0.18171E-02 -0.12744E-01
  0.37964E-02 -0.93572E-03 -0.12744E-01
  0.10366E-02  0.67847E-03 -0.11765E-01
  0.17434E-02  0.12374E-02 -0.11765E-01
  0.23164E-02  0.59674E-03 -0.11765E-01
  0.16677E-02 -0.33021E-03 -0.11765E-01
  0.30375E-02  0.15245E-03 -0.11765E-01
  0.27825E-02 -0.67150E-03 -0.11765E-01
  0.12840E-02  0.18430E-02 -0.11765E-01
  0.64894E-03  0.14676E-02 -0.11765E-01
  0.12495E-03  0.31081E-03 -0.11765E-01
 -0.13007E-03  0.11847E-02 -0.11765E-01
  0.94169E-03  0.22761E-02 -0.11765E-01
  0.11293E-02  0.28242E-02 -0.11765E-01
  0.17451E-02  0.24252E-02 -0.11765E-01
  0.40534E-03  0.21688E-02 -0.11765E-01
  0.39762E-03  0.29340E-02 -0.11765E-01
 -0.76657E-03 -0.10047E-02 -0.11765E-01
 -0.86713E-03  0.87062E-04 -0.11765E-01
  0.45671E-03 -0.69592E-03 -0.11765E-01
 -0.18329E-02 -0.71056E-03 -0.11765E-01
 -0.18430E-02  0.83985E-04 -0.11765E-01
 -0.27235E-02 -0.77695E-03 -0.11765E-01
 -0.28001E-02  0.43446E-04 -0.11765E-01
 -0.25380E-02 -0.15190E-02 -0.11765E-01
 -0.19330E-02 -0.13219E-02 -0.11765E-01
 -0.99219E-03  0.10020E-02 -0.11765E-01
 -0.14415E-02 -0.17321E-02 -0.11765E-01
 -0.31374E-03  0.20248E-02 -0.11765E-01
 -0.11033E-02  0.18602E-02 -0.11765E-01
 -0.18840E-02  0.17175E-02 -0.11765E-01
 -0.18700E-02  0.91180E-03 -0.11765E-01
 -0.16146E-03 -0.19803E-02 -0.11765E-01
 -0.94687E-03 -0.23491E-02 -0.11765E-01
  0.78195E-03 -0.17073E-02 -0.11765E-01
  0.17207E-02 -0.14919E-02 -0.11765E-01
  0.32083E-02  0.77042E-03 -0.11765E-01
  0.28044E-02  0.12520E-02 -0.11765E-01
  0.23048E-02  0.18669E-02 -0.11765E-01
 -0.40476E-03  0.28931E-02 -0.11765E-01
 -0.12093E-02  0.27160E-02 -0.11765E-01
 -0.19444E-02  0.24620E-02 -0.11765E-01
 -0.25026E-02  0.22358E-02 -0.11765E-01
 -0.26362E-02  0.16503E-02 -0.11765E-01
 -0.27640E-02  0.87754E-03 -0.11765E-01
 -0.21137E-02 -0.21374E-02 -0.11765E-01
 -0.16091E-02 -0.26933E-02 -0.11765E-01
 -0.11950E-02 -0.31291E-02 -0.11765E-01
 -0.58991E-03 -0.30382E-02 -0.11765E-01
  0.20505E-03 -0.28749E-02 -0.11765E-01
  0.10555E-02 -0.26450E-02 -0.11765E-01
  0.18417E-02 -0.23727E-02 -0.11765E-01
  0.24556E-02 -0.21500E-02 -0.11765E-01
  0.26029E-02 -0.15094E-02 -0.11765E-01
  0.37964E-02  0.93572E-03 -0.11765E-01
  0.39100E-02  0.00000E+00 -0.11765E-01
  0.34621E-02  0.18171E-02 -0.11765E-01
  0.29267E-02  0.25928E-02 -0.11765E-01
  0.22211E-02  0.32179E-02 -0.11765E-01
  0.13865E-02  0.36559E-02 -0.11765E-01
  0.47130E-03  0.38815E-02 -0.11765E-01
 -0.47130E-03  0.38815E-02 -0.11765E-01
 -0.13865E-02  0.36559E-02 -0.11765E-01
 -0.22211E-02  0.32179E-02 -0.11765E-01
 -0.29267E-02  0.25928E-02 -0.11765E-01
 -0.34621E-02  0.18171E-02 -0.11765E-01
 -0.37964E-02  0.93572E-03 -0.11765E-01
 -0.39100E-02  0.39516E-17 -0.11765E-01
 -0.37964E-02 -0.93572E-03 -0.11765E-01
 -0.34621E-02 -0.18171E-02 -0.11765E-01
 -0.29267E-02 -0.25928E-02 -0.11765E-01
 -0.22211E-02 -0.32179E-02 -0.11765E-01
 -0.13865E-02 -0.36559E-02 -0.11765E-01
 -0.47130E-03 -0.38815E-02 -0.11765E-01
  0.47130E-03 -0.38815E-02 -0.11765E-01
  0.13865E-02 -0.36559E-02 -0.11765E-01
  0.22211E-02 -0.32179E-02 -0.11765E-01
  0.29267E-02 -0.25928E-02 -0.11765E-01
  0.34621E-02 -0.18171E-02 -0.11765E-01
  0.37964E-02 -0.93572E-03 -0.11765E-01
  0.10365E-02  0.67902E-03 -0.10786E-01
  0.17432E-02  0.12381E-02 -0.10786E-01
  0.23163E-02  0.59727E-03 -0.10786E-01
  0.16675E-02 -0.32945E-03 -0.10786E-01
  0.30374E-02  0.15282E-03 -0.10786E-01
  0.27829E-02 -0.67100E-03 -0.10786E-01
  0.12839E-02  0.18432E-02 -0.10786E-01
  0.64869E-03  0.14686E-02 -0.10786E-01
  0.12468E-03  0.31196E-03 -0.10786E-01
 -0.13026E-03  0.11865E-02 -0.10786E-01
  0.94135E-03  0.22762E-02 -0.10786E-01
  0.11289E-02  0.28238E-02 -0.10786E-01
  0.17447E-02  0.24254E-02 -0.10786E-01
  0.40528E-03  0.21688E-02 -0.10786E-01
  0.39760E-03  0.29337E-02 -0.10786E-01
 -0.76692E-03 -0.10049E-02 -0.10786E-01
 -0.86724E-03  0.87871E-04 -0.10786E-01
  0.45626E-03 -0.69519E-03 -0.10786E-01
 -0.18332E-02 -0.71042E-03 -0.10786E-01
 -0.18430E-02  0.84108E-04 -0.10786E-01
 -0.27235E-02 -0.77678E-03 -0.10786E-01
 -0.27998E-02  0.43720E-04 -0.10786E-01
 -0.25382E-02 -0.15189E-02 -0.10786E-01
 -0.19334E-02 -0.13219E-02 -0.10786E-01
 -0.99205E-03  0.10034E-02 -0.10786E-01
 -0.14419E-02 -0.17320E-02 -0.10786E-01
 -0.31354E-03  0.20251E-02 -0.10786E-01
 -0.11030E-02  0.18601E-02 -0.10786E-01
 -0.18840E-02  0.17175E-02 -0.10786E-01
 -0.18699E-02  0.91204E-03 -0.10786E-01
 -0.16174E-03 -0.19803E-02 -0.10786E-01
 -0.94747E-03 -0.23492E-02 -0.10786E-01
  0.78129E-03 -0.17073E-02 -0.10786E-01
  0.17206E-02 -0.14921E-02 -0.10786E-01
  0.32086E-02  0.77142E-03 -0.10786E-01
  0.28044E-02  0.12524E-02 -0.10786E-01
  0.23047E-02  0.18669E-02 -0.10786E-01
 -0.40462E-03  0.28920E-02 -0.10786E-01
 -0.12093E-02  0.27155E-02 -0.10786E-01
 -0.19444E-02  0.24618E-02 -0.10786E-01
 -0.25025E-02  0.22358E-02 -0.10786E-01
 -0.26361E-02  0.16503E-02 -0.10786E-01
 -0.27637E-02  0.87781E-03 -0.10786E-01
 -0.21139E-02 -0.21374E-02 -0.10786E-01
 -0.16092E-02 -0.26934E-02 -0.10786E-01
 -0.11951E-02 -0.31291E-02 -0.10786E-01
 -0.59025E-03 -0.30382E-02 -0.10786E-01
  0.20465E-03 -0.28749E-02 -0.10786E-01
  0.10552E-02 -0.26452E-02 -0.10786E-01
  0.18418E-02 -0.23729E-02 -0.10786E-01
  0.24558E-02 -0.21505E-02 -0.10786E-01
  0.26030E-02 -0.15093E-02 -0.10786E-01
  0.37964E-02  0.93572E-03 -0.10786E-01
  0.39100E-02  0.00000E+00 -0.10786E-01
  0.34621E-02  0.18171E-02 -0.10786E-01
  0.29267E-02  0.25928E-02 -0.10786E-01
  0.22211E-02  0.32179E-02 -0.10786E-01
  0.13865E-02  0.36559E-02 -0.10786E-01
  0.47130E-03  0.38815E-02 -0.10786E-01
 -0.47130E-03  0.38815E-02 -0.10786E-01
 -0.13865E-02  0.36559E-02 -0.10786E-01
 -0.22211E-02  0.32179E-02 -0.10786E-01
 -0.29267E-02  0.25928E-02 -0.10786E-01
 -0.34621E-02  0.18171E-02 -0.10786E-01
 -0.37964E-02  0.93572E-03 -0.10786E-01
 -0.39100E-02 -0.47884E-18 -0.10786E-01
 -0.37964E-02 -0.93572E-03 -0.10786E-01
 -0.34621E-02 -0.18171E-02 -0.10786E-01
 -0.29267E-02 -0.25928E-02 -0.10786E-01
 -0.22211E-02 -0.32179E-02 -0.10786E-01
 -0.13865E-02 -0.36559E-02 -0.10786E-01
 -0.47130E-03 -0.38815E-02 -0.10786E-01
  0.47130E-03 -0.38815E-02 -0.10786E-01
  0.13865E-02 -0.36559E-02 -0.10786E-01
  0.22211E-02 -0.32179E-02 -0.10786E-01
  0.29267E-02 -0.25928E-02 -0.10786E-01
  0.34621E-02 -0.18171E-02 -0.10786E-01
  0.37964E-02 -0.93572E-03 -0.10786E-01
  0.10364E-02  0.67958E-03 -0.98065E-02
  0.17430E-02  0.12387E-02 -0.98065E-02
  0.23162E-02  0.59779E-03 -0.98065E-02
  0.16672E-02 -0.32870E-03 -0.98065E-02
  0.30374E-02  0.15318E-03 -0.98065E-02
  0.27832E-02 -0.67051E-03 -0.98065E-02
  0.12838E-02  0.18434E-02 -0.98065E-02
  0.64845E-03  0.14696E-02 -0.98065E-02
  0.12442E-03  0.31311E-03 -0.98065E-02
 -0.13044E-03  0.11882E-02 -0.98065E-02
  0.94102E-03  0.22763E-02 -0.98065E-02
  0.11286E-02  0.28233E-02 -0.98065E-02
  0.17443E-02  0.24255E-02 -0.98065E-02
  0.40523E-03  0.21689E-02 -0.98065E-02
  0.39759E-03  0.29335E-02 -0.98065E-02
 -0.76727E-03 -0.10050E-02 -0.98065E-02
 -0.86735E-03  0.88681E-04 -0.98065E-02
  0.45582E-03 -0.69447E-03 -0.98065E-02
 -0.18335E-02 -0.71028E-03 -0.98065E-02
 -0.18429E-02  0.84232E-04 -0.98065E-02
 -0.27235E-02 -0.77661E-03 -0.98065E-02
 -0.27995E-02  0.43993E-04 -0.98065E-02
 -0.25383E-02 -0.15189E-02 -0.98065E-02
 -0.19339E-02 -0.13218E-02 -0.98065E-02
 -0.99190E-03  0.10048E-02 -0.98065E-02
 -0.14422E-02 -0.17320E-02 -0.98065E-02
 -0.31334E-03  0.20254E-02 -0.98065E-02
 -0.11026E-02  0.18599E-02 -0.98065E-02
 -0.18839E-02  0.17175E-02 -0.98065E-02
 -0.18697E-02  0.91228E-03 -0.98065E-02
 -0.16201E-03 -0.19803E-02 -0.98065E-02
 -0.94807E-03 -0.23492E-02 -0.98065E-02
  0.78063E-03 -0.17073E-02 -0.98065E-02
  0.17206E-02 -0.14923E-02 -0.98065E-02
  0.32089E-02  0.77243E-03 -0.98065E-02
  0.28043E-02  0.12528E-02 -0.98065E-02
  0.23046E-02  0.18670E-02 -0.98065E-02
 -0.40448E-03  0.28910E-02 -0.98065E-02
 -0.12093E-02  0.27151E-02 -0.98065E-02
 -0.19443E-02  0.24615E-02 -0.98065E-02
 -0.25025E-02  0.22358E-02 -0.98065E-02
 -0.26360E-02  0.16503E-02 -0.98065E-02
 -0.27633E-02  0.87807E-03 -0.98065E-02
 -0.21140E-02 -0.21374E-02 -0.98065E-02
 -0.16092E-02 -0.26934E-02 -0.98065E-02
 -0.11953E-02 -0.31291E-02 -0.98065E-02
 -0.59060E-03 -0.30382E-02 -0.98065E-02
  0.20424E-03 -0.28749E-02 -0.98065E-02
  0.10549E-02 -0.26455E-02 -0.98065E-02
  0.18418E-02 -0.23732E-02 -0.98065E-02
  0.24559E-02 -0.21511E-02 -0.98065E-02
  0.26030E-02 -0.15092E-02 -0.98065E-02
  0.37964E-02  0.93572E-03 -0.98065E-02
  0.39100E-02  0.00000E+00 -0.98065E-02
  0.34621E-02  0.18171E-02 -0.98065E-02
  0.29267E-02  0.25928E-02 -0.98065E-02
  0.22211E-02  0.32179E-02 -0.98065E-02
  0.13865E-02  0.36559E-02 -0.98065E-02
  0.47130E-03  0.38815E-02 -0.98065E-02
 -0.47130E-03  0.38815E-02 -0.98065E-02
 -0.13865E-02  0.36559E-02 -0.98065E-02
 -0.22211E-02  0.32179E-02 -0.98065E-02
 -0.29267E-02  0.25928E-02 -0.98065E-02
 -0.34621E-02  0.18171E-02 -0.98065E-02
 -0.37964E-02  0.93572E-03 -0.98065E-02
 -0.39100E-02  0.22152E-17 -0.98065E-02
 -0.37964E-02 -0.93572E-03 -0.98065E-02
 -0.34621E-02 -0.18171E-02 -0.98065E-02
 -0.29267E-02 -0.25928E-02 -0.98065E-02
 -0.22211E-02 -0.32179E-02 -0.98065E-02
 -0.13865E-02 -0.36559E-02 -0.98065E-02
 -0.47130E-03 -0.38815E-02 -0.98065E-02
  0.47130E-03 -0.38815E-02 -0.98065E-02
  0.13865E-02 -0.36559E-02 -0.98065E-02
  0.22211E-02 -0.32179E-02 -0.98065E-02
  0.29267E-02 -0.25928E-02 -0.98065E-02
  0.34621E-02 -0.18171E-02 -0.98065E-02
  0.37964E-02 -0.93572E-03 -0.98065E-02
  0.10363E-02  0.68013E-03 -0.88273E-02
  0.17429E-02  0.12394E-02 -0.88273E-02
  0.23161E-02  0.59831E-03 -0.88273E-02
  0.16670E-02 -0.32794E-03 -0.88273E-02
  0.30374E-02  0.15354E-03 -0.88273E-02
  0.27836E-02 -0.67002E-03 -0.88273E-02
  0.12837E-02  0.18436E-02 -0.88273E-02
  0.64820E-03  0.14706E-02 -0.88273E-02
  0.12416E-03  0.31426E-03 -0.88273E-02
 -0.13063E-03  0.11900E-02 -0.88273E-02
  0.94069E-03  0.22765E-02 -0.88273E-02
  0.11282E-02  0.28229E-02 -0.88273E-02
  0.17439E-02  0.24257E-02 -0.88273E-02
  0.40518E-03  0.21689E-02 -0.88273E-02
  0.39757E-03  0.29332E-02 -0.88273E-02
 -0.76763E-03 -0.10051E-02 -0.88273E-02
 -0.86746E-03  0.89490E-04 -0.88273E-02
  0.45537E-03 -0.69374E-03 -0.88273E-02
 -0.18338E-02 -0.71013E-03 -0.88273E-02
 -0.18428E-02  0.84355E-04 -0.88273E-02
 -0.27234E-02 -0.77644E-03 -0.88273E-02
 -0.27992E-02  0.44266E-04 -0.88273E-02
 -0.25385E-02 -0.15188E-02 -0.88273E-02
 -0.19343E-02 -0.13216E-02 -0.88273E-02
 -0.99176E-03  0.10061E-02 -0.88273E-02
 -0.14425E-02 -0.17320E-02 -0.88273E-02
 -0.31314E-03  0.20257E-02 -0.88273E-02
 -0.11023E-02  0.18598E-02 -0.88273E-02
 -0.18839E-02  0.17175E-02 -0.88273E-02
 -0.18696E-02  0.91252E-03 -0.88273E-02
 -0.16229E-03 -0.19803E-02 -0.88273E-02
 -0.94867E-03 -0.23492E-02 -0.88273E-02
  0.77997E-03 -0.17073E-02 -0.88273E-02
  0.17205E-02 -0.14926E-02 -0.88273E-02
  0.32092E-02  0.77343E-03 -0.88273E-02
  0.28043E-02  0.12533E-02 -0.88273E-02
  0.23044E-02  0.18670E-02 -0.88273E-02
 -0.40434E-03  0.28899E-02 -0.88273E-02
 -0.12093E-02  0.27146E-02 -0.88273E-02
 -0.19443E-02  0.24613E-02 -0.88273E-02
 -0.25025E-02  0.22358E-02 -0.88273E-02
 -0.26359E-02  0.16503E-02 -0.88273E-02
 -0.27630E-02  0.87833E-03 -0.88273E-02
 -0.21141E-02 -0.21374E-02 -0.88273E-02
 -0.16093E-02 -0.26934E-02 -0.88273E-02
 -0.11954E-02 -0.31291E-02 -0.88273E-02
 -0.59095E-03 -0.30382E-02 -0.88273E-02
  0.20384E-03 -0.28750E-02 -0.88273E-02
  0.10546E-02 -0.26458E-02 -0.88273E-02
  0.18419E-02 -0.23734E-02 -0.88273E-02
  0.24560E-02 -0.21516E-02 -0.88273E-02
  0.26031E-02 -0.15091E-02 -0.88273E-02
  0.37964E-02  0.93572E-03 -0.88273E-02
  0.39100E-02  0.00000E+00 -0.88273E-02
  0.34621E-02  0.18171E-02 -0.88273E-02
  0.29267E-02  0.25928E-02 -0.88273E-02
  0.22211E-02  0.32179E-02 -0.88273E-02
  0.13865E-02  0.36559E-02 -0.88273E-02
  0.47130E-03  0.38815E-02 -0.88273E-02
 -0.47130E-03  0.38815E-02 -0.88273E-02
 -0.13865E-02  0.36559E-02 -0.88273E-02
 -0.22211E-02  0.32179E-02 -0.88273E-02
 -0.29267E-02  0.25928E-02 -0.88273E-02
 -0.34621E-02  0.18171E-02 -0.88273E-02
 -0.37964E-02  0.93572E-03 -0.88273E-02
 -0.39100E-02 -0.47884E-18 -0.88273E-02
 -0.37964E-02 -0.93572E-03 -0.88273E-02
 -0.34621E-02 -0.18171E-02 -0.88273E-02
 -0.29267E-02 -0.25928E-02 -0.88273E-02
 -0.22211E-02 -0.32179E-02 -0.88273E-02
 -0.13865E-02 -0.36559E-02 -0.88273E-02
 -0.47130E-03 -0.38815E-02 -0.88273E-02
  0.47130E-03 -0.38815E-02 -0.88273E-02
  0.13865E-02 -0.36559E-02 -0.88273E-02
  0.22211E-02 -0.32179E-02 -0.88273E-02
  0.29267E-02 -0.25928E-02 -0.88273E-02
  0.34621E-02 -0.18171E-02 -0.88273E-02
  0.37964E-02 -0.93572E-03 -0.88273E-02
  0.10362E-02  0.68068E-03 -0.78481E-02
  0.17427E-02  0.12401E-02 -0.78481E-02
  0.23160E-02  0.59884E-03 -0.78481E-02
  0.16668E-02 -0.32719E-03 -0.78481E-02
  0.30373E-02  0.15391E-03 -0.78481E-02
  0.27839E-02 -0.66953E-03 -0.78481E-02
  0.12836E-02  0.18438E-02 -0.78481E-02
  0.64796E-03  0.14716E-02 -0.78481E-02
  0.12390E-03  0.31541E-03 -0.78481E-02
 -0.13082E-03  0.11917E-02 -0.78481E-02
  0.94036E-03  0.22766E-02 -0.78481E-02
  0.11279E-02  0.28225E-02 -0.78481E-02
  0.17435E-02  0.24258E-02 -0.78481E-02
  0.40512E-03  0.21690E-02 -0.78481E-02
  0.39755E-03  0.29330E-02 -0.78481E-02
 -0.76798E-03 -0.10053E-02 -0.78481E-02
 -0.86756E-03  0.90299E-04 -0.78481E-02
  0.45492E-03 -0.69302E-03 -0.78481E-02
 -0.18341E-02 -0.70999E-03 -0.78481E-02
 -0.18427E-02  0.84479E-04 -0.78481E-02
 -0.27234E-02 -0.77627E-03 -0.78481E-02
 -0.27990E-02  0.44540E-04 -0.78481E-02
 -0.25386E-02 -0.15188E-02 -0.78481E-02
 -0.19347E-02 -0.13215E-02 -0.78481E-02
 -0.99161E-03  0.10075E-02 -0.78481E-02
 -0.14429E-02 -0.17319E-02 -0.78481E-02
 -0.31294E-03  0.20260E-02 -0.78481E-02
 -0.11019E-02  0.18597E-02 -0.78481E-02
 -0.18838E-02  0.17175E-02 -0.78481E-02
 -0.18695E-02  0.91276E-03 -0.78481E-02
 -0.16256E-03 -0.19804E-02 -0.78481E-02
 -0.94927E-03 -0.23493E-02 -0.78481E-02
  0.77931E-03 -0.17073E-02 -0.78481E-02
  0.17205E-02 -0.14928E-02 -0.78481E-02
  0.32096E-02  0.77444E-03 -0.78481E-02
  0.28043E-02  0.12537E-02 -0.78481E-02
  0.23043E-02  0.18670E-02 -0.78481E-02
 -0.40420E-03  0.28888E-02 -0.78481E-02
 -0.12093E-02  0.27141E-02 -0.78481E-02
 -0.19443E-02  0.24611E-02 -0.78481E-02
 -0.25024E-02  0.22358E-02 -0.78481E-02
 -0.26358E-02  0.16503E-02 -0.78481E-02
 -0.27627E-02  0.87859E-03 -0.78481E-02
 -0.21143E-02 -0.21374E-02 -0.78481E-02
 -0.16093E-02 -0.26934E-02 -0.78481E-02
 -0.11955E-02 -0.31291E-02 -0.78481E-02
 -0.59130E-03 -0.30382E-02 -0.78481E-02
  0.20343E-03 -0.28750E-02 -0.78481E-02
  0.10543E-02 -0.26460E-02 -0.78481E-02
  0.18419E-02 -0.23736E-02 -0.78481E-02
  0.24561E-02 -0.21521E-02 -0.78481E-02
  0.26032E-02 -0.15090E-02 -0.78481E-02
  0.37964E-02  0.93572E-03 -0.78481E-02
  0.39100E-02  0.00000E+00 -0.78481E-02
  0.34621E-02  0.18171E-02 -0.78481E-02
  0.29267E-02  0.25928E-02 -0.78481E-02
  0.22211E-02  0.32179E-02 -0.78481E-02
  0.13865E-02  0.36559E-02 -0.78481E-02
  0.47130E-03  0.38815E-02 -0.78481E-02
 -0.47130E-03  0.38815E-02 -0.78481E-02
 -0.13865E-02  0.36559E-02 -0.78481E-02
 -0.22211E-02  0.32179E-02 -0.78481E-02
 -0.29267E-02  0.25928E-02 -0.78481E-02
 -0.34621E-02  0.18171E-02 -0.78481E-02
 -0.37964E-02  0.93572E-03 -0.78481E-02
 -0.39100E-02  0.22152E-17 -0.78481E-02
 -0.37964E-02 -0.93572E-03 -0.78481E-02
 -0.34621E-02 -0.18171E-02 -0.78481E-02
 -0.29267E-02 -0.25928E-02 -0.78481E-02
 -0.22211E-02 -0.32179E-02 -0.78481E-02
 -0.13865E-02 -0.36559E-02 -0.78481E-02
 -0.47130E-03 -0.38815E-02 -0.78481E-02
  0.47130E-03 -0.38815E-02 -0.78481E-02
  0.13865E-02 -0.36559E-02 -0.78481E-02
  0.22211E-02 -0.32179E-02 -0.78481E-02
  0.29267E-02 -0.25928E-02 -0.78481E-02
  0.34621E-02 -0.18171E-02 -0.78481E-02
  0.37964E-02 -0.93572E-03 -0.78481E-02
  0.10360E-02  0.68124E-03 -0.68690E-02
  0.17425E-02  0.12407E-02 -0.68690E-02
  0.23158E-02  0.59936E-03 -0.68690E-02
  0.16666E-02 -0.32643E-03 -0.68690E-02
  0.30373E-02  0.15427E-03 -0.68690E-02
  0.27842E-02 -0.66903E-03 -0.68690E-02
  0.12835E-02  0.18440E-02 -0.68690E-02
  0.64771E-03  0.14727E-02 -0.68690E-02
  0.12363E-03  0.31656E-03 -0.68690E-02
 -0.13100E-03  0.11935E-02 -0.68690E-02
  0.94003E-03  0.22767E-02 -0.68690E-02
  0.11276E-02  0.28220E-02 -0.68690E-02
  0.17432E-02  0.24260E-02 -0.68690E-02
  0.40507E-03  0.21690E-02 -0.68690E-02
  0.39754E-03  0.29327E-02 -0.68690E-02
 -0.76834E-03 -0.10054E-02 -0.68690E-02
 -0.86767E-03  0.91108E-04 -0.68690E-02
  0.45447E-03 -0.69229E-03 -0.68690E-02
 -0.18344E-02 -0.70985E-03 -0.68690E-02
 -0.18426E-02  0.84602E-04 -0.68690E-02
 -0.27234E-02 -0.77610E-03 -0.68690E-02
 -0.27987E-02  0.44813E-04 -0.68690E-02
 -0.25388E-02 -0.15187E-02 -0.68690E-02
 -0.19352E-02 -0.13215E-02 -0.68690E-02
 -0.99147E-03  0.10088E-02 -0.68690E-02
 -0.14433E-02 -0.17319E-02 -0.68690E-02
 -0.31274E-03  0.20262E-02 -0.68690E-02
 -0.11016E-02  0.18595E-02 -0.68690E-02
 -0.18838E-02  0.17175E-02 -0.68690E-02
 -0.18694E-02  0.91300E-03 -0.68690E-02
 -0.16284E-03 -0.19804E-02 -0.68690E-02
 -0.94986E-03 -0.23493E-02 -0.68690E-02
  0.77865E-03 -0.17073E-02 -0.68690E-02
  0.17205E-02 -0.14931E-02 -0.68690E-02
  0.32099E-02  0.77544E-03 -0.68690E-02
  0.28042E-02  0.12541E-02 -0.68690E-02
  0.23042E-02  0.18671E-02 -0.68690E-02
 -0.40407E-03  0.28877E-02 -0.68690E-02
 -0.12093E-02  0.27137E-02 -0.68690E-02
 -0.19442E-02  0.24609E-02 -0.68690E-02
 -0.25024E-02  0.22358E-02 -0.68690E-02
 -0.26358E-02  0.16503E-02 -0.68690E-02
 -0.27624E-02  0.87885E-03 -0.68690E-02
 -0.21144E-02 -0.21374E-02 -0.68690E-02
 -0.16094E-02 -0.26934E-02 -0.68690E-02
 -0.11956E-02 -0.31291E-02 -0.68690E-02
 -0.59165E-03 -0.30382E-02 -0.68690E-02
  0.20302E-03 -0.28750E-02 -0.68690E-02
  0.10540E-02 -0.26463E-02 -0.68690E-02
  0.18419E-02 -0.23738E-02 -0.68690E-02
  0.24563E-02 -0.21527E-02 -0.68690E-02
  0.26033E-02 -0.15088E-02 -0.68690E-02
  0.37964E-02  0.93572E-03 -0.68690E-02
  0.39100E-02  0.00000E+00 -0.68690E-02
  0.34621E-02  0.18171E-02 -0.68690E-02
  0.29267E-02  0.25928E-02 -0.68690E-02
  0.22211E-02  0.32179E-02 -0.68690E-02
  0.13865E-02  0.36559E-02 -0.68690E-02
  0.47130E-03  0.38815E-02 -0.68690E-02
 -0.47130E-03  0.38815E-02 -0.68690E-02
 -0.13865E-02  0.36559E-02 -0.68690E-02
 -0.22211E-02  0.32179E-02 -0.68690E-02
 -0.29267E-02  0.25928E-02 -0.68690E-02
 -0.34621E-02  0.18171E-02 -0.68690E-02
 -0.37964E-02  0.93572E-03 -0.68690E-02
 -0.39100E-02 -0.47884E-18 -0.68690E-02
 -0.37964E-02 -0.93572E-03 -0.68690E-02
 -0.34621E-02 -0.18171E-02 -0.68690E-02
 -0.29267E-02 -0.25928E-02 -0.68690E-02
 -0.22211E-02 -0.32179E-02 -0.68690E-02
 -0.13865E-02 -0.36559E-02 -0.68690E-02
 -0.47130E-03 -0.38815E-02 -0.68690E-02
  0.47130E-03 -0.38815E-02 -0.68690E-02
  0.13865E-02 -0.36559E-02 -0.68690E-02
  0.22211E-02 -0.32179E-02 -0.68690E-02
  0.29267E-02 -0.25928E-02 -0.68690E-02
  0.34621E-02 -0.18171E-02 -0.68690E-02
  0.37964E-02 -0.93572E-03 -0.68690E-02
  0.10359E-02  0.68179E-03 -0.58898E-02
  0.17423E-02  0.12414E-02 -0.58898E-02
  0.23157E-02  0.59988E-03 -0.58898E-02
  0.16664E-02 -0.32568E-03 -0.58898E-02
  0.30373E-02  0.15463E-03 -0.58898E-02
  0.27846E-02 -0.66854E-03 -0.58898E-02
  0.12834E-02  0.18442E-02 -0.58898E-02
  0.64747E-03  0.14736E-02 -0.58898E-02
  0.12337E-03  0.31770E-03 -0.58898E-02
 -0.13118E-03  0.11952E-02 -0.58898E-02
  0.93970E-03  0.22768E-02 -0.58898E-02
  0.11272E-02  0.28216E-02 -0.58898E-02
  0.17428E-02  0.24261E-02 -0.58898E-02
  0.40501E-03  0.21690E-02 -0.58898E-02
  0.39752E-03  0.29324E-02 -0.58898E-02
 -0.76869E-03 -0.10056E-02 -0.58898E-02
 -0.86778E-03  0.91918E-04 -0.58898E-02
  0.45402E-03 -0.69156E-03 -0.58898E-02
 -0.18347E-02 -0.70971E-03 -0.58898E-02
 -0.18425E-02  0.84726E-04 -0.58898E-02
 -0.27234E-02 -0.77593E-03 -0.58898E-02
 -0.27984E-02  0.45086E-04 -0.58898E-02
 -0.25389E-02 -0.15187E-02 -0.58898E-02
 -0.19356E-02 -0.13213E-02 -0.58898E-02
 -0.99133E-03  0.10102E-02 -0.58898E-02
 -0.14436E-02 -0.17318E-02 -0.58898E-02
 -0.31254E-03  0.20265E-02 -0.58898E-02
 -0.11013E-02  0.18594E-02 -0.58898E-02
 -0.18837E-02  0.17175E-02 -0.58898E-02
 -0.18692E-02  0.91324E-03 -0.58898E-02
 -0.16311E-03 -0.19804E-02 -0.58898E-02
 -0.95046E-03 -0.23493E-02 -0.58898E-02
  0.77799E-03 -0.17073E-02 -0.58898E-02
  0.17204E-02 -0.14933E-02 -0.58898E-02
  0.32102E-02  0.77645E-03 -0.58898E-02
  0.28042E-02  0.12545E-02 -0.58898E-02
  0.23041E-02  0.18671E-02 -0.58898E-02
 -0.40393E-03  0.28867E-02 -0.58898E-02
 -0.12093E-02  0.27132E-02 -0.58898E-02
 -0.19442E-02  0.24606E-02 -0.58898E-02
 -0.25024E-02  0.22358E-02 -0.58898E-02
 -0.26357E-02  0.16503E-02 -0.58898E-02
 -0.27621E-02  0.87912E-03 -0.58898E-02
 -0.21146E-02 -0.21374E-02 -0.58898E-02
 -0.16094E-02 -0.26935E-02 -0.58898E-02
 -0.11957E-02 -0.31291E-02 -0.58898E-02
 -0.59200E-03 -0.30381E-02 -0.58898E-02
  0.20262E-03 -0.28750E-02 -0.58898E-02
  0.10536E-02 -0.26466E-02 -0.58898E-02
  0.18420E-02 -0.23740E-02 -0.58898E-02
  0.24564E-02 -0.21533E-02 -0.58898E-02
  0.26033E-02 -0.15087E-02 -0.58898E-02
  0.37964E-02  0.93572E-03 -0.58898E-02
  0.39100E-02  0.00000E+00 -0.58898E-02
  0.34621E-02  0.18171E-02 -0.58898E-02
  0.29267E-02  0.25928E-02 -0.58898E-02
  0.22211E-02  0.32179E-02 -0.58898E-02
  0.13865E-02  0.36559E-02 -0.58898E-02
  0.47130E-03  0.38815E-02 -0.58898E-02
 -0.47130E-03  0.38815E-02 -0.58898E-02
 -0.13865E-02  0.36559E-02 -0.58898E-02
 -0.22211E-02  0.32179E-02 -0.58898E-02
 -0.29267E-02  0.25928E-02 -0.58898E-02
 -0.34621E-02  0.18171E-02 -0.58898E-02
 -0.37964E-02  0.93572E-03 -0.58898E-02
 -0.39100E-02 -0.47884E-18 -0.58898E-02
 -0.37964E-02 -0.93572E-03 -0.58898E-02
 -0.34621E-02 -0.18171E-02 -0.58898E-02
 -0.29267E-02 -0.25928E-02 -0.58898E-02
 -0.22211E-02 -0.32179E-02 -0.58898E-02
 -0.13865E-02 -0.36559E-02 -0.58898E-02
 -0.47130E-03 -0.38815E-02 -0.58898E-02
  0.47130E-03 -0.38815E-02 -0.58898E-02
  0.13865E-02 -0.36559E-02 -0.58898E-02
  0.22211E-02 -0.32179E-02 -0.58898E-02
  0.29267E-02 -0.25928E-02 -0.58898E-02
  0.34621E-02 -0.18171E-02 -0.58898E-02
  0.37964E-02 -0.93572E-03 -0.58898E-02
  0.10358E-02  0.68235E-03 -0.49106E-02
  0.17422E-02  0.12421E-02 -0.49106E-02
  0.23156E-02  0.60041E-03 -0.49106E-02
  0.16662E-02 -0.32493E-03 -0.49106E-02
  0.30373E-02  0.15500E-03 -0.49106E-02
  0.27849E-02 -0.66805E-03 -0.49106E-02
  0.12833E-02  0.18444E-02 -0.49106E-02
  0.64722E-03  0.14747E-02 -0.49106E-02
  0.12311E-03  0.31885E-03 -0.49106E-02
 -0.13137E-03  0.11970E-02 -0.49106E-02
  0.93937E-03  0.22770E-02 -0.49106E-02
  0.11269E-02  0.28211E-02 -0.49106E-02
  0.17424E-02  0.24262E-02 -0.49106E-02
  0.40496E-03  0.21691E-02 -0.49106E-02
  0.39750E-03  0.29322E-02 -0.49106E-02
 -0.76904E-03 -0.10057E-02 -0.49106E-02
 -0.86789E-03  0.92727E-04 -0.49106E-02
  0.45358E-03 -0.69084E-03 -0.49106E-02
 -0.18350E-02 -0.70957E-03 -0.49106E-02
 -0.18424E-02  0.84849E-04 -0.49106E-02
 -0.27233E-02 -0.77576E-03 -0.49106E-02
 -0.27981E-02  0.45359E-04 -0.49106E-02
 -0.25391E-02 -0.15186E-02 -0.49106E-02
 -0.19360E-02 -0.13212E-02 -0.49106E-02
 -0.99118E-03  0.10115E-02 -0.49106E-02
 -0.14440E-02 -0.17318E-02 -0.49106E-02
 -0.31234E-03  0.20268E-02 -0.49106E-02
 -0.11009E-02  0.18593E-02 -0.49106E-02
 -0.18836E-02  0.17175E-02 -0.49106E-02
 -0.18691E-02  0.91347E-03 -0.49106E-02
 -0.16339E-03 -0.19804E-02 -0.49106E-02
 -0.95106E-03 -0.23493E-02 -0.49106E-02
  0.77733E-03 -0.17073E-02 -0.49106E-02
  0.17204E-02 -0.14936E-02 -0.49106E-02
  0.32105E-02  0.77745E-03 -0.49106E-02
  0.28042E-02  0.12550E-02 -0.49106E-02
  0.23040E-02  0.18671E-02 -0.49106E-02
 -0.40379E-03  0.28856E-02 -0.49106E-02
 -0.12093E-02  0.27127E-02 -0.49106E-02
 -0.19441E-02  0.24604E-02 -0.49106E-02
 -0.25023E-02  0.22358E-02 -0.49106E-02
 -0.26356E-02  0.16503E-02 -0.49106E-02
 -0.27618E-02  0.87938E-03 -0.49106E-02
 -0.21147E-02 -0.21374E-02 -0.49106E-02
 -0.16094E-02 -0.26935E-02 -0.49106E-02
 -0.11958E-02 -0.31291E-02 -0.49106E-02
 -0.59235E-03 -0.30381E-02 -0.49106E-02
  0.20221E-03 -0.28750E-02 -0.49106E-02
  0.10533E-02 -0.26468E-02 -0.49106E-02
  0.18420E-02 -0.23742E-02 -0.49106E-02
  0.24565E-02 -0.21538E-02 -0.49106E-02
  0.26034E-02 -0.15086E-02 -0.49106E-02
  0.37964E-02  0.93572E-03 -0.49106E-02
  0.39100E-02  0.00000E+00 -0.49106E-02
  0.34621E-02  0.18171E-02 -0.49106E-02
  0.29267E-02  0.25928E-02 -0.49106E-02
  0.22211E-02  0.32179E-02 -0.49106E-02
  0.13865E-02  0.36559E-02 -0.49106E-02
  0.47130E-03  0.38815E-02 -0.49106E-02
 -0.47130E-03  0.38815E-02 -0.49106E-02
 -0.13865E-02  0.36559E-02 -0.49106E-02
 -0.22211E-02  0.32179E-02 -0.49106E-02
 -0.29267E-02  0.25928E-02 -0.49106E-02
 -0.34621E-02  0.18171E-02 -0.49106E-02
 -0.37964E-02  0.93572E-03 -0.49106E-02
 -0.39100E-02 -0.47884E-18 -0.49106E-02
 -0.37964E-02 -0.93572E-03 -0.49106E-02
 -0.34621E-02 -0.18171E-02 -0.49106E-02
 -0.29267E-02 -0.25928E-02 -0.49106E-02
 -0.22211E-02 -0.32179E-02 -0.49106E-02
 -0.13865E-02 -0.36559E-02 -0.49106E-02
 -0.47130E-03 -0.38815E-02 -0.49106E-02
  0.47130E-03 -0.38815E-02 -0.49106E-02
  0.13865E-02 -0.36559E-02 -0.49106E-02
  0.22211E-02 -0.32179E-02 -0.49106E-02
  0.29267E-02 -0.25928E-02 -0.49106E-02
  0.34621E-02 -0.18171E-02 -0.49106E-02
  0.37964E-02 -0.93572E-03 -0.49106E-02
  0.10357E-02  0.68290E-03 -0.39315E-02
  0.17420E-02  0.12427E-02 -0.39315E-02
  0.23155E-02  0.60093E-03 -0.39315E-02
  0.16660E-02 -0.32417E-03 -0.39315E-02
  0.30372E-02  0.15536E-03 -0.39315E-02
  0.27853E-02 -0.66755E-03 -0.39315E-02
  0.12832E-02  0.18445E-02 -0.39315E-02
  0.64698E-03  0.14757E-02 -0.39315E-02
  0.12285E-03  0.32000E-03 -0.39315E-02
 -0.13155E-03  0.11987E-02 -0.39315E-02
  0.93903E-03  0.22771E-02 -0.39315E-02
  0.11266E-02  0.28207E-02 -0.39315E-02
  0.17420E-02  0.24264E-02 -0.39315E-02
  0.40490E-03  0.21691E-02 -0.39315E-02
  0.39749E-03  0.29319E-02 -0.39315E-02
 -0.76940E-03 -0.10058E-02 -0.39315E-02
 -0.86800E-03  0.93536E-04 -0.39315E-02
  0.45313E-03 -0.69011E-03 -0.39315E-02
 -0.18353E-02 -0.70943E-03 -0.39315E-02
 -0.18423E-02  0.84973E-04 -0.39315E-02
 -0.27233E-02 -0.77559E-03 -0.39315E-02
 -0.27979E-02  0.45633E-04 -0.39315E-02
 -0.25393E-02 -0.15186E-02 -0.39315E-02
 -0.19365E-02 -0.13212E-02 -0.39315E-02
 -0.99104E-03  0.10129E-02 -0.39315E-02
 -0.14443E-02 -0.17318E-02 -0.39315E-02
 -0.31214E-03  0.20271E-02 -0.39315E-02
 -0.11006E-02  0.18592E-02 -0.39315E-02
 -0.18836E-02  0.17175E-02 -0.39315E-02
 -0.18690E-02  0.91371E-03 -0.39315E-02
 -0.16366E-03 -0.19805E-02 -0.39315E-02
 -0.95166E-03 -0.23493E-02 -0.39315E-02
  0.77667E-03 -0.17073E-02 -0.39315E-02
  0.17203E-02 -0.14938E-02 -0.39315E-02
  0.32109E-02  0.77846E-03 -0.39315E-02
  0.28042E-02  0.12554E-02 -0.39315E-02
  0.23039E-02  0.18672E-02 -0.39315E-02
 -0.40365E-03  0.28845E-02 -0.39315E-02
 -0.12093E-02  0.27122E-02 -0.39315E-02
 -0.19441E-02  0.24602E-02 -0.39315E-02
 -0.25023E-02  0.22358E-02 -0.39315E-02
 -0.26355E-02  0.16502E-02 -0.39315E-02
 -0.27615E-02  0.87964E-03 -0.39315E-02
 -0.21148E-02 -0.21374E-02 -0.39315E-02
 -0.16095E-02 -0.26935E-02 -0.39315E-02
 -0.11960E-02 -0.31291E-02 -0.39315E-02
 -0.59270E-03 -0.30381E-02 -0.39315E-02
  0.20180E-03 -0.28750E-02 -0.39315E-02
  0.10530E-02 -0.26471E-02 -0.39315E-02
  0.18421E-02 -0.23744E-02 -0.39315E-02
  0.24566E-02 -0.21543E-02 -0.39315E-02
  0.26035E-02 -0.15085E-02 -0.39315E-02
  0.37964E-02  0.93572E-03 -0.39315E-02
  0.39100E-02  0.00000E+00 -0.39315E-02
  0.34621E-02  0.18171E-02 -0.39315E-02
  0.29267E-02  0.25928E-02 -0.39315E-02
  0.22211E-02  0.32179E-02 -0.39315E-02
  0.13865E-02  0.36559E-02 -0.39315E-02
  0.47130E-03  0.38815E-02 -0.39315E-02
 -0.47130E-03  0.38815E-02 -0.39315E-02
 -0.13865E-02  0.36559E-02 -0.39315E-02
 -0.22211E-02  0.32179E-02 -0.39315E-02
 -0.29267E-02  0.25928E-02 -0.39315E-02
 -0.34621E-02  0.18171E-02 -0.39315E-02
 -0.37964E-02  0.93572E-03 -0.39315E-02
 -0.39100E-02 -0.47884E-18 -0.39315E-02
 -0.37964E-02 -0.93572E-03 -0.39315E-02
 -0.34621E-02 -0.18171E-02 -0.39315E-02
 -0.29267E-02 -0.25928E-02 -0.39315E-02
 -0.22211E-02 -0.32179E-02 -0.39315E-02
 -0.13865E-02 -0.36559E-02 -0.39315E-02
 -0.47130E-03 -0.38815E-02 -0.39315E-02
  0.47130E-03 -0.38815E-02 -0.39315E-02
  0.13865E-02 -0.36559E-02 -0.39315E-02
  0.22211E-02 -0.32179E-02 -0.39315E-02
  0.29267E-02 -0.25928E-02 -0.39315E-02
  0.34621E-02 -0.18171E-02 -0.39315E-02
  0.37964E-02 -0.93572E-03 -0.39315E-02
  0.10356E-02  0.68346E-03 -0.29523E-02
  0.17418E-02  0.12434E-02 -0.29523E-02
  0.23153E-02  0.60145E-03 -0.29523E-02
  0.16657E-02 -0.32342E-03 -0.29523E-02
  0.30372E-02  0.15572E-03 -0.29523E-02
  0.27856E-02 -0.66706E-03 -0.29523E-02
  0.12830E-02  0.18447E-02 -0.29523E-02
  0.64673E-03  0.14767E-02 -0.29523E-02
  0.12259E-03  0.32115E-03 -0.29523E-02
 -0.13174E-03  0.12005E-02 -0.29523E-02
  0.93870E-03  0.22772E-02 -0.29523E-02
  0.11262E-02  0.28203E-02 -0.29523E-02
  0.17416E-02  0.24265E-02 -0.29523E-02
  0.40485E-03  0.21691E-02 -0.29523E-02
  0.39747E-03  0.29316E-02 -0.29523E-02
 -0.76975E-03 -0.10060E-02 -0.29523E-02
 -0.86811E-03  0.94345E-04 -0.29523E-02
  0.45268E-03 -0.68939E-03 -0.29523E-02
 -0.18356E-02 -0.70929E-03 -0.29523E-02
 -0.18422E-02  0.85096E-04 -0.29523E-02
 -0.27233E-02 -0.77542E-03 -0.29523E-02
 -0.27976E-02  0.45906E-04 -0.29523E-02
 -0.25394E-02 -0.15185E-02 -0.29523E-02
 -0.19369E-02 -0.13211E-02 -0.29523E-02
 -0.99090E-03  0.10142E-02 -0.29523E-02
 -0.14446E-02 -0.17317E-02 -0.29523E-02
 -0.31194E-03  0.20274E-02 -0.29523E-02
 -0.11002E-02  0.18590E-02 -0.29523E-02
 -0.18835E-02  0.17175E-02 -0.29523E-02
 -0.18689E-02  0.91395E-03 -0.29523E-02
 -0.16394E-03 -0.19805E-02 -0.29523E-02
 -0.95226E-03 -0.23494E-02 -0.29523E-02
  0.77601E-03 -0.17073E-02 -0.29523E-02
  0.17203E-02 -0.14941E-02 -0.29523E-02
  0.32112E-02  0.77946E-03 -0.29523E-02
  0.28042E-02  0.12558E-02 -0.29523E-02
  0.23038E-02  0.18672E-02 -0.29523E-02
 -0.40352E-03  0.28835E-02 -0.29523E-02
 -0.12093E-02  0.27118E-02 -0.29523E-02
 -0.19441E-02  0.24600E-02 -0.29523E-02
 -0.25023E-02  0.22358E-02 -0.29523E-02
 -0.26354E-02  0.16502E-02 -0.29523E-02
 -0.27612E-02  0.87990E-03 -0.29523E-02
 -0.21150E-02 -0.21374E-02 -0.29523E-02
 -0.16095E-02 -0.26935E-02 -0.29523E-02
 -0.11961E-02 -0.31291E-02 -0.29523E-02
 -0.59305E-03 -0.30381E-02 -0.29523E-02
  0.20140E-03 -0.28750E-02 -0.29523E-02
  0.10527E-02 -0.26474E-02 -0.29523E-02
  0.18421E-02 -0.23746E-02 -0.29523E-02
  0.24568E-02 -0.21549E-02 -0.29523E-02
  0.26036E-02 -0.15084E-02 -0.29523E-02
  0.37964E-02  0.93572E-03 -0.29523E-02
  0.39100E-02  0.00000E+00 -0.29523E-02
  0.34621E-02  0.18171E-02 -0.29523E-02
  0.29267E-02  0.25928E-02 -0.29523E-02
  0.22211E-02  0.32179E-02 -0.29523E-02
  0.13865E-02  0.36559E-02 -0.29523E-02
  0.47130E-03  0.38815E-02 -0.29523E-02
 -0.47130E-03  0.38815E-02 -0.29523E-02
 -0.13865E-02  0.36559E-02 -0.29523E-02
 -0.22211E-02  0.32179E-02 -0.29523E-02
 -0.29267E-02  0.25928E-02 -0.29523E-02
 -0.34621E-02  0.18171E-02 -0.29523E-02
 -0.37964E-02  0.93572E-03 -0.29523E-02
 -0.39100E-02  0.22152E-17 -0.29523E-02
 -0.37964E-02 -0.93572E-03 -0.29523E-02
 -0.34621E-02 -0.18171E-02 -0.29523E-02
 -0.29267E-02 -0.25928E-02 -0.29523E-02
 -0.22211E-02 -0.32179E-02 -0.29523E-02
 -0.13865E-02 -0.36559E-02 -0.29523E-02
 -0.47130E-03 -0.38815E-02 -0.29523E-02
  0.47130E-03 -0.38815E-02 -0.29523E-02
  0.13865E-02 -0.36559E-02 -0.29523E-02
  0.22211E-02 -0.32179E-02 -0.29523E-02
  0.29267E-02 -0.25928E-02 -0.29523E-02
  0.34621E-02 -0.18171E-02 -0.29523E-02
  0.37964E-02 -0.93572E-03 -0.29523E-02
  0.10355E-02  0.68401E-03 -0.19731E-02
  0.17416E-02  0.12440E-02 -0.19731E-02
  0.23152E-02  0.60198E-03 -0.19731E-02
  0.16655E-02 -0.32266E-03 -0.19731E-02
  0.30372E-02  0.15609E-03 -0.19731E-02
  0.27860E-02 -0.66657E-03 -0.19731E-02
  0.12829E-02  0.18449E-02 -0.19731E-02
  0.64649E-03  0.14777E-02 -0.19731E-02
  0.12232E-03  0.32230E-03 -0.19731E-02
 -0.13193E-03  0.12022E-02 -0.19731E-02
  0.93837E-03  0.22774E-02 -0.19731E-02
  0.11259E-02  0.28198E-02 -0.19731E-02
  0.17412E-02  0.24267E-02 -0.19731E-02
  0.40480E-03  0.21692E-02 -0.19731E-02
  0.39745E-03  0.29314E-02 -0.19731E-02
 -0.77011E-03 -0.10061E-02 -0.19731E-02
 -0.86822E-03  0.95155E-04 -0.19731E-02
  0.45223E-03 -0.68866E-03 -0.19731E-02
 -0.18359E-02 -0.70915E-03 -0.19731E-02
 -0.18421E-02  0.85220E-04 -0.19731E-02
 -0.27232E-02 -0.77525E-03 -0.19731E-02
 -0.27973E-02  0.46180E-04 -0.19731E-02
 -0.25396E-02 -0.15185E-02 -0.19731E-02
 -0.19373E-02 -0.13210E-02 -0.19731E-02
 -0.99075E-03  0.10156E-02 -0.19731E-02
 -0.14450E-02 -0.17317E-02 -0.19731E-02
 -0.31173E-03  0.20277E-02 -0.19731E-02
 -0.10999E-02  0.18589E-02 -0.19731E-02
 -0.18835E-02  0.17175E-02 -0.19731E-02
 -0.18687E-02  0.91419E-03 -0.19731E-02
 -0.16421E-03 -0.19805E-02 -0.19731E-02
 -0.95285E-03 -0.23494E-02 -0.19731E-02
  0.77535E-03 -0.17073E-02 -0.19731E-02
  0.17202E-02 -0.14943E-02 -0.19731E-02
  0.32115E-02  0.78047E-03 -0.19731E-02
  0.28041E-02  0.12563E-02 -0.19731E-02
  0.23037E-02  0.18672E-02 -0.19731E-02
 -0.40338E-03  0.28824E-02 -0.19731E-02
 -0.12093E-02  0.27113E-02 -0.19731E-02
 -0.19440E-02  0.24597E-02 -0.19731E-02
 -0.25023E-02  0.22358E-02 -0.19731E-02
 -0.26353E-02  0.16502E-02 -0.19731E-02
 -0.27609E-02  0.88016E-03 -0.19731E-02
 -0.21151E-02 -0.21374E-02 -0.19731E-02
 -0.16096E-02 -0.26935E-02 -0.19731E-02
 -0.11962E-02 -0.31291E-02 -0.19731E-02
 -0.59340E-03 -0.30381E-02 -0.19731E-02
  0.20099E-03 -0.28751E-02 -0.19731E-02
  0.10524E-02 -0.26476E-02 -0.19731E-02
  0.18422E-02 -0.23748E-02 -0.19731E-02
  0.24569E-02 -0.21554E-02 -0.19731E-02
  0.26036E-02 -0.15083E-02 -0.19731E-02
  0.37964E-02  0.93572E-03 -0.19731E-02
  0.39100E-02  0.00000E+00 -0.19731E-02
  0.34621E-02  0.18171E-02 -0.19731E-02
  0.29267E-02  0.25928E-02 -0.19731E-02
  0.22211E-02  0.32179E-02 -0.19731E-02
  0.13865E-02  0.36559E-02 -0.19731E-02
  0.47130E-03  0.38815E-02 -0.19731E-02
 -0.47130E-03  0.38815E-02 -0.19731E-02
 -0.13865E-02  0.36559E-02 -0.19731E-02
 -0.22211E-02  0.32179E-02 -0.19731E-02
 -0.29267E-02  0.25928E-02 -0.19731E-02
 -0.34621E-02  0.18171E-02 -0.19731E-02
 -0.37964E-02  0.93572E-03 -0.19731E-02
 -0.39100E-02 -0.47884E-18 -0.19731E-02
 -0.37964E-02 -0.93572E-03 -0.19731E-02
 -0.34621E-02 -0.18171E-02 -0.19731E-02
 -0.29267E-02 -0.25928E-02 -0.19731E-02
 -0.22211E-02 -0.32179E-02 -0.19731E-02
 -0.13865E-02 -0.36559E-02 -0.19731E-02
 -0.47130E-03 -0.38815E-02 -0.19731E-02
  0.47130E-03 -0.38815E-02 -0.19731E-02
  0.13865E-02 -0.36559E-02 -0.19731E-02
  0.22211E-02 -0.32179E-02 -0.19731E-02
  0.29267E-02 -0.25928E-02 -0.19731E-02
  0.34621E-02 -0.18171E-02 -0.19731E-02
  0.37964E-02 -0.93572E-03 -0.19731E-02
  0.10354E-02  0.68457E-03 -0.99398E-03
  0.17414E-02  0.12447E-02 -0.99398E-03
  0.23151E-02  0.60250E-03 -0.99398E-03
  0.16653E-02 -0.32191E-03 -0.99398E-03
  0.30372E-02  0.15645E-03 -0.99398E-03
  0.27863E-02 -0.66607E-03 -0.99398E-03
  0.12829E-02  0.18451E-02 -0.99398E-03
  0.64624E-03  0.14787E-02 -0.99398E-03
  0.12206E-03  0.32345E-03 -0.99398E-03
 -0.13211E-03  0.12040E-02 -0.99398E-03
  0.93804E-03  0.22775E-02 -0.99398E-03
  0.11255E-02  0.28194E-02 -0.99398E-03
  0.17408E-02  0.24268E-02 -0.99398E-03
  0.40474E-03  0.21692E-02 -0.99398E-03
  0.39744E-03  0.29311E-02 -0.99398E-03
 -0.77046E-03 -0.10062E-02 -0.99398E-03
 -0.86832E-03  0.95964E-04 -0.99398E-03
  0.45179E-03 -0.68793E-03 -0.99398E-03
 -0.18362E-02 -0.70901E-03 -0.99398E-03
 -0.18420E-02  0.85343E-04 -0.99398E-03
 -0.27232E-02 -0.77507E-03 -0.99398E-03
 -0.27970E-02  0.46453E-04 -0.99398E-03
 -0.25397E-02 -0.15184E-02 -0.99398E-03
 -0.19377E-02 -0.13209E-02 -0.99398E-03
 -0.99061E-03  0.10169E-02 -0.99398E-03
 -0.14453E-02 -0.17316E-02 -0.99398E-03
 -0.31153E-03  0.20280E-02 -0.99398E-03
 -0.10995E-02  0.18588E-02 -0.99398E-03
 -0.18834E-02  0.17175E-02 -0.99398E-03
 -0.18686E-02  0.91443E-03 -0.99398E-03
 -0.16449E-03 -0.19806E-02 -0.99398E-03
 -0.95345E-03 -0.23494E-02 -0.99398E-03
  0.77469E-03 -0.17073E-02 -0.99398E-03
  0.17202E-02 -0.14945E-02 -0.99398E-03
  0.32119E-02  0.78148E-03 -0.99398E-03
  0.28041E-02  0.12567E-02 -0.99398E-03
  0.23036E-02  0.18673E-02 -0.99398E-03
 -0.40324E-03  0.28813E-02 -0.99398E-03
 -0.12093E-02  0.27108E-02 -0.99398E-03
 -0.19440E-02  0.24595E-02 -0.99398E-03
 -0.25022E-02  0.22358E-02 -0.99398E-03
 -0.26352E-02  0.16502E-02 -0.99398E-03
 -0.27606E-02  0.88043E-03 -0.99398E-03
 -0.21152E-02 -0.21374E-02 -0.99398E-03
 -0.16096E-02 -0.26936E-02 -0.99398E-03
 -0.11963E-02 -0.31291E-02 -0.99398E-03
 -0.59375E-03 -0.30381E-02 -0.99398E-03
  0.20059E-03 -0.28751E-02 -0.99398E-03
  0.10521E-02 -0.26479E-02 -0.99398E-03
  0.18422E-02 -0.23750E-02 -0.99398E-03
  0.24570E-02 -0.21560E-02 -0.99398E-03
  0.26037E-02 -0.15082E-02 -0.99398E-03
  0.37964E-02  0.93572E-03 -0.99398E-03
  0.39100E-02  0.00000E+00 -0.99398E-03
  0.34621E-02  0.18171E-02 -0.99398E-03
  0.29267E-02  0.25928E-02 -0.99398E-03
  0.22211E-02  0.32179E-02 -0.99398E-03
  0.13865E-02  0.36559E-02 -0.99398E-03
  0.47130E-03  0.38815E-02 -0.99398E-03
 -0.47130E-03  0.38815E-02 -0.99398E-03
 -0.13865E-02  0.36559E-02 -0.99398E-03
 -0.22211E-02  0.32179E-02 -0.99398E-03
 -0.29267E-02  0.25928E-02 -0.99398E-03
 -0.34621E-02  0.18171E-02 -0.99398E-03
 -0.37964E-02  0.93572E-03 -0.99398E-03
 -0.39100E-02 -0.47884E-18 -0.99398E-03
 -0.37964E-02 -0.93572E-03 -0.99398E-03
 -0.34621E-02 -0.18171E-02 -0.99398E-03
 -0.29267E-02 -0.25928E-02 -0.99398E-03
 -0.22211E-02 -0.32179E-02 -0.99398E-03
 -0.13865E-02 -0.36559E-02 -0.99398E-03
 -0.47130E-03 -0.38815E-02 -0.99398E-03
  0.47130E-03 -0.38815E-02 -0.99398E-03
  0.13865E-02 -0.36559E-02 -0.99398E-03
  0.22211E-02 -0.32179E-02 -0.99398E-03
  0.29267E-02 -0.25928E-02 -0.99398E-03
  0.34621E-02 -0.18171E-02 -0.99398E-03
  0.37964E-02 -0.93572E-03 -0.99398E-03
  0.10352E-02  0.68512E-03 -0.14848E-04
  0.17413E-02  0.12454E-02 -0.14848E-04
  0.23150E-02  0.60302E-03 -0.14848E-04
  0.16651E-02 -0.32115E-03 -0.14848E-04
  0.30371E-02  0.15681E-03 -0.14848E-04
  0.27866E-02 -0.66558E-03 -0.14848E-04
  0.12827E-02  0.18453E-02 -0.14848E-04
  0.64600E-03  0.14797E-02 -0.14848E-04
  0.12180E-03  0.32459E-03 -0.14848E-04
 -0.13230E-03  0.12058E-02 -0.14848E-04
  0.93771E-03  0.22776E-02 -0.14848E-04
  0.11252E-02  0.28189E-02 -0.14848E-04
  0.17404E-02  0.24270E-02 -0.14848E-04
  0.40469E-03  0.21693E-02 -0.14848E-04
  0.39742E-03  0.29308E-02 -0.14848E-04
 -0.77081E-03 -0.10064E-02 -0.14848E-04
 -0.86843E-03  0.96773E-04 -0.14848E-04
  0.45134E-03 -0.68721E-03 -0.14848E-04
 -0.18365E-02 -0.70887E-03 -0.14848E-04
 -0.18419E-02  0.85467E-04 -0.14848E-04
 -0.27232E-02 -0.77490E-03 -0.14848E-04
 -0.27968E-02  0.46726E-04 -0.14848E-04
 -0.25399E-02 -0.15184E-02 -0.14848E-04
 -0.19382E-02 -0.13208E-02 -0.14848E-04
 -0.99046E-03  0.10183E-02 -0.14848E-04
 -0.14457E-02 -0.17316E-02 -0.14848E-04
 -0.31133E-03  0.20283E-02 -0.14848E-04
 -0.10992E-02  0.18586E-02 -0.14848E-04
 -0.18834E-02  0.17175E-02 -0.14848E-04
 -0.18685E-02  0.91467E-03 -0.14848E-04
 -0.16476E-03 -0.19806E-02 -0.14848E-04
 -0.95405E-03 -0.23494E-02 -0.14848E-04
  0.77402E-03 -0.17073E-02 -0.14848E-04
  0.17202E-02 -0.14948E-02 -0.14848E-04
  0.32122E-02  0.78248E-03 -0.14848E-04
  0.28041E-02  0.12571E-02 -0.14848E-04
  0.23034E-02  0.18673E-02 -0.14848E-04
 -0.40310E-03  0.28802E-02 -0.14848E-04
 -0.12093E-02  0.27103E-02 -0.14848E-04
 -0.19440E-02  0.24593E-02 -0.14848E-04
 -0.25022E-02  0.22358E-02 -0.14848E-04
 -0.26351E-02  0.16502E-02 -0.14848E-04
 -0.27602E-02  0.88069E-03 -0.14848E-04
 -0.21154E-02 -0.21374E-02 -0.14848E-04
 -0.16097E-02 -0.26936E-02 -0.14848E-04
 -0.11964E-02 -0.31291E-02 -0.14848E-04
 -0.59409E-03 -0.30381E-02 -0.14848E-04
  0.20018E-03 -0.28751E-02 -0.14848E-04
  0.10518E-02 -0.26482E-02 -0.14848E-04
  0.18422E-02 -0.23752E-02 -0.14848E-04
  0.24571E-02 -0.21565E-02 -0.14848E-04
  0.26038E-02 -0.15081E-02 -0.14848E-04
  0.37964E-02  0.93572E-03 -0.14848E-04
  0.39100E-02  0.00000E+00 -0.14848E-04
  0.34621E-02  0.18171E-02 -0.14848E-04
  0.29267E-02  0.25928E-02 -0.14848E-04
  0.22211E-02  0.32179E-02 -0.14848E-04
  0.13865E-02  0.36559E-02 -0.14848E-04
  0.47130E-03  0.38815E-02 -0.14848E-04
 -0.47130E-03  0.38815E-02 -0.14848E-04
 -0.13865E-02  0.36559E-02 -0.14848E-04
 -0.22211E-02  0.32179E-02 -0.14848E-04
 -0.29267E-02  0.25928E-02 -0.14848E-04
 -0.34621E-02  0.18171E-02 -0.14848E-04
 -0.37964E-02  0.93572E-03 -0.14848E-04
 -0.39100E-02 -0.47884E-18 -0.14848E-04
 -0.37964E-02 -0.93572E-03 -0.14848E-04
 -0.34621E-02 -0.18171E-02 -0.14848E-04
 -0.29267E-02 -0.25928E-02 -0.14848E-04
 -0.22211E-02 -0.32179E-02 -0.14848E-04
 -0.13865E-02 -0.36559E-02 -0.14848E-04
 -0.47130E-03 -0.38815E-02 -0.14848E-04
  0.47130E-03 -0.38815E-02 -0.14848E-04
  0.13865E-02 -0.36559E-02 -0.14848E-04
  0.22211E-02 -0.32179E-02 -0.14848E-04
  0.29267E-02 -0.25928E-02 -0.14848E-04
  0.34621E-02 -0.18171E-02 -0.14848E-04
  0.37964E-02 -0.93572E-03 -0.14848E-04
  0.10351E-02  0.68567E-03  0.96435E-03
  0.17411E-02  0.12460E-02  0.96435E-03
  0.23149E-02  0.60355E-03  0.96435E-03
  0.16649E-02 -0.32040E-03  0.96435E-03
  0.30371E-02  0.15718E-03  0.96435E-03
  0.27870E-02 -0.66509E-03  0.96435E-03
  0.12826E-02  0.18455E-02  0.96435E-03
  0.64575E-03  0.14807E-02  0.96435E-03
  0.12154E-03  0.32574E-03  0.96435E-03
 -0.13248E-03  0.12075E-02  0.96435E-03
  0.93738E-03  0.22777E-02  0.96435E-03
  0.11249E-02  0.28185E-02  0.96435E-03
  0.17400E-02  0.24271E-02  0.96435E-03
  0.40463E-03  0.21693E-02  0.96435E-03
  0.39740E-03  0.29306E-02  0.96435E-03
 -0.77117E-03 -0.10065E-02  0.96435E-03
 -0.86854E-03  0.97583E-04  0.96435E-03
  0.45089E-03 -0.68648E-03  0.96435E-03
 -0.18368E-02 -0.70873E-03  0.96435E-03
 -0.18418E-02  0.85591E-04  0.96435E-03
 -0.27232E-02 -0.77474E-03  0.96435E-03
 -0.27965E-02  0.47000E-04  0.96435E-03
 -0.25400E-02 -0.15183E-02  0.96435E-03
 -0.19386E-02 -0.13207E-02  0.96435E-03
 -0.99032E-03  0.10197E-02  0.96435E-03
 -0.14460E-02 -0.17316E-02  0.96435E-03
 -0.31113E-03  0.20285E-02  0.96435E-03
 -0.10988E-02  0.18585E-02  0.96435E-03
 -0.18833E-02  0.17175E-02  0.96435E-03
 -0.18683E-02  0.91491E-03  0.96435E-03
 -0.16504E-03 -0.19806E-02  0.96435E-03
 -0.95465E-03 -0.23495E-02  0.96435E-03
  0.77336E-03 -0.17073E-02  0.96435E-03
  0.17201E-02 -0.14950E-02  0.96435E-03
  0.32125E-02  0.78348E-03  0.96435E-03
  0.28041E-02  0.12576E-02  0.96435E-03
  0.23033E-02  0.18674E-02  0.96435E-03
 -0.40296E-03  0.28792E-02  0.96435E-03
 -0.12093E-02  0.27099E-02  0.96435E-03
 -0.19439E-02  0.24591E-02  0.96435E-03
 -0.25022E-02  0.22358E-02  0.96435E-03
 -0.26350E-02  0.16502E-02  0.96435E-03
 -0.27599E-02  0.88095E-03  0.96435E-03
 -0.21155E-02 -0.21374E-02  0.96435E-03
 -0.16097E-02 -0.26936E-02  0.96435E-03
 -0.11965E-02 -0.31290E-02  0.96435E-03
 -0.59444E-03 -0.30381E-02  0.96435E-03
  0.19977E-03 -0.28751E-02  0.96435E-03
  0.10515E-02 -0.26484E-02  0.96435E-03
  0.18423E-02 -0.23754E-02  0.96435E-03
  0.24573E-02 -0.21571E-02  0.96435E-03
  0.26039E-02 -0.15080E-02  0.96435E-03
  0.37964E-02  0.93572E-03  0.96435E-03
  0.39100E-02  0.00000E+00  0.96435E-03
  0.34621E-02  0.18171E-02  0.96435E-03
  0.29267E-02  0.25928E-02  0.96435E-03
  0.22211E-02  0.32179E-02  0.96435E-03
  0.13865E-02  0.36559E-02  0.96435E-03
  0.47130E-03  0.38815E-02  0.96435E-03
 -0.47130E-03  0.38815E-02  0.96435E-03
 -0.13865E-02  0.36559E-02  0.96435E-03
 -0.22211E-02  0.32179E-02  0.96435E-03
 -0.29267E-02  0.25928E-02  0.96435E-03
 -0.34621E-02  0.18171E-02  0.96435E-03
 -0.37964E-02  0.93572E-03  0.96435E-03
 -0.39100E-02  0.47884E-18  0.96435E-03
 -0.37964E-02 -0.93572E-03  0.96435E-03
 -0.34621E-02 -0.18171E-02  0.96435E-03
 -0.29267E-02 -0.25928E-02  0.96435E-03
 -0.22211E-02 -0.32179E-02  0.96435E-03
 -0.13865E-02 -0.36559E-02  0.96435E-03
 -0.47130E-03 -0.38815E-02  0.96435E-03
  0.47130E-03 -0.38815E-02  0.96435E-03
  0.13865E-02 -0.36559E-02  0.96435E-03
  0.22211E-02 -0.32179E-02  0.96435E-03
  0.29267E-02 -0.25928E-02  0.96435E-03
  0.34621E-02 -0.18171E-02  0.96435E-03
  0.37964E-02 -0.93572E-03  0.96435E-03
  
CELLS       3486               17724
       1       0
       1       1
       1       2
       1       3
       1       4
       1       5
       1       6
       1       7
       1       8
       1       9
       1      10
       1      11
       1      12
       1      13
       1      14
       1      15
       1      16
       1      17
       1      18
       1      19
       1      20
       1      21
       1      22
       1      23
       1      24
       1      25
       1      26
       1      27
       1      28
       1      29
       1      30
       1      31
       1      32
       1      33
       1      34
       1      35
       1      36
       1      37
       1      38
       1      39
       1      40
       1      41
       1      42
       1      43
       1      44
       1      45
       1      46
       1      47
       1      48
       1      49
       1      50
       1      51
       1      52
       1      53
       1      54
       1      55
       1      56
       1      57
       1      58
       1      59
       1      60
       1      61
       1      62
       1      63
       1      64
       1      65
       1      66
       1      67
       1      68
       1      69
       1      70
       1      71
       1      72
       1      73
       1      74
       1      75
       1      76
       1      77
       1      78
       1      79
       1      80
       1      81
       1      82
       1      83
       1      84
       1      85
       1      86
       1      87
       1      88
       1      89
       1      90
       1      91
       1      92
       1      93
       1      94
       1      95
       1      96
       1      97
       1      98
       1      99
       1     100
       1     101
       1     102
       1     103
       1     104
       1     105
       1     106
       1     107
       1     108
       1     109
       1     110
       1     111
       1     112
       1     113
       1     114
       1     115
       1     116
       1     117
       1     118
       1     119
       1     120
       1     121
       1     122
       1     123
       1     124
       1     125
       1     126
       1     127
       1     128
       1     129
       1     130
       1     131
       1     132
       1     133
       1     134
       1     135
       1     136
       1     137
       1     138
       1     139
       1     140
       1     141
       1     142
       1     143
       1     144
       1     145
       1     146
       1     147
       1     148
       1     149
       1     150
       1     151
       1     152
       1     153
       1     154
       1     155
       1     156
       1     157
       1     158
       1     159
       1     160
       1     161
       1     162
       1     163
       1     164
       1     165
       1     166
       1     167
       1     168
       1     169
       1     170
       1     171
       1     172
       1     173
       1     174
       1     175
       1     176
       1     177
       1     178
       1     179
       1     180
       1     181
       1     182
       1     183
       1     184
       1     185
       1     186
       1     187
       1     188
       1     189
       1     190
       1     191
       1     192
       1     193
       1     194
       1     195
       1     196
       1     197
       1     198
       1     199
       1     200
       1     201
       1     202
       1     203
       1     204
       1     205
       1     206
       1     207
       1     208
       1     209
       1     210
       1     211
       1     212
       1     213
       1     214
       1     215
       1     216
       1     217
       1     218
       1     219
       1     220
       1     221
       1     222
       1     223
       1     224
       1     225
       1     226
       1     227
       1     228
       1     229
       1     230
       1     231
       1     232
       1     233
       1     234
       1     235
       1     236
       1     237
       1     238
       1     239
       1     240
       1     241
       1     242
       1     243
       1     244
       1     245
       1     246
       1     247
       1     248
       1     249
       1     250
       1     251
       1     252
       1     253
       1     254
       1     255
       1     256
       1     257
       1     258
       1     259
       1     260
       1     261
       1     262
       1     263
       1     264
       1     265
       1     266
       1     267
       1     268
       1     269
       1     270
       1     271
       1     272
       1     273
       1     274
       1     275
       1     276
       1     277
       1     278
       1     279
       1     280
       1     281
       1     282
       1     283
       1     284
       1     285
       1     286
       1     287
       1     288
       1     289
       1     290
       1     291
       1     292
       1     293
       1     294
       1     295
       1     296
       1     297
       1     298
       1     299
       1     300
       1     301
       1     302
       1     303
       1     304
       1     305
       1     306
       1     307
       1     308
       1     309
       1     310
       1     311
       1     312
       1     313
       1     314
       1     315
       1     316
       1     317
       1     318
       1     319
       1     320
       1     321
       1     322
       1     323
       1     324
       1     325
       1     326
       1     327
       1     328
       1     329
       1     330
       1     331
       1     332
       1     333
       1     334
       1     335
       1     336
       1     337
       1     338
       1     339
       1     340
       1     341
       1     342
       1     343
       1     344
       1     345
       1     346
       1     347
       1     348
       1     349
       1     350
       1     351
       1     352
       1     353
       1     354
       1     355
       1     356
       1     357
       1     358
       1     359
       1     360
       1     361
       1     362
       1     363
       1     364
       1     365
       1     366
       1     367
       1     368
       1     369
       1     370
       1     371
       1     372
       1     373
       1     374
       1     375
       1     376
       1     377
       1     378
       1     379
       1     380
       1     381
       1     382
       1     383
       1     384
       1     385
       1     386
       1     387
       1     388
       1     389
       1     390
       1     391
       1     392
       1     393
       1     394
       1     395
       1     396
       1     397
       1     398
       1     399
       1     400
       1     401
       1     402
       1     403
       1     404
       1     405
       1     406
       1     407
       1     408
       1     409
       1     410
       1     411
       1     412
       1     413
       1     414
       1     415
       1     416
       1     417
       1     418
       1     419
       1     420
       1     421
       1     422
       1     423
       1     424
       1     425
       1     426
       1     427
       1     428
       1     429
       1     430
       1     431
       1     432
       1     433
       1     434
       1     435
       1     436
       1     437
       1     438
       1     439
       1     440
       1     441
       1     442
       1     443
       1     444
       1     445
       1     446
       1     447
       1     448
       1     449
       1     450
       1     451
       1     452
       1     453
       1     454
       1     455
       1     456
       1     457
       1     458
       1     459
       1     460
       1     461
       1     462
       1     463
       1     464
       1     465
       1     466
       1     467
       1     468
       1     469
       1     470
       1     471
       1     472
       1     473
       1     474
       1     475
       1     476
       1     477
       1     478
       1     479
       1     480
       1     481
       1     482
       1     483
       1     484
       1     485
       1     486
       1     487
       1     488
       1     489
       1     490
       1     491
       1     492
       1     493
       1     494
       1     495
       1     496
       1     497
       1     498
       1     499
       1     500
       1     501
       1     502
       1     503
       1     504
       1     505
       1     506
       1     507
       1     508
       1     509
       1     510
       1     511
       1     512
       1     513
       1     514
       1     515
       1     516
       1     517
       1     518
       1     519
       1     520
       1     521
       1     522
       1     523
       1     524
       1     525
       1     526
       1     527
       1     528
       1     529
       1     530
       1     531
       1     532
       1     533
       1     534
       1     535
       1     536
       1     537
       1     538
       1     539
       1     540
       1     541
       1     542
       1     543
       1     544
       1     545
       1     546
       1     547
       1     548
       1     549
       1     550
       1     551
       1     552
       1     553
       1     554
       1     555
       1     556
       1     557
       1     558
       1     559
       1     560
       1     561
       1     562
       1     563
       1     564
       1     565
       1     566
       1     567
       1     568
       1     569
       1     570
       1     571
       1     572
       1     573
       1     574
       1     575
       1     576
       1     577
       1     578
       1     579
       1     580
       1     581
       1     582
       1     583
       1     584
       1     585
       1     586
       1     587
       1     588
       1     589
       1     590
       1     591
       1     592
       1     593
       1     594
       1     595
       1     596
       1     597
       1     598
       1     599
       1     600
       1     601
       1     602
       1     603
       1     604
       1     605
       1     606
       1     607
       1     608
       1     609
       1     610
       1     611
       1     612
       1     613
       1     614
       1     615
       1     616
       1     617
       1     618
       1     619
       1     620
       1     621
       1     622
       1     623
       1     624
       1     625
       1     626
       1     627
       1     628
       1     629
       1     630
       1     631
       1     632
       1     633
       1     634
       1     635
       1     636
       1     637
       1     638
       1     639
       1     640
       1     641
       1     642
       1     643
       1     644
       1     645
       1     646
       1     647
       1     648
       1     649
       1     650
       1     651
       1     652
       1     653
       1     654
       1     655
       1     656
       1     657
       1     658
       1     659
       1     660
       1     661
       1     662
       1     663
       1     664
       1     665
       1     666
       1     667
       1     668
       1     669
       1     670
       1     671
       1     672
       1     673
       1     674
       1     675
       1     676
       1     677
       1     678
       1     679
       1     680
       1     681
       1     682
       1     683
       1     684
       1     685
       1     686
       1     687
       1     688
       1     689
       1     690
       1     691
       1     692
       1     693
       1     694
       1     695
       1     696
       1     697
       1     698
       1     699
       1     700
       1     701
       1     702
       1     703
       1     704
       1     705
       1     706
       1     707
       1     708
       1     709
       1     710
       1     711
       1     712
       1     713
       1     714
       1     715
       1     716
       1     717
       1     718
       1     719
       1     720
       1     721
       1     722
       1     723
       1     724
       1     725
       1     726
       1     727
       1     728
       1     729
       1     730
       1     731
       1     732
       1     733
       1     734
       1     735
       1     736
       1     737
       1     738
       1     739
       1     740
       1     741
       1     742
       1     743
       1     744
       1     745
       1     746
       1     747
       1     748
       1     749
       1     750
       1     751
       1     752
       1     753
       1     754
       1     755
       1     756
       1     757
       1     758
       1     759
       1     760
       1     761
       1     762
       1     763
       1     764
       1     765
       1     766
       1     767
       1     768
       1     769
       1     770
       1     771
       1     772
       1     773
       1     774
       1     775
       1     776
       1     777
       1     778
       1     779
       1     780
       1     781
       1     782
       1     783
       1     784
       1     785
       1     786
       1     787
       1     788
       1     789
       1     790
       1     791
       1     792
       1     793
       1     794
       1     795
       1     796
       1     797
       1     798
       1     799
       1     800
       1     801
       1     802
       1     803
       1     804
       1     805
       1     806
       1     807
       1     808
       1     809
       1     810
       1     811
       1     812
       1     813
       1     814
       1     815
       1     816
       1     817
       1     818
       1     819
       1     820
       1     821
       1     822
       1     823
       1     824
       1     825
       1     826
       1     827
       1     828
       1     829
       1     830
       1     831
       1     832
       1     833
       1     834
       1     835
       1     836
       1     837
       1     838
       1     839
       1     840
       1     841
       1     842
       1     843
       1     844
       1     845
       1     846
       1     847
       1     848
       1     849
       1     850
       1     851
       1     852
       1     853
       1     854
       1     855
       1     856
       1     857
       1     858
       1     859
       1     860
       1     861
       1     862
       1     863
       1     864
       1     865
       1     866
       1     867
       1     868
       1     869
       1     870
       1     871
       1     872
       1     873
       1     874
       1     875
       1     876
       1     877
       1     878
       1     879
       1     880
       1     881
       1     882
       1     883
       1     884
       1     885
       1     886
       1     887
       1     888
       1     889
       1     890
       1     891
       1     892
       1     893
       1     894
       1     895
       1     896
       1     897
       1     898
       1     899
       1     900
       1     901
       1     902
       1     903
       1     904
       1     905
       1     906
       1     907
       1     908
       1     909
       1     910
       1     911
       1     912
       1     913
       1     914
       1     915
       1     916
       1     917
       1     918
       1     919
       1     920
       1     921
       1     922
       1     923
       1     924
       1     925
       1     926
       1     927
       1     928
       1     929
       1     930
       1     931
       1     932
       1     933
       1     934
       1     935
       1     936
       1     937
       1     938
       1     939
       1     940
       1     941
       1     942
       1     943
       1     944
       1     945
       1     946
       1     947
       1     948
       1     949
       1     950
       1     951
       1     952
       1     953
       1     954
       1     955
       1     956
       1     957
       1     958
       1     959
       1     960
       1     961
       1     962
       1     963
       1     964
       1     965
       1     966
       1     967
       1     968
       1     969
       1     970
       1     971
       1     972
       1     973
       1     974
       1     975
       1     976
       1     977
       1     978
       1     979
       1     980
       1     981
       1     982
       1     983
       1     984
       1     985
       1     986
       1     987
       1     988
       1     989
       1     990
       1     991
       1     992
       1     993
       1     994
       1     995
       1     996
       1     997
       1     998
       1     999
       1    1000
       1    1001
       1    1002
       1    1003
       1    1004
       1    1005
       1    1006
       1    1007
       1    1008
       1    1009
       1    1010
       1    1011
       1    1012
       1    1013
       1    1014
       1    1015
       1    1016
       1    1017
       1    1018
       1    1019
       1    1020
       1    1021
       1    1022
       1    1023
       1    1024
       1    1025
       1    1026
       1    1027
       1    1028
       1    1029
       1    1030
       1    1031
       1    1032
       1    1033
       1    1034
       1    1035
       1    1036
       1    1037
       1    1038
       1    1039
       1    1040
       1    1041
       1    1042
       1    1043
       1    1044
       1    1045
       1    1046
       1    1047
       1    1048
       1    1049
       1    1050
       1    1051
       1    1052
       1    1053
       1    1054
       1    1055
       1    1056
       1    1057
       1    1058
       1    1059
       1    1060
       1    1061
       1    1062
       1    1063
       1    1064
       1    1065
       1    1066
       1    1067
       1    1068
       1    1069
       1    1070
       1    1071
       1    1072
       1    1073
       1    1074
       1    1075
       1    1076
       1    1077
       1    1078
       1    1079
       1    1080
       1    1081
       1    1082
       1    1083
       1    1084
       1    1085
       1    1086
       1    1087
       1    1088
       1    1089
       1    1090
       1    1091
       1    1092
       1    1093
       1    1094
       1    1095
       1    1096
       1    1097
       1    1098
       1    1099
       1    1100
       1    1101
       1    1102
       1    1103
       1    1104
       1    1105
       1    1106
       1    1107
       1    1108
       1    1109
       1    1110
       1    1111
       1    1112
       1    1113
       1    1114
       1    1115
       1    1116
       1    1117
       1    1118
       1    1119
       1    1120
       1    1121
       1    1122
       1    1123
       1    1124
       1    1125
       1    1126
       1    1127
       1    1128
       1    1129
       1    1130
       1    1131
       1    1132
       1    1133
       1    1134
       1    1135
       1    1136
       1    1137
       1    1138
       1    1139
       1    1140
       1    1141
       1    1142
       1    1143
       1    1144
       1    1145
       1    1146
       1    1147
       1    1148
       1    1149
       1    1150
       1    1151
       1    1152
       1    1153
       1    1154
       1    1155
       1    1156
       1    1157
       1    1158
       1    1159
       1    1160
       1    1161
       1    1162
       1    1163
       1    1164
       1    1165
       1    1166
       1    1167
       1    1168
       1    1169
       1    1170
       1    1171
       1    1172
       1    1173
       1    1174
       1    1175
       1    1176
       1    1177
       1    1178
       1    1179
       1    1180
       1    1181
       1    1182
       1    1183
       1    1184
       1    1185
       1    1186
       1    1187
       1    1188
       1    1189
       1    1190
       1    1191
       1    1192
       1    1193
       1    1194
       1    1195
       1    1196
       1    1197
       1    1198
       1    1199
       1    1200
       1    1201
       1    1202
       1    1203
       1    1204
       1    1205
       1    1206
       1    1207
       1    1208
       1    1209
       1    1210
       1    1211
       1    1212
       1    1213
       1    1214
       1    1215
       1    1216
       1    1217
       1    1218
       1    1219
       1    1220
       1    1221
       1    1222
       1    1223
       1    1224
       1    1225
       1    1226
       1    1227
       1    1228
       1    1229
       1    1230
       1    1231
       1    1232
       1    1233
       1    1234
       1    1235
       1    1236
       1    1237
       1    1238
       1    1239
       1    1240
       1    1241
       1    1242
       1    1243
       1    1244
       1    1245
       1    1246
       1    1247
       1    1248
       1    1249
       1    1250
       1    1251
       1    1252
       1    1253
       1    1254
       1    1255
       1    1256
       1    1257
       1    1258
       1    1259
       1    1260
       1    1261
       1    1262
       1    1263
       1    1264
       1    1265
       1    1266
       1    1267
       1    1268
       1    1269
       1    1270
       1    1271
       1    1272
       1    1273
       1    1274
       1    1275
       1    1276
       1    1277
       1    1278
       1    1279
       1    1280
       1    1281
       1    1282
       1    1283
       1    1284
       1    1285
       1    1286
       1    1287
       1    1288
       1    1289
       1    1290
       1    1291
       1    1292
       1    1293
       1    1294
       1    1295
       1    1296
       1    1297
       1    1298
       1    1299
       1    1300
       1    1301
       1    1302
       1    1303
       1    1304
       1    1305
       1    1306
       1    1307
       1    1308
       1    1309
       1    1310
       1    1311
       1    1312
       1    1313
       1    1314
       1    1315
       1    1316
       1    1317
       1    1318
       1    1319
       1    1320
       1    1321
       1    1322
       1    1323
       1    1324
       1    1325
       1    1326
       1    1327
       1    1328
       1    1329
       1    1330
       1    1331
       1    1332
       1    1333
       1    1334
       1    1335
       1    1336
       1    1337
       1    1338
       1    1339
       1    1340
       1    1341
       1    1342
       1    1343
       1    1344
       1    1345
       1    1346
       1    1347
       1    1348
       1    1349
       1    1350
       1    1351
       1    1352
       1    1353
       1    1354
       1    1355
       1    1356
       1    1357
       1    1358
       1    1359
       1    1360
       1    1361
       1    1362
       1    1363
       1    1364
       1    1365
       1    1366
       1    1367
       1    1368
       1    1369
       1    1370
       1    1371
       1    1372
       1    1373
       1    1374
       1    1375
       1    1376
       1    1377
       1    1378
       1    1379
       1    1380
       1    1381
       1    1382
       1    1383
       1    1384
       1    1385
       1    1386
       1    1387
       1    1388
       1    1389
       1    1390
       1    1391
       1    1392
       1    1393
       1    1394
       1    1395
       1    1396
       1    1397
       1    1398
       1    1399
       1    1400
       1    1401
       1    1402
       1    1403
       1    1404
       1    1405
       1    1406
       1    1407
       1    1408
       1    1409
       1    1410
       1    1411
       1    1412
       1    1413
       1    1414
       1    1415
       1    1416
       1    1417
       1    1418
       1    1419
       1    1420
       1    1421
       1    1422
       1    1423
       1    1424
       1    1425
       1    1426
       1    1427
       1    1428
       1    1429
       1    1430
       1    1431
       1    1432
       1    1433
       1    1434
       1    1435
       1    1436
       1    1437
       1    1438
       1    1439
       1    1440
       1    1441
       1    1442
       1    1443
       1    1444
       1    1445
       1    1446
       1    1447
       1    1448
       1    1449
       1    1450
       1    1451
       1    1452
       1    1453
       1    1454
       1    1455
       1    1456
       1    1457
       1    1458
       1    1459
       1    1460
       1    1461
       1    1462
       1    1463
       1    1464
       1    1465
       1    1466
       1    1467
       1    1468
       1    1469
       1    1470
       1    1471
       1    1472
       1    1473
       1    1474
       1    1475
       1    1476
       1    1477
       1    1478
       1    1479
       1    1480
       1    1481
       1    1482
       1    1483
       1    1484
       1    1485
       1    1486
       1    1487
       1    1488
       1    1489
       1    1490
       1    1491
       1    1492
       1    1493
       1    1494
       1    1495
       1    1496
       1    1497
       1    1498
       1    1499
       1    1500
       1    1501
       1    1502
       1    1503
       1    1504
       1    1505
       1    1506
       1    1507
       1    1508
       1    1509
       1    1510
       1    1511
       1    1512
       1    1513
       1    1514
       1    1515
       1    1516
       1    1517
       1    1518
       1    1519
       1    1520
       1    1521
       1    1522
       1    1523
       1    1524
       1    1525
       1    1526
       1    1527
       1    1528
       1    1529
       1    1530
       1    1531
       1    1532
       1    1533
       1    1534
       1    1535
       1    1536
       1    1537
       1    1538
       1    1539
       1    1540
       1    1541
       1    1542
       1    1543
       1    1544
       1    1545
       1    1546
       1    1547
       1    1548
       1    1549
       1    1550
       1    1551
       1    1552
       1    1553
       1    1554
       1    1555
       1    1556
       1    1557
       1    1558
       1    1559
       1    1560
       1    1561
       1    1562
       1    1563
       1    1564
       1    1565
       1    1566
       1    1567
       1    1568
       1    1569
       1    1570
       1    1571
       1    1572
       1    1573
       1    1574
       1    1575
       1    1576
       1    1577
       1    1578
       1    1579
       1    1580
       1    1581
       1    1582
       1    1583
       1    1584
       1    1585
       1    1586
       1    1587
       1    1588
       1    1589
       1    1590
       1    1591
       1    1592
       1    1593
       1    1594
       1    1595
       1    1596
       1    1597
       1    1598
       1    1599
       1    1600
       1    1601
       1    1602
       1    1603
       1    1604
       1    1605
       1    1606
       1    1607
       1    1608
       1    1609
       1    1610
       1    1611
       1    1612
       1    1613
       1    1614
       1    1615
       1    1616
       1    1617
       1    1618
       1    1619
       1    1620
       1    1621
       1    1622
       1    1623
       1    1624
       1    1625
       1    1626
       1    1627
       1    1628
       1    1629
       1    1630
       1    1631
       1    1632
       1    1633
       1    1634
       1    1635
       1    1636
       1    1637
       1    1638
       1    1639
       1    1640
       1    1641
       1    1642
       1    1643
       1    1644
       1    1645
       1    1646
       1    1647
       1    1648
       1    1649
       1    1650
       1    1651
       1    1652
       1    1653
       1    1654
       1    1655
       1    1656
       1    1657
       1    1658
       1    1659
       1    1660
       1    1661
       1    1662
       1    1663
       1    1664
       1    1665
       1    1666
       1    1667
       1    1668
       1    1669
       1    1670
       1    1671
       1    1672
       1    1673
       1    1674
       1    1675
       1    1676
       1    1677
       1    1678
       1    1679
       1    1680
       1    1681
       1    1682
       1    1683
       1    1684
       1    1685
       1    1686
       1    1687
       1    1688
       1    1689
       1    1690
       1    1691
       1    1692
       1    1693
       1    1694
       1    1695
       1    1696
       1    1697
       1    1698
       1    1699
       1    1700
       1    1701
       1    1702
       1    1703
       1    1704
       1    1705
       1    1706
       1    1707
       1    1708
       1    1709
       1    1710
       1    1711
       1    1712
       1    1713
       1    1714
       1    1715
       1    1716
       1    1717
       1    1718
       1    1719
       1    1720
       1    1721
       1    1722
       1    1723
       1    1724
       1    1725
       1    1726
       1    1727
       1    1728
       1    1729
       1    1730
       1    1731
       1    1732
       1    1733
       1    1734
       1    1735
       1    1736
       1    1737
       1    1738
       1    1739
       1    1740
       1    1741
       1    1742
       1    1743
       1    1744
       1    1745
       1    1746
       1    1747
       1    1748
       1    1749
       1    1750
       1    1751
       1    1752
       1    1753
       1    1754
       1    1755
       1    1756
       1    1757
       1    1758
       1    1759
       1    1760
       1    1761
       1    1762
       1    1763
       1    1764
       1    1765
       1    1766
       1    1767
       1    1768
       1    1769
       1    1770
       1    1771
       1    1772
       1    1773
       1    1774
       1    1775
       1    1776
       1    1777
       1    1778
       1    1779
       1    1780
       1    1781
       1    1782
       1    1783
       1    1784
       1    1785
       1    1786
       1    1787
       1    1788
       1    1789
       1    1790
       1    1791
       1    1792
       1    1793
       1    1794
       1    1795
       1    1796
       1    1797
       1    1798
       1    1799
       1    1800
       1    1801
       1    1802
       1    1803
       1    1804
       1    1805
       1    1806
       1    1807
       1    1808
       1    1809
       1    1810
       1    1811
       1    1812
       1    1813
       1    1814
       1    1815
       1    1816
       1    1817
       1    1818
       1    1819
       1    1820
       1    1821
       1    1822
       1    1823
       1    1824
       1    1825
       1    1826
       1    1827
       1    1828
       1    1829
       1    1830
       1    1831
       1    1832
       1    1833
       1    1834
       1    1835
       1    1836
       1    1837
       1    1838
       1    1839
       1    1840
       1    1841
       1    1842
       1    1843
       1    1844
       1    1845
       1    1846
       1    1847
       1    1848
       1    1849
       1    1850
       1    1851
       1    1852
       1    1853
       1    1854
       1    1855
       1    1856
       1    1857
       1    1858
       1    1859
       1    1860
       1    1861
       1    1862
       1    1863
       1    1864
       1    1865
       1    1866
       1    1867
       1    1868
       1    1869
       1    1870
       1    1871
       1    1872
       1    1873
       1    1874
       1    1875
       1    1876
       1    1877
       1    1878
       1    1879
       1    1880
       1    1881
       1    1882
       1    1883
       1    1884
       1    1885
       1    1886
       1    1887
       1    1888
       1    1889
       1    1890
       1    1891
       1    1892
       1    1893
       1    1894
       1    1895
       1    1896
       1    1897
       1    1898
       1    1899
       1    1900
       1    1901
       1    1902
       1    1903
       1    1904
       1    1905
       1    1906
       1    1907
       1    1908
       1    1909
       1    1910
       1    1911
       1    1912
       1    1913
       1    1914
       1    1915
       1    1916
       1    1917
       1    1918
       1    1919
       1    1920
       1    1921
       1    1922
       1    1923
       1    1924
       1    1925
       1    1926
       1    1927
       1    1928
       1    1929
       1    1930
       1    1931
       1    1932
       1    1933
       1    1934
       1    1935
       1    1936
       1    1937
       1    1938
       1    1939
       1    1940
       1    1941
       1    1942
       1    1943
       1    1944
       1    1945
       1    1946
       1    1947
       1    1948
       1    1949
       8       0       1       2       3       4       5       6       7
       8       2       8       9       3       6      10      11       7
       8      12       1       0      13      14       5       4      15
       8       0      16      17      13       4      18      19      15
       8      20      21      22      12      23      24      25      14
       8      26      27      21      20      28      29      24      23
       8      13      26      20      12      15      28      23      14
       8      30      31      16      32      33      34      18      35
       8      36      37      31      30      38      39      34      33
       8      40      41      37      36      42      43      39      38
       8      44      40      36      45      46      42      38      47
       8      48      17      16      31      49      19      18      34
       8      30      50      45      36      33      51      47      38
       8       0       3      32      16       4       7      35      18
       8      52      26      13      17      53      28      15      19
       8      54      52      17      48      55      53      19      49
       8      56      54      48      57      58      55      49      59
       8      37      57      48      31      39      59      49      34
       8      60      61      50      30      62      63      51      33
       8      64      60      30      32      65      62      33      35
       8      66      64      32       3      67      65      35       7
       8      68       8       2      69      70      10       6      71
       8      72      69       2       1      73      71       6       5
       8      22      72       1      12      25      73       5      14
       8      74      27      26      52      75      29      28      53
       8      76      74      52      54      77      75      53      55
       8      78      76      54      56      79      77      55      58
       8      80      78      56      81      82      79      58      83
       8      84      81      56      57      85      83      58      59
       8      41      84      57      37      43      85      59      39
       8      86      44      45      50      87      46      47      51
       8      88      86      50      61      89      87      51      63
       8      90      88      61      91      92      89      63      93
       8      94      91      61      60      95      93      63      62
       8      96      94      60      64      97      95      62      65
       8      98      96      64      66      99      97      65      67
       8     100      98      66     101     102      99      67     103
       8       9     101      66       3      11     103      67       7
       8     104     105       8      68     106     107      10      70
       8     108     104      68      69     109     106      70      71
       8     110     108      69      72     111     109      71      73
       8     112     110      72      22     113     111      73      25
       8     114     112      22      21     115     113      25      24
       8     116     114      21      27     117     115      24      29
       8     118     116      27      74     119     117      29      75
       8     120     118      74      76     121     119      75      77
       8     122     120      76      78     123     121      77      79
       8     124     122      78      80     125     123      79      82
       8     126     124      80      81     127     125      82      83
       8     128     126      81      84     129     127      83      85
       8     130     128      84      41     131     129      85      43
       8     132     130      41      40     133     131      43      42
       8     134     132      40      44     135     133      42      46
       8     136     134      44      86     137     135      46      87
       8     138     136      86      88     139     137      87      89
       8     140     138      88      90     141     139      89      92
       8     142     140      90      91     143     141      92      93
       8     144     142      91      94     145     143      93      95
       8     146     144      94      96     147     145      95      97
       8     148     146      96      98     149     147      97      99
       8     150     148      98     100     151     149      99     102
       8     152     150     100     101     153     151     102     103
       8     154     152     101       9     155     153     103      11
       8     105     154       9       8     107     155      11      10
       8     156     157     158     159       0       1       2       3
       8     158     160     161     159       2       8       9       3
       8     162     157     156     163      12       1       0      13
       8     156     164     165     163       0      16      17      13
       8     166     167     168     162      20      21      22      12
       8     169     170     167     166      26      27      21      20
       8     163     169     166     162      13      26      20      12
       8     171     172     164     173      30      31      16      32
       8     174     175     172     171      36      37      31      30
       8     176     177     175     174      40      41      37      36
       8     178     176     174     179      44      40      36      45
       8     180     165     164     172      48      17      16      31
       8     171     181     179     174      30      50      45      36
       8     156     159     173     164       0       3      32      16
       8     182     169     163     165      52      26      13      17
       8     183     182     165     180      54      52      17      48
       8     184     183     180     185      56      54      48      57
       8     175     185     180     172      37      57      48      31
       8     186     187     181     171      60      61      50      30
       8     188     186     171     173      64      60      30      32
       8     189     188     173     159      66      64      32       3
       8     190     160     158     191      68       8       2      69
       8     192     191     158     157      72      69       2       1
       8     168     192     157     162      22      72       1      12
       8     193     170     169     182      74      27      26      52
       8     194     193     182     183      76      74      52      54
       8     195     194     183     184      78      76      54      56
       8     196     195     184     197      80      78      56      81
       8     198     197     184     185      84      81      56      57
       8     177     198     185     175      41      84      57      37
       8     199     178     179     181      86      44      45      50
       8     200     199     181     187      88      86      50      61
       8     201     200     187     202      90      88      61      91
       8     203     202     187     186      94      91      61      60
       8     204     203     186     188      96      94      60      64
       8     205     204     188     189      98      96      64      66
       8     206     205     189     207     100      98      66     101
       8     161     207     189     159       9     101      66       3
       8     208     209     160     190     104     105       8      68
       8     210     208     190     191     108     104      68      69
       8     211     210     191     192     110     108      69      72
       8     212     211     192     168     112     110      72      22
       8     213     212     168     167     114     112      22      21
       8     214     213     167     170     116     114      21      27
       8     215     214     170     193     118     116      27      74
       8     216     215     193     194     120     118      74      76
       8     217     216     194     195     122     120      76      78
       8     218     217     195     196     124     122      78      80
       8     219     218     196     197     126     124      80      81
       8     220     219     197     198     128     126      81      84
       8     221     220     198     177     130     128      84      41
       8     222     221     177     176     132     130      41      40
       8     223     222     176     178     134     132      40      44
       8     224     223     178     199     136     134      44      86
       8     225     224     199     200     138     136      86      88
       8     226     225     200     201     140     138      88      90
       8     227     226     201     202     142     140      90      91
       8     228     227     202     203     144     142      91      94
       8     229     228     203     204     146     144      94      96
       8     230     229     204     205     148     146      96      98
       8     231     230     205     206     150     148      98     100
       8     232     231     206     207     152     150     100     101
       8     233     232     207     161     154     152     101       9
       8     209     233     161     160     105     154       9       8
       8     234     235     236     237     156     157     158     159
       8     236     238     239     237     158     160     161     159
       8     240     235     234     241     162     157     156     163
       8     234     242     243     241     156     164     165     163
       8     244     245     246     240     166     167     168     162
       8     247     248     245     244     169     170     167     166
       8     241     247     244     240     163     169     166     162
       8     249     250     242     251     171     172     164     173
       8     252     253     250     249     174     175     172     171
       8     254     255     253     252     176     177     175     174
       8     256     254     252     257     178     176     174     179
       8     258     243     242     250     180     165     164     172
       8     249     259     257     252     171     181     179     174
       8     234     237     251     242     156     159     173     164
       8     260     247     241     243     182     169     163     165
       8     261     260     243     258     183     182     165     180
       8     262     261     258     263     184     183     180     185
       8     253     263     258     250     175     185     180     172
       8     264     265     259     249     186     187     181     171
       8     266     264     249     251     188     186     171     173
       8     267     266     251     237     189     188     173     159
       8     268     238     236     269     190     160     158     191
       8     270     269     236     235     192     191     158     157
       8     246     270     235     240     168     192     157     162
       8     271     248     247     260     193     170     169     182
       8     272     271     260     261     194     193     182     183
       8     273     272     261     262     195     194     183     184
       8     274     273     262     275     196     195     184     197
       8     276     275     262     263     198     197     184     185
       8     255     276     263     253     177     198     185     175
       8     277     256     257     259     199     178     179     181
       8     278     277     259     265     200     199     181     187
       8     279     278     265     280     201     200     187     202
       8     281     280     265     264     203     202     187     186
       8     282     281     264     266     204     203     186     188
       8     283     282     266     267     205     204     188     189
       8     284     283     267     285     206     205     189     207
       8     239     285     267     237     161     207     189     159
       8     286     287     238     268     208     209     160     190
       8     288     286     268     269     210     208     190     191
       8     289     288     269     270     211     210     191     192
       8     290     289     270     246     212     211     192     168
       8     291     290     246     245     213     212     168     167
       8     292     291     245     248     214     213     167     170
       8     293     292     248     271     215     214     170     193
       8     294     293     271     272     216     215     193     194
       8     295     294     272     273     217     216     194     195
       8     296     295     273     274     218     217     195     196
       8     297     296     274     275     219     218     196     197
       8     298     297     275     276     220     219     197     198
       8     299     298     276     255     221     220     198     177
       8     300     299     255     254     222     221     177     176
       8     301     300     254     256     223     222     176     178
       8     302     301     256     277     224     223     178     199
       8     303     302     277     278     225     224     199     200
       8     304     303     278     279     226     225     200     201
       8     305     304     279     280     227     226     201     202
       8     306     305     280     281     228     227     202     203
       8     307     306     281     282     229     228     203     204
       8     308     307     282     283     230     229     204     205
       8     309     308     283     284     231     230     205     206
       8     310     309     284     285     232     231     206     207
       8     311     310     285     239     233     232     207     161
       8     287     311     239     238     209     233     161     160
       8     312     313     314     315     234     235     236     237
       8     314     316     317     315     236     238     239     237
       8     318     313     312     319     240     235     234     241
       8     312     320     321     319     234     242     243     241
       8     322     323     324     318     244     245     246     240
       8     325     326     323     322     247     248     245     244
       8     319     325     322     318     241     247     244     240
       8     327     328     320     329     249     250     242     251
       8     330     331     328     327     252     253     250     249
       8     332     333     331     330     254     255     253     252
       8     334     332     330     335     256     254     252     257
       8     336     321     320     328     258     243     242     250
       8     327     337     335     330     249     259     257     252
       8     312     315     329     320     234     237     251     242
       8     338     325     319     321     260     247     241     243
       8     339     338     321     336     261     260     243     258
       8     340     339     336     341     262     261     258     263
       8     331     341     336     328     253     263     258     250
       8     342     343     337     327     264     265     259     249
       8     344     342     327     329     266     264     249     251
       8     345     344     329     315     267     266     251     237
       8     346     316     314     347     268     238     236     269
       8     348     347     314     313     270     269     236     235
       8     324     348     313     318     246     270     235     240
       8     349     326     325     338     271     248     247     260
       8     350     349     338     339     272     271     260     261
       8     351     350     339     340     273     272     261     262
       8     352     351     340     353     274     273     262     275
       8     354     353     340     341     276     275     262     263
       8     333     354     341     331     255     276     263     253
       8     355     334     335     337     277     256     257     259
       8     356     355     337     343     278     277     259     265
       8     357     356     343     358     279     278     265     280
       8     359     358     343     342     281     280     265     264
       8     360     359     342     344     282     281     264     266
       8     361     360     344     345     283     282     266     267
       8     362     361     345     363     284     283     267     285
       8     317     363     345     315     239     285     267     237
       8     364     365     316     346     286     287     238     268
       8     366     364     346     347     288     286     268     269
       8     367     366     347     348     289     288     269     270
       8     368     367     348     324     290     289     270     246
       8     369     368     324     323     291     290     246     245
       8     370     369     323     326     292     291     245     248
       8     371     370     326     349     293     292     248     271
       8     372     371     349     350     294     293     271     272
       8     373     372     350     351     295     294     272     273
       8     374     373     351     352     296     295     273     274
       8     375     374     352     353     297     296     274     275
       8     376     375     353     354     298     297     275     276
       8     377     376     354     333     299     298     276     255
       8     378     377     333     332     300     299     255     254
       8     379     378     332     334     301     300     254     256
       8     380     379     334     355     302     301     256     277
       8     381     380     355     356     303     302     277     278
       8     382     381     356     357     304     303     278     279
       8     383     382     357     358     305     304     279     280
       8     384     383     358     359     306     305     280     281
       8     385     384     359     360     307     306     281     282
       8     386     385     360     361     308     307     282     283
       8     387     386     361     362     309     308     283     284
       8     388     387     362     363     310     309     284     285
       8     389     388     363     317     311     310     285     239
       8     365     389     317     316     287     311     239     238
       8     390     391     392     393     312     313     314     315
       8     392     394     395     393     314     316     317     315
       8     396     391     390     397     318     313     312     319
       8     390     398     399     397     312     320     321     319
       8     400     401     402     396     322     323     324     318
       8     403     404     401     400     325     326     323     322
       8     397     403     400     396     319     325     322     318
       8     405     406     398     407     327     328     320     329
       8     408     409     406     405     330     331     328     327
       8     410     411     409     408     332     333     331     330
       8     412     410     408     413     334     332     330     335
       8     414     399     398     406     336     321     320     328
       8     405     415     413     408     327     337     335     330
       8     390     393     407     398     312     315     329     320
       8     416     403     397     399     338     325     319     321
       8     417     416     399     414     339     338     321     336
       8     418     417     414     419     340     339     336     341
       8     409     419     414     406     331     341     336     328
       8     420     421     415     405     342     343     337     327
       8     422     420     405     407     344     342     327     329
       8     423     422     407     393     345     344     329     315
       8     424     394     392     425     346     316     314     347
       8     426     425     392     391     348     347     314     313
       8     402     426     391     396     324     348     313     318
       8     427     404     403     416     349     326     325     338
       8     428     427     416     417     350     349     338     339
       8     429     428     417     418     351     350     339     340
       8     430     429     418     431     352     351     340     353
       8     432     431     418     419     354     353     340     341
       8     411     432     419     409     333     354     341     331
       8     433     412     413     415     355     334     335     337
       8     434     433     415     421     356     355     337     343
       8     435     434     421     436     357     356     343     358
       8     437     436     421     420     359     358     343     342
       8     438     437     420     422     360     359     342     344
       8     439     438     422     423     361     360     344     345
       8     440     439     423     441     362     361     345     363
       8     395     441     423     393     317     363     345     315
       8     442     443     394     424     364     365     316     346
       8     444     442     424     425     366     364     346     347
       8     445     444     425     426     367     366     347     348
       8     446     445     426     402     368     367     348     324
       8     447     446     402     401     369     368     324     323
       8     448     447     401     404     370     369     323     326
       8     449     448     404     427     371     370     326     349
       8     450     449     427     428     372     371     349     350
       8     451     450     428     429     373     372     350     351
       8     452     451     429     430     374     373     351     352
       8     453     452     430     431     375     374     352     353
       8     454     453     431     432     376     375     353     354
       8     455     454     432     411     377     376     354     333
       8     456     455     411     410     378     377     333     332
       8     457     456     410     412     379     378     332     334
       8     458     457     412     433     380     379     334     355
       8     459     458     433     434     381     380     355     356
       8     460     459     434     435     382     381     356     357
       8     461     460     435     436     383     382     357     358
       8     462     461     436     437     384     383     358     359
       8     463     462     437     438     385     384     359     360
       8     464     463     438     439     386     385     360     361
       8     465     464     439     440     387     386     361     362
       8     466     465     440     441     388     387     362     363
       8     467     466     441     395     389     388     363     317
       8     443     467     395     394     365     389     317     316
       8     468     469     470     471     390     391     392     393
       8     470     472     473     471     392     394     395     393
       8     474     469     468     475     396     391     390     397
       8     468     476     477     475     390     398     399     397
       8     478     479     480     474     400     401     402     396
       8     481     482     479     478     403     404     401     400
       8     475     481     478     474     397     403     400     396
       8     483     484     476     485     405     406     398     407
       8     486     487     484     483     408     409     406     405
       8     488     489     487     486     410     411     409     408
       8     490     488     486     491     412     410     408     413
       8     492     477     476     484     414     399     398     406
       8     483     493     491     486     405     415     413     408
       8     468     471     485     476     390     393     407     398
       8     494     481     475     477     416     403     397     399
       8     495     494     477     492     417     416     399     414
       8     496     495     492     497     418     417     414     419
       8     487     497     492     484     409     419     414     406
       8     498     499     493     483     420     421     415     405
       8     500     498     483     485     422     420     405     407
       8     501     500     485     471     423     422     407     393
       8     502     472     470     503     424     394     392     425
       8     504     503     470     469     426     425     392     391
       8     480     504     469     474     402     426     391     396
       8     505     482     481     494     427     404     403     416
       8     506     505     494     495     428     427     416     417
       8     507     506     495     496     429     428     417     418
       8     508     507     496     509     430     429     418     431
       8     510     509     496     497     432     431     418     419
       8     489     510     497     487     411     432     419     409
       8     511     490     491     493     433     412     413     415
       8     512     511     493     499     434     433     415     421
       8     513     512     499     514     435     434     421     436
       8     515     514     499     498     437     436     421     420
       8     516     515     498     500     438     437     420     422
       8     517     516     500     501     439     438     422     423
       8     518     517     501     519     440     439     423     441
       8     473     519     501     471     395     441     423     393
       8     520     521     472     502     442     443     394     424
       8     522     520     502     503     444     442     424     425
       8     523     522     503     504     445     444     425     426
       8     524     523     504     480     446     445     426     402
       8     525     524     480     479     447     446     402     401
       8     526     525     479     482     448     447     401     404
       8     527     526     482     505     449     448     404     427
       8     528     527     505     506     450     449     427     428
       8     529     528     506     507     451     450     428     429
       8     530     529     507     508     452     451     429     430
       8     531     530     508     509     453     452     430     431
       8     532     531     509     510     454     453     431     432
       8     533     532     510     489     455     454     432     411
       8     534     533     489     488     456     455     411     410
       8     535     534     488     490     457     456     410     412
       8     536     535     490     511     458     457     412     433
       8     537     536     511     512     459     458     433     434
       8     538     537     512     513     460     459     434     435
       8     539     538     513     514     461     460     435     436
       8     540     539     514     515     462     461     436     437
       8     541     540     515     516     463     462     437     438
       8     542     541     516     517     464     463     438     439
       8     543     542     517     518     465     464     439     440
       8     544     543     518     519     466     465     440     441
       8     545     544     519     473     467     466     441     395
       8     521     545     473     472     443     467     395     394
       8     546     547     548     549     468     469     470     471
       8     548     550     551     549     470     472     473     471
       8     552     547     546     553     474     469     468     475
       8     546     554     555     553     468     476     477     475
       8     556     557     558     552     478     479     480     474
       8     559     560     557     556     481     482     479     478
       8     553     559     556     552     475     481     478     474
       8     561     562     554     563     483     484     476     485
       8     564     565     562     561     486     487     484     483
       8     566     567     565     564     488     489     487     486
       8     568     566     564     569     490     488     486     491
       8     570     555     554     562     492     477     476     484
       8     561     571     569     564     483     493     491     486
       8     546     549     563     554     468     471     485     476
       8     572     559     553     555     494     481     475     477
       8     573     572     555     570     495     494     477     492
       8     574     573     570     575     496     495     492     497
       8     565     575     570     562     487     497     492     484
       8     576     577     571     561     498     499     493     483
       8     578     576     561     563     500     498     483     485
       8     579     578     563     549     501     500     485     471
       8     580     550     548     581     502     472     470     503
       8     582     581     548     547     504     503     470     469
       8     558     582     547     552     480     504     469     474
       8     583     560     559     572     505     482     481     494
       8     584     583     572     573     506     505     494     495
       8     585     584     573     574     507     506     495     496
       8     586     585     574     587     508     507     496     509
       8     588     587     574     575     510     509     496     497
       8     567     588     575     565     489     510     497     487
       8     589     568     569     571     511     490     491     493
       8     590     589     571     577     512     511     493     499
       8     591     590     577     592     513     512     499     514
       8     593     592     577     576     515     514     499     498
       8     594     593     576     578     516     515     498     500
       8     595     594     578     579     517     516     500     501
       8     596     595     579     597     518     517     501     519
       8     551     597     579     549     473     519     501     471
       8     598     599     550     580     520     521     472     502
       8     600     598     580     581     522     520     502     503
       8     601     600     581     582     523     522     503     504
       8     602     601     582     558     524     523     504     480
       8     603     602     558     557     525     524     480     479
       8     604     603     557     560     526     525     479     482
       8     605     604     560     583     527     526     482     505
       8     606     605     583     584     528     527     505     506
       8     607     606     584     585     529     528     506     507
       8     608     607     585     586     530     529     507     508
       8     609     608     586     587     531     530     508     509
       8     610     609     587     588     532     531     509     510
       8     611     610     588     567     533     532     510     489
       8     612     611     567     566     534     533     489     488
       8     613     612     566     568     535     534     488     490
       8     614     613     568     589     536     535     490     511
       8     615     614     589     590     537     536     511     512
       8     616     615     590     591     538     537     512     513
       8     617     616     591     592     539     538     513     514
       8     618     617     592     593     540     539     514     515
       8     619     618     593     594     541     540     515     516
       8     620     619     594     595     542     541     516     517
       8     621     620     595     596     543     542     517     518
       8     622     621     596     597     544     543     518     519
       8     623     622     597     551     545     544     519     473
       8     599     623     551     550     521     545     473     472
       8     624     625     626     627     546     547     548     549
       8     626     628     629     627     548     550     551     549
       8     630     625     624     631     552     547     546     553
       8     624     632     633     631     546     554     555     553
       8     634     635     636     630     556     557     558     552
       8     637     638     635     634     559     560     557     556
       8     631     637     634     630     553     559     556     552
       8     639     640     632     641     561     562     554     563
       8     642     643     640     639     564     565     562     561
       8     644     645     643     642     566     567     565     564
       8     646     644     642     647     568     566     564     569
       8     648     633     632     640     570     555     554     562
       8     639     649     647     642     561     571     569     564
       8     624     627     641     632     546     549     563     554
       8     650     637     631     633     572     559     553     555
       8     651     650     633     648     573     572     555     570
       8     652     651     648     653     574     573     570     575
       8     643     653     648     640     565     575     570     562
       8     654     655     649     639     576     577     571     561
       8     656     654     639     641     578     576     561     563
       8     657     656     641     627     579     578     563     549
       8     658     628     626     659     580     550     548     581
       8     660     659     626     625     582     581     548     547
       8     636     660     625     630     558     582     547     552
       8     661     638     637     650     583     560     559     572
       8     662     661     650     651     584     583     572     573
       8     663     662     651     652     585     584     573     574
       8     664     663     652     665     586     585     574     587
       8     666     665     652     653     588     587     574     575
       8     645     666     653     643     567     588     575     565
       8     667     646     647     649     589     568     569     571
       8     668     667     649     655     590     589     571     577
       8     669     668     655     670     591     590     577     592
       8     671     670     655     654     593     592     577     576
       8     672     671     654     656     594     593     576     578
       8     673     672     656     657     595     594     578     579
       8     674     673     657     675     596     595     579     597
       8     629     675     657     627     551     597     579     549
       8     676     677     628     658     598     599     550     580
       8     678     676     658     659     600     598     580     581
       8     679     678     659     660     601     600     581     582
       8     680     679     660     636     602     601     582     558
       8     681     680     636     635     603     602     558     557
       8     682     681     635     638     604     603     557     560
       8     683     682     638     661     605     604     560     583
       8     684     683     661     662     606     605     583     584
       8     685     684     662     663     607     606     584     585
       8     686     685     663     664     608     607     585     586
       8     687     686     664     665     609     608     586     587
       8     688     687     665     666     610     609     587     588
       8     689     688     666     645     611     610     588     567
       8     690     689     645     644     612     611     567     566
       8     691     690     644     646     613     612     566     568
       8     692     691     646     667     614     613     568     589
       8     693     692     667     668     615     614     589     590
       8     694     693     668     669     616     615     590     591
       8     695     694     669     670     617     616     591     592
       8     696     695     670     671     618     617     592     593
       8     697     696     671     672     619     618     593     594
       8     698     697     672     673     620     619     594     595
       8     699     698     673     674     621     620     595     596
       8     700     699     674     675     622     621     596     597
       8     701     700     675     629     623     622     597     551
       8     677     701     629     628     599     623     551     550
       8     702     703     704     705     624     625     626     627
       8     704     706     707     705     626     628     629     627
       8     708     703     702     709     630     625     624     631
       8     702     710     711     709     624     632     633     631
       8     712     713     714     708     634     635     636     630
       8     715     716     713     712     637     638     635     634
       8     709     715     712     708     631     637     634     630
       8     717     718     710     719     639     640     632     641
       8     720     721     718     717     642     643     640     639
       8     722     723     721     720     644     645     643     642
       8     724     722     720     725     646     644     642     647
       8     726     711     710     718     648     633     632     640
       8     717     727     725     720     639     649     647     642
       8     702     705     719     710     624     627     641     632
       8     728     715     709     711     650     637     631     633
       8     729     728     711     726     651     650     633     648
       8     730     729     726     731     652     651     648     653
       8     721     731     726     718     643     653     648     640
       8     732     733     727     717     654     655     649     639
       8     734     732     717     719     656     654     639     641
       8     735     734     719     705     657     656     641     627
       8     736     706     704     737     658     628     626     659
       8     738     737     704     703     660     659     626     625
       8     714     738     703     708     636     660     625     630
       8     739     716     715     728     661     638     637     650
       8     740     739     728     729     662     661     650     651
       8     741     740     729     730     663     662     651     652
       8     742     741     730     743     664     663     652     665
       8     744     743     730     731     666     665     652     653
       8     723     744     731     721     645     666     653     643
       8     745     724     725     727     667     646     647     649
       8     746     745     727     733     668     667     649     655
       8     747     746     733     748     669     668     655     670
       8     749     748     733     732     671     670     655     654
       8     750     749     732     734     672     671     654     656
       8     751     750     734     735     673     672     656     657
       8     752     751     735     753     674     673     657     675
       8     707     753     735     705     629     675     657     627
       8     754     755     706     736     676     677     628     658
       8     756     754     736     737     678     676     658     659
       8     757     756     737     738     679     678     659     660
       8     758     757     738     714     680     679     660     636
       8     759     758     714     713     681     680     636     635
       8     760     759     713     716     682     681     635     638
       8     761     760     716     739     683     682     638     661
       8     762     761     739     740     684     683     661     662
       8     763     762     740     741     685     684     662     663
       8     764     763     741     742     686     685     663     664
       8     765     764     742     743     687     686     664     665
       8     766     765     743     744     688     687     665     666
       8     767     766     744     723     689     688     666     645
       8     768     767     723     722     690     689     645     644
       8     769     768     722     724     691     690     644     646
       8     770     769     724     745     692     691     646     667
       8     771     770     745     746     693     692     667     668
       8     772     771     746     747     694     693     668     669
       8     773     772     747     748     695     694     669     670
       8     774     773     748     749     696     695     670     671
       8     775     774     749     750     697     696     671     672
       8     776     775     750     751     698     697     672     673
       8     777     776     751     752     699     698     673     674
       8     778     777     752     753     700     699     674     675
       8     779     778     753     707     701     700     675     629
       8     755     779     707     706     677     701     629     628
       8     780     781     782     783     702     703     704     705
       8     782     784     785     783     704     706     707     705
       8     786     781     780     787     708     703     702     709
       8     780     788     789     787     702     710     711     709
       8     790     791     792     786     712     713     714     708
       8     793     794     791     790     715     716     713     712
       8     787     793     790     786     709     715     712     708
       8     795     796     788     797     717     718     710     719
       8     798     799     796     795     720     721     718     717
       8     800     801     799     798     722     723     721     720
       8     802     800     798     803     724     722     720     725
       8     804     789     788     796     726     711     710     718
       8     795     805     803     798     717     727     725     720
       8     780     783     797     788     702     705     719     710
       8     806     793     787     789     728     715     709     711
       8     807     806     789     804     729     728     711     726
       8     808     807     804     809     730     729     726     731
       8     799     809     804     796     721     731     726     718
       8     810     811     805     795     732     733     727     717
       8     812     810     795     797     734     732     717     719
       8     813     812     797     783     735     734     719     705
       8     814     784     782     815     736     706     704     737
       8     816     815     782     781     738     737     704     703
       8     792     816     781     786     714     738     703     708
       8     817     794     793     806     739     716     715     728
       8     818     817     806     807     740     739     728     729
       8     819     818     807     808     741     740     729     730
       8     820     819     808     821     742     741     730     743
       8     822     821     808     809     744     743     730     731
       8     801     822     809     799     723     744     731     721
       8     823     802     803     805     745     724     725     727
       8     824     823     805     811     746     745     727     733
       8     825     824     811     826     747     746     733     748
       8     827     826     811     810     749     748     733     732
       8     828     827     810     812     750     749     732     734
       8     829     828     812     813     751     750     734     735
       8     830     829     813     831     752     751     735     753
       8     785     831     813     783     707     753     735     705
       8     832     833     784     814     754     755     706     736
       8     834     832     814     815     756     754     736     737
       8     835     834     815     816     757     756     737     738
       8     836     835     816     792     758     757     738     714
       8     837     836     792     791     759     758     714     713
       8     838     837     791     794     760     759     713     716
       8     839     838     794     817     761     760     716     739
       8     840     839     817     818     762     761     739     740
       8     841     840     818     819     763     762     740     741
       8     842     841     819     820     764     763     741     742
       8     843     842     820     821     765     764     742     743
       8     844     843     821     822     766     765     743     744
       8     845     844     822     801     767     766     744     723
       8     846     845     801     800     768     767     723     722
       8     847     846     800     802     769     768     722     724
       8     848     847     802     823     770     769     724     745
       8     849     848     823     824     771     770     745     746
       8     850     849     824     825     772     771     746     747
       8     851     850     825     826     773     772     747     748
       8     852     851     826     827     774     773     748     749
       8     853     852     827     828     775     774     749     750
       8     854     853     828     829     776     775     750     751
       8     855     854     829     830     777     776     751     752
       8     856     855     830     831     778     777     752     753
       8     857     856     831     785     779     778     753     707
       8     833     857     785     784     755     779     707     706
       8     858     859     860     861     780     781     782     783
       8     860     862     863     861     782     784     785     783
       8     864     859     858     865     786     781     780     787
       8     858     866     867     865     780     788     789     787
       8     868     869     870     864     790     791     792     786
       8     871     872     869     868     793     794     791     790
       8     865     871     868     864     787     793     790     786
       8     873     874     866     875     795     796     788     797
       8     876     877     874     873     798     799     796     795
       8     878     879     877     876     800     801     799     798
       8     880     878     876     881     802     800     798     803
       8     882     867     866     874     804     789     788     796
       8     873     883     881     876     795     805     803     798
       8     858     861     875     866     780     783     797     788
       8     884     871     865     867     806     793     787     789
       8     885     884     867     882     807     806     789     804
       8     886     885     882     887     808     807     804     809
       8     877     887     882     874     799     809     804     796
       8     888     889     883     873     810     811     805     795
       8     890     888     873     875     812     810     795     797
       8     891     890     875     861     813     812     797     783
       8     892     862     860     893     814     784     782     815
       8     894     893     860     859     816     815     782     781
       8     870     894     859     864     792     816     781     786
       8     895     872     871     884     817     794     793     806
       8     896     895     884     885     818     817     806     807
       8     897     896     885     886     819     818     807     808
       8     898     897     886     899     820     819     808     821
       8     900     899     886     887     822     821     808     809
       8     879     900     887     877     801     822     809     799
       8     901     880     881     883     823     802     803     805
       8     902     901     883     889     824     823     805     811
       8     903     902     889     904     825     824     811     826
       8     905     904     889     888     827     826     811     810
       8     906     905     888     890     828     827     810     812
       8     907     906     890     891     829     828     812     813
       8     908     907     891     909     830     829     813     831
       8     863     909     891     861     785     831     813     783
       8     910     911     862     892     832     833     784     814
       8     912     910     892     893     834     832     814     815
       8     913     912     893     894     835     834     815     816
       8     914     913     894     870     836     835     816     792
       8     915     914     870     869     837     836     792     791
       8     916     915     869     872     838     837     791     794
       8     917     916     872     895     839     838     794     817
       8     918     917     895     896     840     839     817     818
       8     919     918     896     897     841     840     818     819
       8     920     919     897     898     842     841     819     820
       8     921     920     898     899     843     842     820     821
       8     922     921     899     900     844     843     821     822
       8     923     922     900     879     845     844     822     801
       8     924     923     879     878     846     845     801     800
       8     925     924     878     880     847     846     800     802
       8     926     925     880     901     848     847     802     823
       8     927     926     901     902     849     848     823     824
       8     928     927     902     903     850     849     824     825
       8     929     928     903     904     851     850     825     826
       8     930     929     904     905     852     851     826     827
       8     931     930     905     906     853     852     827     828
       8     932     931     906     907     854     853     828     829
       8     933     932     907     908     855     854     829     830
       8     934     933     908     909     856     855     830     831
       8     935     934     909     863     857     856     831     785
       8     911     935     863     862     833     857     785     784
       8     936     937     938     939     858     859     860     861
       8     938     940     941     939     860     862     863     861
       8     942     937     936     943     864     859     858     865
       8     936     944     945     943     858     866     867     865
       8     946     947     948     942     868     869     870     864
       8     949     950     947     946     871     872     869     868
       8     943     949     946     942     865     871     868     864
       8     951     952     944     953     873     874     866     875
       8     954     955     952     951     876     877     874     873
       8     956     957     955     954     878     879     877     876
       8     958     956     954     959     880     878     876     881
       8     960     945     944     952     882     867     866     874
       8     951     961     959     954     873     883     881     876
       8     936     939     953     944     858     861     875     866
       8     962     949     943     945     884     871     865     867
       8     963     962     945     960     885     884     867     882
       8     964     963     960     965     886     885     882     887
       8     955     965     960     952     877     887     882     874
       8     966     967     961     951     888     889     883     873
       8     968     966     951     953     890     888     873     875
       8     969     968     953     939     891     890     875     861
       8     970     940     938     971     892     862     860     893
       8     972     971     938     937     894     893     860     859
       8     948     972     937     942     870     894     859     864
       8     973     950     949     962     895     872     871     884
       8     974     973     962     963     896     895     884     885
       8     975     974     963     964     897     896     885     886
       8     976     975     964     977     898     897     886     899
       8     978     977     964     965     900     899     886     887
       8     957     978     965     955     879     900     887     877
       8     979     958     959     961     901     880     881     883
       8     980     979     961     967     902     901     883     889
       8     981     980     967     982     903     902     889     904
       8     983     982     967     966     905     904     889     888
       8     984     983     966     968     906     905     888     890
       8     985     984     968     969     907     906     890     891
       8     986     985     969     987     908     907     891     909
       8     941     987     969     939     863     909     891     861
       8     988     989     940     970     910     911     862     892
       8     990     988     970     971     912     910     892     893
       8     991     990     971     972     913     912     893     894
       8     992     991     972     948     914     913     894     870
       8     993     992     948     947     915     914     870     869
       8     994     993     947     950     916     915     869     872
       8     995     994     950     973     917     916     872     895
       8     996     995     973     974     918     917     895     896
       8     997     996     974     975     919     918     896     897
       8     998     997     975     976     920     919     897     898
       8     999     998     976     977     921     920     898     899
       8    1000     999     977     978     922     921     899     900
       8    1001    1000     978     957     923     922     900     879
       8    1002    1001     957     956     924     923     879     878
       8    1003    1002     956     958     925     924     878     880
       8    1004    1003     958     979     926     925     880     901
       8    1005    1004     979     980     927     926     901     902
       8    1006    1005     980     981     928     927     902     903
       8    1007    1006     981     982     929     928     903     904
       8    1008    1007     982     983     930     929     904     905
       8    1009    1008     983     984     931     930     905     906
       8    1010    1009     984     985     932     931     906     907
       8    1011    1010     985     986     933     932     907     908
       8    1012    1011     986     987     934     933     908     909
       8    1013    1012     987     941     935     934     909     863
       8     989    1013     941     940     911     935     863     862
       8    1014    1015    1016    1017     936     937     938     939
       8    1016    1018    1019    1017     938     940     941     939
       8    1020    1015    1014    1021     942     937     936     943
       8    1014    1022    1023    1021     936     944     945     943
       8    1024    1025    1026    1020     946     947     948     942
       8    1027    1028    1025    1024     949     950     947     946
       8    1021    1027    1024    1020     943     949     946     942
       8    1029    1030    1022    1031     951     952     944     953
       8    1032    1033    1030    1029     954     955     952     951
       8    1034    1035    1033    1032     956     957     955     954
       8    1036    1034    1032    1037     958     956     954     959
       8    1038    1023    1022    1030     960     945     944     952
       8    1029    1039    1037    1032     951     961     959     954
       8    1014    1017    1031    1022     936     939     953     944
       8    1040    1027    1021    1023     962     949     943     945
       8    1041    1040    1023    1038     963     962     945     960
       8    1042    1041    1038    1043     964     963     960     965
       8    1033    1043    1038    1030     955     965     960     952
       8    1044    1045    1039    1029     966     967     961     951
       8    1046    1044    1029    1031     968     966     951     953
       8    1047    1046    1031    1017     969     968     953     939
       8    1048    1018    1016    1049     970     940     938     971
       8    1050    1049    1016    1015     972     971     938     937
       8    1026    1050    1015    1020     948     972     937     942
       8    1051    1028    1027    1040     973     950     949     962
       8    1052    1051    1040    1041     974     973     962     963
       8    1053    1052    1041    1042     975     974     963     964
       8    1054    1053    1042    1055     976     975     964     977
       8    1056    1055    1042    1043     978     977     964     965
       8    1035    1056    1043    1033     957     978     965     955
       8    1057    1036    1037    1039     979     958     959     961
       8    1058    1057    1039    1045     980     979     961     967
       8    1059    1058    1045    1060     981     980     967     982
       8    1061    1060    1045    1044     983     982     967     966
       8    1062    1061    1044    1046     984     983     966     968
       8    1063    1062    1046    1047     985     984     968     969
       8    1064    1063    1047    1065     986     985     969     987
       8    1019    1065    1047    1017     941     987     969     939
       8    1066    1067    1018    1048     988     989     940     970
       8    1068    1066    1048    1049     990     988     970     971
       8    1069    1068    1049    1050     991     990     971     972
       8    1070    1069    1050    1026     992     991     972     948
       8    1071    1070    1026    1025     993     992     948     947
       8    1072    1071    1025    1028     994     993     947     950
       8    1073    1072    1028    1051     995     994     950     973
       8    1074    1073    1051    1052     996     995     973     974
       8    1075    1074    1052    1053     997     996     974     975
       8    1076    1075    1053    1054     998     997     975     976
       8    1077    1076    1054    1055     999     998     976     977
       8    1078    1077    1055    1056    1000     999     977     978
       8    1079    1078    1056    1035    1001    1000     978     957
       8    1080    1079    1035    1034    1002    1001     957     956
       8    1081    1080    1034    1036    1003    1002     956     958
       8    1082    1081    1036    1057    1004    1003     958     979
       8    1083    1082    1057    1058    1005    1004     979     980
       8    1084    1083    1058    1059    1006    1005     980     981
       8    1085    1084    1059    1060    1007    1006     981     982
       8    1086    1085    1060    1061    1008    1007     982     983
       8    1087    1086    1061    1062    1009    1008     983     984
       8    1088    1087    1062    1063    1010    1009     984     985
       8    1089    1088    1063    1064    1011    1010     985     986
       8    1090    1089    1064    1065    1012    1011     986     987
       8    1091    1090    1065    1019    1013    1012     987     941
       8    1067    1091    1019    1018     989    1013     941     940
       8    1092    1093    1094    1095    1014    1015    1016    1017
       8    1094    1096    1097    1095    1016    1018    1019    1017
       8    1098    1093    1092    1099    1020    1015    1014    1021
       8    1092    1100    1101    1099    1014    1022    1023    1021
       8    1102    1103    1104    1098    1024    1025    1026    1020
       8    1105    1106    1103    1102    1027    1028    1025    1024
       8    1099    1105    1102    1098    1021    1027    1024    1020
       8    1107    1108    1100    1109    1029    1030    1022    1031
       8    1110    1111    1108    1107    1032    1033    1030    1029
       8    1112    1113    1111    1110    1034    1035    1033    1032
       8    1114    1112    1110    1115    1036    1034    1032    1037
       8    1116    1101    1100    1108    1038    1023    1022    1030
       8    1107    1117    1115    1110    1029    1039    1037    1032
       8    1092    1095    1109    1100    1014    1017    1031    1022
       8    1118    1105    1099    1101    1040    1027    1021    1023
       8    1119    1118    1101    1116    1041    1040    1023    1038
       8    1120    1119    1116    1121    1042    1041    1038    1043
       8    1111    1121    1116    1108    1033    1043    1038    1030
       8    1122    1123    1117    1107    1044    1045    1039    1029
       8    1124    1122    1107    1109    1046    1044    1029    1031
       8    1125    1124    1109    1095    1047    1046    1031    1017
       8    1126    1096    1094    1127    1048    1018    1016    1049
       8    1128    1127    1094    1093    1050    1049    1016    1015
       8    1104    1128    1093    1098    1026    1050    1015    1020
       8    1129    1106    1105    1118    1051    1028    1027    1040
       8    1130    1129    1118    1119    1052    1051    1040    1041
       8    1131    1130    1119    1120    1053    1052    1041    1042
       8    1132    1131    1120    1133    1054    1053    1042    1055
       8    1134    1133    1120    1121    1056    1055    1042    1043
       8    1113    1134    1121    1111    1035    1056    1043    1033
       8    1135    1114    1115    1117    1057    1036    1037    1039
       8    1136    1135    1117    1123    1058    1057    1039    1045
       8    1137    1136    1123    1138    1059    1058    1045    1060
       8    1139    1138    1123    1122    1061    1060    1045    1044
       8    1140    1139    1122    1124    1062    1061    1044    1046
       8    1141    1140    1124    1125    1063    1062    1046    1047
       8    1142    1141    1125    1143    1064    1063    1047    1065
       8    1097    1143    1125    1095    1019    1065    1047    1017
       8    1144    1145    1096    1126    1066    1067    1018    1048
       8    1146    1144    1126    1127    1068    1066    1048    1049
       8    1147    1146    1127    1128    1069    1068    1049    1050
       8    1148    1147    1128    1104    1070    1069    1050    1026
       8    1149    1148    1104    1103    1071    1070    1026    1025
       8    1150    1149    1103    1106    1072    1071    1025    1028
       8    1151    1150    1106    1129    1073    1072    1028    1051
       8    1152    1151    1129    1130    1074    1073    1051    1052
       8    1153    1152    1130    1131    1075    1074    1052    1053
       8    1154    1153    1131    1132    1076    1075    1053    1054
       8    1155    1154    1132    1133    1077    1076    1054    1055
       8    1156    1155    1133    1134    1078    1077    1055    1056
       8    1157    1156    1134    1113    1079    1078    1056    1035
       8    1158    1157    1113    1112    1080    1079    1035    1034
       8    1159    1158    1112    1114    1081    1080    1034    1036
       8    1160    1159    1114    1135    1082    1081    1036    1057
       8    1161    1160    1135    1136    1083    1082    1057    1058
       8    1162    1161    1136    1137    1084    1083    1058    1059
       8    1163    1162    1137    1138    1085    1084    1059    1060
       8    1164    1163    1138    1139    1086    1085    1060    1061
       8    1165    1164    1139    1140    1087    1086    1061    1062
       8    1166    1165    1140    1141    1088    1087    1062    1063
       8    1167    1166    1141    1142    1089    1088    1063    1064
       8    1168    1167    1142    1143    1090    1089    1064    1065
       8    1169    1168    1143    1097    1091    1090    1065    1019
       8    1145    1169    1097    1096    1067    1091    1019    1018
       8    1170    1171    1172    1173    1092    1093    1094    1095
       8    1172    1174    1175    1173    1094    1096    1097    1095
       8    1176    1171    1170    1177    1098    1093    1092    1099
       8    1170    1178    1179    1177    1092    1100    1101    1099
       8    1180    1181    1182    1176    1102    1103    1104    1098
       8    1183    1184    1181    1180    1105    1106    1103    1102
       8    1177    1183    1180    1176    1099    1105    1102    1098
       8    1185    1186    1178    1187    1107    1108    1100    1109
       8    1188    1189    1186    1185    1110    1111    1108    1107
       8    1190    1191    1189    1188    1112    1113    1111    1110
       8    1192    1190    1188    1193    1114    1112    1110    1115
       8    1194    1179    1178    1186    1116    1101    1100    1108
       8    1185    1195    1193    1188    1107    1117    1115    1110
       8    1170    1173    1187    1178    1092    1095    1109    1100
       8    1196    1183    1177    1179    1118    1105    1099    1101
       8    1197    1196    1179    1194    1119    1118    1101    1116
       8    1198    1197    1194    1199    1120    1119    1116    1121
       8    1189    1199    1194    1186    1111    1121    1116    1108
       8    1200    1201    1195    1185    1122    1123    1117    1107
       8    1202    1200    1185    1187    1124    1122    1107    1109
       8    1203    1202    1187    1173    1125    1124    1109    1095
       8    1204    1174    1172    1205    1126    1096    1094    1127
       8    1206    1205    1172    1171    1128    1127    1094    1093
       8    1182    1206    1171    1176    1104    1128    1093    1098
       8    1207    1184    1183    1196    1129    1106    1105    1118
       8    1208    1207    1196    1197    1130    1129    1118    1119
       8    1209    1208    1197    1198    1131    1130    1119    1120
       8    1210    1209    1198    1211    1132    1131    1120    1133
       8    1212    1211    1198    1199    1134    1133    1120    1121
       8    1191    1212    1199    1189    1113    1134    1121    1111
       8    1213    1192    1193    1195    1135    1114    1115    1117
       8    1214    1213    1195    1201    1136    1135    1117    1123
       8    1215    1214    1201    1216    1137    1136    1123    1138
       8    1217    1216    1201    1200    1139    1138    1123    1122
       8    1218    1217    1200    1202    1140    1139    1122    1124
       8    1219    1218    1202    1203    1141    1140    1124    1125
       8    1220    1219    1203    1221    1142    1141    1125    1143
       8    1175    1221    1203    1173    1097    1143    1125    1095
       8    1222    1223    1174    1204    1144    1145    1096    1126
       8    1224    1222    1204    1205    1146    1144    1126    1127
       8    1225    1224    1205    1206    1147    1146    1127    1128
       8    1226    1225    1206    1182    1148    1147    1128    1104
       8    1227    1226    1182    1181    1149    1148    1104    1103
       8    1228    1227    1181    1184    1150    1149    1103    1106
       8    1229    1228    1184    1207    1151    1150    1106    1129
       8    1230    1229    1207    1208    1152    1151    1129    1130
       8    1231    1230    1208    1209    1153    1152    1130    1131
       8    1232    1231    1209    1210    1154    1153    1131    1132
       8    1233    1232    1210    1211    1155    1154    1132    1133
       8    1234    1233    1211    1212    1156    1155    1133    1134
       8    1235    1234    1212    1191    1157    1156    1134    1113
       8    1236    1235    1191    1190    1158    1157    1113    1112
       8    1237    1236    1190    1192    1159    1158    1112    1114
       8    1238    1237    1192    1213    1160    1159    1114    1135
       8    1239    1238    1213    1214    1161    1160    1135    1136
       8    1240    1239    1214    1215    1162    1161    1136    1137
       8    1241    1240    1215    1216    1163    1162    1137    1138
       8    1242    1241    1216    1217    1164    1163    1138    1139
       8    1243    1242    1217    1218    1165    1164    1139    1140
       8    1244    1243    1218    1219    1166    1165    1140    1141
       8    1245    1244    1219    1220    1167    1166    1141    1142
       8    1246    1245    1220    1221    1168    1167    1142    1143
       8    1247    1246    1221    1175    1169    1168    1143    1097
       8    1223    1247    1175    1174    1145    1169    1097    1096
       8    1248    1249    1250    1251    1170    1171    1172    1173
       8    1250    1252    1253    1251    1172    1174    1175    1173
       8    1254    1249    1248    1255    1176    1171    1170    1177
       8    1248    1256    1257    1255    1170    1178    1179    1177
       8    1258    1259    1260    1254    1180    1181    1182    1176
       8    1261    1262    1259    1258    1183    1184    1181    1180
       8    1255    1261    1258    1254    1177    1183    1180    1176
       8    1263    1264    1256    1265    1185    1186    1178    1187
       8    1266    1267    1264    1263    1188    1189    1186    1185
       8    1268    1269    1267    1266    1190    1191    1189    1188
       8    1270    1268    1266    1271    1192    1190    1188    1193
       8    1272    1257    1256    1264    1194    1179    1178    1186
       8    1263    1273    1271    1266    1185    1195    1193    1188
       8    1248    1251    1265    1256    1170    1173    1187    1178
       8    1274    1261    1255    1257    1196    1183    1177    1179
       8    1275    1274    1257    1272    1197    1196    1179    1194
       8    1276    1275    1272    1277    1198    1197    1194    1199
       8    1267    1277    1272    1264    1189    1199    1194    1186
       8    1278    1279    1273    1263    1200    1201    1195    1185
       8    1280    1278    1263    1265    1202    1200    1185    1187
       8    1281    1280    1265    1251    1203    1202    1187    1173
       8    1282    1252    1250    1283    1204    1174    1172    1205
       8    1284    1283    1250    1249    1206    1205    1172    1171
       8    1260    1284    1249    1254    1182    1206    1171    1176
       8    1285    1262    1261    1274    1207    1184    1183    1196
       8    1286    1285    1274    1275    1208    1207    1196    1197
       8    1287    1286    1275    1276    1209    1208    1197    1198
       8    1288    1287    1276    1289    1210    1209    1198    1211
       8    1290    1289    1276    1277    1212    1211    1198    1199
       8    1269    1290    1277    1267    1191    1212    1199    1189
       8    1291    1270    1271    1273    1213    1192    1193    1195
       8    1292    1291    1273    1279    1214    1213    1195    1201
       8    1293    1292    1279    1294    1215    1214    1201    1216
       8    1295    1294    1279    1278    1217    1216    1201    1200
       8    1296    1295    1278    1280    1218    1217    1200    1202
       8    1297    1296    1280    1281    1219    1218    1202    1203
       8    1298    1297    1281    1299    1220    1219    1203    1221
       8    1253    1299    1281    1251    1175    1221    1203    1173
       8    1300    1301    1252    1282    1222    1223    1174    1204
       8    1302    1300    1282    1283    1224    1222    1204    1205
       8    1303    1302    1283    1284    1225    1224    1205    1206
       8    1304    1303    1284    1260    1226    1225    1206    1182
       8    1305    1304    1260    1259    1227    1226    1182    1181
       8    1306    1305    1259    1262    1228    1227    1181    1184
       8    1307    1306    1262    1285    1229    1228    1184    1207
       8    1308    1307    1285    1286    1230    1229    1207    1208
       8    1309    1308    1286    1287    1231    1230    1208    1209
       8    1310    1309    1287    1288    1232    1231    1209    1210
       8    1311    1310    1288    1289    1233    1232    1210    1211
       8    1312    1311    1289    1290    1234    1233    1211    1212
       8    1313    1312    1290    1269    1235    1234    1212    1191
       8    1314    1313    1269    1268    1236    1235    1191    1190
       8    1315    1314    1268    1270    1237    1236    1190    1192
       8    1316    1315    1270    1291    1238    1237    1192    1213
       8    1317    1316    1291    1292    1239    1238    1213    1214
       8    1318    1317    1292    1293    1240    1239    1214    1215
       8    1319    1318    1293    1294    1241    1240    1215    1216
       8    1320    1319    1294    1295    1242    1241    1216    1217
       8    1321    1320    1295    1296    1243    1242    1217    1218
       8    1322    1321    1296    1297    1244    1243    1218    1219
       8    1323    1322    1297    1298    1245    1244    1219    1220
       8    1324    1323    1298    1299    1246    1245    1220    1221
       8    1325    1324    1299    1253    1247    1246    1221    1175
       8    1301    1325    1253    1252    1223    1247    1175    1174
       8    1326    1327    1328    1329    1248    1249    1250    1251
       8    1328    1330    1331    1329    1250    1252    1253    1251
       8    1332    1327    1326    1333    1254    1249    1248    1255
       8    1326    1334    1335    1333    1248    1256    1257    1255
       8    1336    1337    1338    1332    1258    1259    1260    1254
       8    1339    1340    1337    1336    1261    1262    1259    1258
       8    1333    1339    1336    1332    1255    1261    1258    1254
       8    1341    1342    1334    1343    1263    1264    1256    1265
       8    1344    1345    1342    1341    1266    1267    1264    1263
       8    1346    1347    1345    1344    1268    1269    1267    1266
       8    1348    1346    1344    1349    1270    1268    1266    1271
       8    1350    1335    1334    1342    1272    1257    1256    1264
       8    1341    1351    1349    1344    1263    1273    1271    1266
       8    1326    1329    1343    1334    1248    1251    1265    1256
       8    1352    1339    1333    1335    1274    1261    1255    1257
       8    1353    1352    1335    1350    1275    1274    1257    1272
       8    1354    1353    1350    1355    1276    1275    1272    1277
       8    1345    1355    1350    1342    1267    1277    1272    1264
       8    1356    1357    1351    1341    1278    1279    1273    1263
       8    1358    1356    1341    1343    1280    1278    1263    1265
       8    1359    1358    1343    1329    1281    1280    1265    1251
       8    1360    1330    1328    1361    1282    1252    1250    1283
       8    1362    1361    1328    1327    1284    1283    1250    1249
       8    1338    1362    1327    1332    1260    1284    1249    1254
       8    1363    1340    1339    1352    1285    1262    1261    1274
       8    1364    1363    1352    1353    1286    1285    1274    1275
       8    1365    1364    1353    1354    1287    1286    1275    1276
       8    1366    1365    1354    1367    1288    1287    1276    1289
       8    1368    1367    1354    1355    1290    1289    1276    1277
       8    1347    1368    1355    1345    1269    1290    1277    1267
       8    1369    1348    1349    1351    1291    1270    1271    1273
       8    1370    1369    1351    1357    1292    1291    1273    1279
       8    1371    1370    1357    1372    1293    1292    1279    1294
       8    1373    1372    1357    1356    1295    1294    1279    1278
       8    1374    1373    1356    1358    1296    1295    1278    1280
       8    1375    1374    1358    1359    1297    1296    1280    1281
       8    1376    1375    1359    1377    1298    1297    1281    1299
       8    1331    1377    1359    1329    1253    1299    1281    1251
       8    1378    1379    1330    1360    1300    1301    1252    1282
       8    1380    1378    1360    1361    1302    1300    1282    1283
       8    1381    1380    1361    1362    1303    1302    1283    1284
       8    1382    1381    1362    1338    1304    1303    1284    1260
       8    1383    1382    1338    1337    1305    1304    1260    1259
       8    1384    1383    1337    1340    1306    1305    1259    1262
       8    1385    1384    1340    1363    1307    1306    1262    1285
       8    1386    1385    1363    1364    1308    1307    1285    1286
       8    1387    1386    1364    1365    1309    1308    1286    1287
       8    1388    1387    1365    1366    1310    1309    1287    1288
       8    1389    1388    1366    1367    1311    1310    1288    1289
       8    1390    1389    1367    1368    1312    1311    1289    1290
       8    1391    1390    1368    1347    1313    1312    1290    1269
       8    1392    1391    1347    1346    1314    1313    1269    1268
       8    1393    1392    1346    1348    1315    1314    1268    1270
       8    1394    1393    1348    1369    1316    1315    1270    1291
       8    1395    1394    1369    1370    1317    1316    1291    1292
       8    1396    1395    1370    1371    1318    1317    1292    1293
       8    1397    1396    1371    1372    1319    1318    1293    1294
       8    1398    1397    1372    1373    1320    1319    1294    1295
       8    1399    1398    1373    1374    1321    1320    1295    1296
       8    1400    1399    1374    1375    1322    1321    1296    1297
       8    1401    1400    1375    1376    1323    1322    1297    1298
       8    1402    1401    1376    1377    1324    1323    1298    1299
       8    1403    1402    1377    1331    1325    1324    1299    1253
       8    1379    1403    1331    1330    1301    1325    1253    1252
       8    1404    1405    1406    1407    1326    1327    1328    1329
       8    1406    1408    1409    1407    1328    1330    1331    1329
       8    1410    1405    1404    1411    1332    1327    1326    1333
       8    1404    1412    1413    1411    1326    1334    1335    1333
       8    1414    1415    1416    1410    1336    1337    1338    1332
       8    1417    1418    1415    1414    1339    1340    1337    1336
       8    1411    1417    1414    1410    1333    1339    1336    1332
       8    1419    1420    1412    1421    1341    1342    1334    1343
       8    1422    1423    1420    1419    1344    1345    1342    1341
       8    1424    1425    1423    1422    1346    1347    1345    1344
       8    1426    1424    1422    1427    1348    1346    1344    1349
       8    1428    1413    1412    1420    1350    1335    1334    1342
       8    1419    1429    1427    1422    1341    1351    1349    1344
       8    1404    1407    1421    1412    1326    1329    1343    1334
       8    1430    1417    1411    1413    1352    1339    1333    1335
       8    1431    1430    1413    1428    1353    1352    1335    1350
       8    1432    1431    1428    1433    1354    1353    1350    1355
       8    1423    1433    1428    1420    1345    1355    1350    1342
       8    1434    1435    1429    1419    1356    1357    1351    1341
       8    1436    1434    1419    1421    1358    1356    1341    1343
       8    1437    1436    1421    1407    1359    1358    1343    1329
       8    1438    1408    1406    1439    1360    1330    1328    1361
       8    1440    1439    1406    1405    1362    1361    1328    1327
       8    1416    1440    1405    1410    1338    1362    1327    1332
       8    1441    1418    1417    1430    1363    1340    1339    1352
       8    1442    1441    1430    1431    1364    1363    1352    1353
       8    1443    1442    1431    1432    1365    1364    1353    1354
       8    1444    1443    1432    1445    1366    1365    1354    1367
       8    1446    1445    1432    1433    1368    1367    1354    1355
       8    1425    1446    1433    1423    1347    1368    1355    1345
       8    1447    1426    1427    1429    1369    1348    1349    1351
       8    1448    1447    1429    1435    1370    1369    1351    1357
       8    1449    1448    1435    1450    1371    1370    1357    1372
       8    1451    1450    1435    1434    1373    1372    1357    1356
       8    1452    1451    1434    1436    1374    1373    1356    1358
       8    1453    1452    1436    1437    1375    1374    1358    1359
       8    1454    1453    1437    1455    1376    1375    1359    1377
       8    1409    1455    1437    1407    1331    1377    1359    1329
       8    1456    1457    1408    1438    1378    1379    1330    1360
       8    1458    1456    1438    1439    1380    1378    1360    1361
       8    1459    1458    1439    1440    1381    1380    1361    1362
       8    1460    1459    1440    1416    1382    1381    1362    1338
       8    1461    1460    1416    1415    1383    1382    1338    1337
       8    1462    1461    1415    1418    1384    1383    1337    1340
       8    1463    1462    1418    1441    1385    1384    1340    1363
       8    1464    1463    1441    1442    1386    1385    1363    1364
       8    1465    1464    1442    1443    1387    1386    1364    1365
       8    1466    1465    1443    1444    1388    1387    1365    1366
       8    1467    1466    1444    1445    1389    1388    1366    1367
       8    1468    1467    1445    1446    1390    1389    1367    1368
       8    1469    1468    1446    1425    1391    1390    1368    1347
       8    1470    1469    1425    1424    1392    1391    1347    1346
       8    1471    1470    1424    1426    1393    1392    1346    1348
       8    1472    1471    1426    1447    1394    1393    1348    1369
       8    1473    1472    1447    1448    1395    1394    1369    1370
       8    1474    1473    1448    1449    1396    1395    1370    1371
       8    1475    1474    1449    1450    1397    1396    1371    1372
       8    1476    1475    1450    1451    1398    1397    1372    1373
       8    1477    1476    1451    1452    1399    1398    1373    1374
       8    1478    1477    1452    1453    1400    1399    1374    1375
       8    1479    1478    1453    1454    1401    1400    1375    1376
       8    1480    1479    1454    1455    1402    1401    1376    1377
       8    1481    1480    1455    1409    1403    1402    1377    1331
       8    1457    1481    1409    1408    1379    1403    1331    1330
       8    1482    1483    1484    1485    1404    1405    1406    1407
       8    1484    1486    1487    1485    1406    1408    1409    1407
       8    1488    1483    1482    1489    1410    1405    1404    1411
       8    1482    1490    1491    1489    1404    1412    1413    1411
       8    1492    1493    1494    1488    1414    1415    1416    1410
       8    1495    1496    1493    1492    1417    1418    1415    1414
       8    1489    1495    1492    1488    1411    1417    1414    1410
       8    1497    1498    1490    1499    1419    1420    1412    1421
       8    1500    1501    1498    1497    1422    1423    1420    1419
       8    1502    1503    1501    1500    1424    1425    1423    1422
       8    1504    1502    1500    1505    1426    1424    1422    1427
       8    1506    1491    1490    1498    1428    1413    1412    1420
       8    1497    1507    1505    1500    1419    1429    1427    1422
       8    1482    1485    1499    1490    1404    1407    1421    1412
       8    1508    1495    1489    1491    1430    1417    1411    1413
       8    1509    1508    1491    1506    1431    1430    1413    1428
       8    1510    1509    1506    1511    1432    1431    1428    1433
       8    1501    1511    1506    1498    1423    1433    1428    1420
       8    1512    1513    1507    1497    1434    1435    1429    1419
       8    1514    1512    1497    1499    1436    1434    1419    1421
       8    1515    1514    1499    1485    1437    1436    1421    1407
       8    1516    1486    1484    1517    1438    1408    1406    1439
       8    1518    1517    1484    1483    1440    1439    1406    1405
       8    1494    1518    1483    1488    1416    1440    1405    1410
       8    1519    1496    1495    1508    1441    1418    1417    1430
       8    1520    1519    1508    1509    1442    1441    1430    1431
       8    1521    1520    1509    1510    1443    1442    1431    1432
       8    1522    1521    1510    1523    1444    1443    1432    1445
       8    1524    1523    1510    1511    1446    1445    1432    1433
       8    1503    1524    1511    1501    1425    1446    1433    1423
       8    1525    1504    1505    1507    1447    1426    1427    1429
       8    1526    1525    1507    1513    1448    1447    1429    1435
       8    1527    1526    1513    1528    1449    1448    1435    1450
       8    1529    1528    1513    1512    1451    1450    1435    1434
       8    1530    1529    1512    1514    1452    1451    1434    1436
       8    1531    1530    1514    1515    1453    1452    1436    1437
       8    1532    1531    1515    1533    1454    1453    1437    1455
       8    1487    1533    1515    1485    1409    1455    1437    1407
       8    1534    1535    1486    1516    1456    1457    1408    1438
       8    1536    1534    1516    1517    1458    1456    1438    1439
       8    1537    1536    1517    1518    1459    1458    1439    1440
       8    1538    1537    1518    1494    1460    1459    1440    1416
       8    1539    1538    1494    1493    1461    1460    1416    1415
       8    1540    1539    1493    1496    1462    1461    1415    1418
       8    1541    1540    1496    1519    1463    1462    1418    1441
       8    1542    1541    1519    1520    1464    1463    1441    1442
       8    1543    1542    1520    1521    1465    1464    1442    1443
       8    1544    1543    1521    1522    1466    1465    1443    1444
       8    1545    1544    1522    1523    1467    1466    1444    1445
       8    1546    1545    1523    1524    1468    1467    1445    1446
       8    1547    1546    1524    1503    1469    1468    1446    1425
       8    1548    1547    1503    1502    1470    1469    1425    1424
       8    1549    1548    1502    1504    1471    1470    1424    1426
       8    1550    1549    1504    1525    1472    1471    1426    1447
       8    1551    1550    1525    1526    1473    1472    1447    1448
       8    1552    1551    1526    1527    1474    1473    1448    1449
       8    1553    1552    1527    1528    1475    1474    1449    1450
       8    1554    1553    1528    1529    1476    1475    1450    1451
       8    1555    1554    1529    1530    1477    1476    1451    1452
       8    1556    1555    1530    1531    1478    1477    1452    1453
       8    1557    1556    1531    1532    1479    1478    1453    1454
       8    1558    1557    1532    1533    1480    1479    1454    1455
       8    1559    1558    1533    1487    1481    1480    1455    1409
       8    1535    1559    1487    1486    1457    1481    1409    1408
       8    1560    1561    1562    1563    1482    1483    1484    1485
       8    1562    1564    1565    1563    1484    1486    1487    1485
       8    1566    1561    1560    1567    1488    1483    1482    1489
       8    1560    1568    1569    1567    1482    1490    1491    1489
       8    1570    1571    1572    1566    1492    1493    1494    1488
       8    1573    1574    1571    1570    1495    1496    1493    1492
       8    1567    1573    1570    1566    1489    1495    1492    1488
       8    1575    1576    1568    1577    1497    1498    1490    1499
       8    1578    1579    1576    1575    1500    1501    1498    1497
       8    1580    1581    1579    1578    1502    1503    1501    1500
       8    1582    1580    1578    1583    1504    1502    1500    1505
       8    1584    1569    1568    1576    1506    1491    1490    1498
       8    1575    1585    1583    1578    1497    1507    1505    1500
       8    1560    1563    1577    1568    1482    1485    1499    1490
       8    1586    1573    1567    1569    1508    1495    1489    1491
       8    1587    1586    1569    1584    1509    1508    1491    1506
       8    1588    1587    1584    1589    1510    1509    1506    1511
       8    1579    1589    1584    1576    1501    1511    1506    1498
       8    1590    1591    1585    1575    1512    1513    1507    1497
       8    1592    1590    1575    1577    1514    1512    1497    1499
       8    1593    1592    1577    1563    1515    1514    1499    1485
       8    1594    1564    1562    1595    1516    1486    1484    1517
       8    1596    1595    1562    1561    1518    1517    1484    1483
       8    1572    1596    1561    1566    1494    1518    1483    1488
       8    1597    1574    1573    1586    1519    1496    1495    1508
       8    1598    1597    1586    1587    1520    1519    1508    1509
       8    1599    1598    1587    1588    1521    1520    1509    1510
       8    1600    1599    1588    1601    1522    1521    1510    1523
       8    1602    1601    1588    1589    1524    1523    1510    1511
       8    1581    1602    1589    1579    1503    1524    1511    1501
       8    1603    1582    1583    1585    1525    1504    1505    1507
       8    1604    1603    1585    1591    1526    1525    1507    1513
       8    1605    1604    1591    1606    1527    1526    1513    1528
       8    1607    1606    1591    1590    1529    1528    1513    1512
       8    1608    1607    1590    1592    1530    1529    1512    1514
       8    1609    1608    1592    1593    1531    1530    1514    1515
       8    1610    1609    1593    1611    1532    1531    1515    1533
       8    1565    1611    1593    1563    1487    1533    1515    1485
       8    1612    1613    1564    1594    1534    1535    1486    1516
       8    1614    1612    1594    1595    1536    1534    1516    1517
       8    1615    1614    1595    1596    1537    1536    1517    1518
       8    1616    1615    1596    1572    1538    1537    1518    1494
       8    1617    1616    1572    1571    1539    1538    1494    1493
       8    1618    1617    1571    1574    1540    1539    1493    1496
       8    1619    1618    1574    1597    1541    1540    1496    1519
       8    1620    1619    1597    1598    1542    1541    1519    1520
       8    1621    1620    1598    1599    1543    1542    1520    1521
       8    1622    1621    1599    1600    1544    1543    1521    1522
       8    1623    1622    1600    1601    1545    1544    1522    1523
       8    1624    1623    1601    1602    1546    1545    1523    1524
       8    1625    1624    1602    1581    1547    1546    1524    1503
       8    1626    1625    1581    1580    1548    1547    1503    1502
       8    1627    1626    1580    1582    1549    1548    1502    1504
       8    1628    1627    1582    1603    1550    1549    1504    1525
       8    1629    1628    1603    1604    1551    1550    1525    1526
       8    1630    1629    1604    1605    1552    1551    1526    1527
       8    1631    1630    1605    1606    1553    1552    1527    1528
       8    1632    1631    1606    1607    1554    1553    1528    1529
       8    1633    1632    1607    1608    1555    1554    1529    1530
       8    1634    1633    1608    1609    1556    1555    1530    1531
       8    1635    1634    1609    1610    1557    1556    1531    1532
       8    1636    1635    1610    1611    1558    1557    1532    1533
       8    1637    1636    1611    1565    1559    1558    1533    1487
       8    1613    1637    1565    1564    1535    1559    1487    1486
       8    1638    1639    1640    1641    1560    1561    1562    1563
       8    1640    1642    1643    1641    1562    1564    1565    1563
       8    1644    1639    1638    1645    1566    1561    1560    1567
       8    1638    1646    1647    1645    1560    1568    1569    1567
       8    1648    1649    1650    1644    1570    1571    1572    1566
       8    1651    1652    1649    1648    1573    1574    1571    1570
       8    1645    1651    1648    1644    1567    1573    1570    1566
       8    1653    1654    1646    1655    1575    1576    1568    1577
       8    1656    1657    1654    1653    1578    1579    1576    1575
       8    1658    1659    1657    1656    1580    1581    1579    1578
       8    1660    1658    1656    1661    1582    1580    1578    1583
       8    1662    1647    1646    1654    1584    1569    1568    1576
       8    1653    1663    1661    1656    1575    1585    1583    1578
       8    1638    1641    1655    1646    1560    1563    1577    1568
       8    1664    1651    1645    1647    1586    1573    1567    1569
       8    1665    1664    1647    1662    1587    1586    1569    1584
       8    1666    1665    1662    1667    1588    1587    1584    1589
       8    1657    1667    1662    1654    1579    1589    1584    1576
       8    1668    1669    1663    1653    1590    1591    1585    1575
       8    1670    1668    1653    1655    1592    1590    1575    1577
       8    1671    1670    1655    1641    1593    1592    1577    1563
       8    1672    1642    1640    1673    1594    1564    1562    1595
       8    1674    1673    1640    1639    1596    1595    1562    1561
       8    1650    1674    1639    1644    1572    1596    1561    1566
       8    1675    1652    1651    1664    1597    1574    1573    1586
       8    1676    1675    1664    1665    1598    1597    1586    1587
       8    1677    1676    1665    1666    1599    1598    1587    1588
       8    1678    1677    1666    1679    1600    1599    1588    1601
       8    1680    1679    1666    1667    1602    1601    1588    1589
       8    1659    1680    1667    1657    1581    1602    1589    1579
       8    1681    1660    1661    1663    1603    1582    1583    1585
       8    1682    1681    1663    1669    1604    1603    1585    1591
       8    1683    1682    1669    1684    1605    1604    1591    1606
       8    1685    1684    1669    1668    1607    1606    1591    1590
       8    1686    1685    1668    1670    1608    1607    1590    1592
       8    1687    1686    1670    1671    1609    1608    1592    1593
       8    1688    1687    1671    1689    1610    1609    1593    1611
       8    1643    1689    1671    1641    1565    1611    1593    1563
       8    1690    1691    1642    1672    1612    1613    1564    1594
       8    1692    1690    1672    1673    1614    1612    1594    1595
       8    1693    1692    1673    1674    1615    1614    1595    1596
       8    1694    1693    1674    1650    1616    1615    1596    1572
       8    1695    1694    1650    1649    1617    1616    1572    1571
       8    1696    1695    1649    1652    1618    1617    1571    1574
       8    1697    1696    1652    1675    1619    1618    1574    1597
       8    1698    1697    1675    1676    1620    1619    1597    1598
       8    1699    1698    1676    1677    1621    1620    1598    1599
       8    1700    1699    1677    1678    1622    1621    1599    1600
       8    1701    1700    1678    1679    1623    1622    1600    1601
       8    1702    1701    1679    1680    1624    1623    1601    1602
       8    1703    1702    1680    1659    1625    1624    1602    1581
       8    1704    1703    1659    1658    1626    1625    1581    1580
       8    1705    1704    1658    1660    1627    1626    1580    1582
       8    1706    1705    1660    1681    1628    1627    1582    1603
       8    1707    1706    1681    1682    1629    1628    1603    1604
       8    1708    1707    1682    1683    1630    1629    1604    1605
       8    1709    1708    1683    1684    1631    1630    1605    1606
       8    1710    1709    1684    1685    1632    1631    1606    1607
       8    1711    1710    1685    1686    1633    1632    1607    1608
       8    1712    1711    1686    1687    1634    1633    1608    1609
       8    1713    1712    1687    1688    1635    1634    1609    1610
       8    1714    1713    1688    1689    1636    1635    1610    1611
       8    1715    1714    1689    1643    1637    1636    1611    1565
       8    1691    1715    1643    1642    1613    1637    1565    1564
       8    1716    1717    1718    1719    1638    1639    1640    1641
       8    1718    1720    1721    1719    1640    1642    1643    1641
       8    1722    1717    1716    1723    1644    1639    1638    1645
       8    1716    1724    1725    1723    1638    1646    1647    1645
       8    1726    1727    1728    1722    1648    1649    1650    1644
       8    1729    1730    1727    1726    1651    1652    1649    1648
       8    1723    1729    1726    1722    1645    1651    1648    1644
       8    1731    1732    1724    1733    1653    1654    1646    1655
       8    1734    1735    1732    1731    1656    1657    1654    1653
       8    1736    1737    1735    1734    1658    1659    1657    1656
       8    1738    1736    1734    1739    1660    1658    1656    1661
       8    1740    1725    1724    1732    1662    1647    1646    1654
       8    1731    1741    1739    1734    1653    1663    1661    1656
       8    1716    1719    1733    1724    1638    1641    1655    1646
       8    1742    1729    1723    1725    1664    1651    1645    1647
       8    1743    1742    1725    1740    1665    1664    1647    1662
       8    1744    1743    1740    1745    1666    1665    1662    1667
       8    1735    1745    1740    1732    1657    1667    1662    1654
       8    1746    1747    1741    1731    1668    1669    1663    1653
       8    1748    1746    1731    1733    1670    1668    1653    1655
       8    1749    1748    1733    1719    1671    1670    1655    1641
       8    1750    1720    1718    1751    1672    1642    1640    1673
       8    1752    1751    1718    1717    1674    1673    1640    1639
       8    1728    1752    1717    1722    1650    1674    1639    1644
       8    1753    1730    1729    1742    1675    1652    1651    1664
       8    1754    1753    1742    1743    1676    1675    1664    1665
       8    1755    1754    1743    1744    1677    1676    1665    1666
       8    1756    1755    1744    1757    1678    1677    1666    1679
       8    1758    1757    1744    1745    1680    1679    1666    1667
       8    1737    1758    1745    1735    1659    1680    1667    1657
       8    1759    1738    1739    1741    1681    1660    1661    1663
       8    1760    1759    1741    1747    1682    1681    1663    1669
       8    1761    1760    1747    1762    1683    1682    1669    1684
       8    1763    1762    1747    1746    1685    1684    1669    1668
       8    1764    1763    1746    1748    1686    1685    1668    1670
       8    1765    1764    1748    1749    1687    1686    1670    1671
       8    1766    1765    1749    1767    1688    1687    1671    1689
       8    1721    1767    1749    1719    1643    1689    1671    1641
       8    1768    1769    1720    1750    1690    1691    1642    1672
       8    1770    1768    1750    1751    1692    1690    1672    1673
       8    1771    1770    1751    1752    1693    1692    1673    1674
       8    1772    1771    1752    1728    1694    1693    1674    1650
       8    1773    1772    1728    1727    1695    1694    1650    1649
       8    1774    1773    1727    1730    1696    1695    1649    1652
       8    1775    1774    1730    1753    1697    1696    1652    1675
       8    1776    1775    1753    1754    1698    1697    1675    1676
       8    1777    1776    1754    1755    1699    1698    1676    1677
       8    1778    1777    1755    1756    1700    1699    1677    1678
       8    1779    1778    1756    1757    1701    1700    1678    1679
       8    1780    1779    1757    1758    1702    1701    1679    1680
       8    1781    1780    1758    1737    1703    1702    1680    1659
       8    1782    1781    1737    1736    1704    1703    1659    1658
       8    1783    1782    1736    1738    1705    1704    1658    1660
       8    1784    1783    1738    1759    1706    1705    1660    1681
       8    1785    1784    1759    1760    1707    1706    1681    1682
       8    1786    1785    1760    1761    1708    1707    1682    1683
       8    1787    1786    1761    1762    1709    1708    1683    1684
       8    1788    1787    1762    1763    1710    1709    1684    1685
       8    1789    1788    1763    1764    1711    1710    1685    1686
       8    1790    1789    1764    1765    1712    1711    1686    1687
       8    1791    1790    1765    1766    1713    1712    1687    1688
       8    1792    1791    1766    1767    1714    1713    1688    1689
       8    1793    1792    1767    1721    1715    1714    1689    1643
       8    1769    1793    1721    1720    1691    1715    1643    1642
       8    1794    1795    1796    1797    1716    1717    1718    1719
       8    1796    1798    1799    1797    1718    1720    1721    1719
       8    1800    1795    1794    1801    1722    1717    1716    1723
       8    1794    1802    1803    1801    1716    1724    1725    1723
       8    1804    1805    1806    1800    1726    1727    1728    1722
       8    1807    1808    1805    1804    1729    1730    1727    1726
       8    1801    1807    1804    1800    1723    1729    1726    1722
       8    1809    1810    1802    1811    1731    1732    1724    1733
       8    1812    1813    1810    1809    1734    1735    1732    1731
       8    1814    1815    1813    1812    1736    1737    1735    1734
       8    1816    1814    1812    1817    1738    1736    1734    1739
       8    1818    1803    1802    1810    1740    1725    1724    1732
       8    1809    1819    1817    1812    1731    1741    1739    1734
       8    1794    1797    1811    1802    1716    1719    1733    1724
       8    1820    1807    1801    1803    1742    1729    1723    1725
       8    1821    1820    1803    1818    1743    1742    1725    1740
       8    1822    1821    1818    1823    1744    1743    1740    1745
       8    1813    1823    1818    1810    1735    1745    1740    1732
       8    1824    1825    1819    1809    1746    1747    1741    1731
       8    1826    1824    1809    1811    1748    1746    1731    1733
       8    1827    1826    1811    1797    1749    1748    1733    1719
       8    1828    1798    1796    1829    1750    1720    1718    1751
       8    1830    1829    1796    1795    1752    1751    1718    1717
       8    1806    1830    1795    1800    1728    1752    1717    1722
       8    1831    1808    1807    1820    1753    1730    1729    1742
       8    1832    1831    1820    1821    1754    1753    1742    1743
       8    1833    1832    1821    1822    1755    1754    1743    1744
       8    1834    1833    1822    1835    1756    1755    1744    1757
       8    1836    1835    1822    1823    1758    1757    1744    1745
       8    1815    1836    1823    1813    1737    1758    1745    1735
       8    1837    1816    1817    1819    1759    1738    1739    1741
       8    1838    1837    1819    1825    1760    1759    1741    1747
       8    1839    1838    1825    1840    1761    1760    1747    1762
       8    1841    1840    1825    1824    1763    1762    1747    1746
       8    1842    1841    1824    1826    1764    1763    1746    1748
       8    1843    1842    1826    1827    1765    1764    1748    1749
       8    1844    1843    1827    1845    1766    1765    1749    1767
       8    1799    1845    1827    1797    1721    1767    1749    1719
       8    1846    1847    1798    1828    1768    1769    1720    1750
       8    1848    1846    1828    1829    1770    1768    1750    1751
       8    1849    1848    1829    1830    1771    1770    1751    1752
       8    1850    1849    1830    1806    1772    1771    1752    1728
       8    1851    1850    1806    1805    1773    1772    1728    1727
       8    1852    1851    1805    1808    1774    1773    1727    1730
       8    1853    1852    1808    1831    1775    1774    1730    1753
       8    1854    1853    1831    1832    1776    1775    1753    1754
       8    1855    1854    1832    1833    1777    1776    1754    1755
       8    1856    1855    1833    1834    1778    1777    1755    1756
       8    1857    1856    1834    1835    1779    1778    1756    1757
       8    1858    1857    1835    1836    1780    1779    1757    1758
       8    1859    1858    1836    1815    1781    1780    1758    1737
       8    1860    1859    1815    1814    1782    1781    1737    1736
       8    1861    1860    1814    1816    1783    1782    1736    1738
       8    1862    1861    1816    1837    1784    1783    1738    1759
       8    1863    1862    1837    1838    1785    1784    1759    1760
       8    1864    1863    1838    1839    1786    1785    1760    1761
       8    1865    1864    1839    1840    1787    1786    1761    1762
       8    1866    1865    1840    1841    1788    1787    1762    1763
       8    1867    1866    1841    1842    1789    1788    1763    1764
       8    1868    1867    1842    1843    1790    1789    1764    1765
       8    1869    1868    1843    1844    1791    1790    1765    1766
       8    1870    1869    1844    1845    1792    1791    1766    1767
       8    1871    1870    1845    1799    1793    1792    1767    1721
       8    1847    1871    1799    1798    1769    1793    1721    1720
       8    1872    1873    1874    1875    1794    1795    1796    1797
       8    1874    1876    1877    1875    1796    1798    1799    1797
       8    1878    1873    1872    1879    1800    1795    1794    1801
       8    1872    1880    1881    1879    1794    1802    1803    1801
       8    1882    1883    1884    1878    1804    1805    1806    1800
       8    1885    1886    1883    1882    1807    1808    1805    1804
       8    1879    1885    1882    1878    1801    1807    1804    1800
       8    1887    1888    1880    1889    1809    1810    1802    1811
       8    1890    1891    1888    1887    1812    1813    1810    1809
       8    1892    1893    1891    1890    1814    1815    1813    1812
       8    1894    1892    1890    1895    1816    1814    1812    1817
       8    1896    1881    1880    1888    1818    1803    1802    1810
       8    1887    1897    1895    1890    1809    1819    1817    1812
       8    1872    1875    1889    1880    1794    1797    1811    1802
       8    1898    1885    1879    1881    1820    1807    1801    1803
       8    1899    1898    1881    1896    1821    1820    1803    1818
       8    1900    1899    1896    1901    1822    1821    1818    1823
       8    1891    1901    1896    1888    1813    1823    1818    1810
       8    1902    1903    1897    1887    1824    1825    1819    1809
       8    1904    1902    1887    1889    1826    1824    1809    1811
       8    1905    1904    1889    1875    1827    1826    1811    1797
       8    1906    1876    1874    1907    1828    1798    1796    1829
       8    1908    1907    1874    1873    1830    1829    1796    1795
       8    1884    1908    1873    1878    1806    1830    1795    1800
       8    1909    1886    1885    1898    1831    1808    1807    1820
       8    1910    1909    1898    1899    1832    1831    1820    1821
       8    1911    1910    1899    1900    1833    1832    1821    1822
       8    1912    1911    1900    1913    1834    1833    1822    1835
       8    1914    1913    1900    1901    1836    1835    1822    1823
       8    1893    1914    1901    1891    1815    1836    1823    1813
       8    1915    1894    1895    1897    1837    1816    1817    1819
       8    1916    1915    1897    1903    1838    1837    1819    1825
       8    1917    1916    1903    1918    1839    1838    1825    1840
       8    1919    1918    1903    1902    1841    1840    1825    1824
       8    1920    1919    1902    1904    1842    1841    1824    1826
       8    1921    1920    1904    1905    1843    1842    1826    1827
       8    1922    1921    1905    1923    1844    1843    1827    1845
       8    1877    1923    1905    1875    1799    1845    1827    1797
       8    1924    1925    1876    1906    1846    1847    1798    1828
       8    1926    1924    1906    1907    1848    1846    1828    1829
       8    1927    1926    1907    1908    1849    1848    1829    1830
       8    1928    1927    1908    1884    1850    1849    1830    1806
       8    1929    1928    1884    1883    1851    1850    1806    1805
       8    1930    1929    1883    1886    1852    1851    1805    1808
       8    1931    1930    1886    1909    1853    1852    1808    1831
       8    1932    1931    1909    1910    1854    1853    1831    1832
       8    1933    1932    1910    1911    1855    1854    1832    1833
       8    1934    1933    1911    1912    1856    1855    1833    1834
       8    1935    1934    1912    1913    1857    1856    1834    1835
       8    1936    1935    1913    1914    1858    1857    1835    1836
       8    1937    1936    1914    1893    1859    1858    1836    1815
       8    1938    1937    1893    1892    1860    1859    1815    1814
       8    1939    1938    1892    1894    1861    1860    1814    1816
       8    1940    1939    1894    1915    1862    1861    1816    1837
       8    1941    1940    1915    1916    1863    1862    1837    1838
       8    1942    1941    1916    1917    1864    1863    1838    1839
       8    1943    1942    1917    1918    1865    1864    1839    1840
       8    1944    1943    1918    1919    1866    1865    1840    1841
       8    1945    1944    1919    1920    1867    1866    1841    1842
       8    1946    1945    1920    1921    1868    1867    1842    1843
       8    1947    1946    1921    1922    1869    1868    1843    1844
       8    1948    1947    1922    1923    1870    1869    1844    1845
       8    1949    1948    1923    1877    1871    1870    1845    1799
       8    1925    1949    1877    1876    1847    1871    1799    1798
  
CELL_TYPES    3486
       1
       1
       1
       1
       1
       1
       1
       1
       1
       1
       1
       1
       1
       1
       1
       1
       1
       1
       1
       1
       1
       1
       1
       1
       1
       1
       1
       1
       1
       1
       1
       1
       1
       1
       1
       1
       1
       1
       1
       1
       1
       1
       1
       1
       1
       1
       1
       1
       1
       1
       1
       1
       1
       1
       1
       1
       1
       1
       1
       1
       1
       1
       1
       1
       1
       1
       1
       1
       1
       1
       1
       1
       1
       1
       1
       1
       1
       1
       1
       1
       1
       1
       1
       1
       1
       1
       1
       1
       1
       1
       1
       1
       1
       1
       1
       1
       1
       1
       1
       1
       1
       1
       1
       1
       1
       1
       1
       1
       1
       1
       1
       1
       1
       1
       1
       1
       1
       1
       1
       1
       1
       1
       1
       1
       1
       1
       1
       1
       1
       1
       1
       1
       1
       1
       1
       1
       1
       1
       1
       1
       1
       1
       1
       1
       1
       1
       1
       1
       1
       1
       1
       1
       1
       1
       1
       1
       1
       1
       1
       1
       1
       1
       1
       1
       1
       1
       1
       1
       1
       1
       1
       1
       1
       1
       1
       1
       1
       1
       1
       1
       1
       1
       1
       1
       1
       1
       1
       1
       1
       1
       1
       1
       1
       1
       1
       1
       1
       1
       1
       1
       1
       1
       1
       1
       1
       1
       1
       1
       1
       1
       1
       1
       1
       1
       1
       1
       1
       1
       1
       1
       1
       1
       1
       1
       1
       1
       1
       1
       1
       1
       1
       1
       1
       1
       1
       1
       1
       1
       1
       1
       1
       1
       1
       1
       1
       1
       1
       1
       1
       1
       1
       1
       1
       1
       1
       1
       1
       1
       1
       1
       1
       1
       1
       1
       1
       1
       1
       1
       1
       1
       1
       1
       1
       1
       1
       1
       1
       1
       1
       1
       1
       1
       1
       1
       1
       1
       1
       1
       1
       1
       1
       1
       1
       1
       1
       1
       1
       1
       1
       1
       1
       1
       1
       1
       1
       1
       1
       1
       1
       1
       1
       1
       1
       1
       1
       1
       1
       1
       1
       1
       1
       1
       1
       1
       1
       1
       1
       1
       1
       1
       1
       1
       1
       1
       1
       1
       1
       1
       1
       1
       1
       1
       1
       1
       1
       1
       1
       1
       1
       1
       1
       1
       1
       1
       1
       1
       1
       1
       1
       1
       1
       1
       1
       1
       1
       1
       1
       1
       1
       1
       1
       1
       1
       1
       1
       1
       1
       1
       1
       1
       1
       1
       1
       1
       1
       1
       1
       1
       1
       1
       1
       1
       1
       1
       1
       1
       1
       1
       1
       1
       1
       1
       1
       1
       1
       1
       1
       1
       1
       1
       1
       1
       1
       1
       1
       1
       1
       1
       1
       1
       1
       1
       1
       1
       1
       1
       1
       1
       1
       1
       1
       1
       1
       1
       1
       1
       1
       1
       1
       1
       1
       1
       1
       1
       1
       1
       1
       1
       1
       1
       1
       1
       1
       1
       1
       1
       1
       1
       1
       1
       1
       1
       1
       1
       1
       1
       1
       1
       1
       1
       1
       1
       1
       1
       1
       1
       1
       1
       1
       1
       1
       1
       1
       1
       1
       1
       1
       1
       1
       1
       1
       1
       1
       1
       1
       1
       1
       1
       1
       1
       1
       1
       1
       1
       1
       1
       1
       1
       1
       1
       1
       1
       1
       1
       1
       1
       1
       1
       1
       1
       1
       1
       1
       1
       1
       1
       1
       1
       1
       1
       1
       1
       1
       1
       1
       1
       1
       1
       1
       1
       1
       1
       1
       1
       1
       1
       1
       1
       1
       1
       1
       1
       1
       1
       1
       1
       1
       1
       1
       1
       1
       1
       1
       1
       1
       1
       1
       1
       1
       1
       1
       1
       1
       1
       1
       1
       1
       1
       1
       1
       1
       1
       1
       1
       1
       1
       1
       1
       1
       1
       1
       1
       1
       1
       1
       1
       1
       1
       1
       1
       1
       1
       1
       1
       1
       1
       1
       1
       1
       1
       1
       1
       1
       1
       1
       1
       1
       1
       1
       1
       1
       1
       1
       1
       1
       1
       1
       1
       1
       1
       1
       1
       1
       1
       1
       1
       1
       1
       1
       1
       1
       1
       1
       1
       1
       1
       1
       1
       1
       1
       1
       1
       1
       1
       1
       1
       1
       1
       1
       1
       1
       1
       1
       1
       1
       1
       1
       1
       1
       1
       1
       1
       1
       1
       1
       1
       1
       1
       1
       1
       1
       1
       1
       1
       1
       1
       1
       1
       1
       1
       1
       1
       1
       1
       1
       1
       1
       1
       1
       1
       1
       1
       1
       1
       1
       1
       1
       1
       1
       1
       1
       1
       1
       1
       1
       1
       1
       1
       1
       1
       1
       1
       1
       1
       1
       1
       1
       1
       1
       1
       1
       1
       1
       1
       1
       1
       1
       1
       1
       1
       1
       1
       1
       1
       1
       1
       1
       1
       1
       1
       1
       1
       1
       1
       1
       1
       1
       1
       1
       1
       1
       1
       1
       1
       1
       1
       1
       1
       1
       1
       1
       1
       1
       1
       1
       1
       1
       1
       1
       1
       1
       1
       1
       1
       1
       1
       1
       1
       1
       1
       1
       1
       1
       1
       1
       1
       1
       1
       1
       1
       1
       1
       1
       1
       1
       1
       1
       1
       1
       1
       1
       1
       1
       1
       1
       1
       1
       1
       1
       1
       1
       1
       1
       1
       1
       1
       1
       1
       1
       1
       1
       1
       1
       1
       1
       1
       1
       1
       1
       1
       1
       1
       1
       1
       1
       1
       1
       1
       1
       1
       1
       1
       1
       1
       1
       1
       1
       1
       1
       1
       1
       1
       1
       1
       1
       1
       1
       1
       1
       1
       1
       1
       1
       1
       1
       1
       1
       1
       1
       1
       1
       1
       1
       1
       1
       1
       1
       1
       1
       1
       1
       1
       1
       1
       1
       1
       1
       1
       1
       1
       1
       1
       1
       1
       1
       1
       1
       1
       1
       1
       1
       1
       1
       1
       1
       1
       1
       1
       1
       1
       1
       1
       1
       1
       1
       1
       1
       1
       1
       1
       1
       1
       1
       1
       1
       1
       1
       1
       1
       1
       1
       1
       1
       1
       1
       1
       1
       1
       1
       1
       1
       1
       1
       1
       1
       1
       1
       1
       1
       1
       1
       1
       1
       1
       1
       1
       1
       1
       1
       1
       1
       1
       1
       1
       1
       1
       1
       1
       1
       1
       1
       1
       1
       1
       1
       1
       1
       1
       1
       1
       1
       1
       1
       1
       1
       1
       1
       1
       1
       1
       1
       1
       1
       1
       1
       1
       1
       1
       1
       1
       1
       1
       1
       1
       1
       1
       1
       1
       1
       1
       1
       1
       1
       1
       1
       1
       1
       1
       1
       1
       1
       1
       1
       1
       1
       1
       1
       1
       1
       1
       1
       1
       1
       1
       1
       1
       1
       1
       1
       1
       1
       1
       1
       1
       1
       1
       1
       1
       1
       1
       1
       1
       1
       1
       1
       1
       1
       1
       1
       1
       1
       1
       1
       1
       1
       1
       1
       1
       1
       1
       1
       1
       1
       1
       1
       1
       1
       1
       1
       1
       1
       1
       1
       1
       1
       1
       1
       1
       1
       1
       1
       1
       1
       1
       1
       1
       1
       1
       1
       1
       1
       1
       1
       1
       1
       1
       1
       1
       1
       1
       1
       1
       1
       1
       1
       1
       1
       1
       1
       1
       1
       1
       1
       1
       1
       1
       1
       1
       1
       1
       1
       1
       1
       1
       1
       1
       1
       1
       1
       1
       1
       1
       1
       1
       1
       1
       1
       1
       1
       1
       1
       1
       1
       1
       1
       1
       1
       1
       1
       1
       1
       1
       1
       1
       1
       1
       1
       1
       1
       1
       1
       1
       1
       1
       1
       1
       1
       1
       1
       1
       1
       1
       1
       1
       1
       1
       1
       1
       1
       1
       1
       1
       1
       1
       1
       1
       1
       1
       1
       1
       1
       1
       1
       1
       1
       1
       1
       1
       1
       1
       1
       1
       1
       1
       1
       1
       1
       1
       1
       1
       1
       1
       1
       1
       1
       1
       1
       1
       1
       1
       1
       1
       1
       1
       1
       1
       1
       1
       1
       1
       1
       1
       1
       1
       1
       1
       1
       1
       1
       1
       1
       1
       1
       1
       1
       1
       1
       1
       1
       1
       1
       1
       1
       1
       1
       1
       1
       1
       1
       1
       1
       1
       1
       1
       1
       1
       1
       1
       1
       1
       1
       1
       1
       1
       1
       1
       1
       1
       1
       1
       1
       1
       1
       1
       1
       1
       1
       1
       1
       1
       1
       1
       1
       1
       1
       1
       1
       1
       1
       1
       1
       1
       1
       1
       1
       1
       1
       1
       1
       1
       1
       1
       1
       1
       1
       1
       1
       1
       1
       1
       1
       1
       1
       1
       1
       1
       1
       1
       1
       1
       1
       1
       1
       1
       1
       1
       1
       1
       1
       1
       1
       1
       1
       1
       1
       1
       1
       1
       1
       1
       1
       1
       1
       1
       1
       1
       1
       1
       1
       1
       1
       1
       1
       1
       1
       1
       1
       1
       1
       1
       1
       1
       1
       1
       1
       1
       1
       1
       1
       1
       1
       1
       1
       1
       1
       1
       1
       1
       1
       1
       1
       1
       1
       1
       1
       1
       1
       1
       1
       1
       1
       1
       1
       1
       1
       1
       1
       1
       1
       1
       1
       1
       1
       1
       1
       1
       1
       1
       1
       1
       1
       1
       1
       1
       1
       1
       1
       1
       1
       1
       1
       1
       1
       1
       1
       1
       1
       1
       1
       1
       1
       1
       1
       1
       1
       1
       1
       1
       1
       1
       1
       1
       1
       1
       1
       1
       1
       1
       1
       1
       1
       1
       1
       1
       1
       1
       1
       1
       1
       1
       1
       1
       1
       1
       1
       1
       1
       1
       1
       1
       1
       1
       1
       1
       1
       1
       1
       1
       1
       1
       1
       1
       1
       1
       1
       1
       1
       1
       1
       1
       1
       1
       1
       1
       1
       1
       1
       1
       1
       1
       1
       1
       1
       1
       1
       1
       1
       1
       1
       1
       1
       1
       1
       1
       1
       1
       1
       1
       1
       1
       1
       1
       1
       1
       1
       1
       1
       1
       1
       1
       1
       1
       1
       1
       1
       1
       1
       1
       1
       1
       1
       1
       1
       1
       1
       1
       1
       1
       1
       1
       1
       1
       1
       1
       1
       1
       1
       1
       1
       1
       1
       1
       1
       1
       1
       1
       1
       1
       1
       1
       1
       1
       1
       1
       1
       1
       1
       1
       1
       1
       1
       1
       1
       1
       1
       1
       1
       1
       1
       1
       1
       1
       1
       1
       1
       1
       1
       1
       1
       1
       1
       1
       1
       1
       1
       1
       1
       1
       1
       1
       1
       1
       1
       1
       1
       1
       1
       1
       1
       1
       1
       1
       1
       1
       1
       1
       1
       1
       1
       1
       1
       1
       1
       1
       1
       1
       1
       1
       1
       1
       1
       1
       1
       1
       1
       1
       1
       1
       1
       1
       1
       1
       1
       1
       1
       1
       1
       1
       1
       1
       1
       1
       1
       1
       1
       1
       1
       1
       1
       1
       1
       1
       1
       1
       1
       1
       1
       1
       1
       1
       1
       1
       1
       1
       1
       1
       1
       1
       1
       1
       1
       1
       1
       1
       1
       1
       1
       1
       1
       1
       1
       1
       1
       1
       1
       1
       1
       1
       1
       1
       1
       1
       1
       1
       1
       1
       1
       1
       1
       1
       1
       1
       1
       1
       1
       1
       1
       1
       1
       1
       1
       1
       1
       1
       1
       1
       1
       1
       1
       1
       1
       1
       1
       1
       1
       1
       1
       1
       1
       1
       1
       1
       1
       1
       1
       1
       1
       1
       1
       1
       1
       1
       1
       1
       1
       1
       1
       1
       1
       1
       1
       1
       1
       1
       1
       1
       1
       1
       1
       1
       1
       1
       1
       1
       1
       1
       1
       1
       1
       1
       1
       1
       1
       1
       1
       1
       1
       1
       1
       1
       1
       1
       1
       1
       1
       1
       1
       1
       1
       1
       1
       1
       1
       1
       1
       1
       1
       1
       1
       1
       1
       1
       1
       1
       1
       1
       1
       1
       1
       1
       1
       1
       1
       1
       1
       1
       1
       1
       1
       1
       1
       1
       1
       1
       1
       1
       1
       1
       1
       1
       1
       1
       1
       1
       1
       1
       1
       1
       1
       1
       1
       1
       1
       1
       1
       1
       1
       1
       1
       1
       1
       1
       1
       1
       1
       1
       1
       1
       1
       1
       1
       1
       1
       1
       1
       1
       1
       1
       1
       1
       1
       1
       1
       1
       1
       1
       1
       1
       1
       1
       1
       1
       1
       1
       1
       1
       1
       1
       1
       1
       1
       1
       1
       1
       1
       1
       1
       1
       1
       1
      12
      12
      12
      12
      12
      12
      12
      12
      12
      12
      12
      12
      12
      12
      12
      12
      12
      12
      12
      12
      12
      12
      12
      12
      12
      12
      12
      12
      12
      12
      12
      12
      12
      12
      12
      12
      12
      12
      12
      12
      12
      12
      12
      12
      12
      12
      12
      12
      12
      12
      12
      12
      12
      12
      12
      12
      12
      12
      12
      12
      12
      12
      12
      12
      12
      12
      12
      12
      12
      12
      12
      12
      12
      12
      12
      12
      12
      12
      12
      12
      12
      12
      12
      12
      12
      12
      12
      12
      12
      12
      12
      12
      12
      12
      12
      12
      12
      12
      12
      12
      12
      12
      12
      12
      12
      12
      12
      12
      12
      12
      12
      12
      12
      12
      12
      12
      12
      12
      12
      12
      12
      12
      12
      12
      12
      12
      12
      12
      12
      12
      12
      12
      12
      12
      12
      12
      12
      12
      12
      12
      12
      12
      12
      12
      12
      12
      12
      12
      12
      12
      12
      12
      12
      12
      12
      12
      12
      12
      12
      12
      12
      12
      12
      12
      12
      12
      12
      12
      12
      12
      12
      12
      12
      12
      12
      12
      12
      12
      12
      12
      12
      12
      12
      12
      12
      12
      12
      12
      12
      12
      12
      12
      12
      12
      12
      12
      12
      12
      12
      12
      12
      12
      12
      12
      12
      12
      12
      12
      12
      12
      12
      12
      12
      12
      12
      12
      12
      12
      12
      12
      12
      12
      12
      12
      12
      12
      12
      12
      12
      12
      12
      12
      12
      12
      12
      12
      12
      12
      12
      12
      12
      12
      12
      12
      12
      12
      12
      12
      12
      12
      12
      12
      12
      12
      12
      12
      12
      12
      12
      12
      12
      12
      12
      12
      12
      12
      12
      12
      12
      12
      12
      12
      12
      12
      12
      12
      12
      12
      12
      12
      12
      12
      12
      12
      12
      12
      12
      12
      12
      12
      12
      12
      12
      12
      12
      12
      12
      12
      12
      12
      12
      12
      12
      12
      12
      12
      12
      12
      12
      12
      12
      12
      12
      12
      12
      12
      12
      12
      12
      12
      12
      12
      12
      12
      12
      12
      12
      12
      12
      12
      12
      12
      12
      12
      12
      12
      12
      12
      12
      12
      12
      12
      12
      12
      12
      12
      12
      12
      12
      12
      12
      12
      12
      12
      12
      12
      12
      12
      12
      12
      12
      12
      12
      12
      12
      12
      12
      12
      12
      12
      12
      12
      12
      12
      12
      12
      12
      12
      12
      12
      12
      12
      12
      12
      12
      12
      12
      12
      12
      12
      12
      12
      12
      12
      12
      12
      12
      12
      12
      12
      12
      12
      12
      12
      12
      12
      12
      12
      12
      12
      12
      12
      12
      12
      12
      12
      12
      12
      12
      12
      12
      12
      12
      12
      12
      12
      12
      12
      12
      12
      12
      12
      12
      12
      12
      12
      12
      12
      12
      12
      12
      12
      12
      12
      12
      12
      12
      12
      12
      12
      12
      12
      12
      12
      12
      12
      12
      12
      12
      12
      12
      12
      12
      12
      12
      12
      12
      12
      12
      12
      12
      12
      12
      12
      12
      12
      12
      12
      12
      12
      12
      12
      12
      12
      12
      12
      12
      12
      12
      12
      12
      12
      12
      12
      12
      12
      12
      12
      12
      12
      12
      12
      12
      12
      12
      12
      12
      12
      12
      12
      12
      12
      12
      12
      12
      12
      12
      12
      12
      12
      12
      12
      12
      12
      12
      12
      12
      12
      12
      12
      12
      12
      12
      12
      12
      12
      12
      12
      12
      12
      12
      12
      12
      12
      12
      12
      12
      12
      12
      12
      12
      12
      12
      12
      12
      12
      12
      12
      12
      12
      12
      12
      12
      12
      12
      12
      12
      12
      12
      12
      12
      12
      12
      12
      12
      12
      12
      12
      12
      12
      12
      12
      12
      12
      12
      12
      12
      12
      12
      12
      12
      12
      12
      12
      12
      12
      12
      12
      12
      12
      12
      12
      12
      12
      12
      12
      12
      12
      12
      12
      12
      12
      12
      12
      12
      12
      12
      12
      12
      12
      12
      12
      12
      12
      12
      12
      12
      12
      12
      12
      12
      12
      12
      12
      12
      12
      12
      12
      12
      12
      12
      12
      12
      12
      12
      12
      12
      12
      12
      12
      12
      12
      12
      12
      12
      12
      12
      12
      12
      12
      12
      12
      12
      12
      12
      12
      12
      12
      12
      12
      12
      12
      12
      12
      12
      12
      12
      12
      12
      12
      12
      12
      12
      12
      12
      12
      12
      12
      12
      12
      12
      12
      12
      12
      12
      12
      12
      12
      12
      12
      12
      12
      12
      12
      12
      12
      12
      12
      12
      12
      12
      12
      12
      12
      12
      12
      12
      12
      12
      12
      12
      12
      12
      12
      12
      12
      12
      12
      12
      12
      12
      12
      12
      12
      12
      12
      12
      12
      12
      12
      12
      12
      12
      12
      12
      12
      12
      12
      12
      12
      12
      12
      12
      12
      12
      12
      12
      12
      12
      12
      12
      12
      12
      12
      12
      12
      12
      12
      12
      12
      12
      12
      12
      12
      12
      12
      12
      12
      12
      12
      12
      12
      12
      12
      12
      12
      12
      12
      12
      12
      12
      12
      12
      12
      12
      12
      12
      12
      12
      12
      12
      12
      12
      12
      12
      12
      12
      12
      12
      12
      12
      12
      12
      12
      12
      12
      12
      12
      12
      12
      12
      12
      12
      12
      12
      12
      12
      12
      12
      12
      12
      12
      12
      12
      12
      12
      12
      12
      12
      12
      12
      12
      12
      12
      12
      12
      12
      12
      12
      12
      12
      12
      12
      12
      12
      12
      12
      12
      12
      12
      12
      12
      12
      12
      12
      12
      12
      12
      12
      12
      12
      12
      12
      12
      12
      12
      12
      12
      12
      12
      12
      12
      12
      12
      12
      12
      12
      12
      12
      12
      12
      12
      12
      12
      12
      12
      12
      12
      12
      12
      12
      12
      12
      12
      12
      12
      12
      12
      12
      12
      12
      12
      12
      12
      12
      12
      12
      12
      12
      12
      12
      12
      12
      12
      12
      12
      12
      12
      12
      12
      12
      12
      12
      12
      12
      12
      12
      12
      12
      12
      12
      12
      12
      12
      12
      12
      12
      12
      12
      12
      12
      12
      12
      12
      12
      12
      12
      12
      12
      12
      12
      12
      12
      12
      12
      12
      12
      12
      12
      12
      12
      12
      12
      12
      12
      12
      12
      12
      12
      12
      12
      12
      12
      12
      12
      12
      12
      12
      12
      12
      12
      12
      12
      12
      12
      12
      12
      12
      12
      12
      12
      12
      12
      12
      12
      12
      12
      12
      12
      12
      12
      12
      12
      12
      12
      12
      12
      12
      12
      12
      12
      12
      12
      12
      12
      12
      12
      12
      12
      12
      12
      12
      12
      12
      12
      12
      12
      12
      12
      12
      12
      12
      12
      12
      12
      12
      12
      12
      12
      12
      12
      12
      12
      12
      12
      12
      12
      12
      12
      12
      12
      12
      12
      12
      12
      12
      12
      12
      12
      12
      12
      12
      12
      12
      12
      12
      12
      12
      12
      12
      12
      12
      12
      12
      12
      12
      12
      12
      12
      12
      12
      12
      12
      12
      12
      12
      12
      12
      12
      12
      12
      12
      12
      12
      12
      12
      12
      12
      12
      12
      12
      12
      12
      12
      12
      12
      12
      12
      12
      12
      12
      12
      12
      12
      12
      12
      12
      12
      12
      12
      12
      12
      12
      12
      12
      12
      12
      12
      12
      12
      12
      12
      12
      12
      12
      12
      12
      12
      12
      12
      12
      12
      12
      12
      12
      12
      12
      12
      12
      12
      12
      12
      12
      12
      12
      12
      12
      12
      12
      12
      12
      12
      12
      12
      12
      12
      12
      12
      12
      12
      12
      12
      12
      12
      12
      12
      12
      12
      12
      12
      12
      12
      12
      12
      12
      12
      12
      12
      12
      12
      12
      12
      12
      12
      12
      12
      12
      12
      12
      12
      12
      12
      12
      12
      12
      12
      12
      12
      12
      12
      12
      12
      12
      12
      12
      12
      12
      12
      12
      12
      12
      12
      12
      12
      12
      12
      12
      12
      12
      12
      12
      12
      12
      12
      12
      12
      12
      12
      12
      12
      12
      12
      12
      12
      12
      12
      12
      12
      12
      12
      12
      12
      12
      12
      12
      12
      12
      12
      12
      12
      12
      12
      12
      12
      12
      12
      12
      12
      12
      12
      12
      12
      12
      12
      12
      12
      12
      12
      12
      12
      12
      12
      12
      12
      12
      12
      12
      12
      12
      12
      12
      12
      12
      12
      12
      12
      12
      12
      12
      12
      12
      12
      12
      12
      12
      12
      12
      12
      12
      12
      12
      12
      12
      12
      12
      12
      12
      12
      12
      12
      12
      12
      12
      12
      12
      12
      12
      12
      12
      12
      12
      12
      12
      12
      12
      12
      12
      12
      12
      12
      12
      12
      12
      12
      12
      12
      12
      12
      12
      12
      12
      12
      12
      12
      12
      12
      12
      12
      12
      12
      12
      12
      12
      12
      12
      12
      12
      12
      12
      12
      12
      12
      12
      12
      12
      12
      12
      12
      12
      12
      12
      12
      12
      12
      12
      12
      12
      12
      12
      12
      12
      12
      12
      12
      12
      12
      12
      12
      12
      12
      12
      12
      12
      12
      12
      12
      12
      12
      12
      12
      12
      12
      12
      12
      12
      12
      12
      12
      12
      12
      12
      12
      12
      12
      12
      12
      12
      12
      12
      12
      12
      12
      12
      12
      12
      12
      12
      12
      12
      12
      12
      12
      12
      12
      12
      12
      12
      12
      12
      12
      12
      12
      12
      12
      12
      12
      12
      12
      12
      12
      12
      12
      12
      12
      12
      12
      12
      12
      12
      12
      12
      12
      12
      12
      12
      12
      12
      12
      12
      12
      12
      12
      12
      12
      12
      12
      12
      12
      12
      12
      12
      12
      12
      12
      12
      12
      12
      12
      12
      12
      12
      12
      12
      12
      12
      12
      12
      12
      12
      12
      12
      12
      12
      12
      12
      12
      12
      12
      12
      12
      12
      12
      12
      12
      12
      12
  
  
POINT_DATA       1950
  
SCALARS                  material_type  double 1
LOOKUP_TABLE default
                   2
                   2
                   2
                   2
                   2
                   2
                   2
                   2
                   2
                   2
                   2
                   2
                   2
                   2
                   2
                   2
                   2
                   2
                   2
                   2
                   2
                   2
                   2
                   2
                   2
                   2
                   2
                   2
                   2
                   2
                   2
                   2
                   2
                   2
                   2
                   2
                   2
                   2
                   2
                   2
                   2
                   2
                   2
                   2
                   2
                   2
                   2
                   2
                   2
                   2
                   2
                   2
                   2
                   2
                   2
                   2
                   2
                   2
                   2
                   2
                   2
                   2
                   2
                   2
                   2
                   2
                   2
                   2
                   2
                   2
                   2
                   2
                   2
                   2
                   2
                   2
                   2
                   2
                   2
                   2
                   2
                   2
                   2
                   2
                   2
                   2
                   2
                   2
                   2
                   2
                   2
                   2
                   2
                   2
                   2
                   2
                   2
                   2
                   2
                   2
                   2
                   2
                   2
                   2
                   2
                   2
                   2
                   2
                   2
                   2
                   2
                   2
                   2
                   2
                   2
                   2
                   2
                   2
                   2
                   2
                   2
                   2
                   2
                   2
                   2
                   2
                   2
                   2
                   2
                   2
                   2
                   2
                   2
                   2
                   2
                   2
                   2
                   2
                   2
                   2
                   2
                   2
                   2
                   2
                   2
                   2
                   2
                   2
                   2
                   2
                   2
                   2
                   2
                   2
                   2
                   2
                   2
                   2
                   2
                   2
                   2
                   2
                   2
                   2
                   2
                   2
                   2
                   2
                   2
                   2
                   2
                   2
                   2
                   2
                   2
                   2
                   2
                   2
                   2
                   2
                   2
                   2
                   2
                   2
                   2
                   2
                   2
                   2
                   2
                   2
                   2
                   2
                   2
                   2
                   2
                   2
                   2
                   2
                   2
                   2
                   2
                   2
                   2
                   2
                   2
                   2
                   2
                   2
                   2
                   2
                   2
                   2
                   2
                   2
                   2
                   2
                   2
                   2
                   2
                   2
                   2
                   2
                   2
                   2
                   2
                   2
                   2
                   2
                   2
                   2
                   2
                   2
                   2
                   2
                   2
                   2
                   2
                   2
                   2
                   2
                   2
                   2
                   2
                   2
                   2
                   2
                   2
                   2
                   2
                   2
                   2
                   2
                   2
                   2
                   2
                   2
                   2
                   2
                   2
                   2
                   2
                   2
                   2
                   2
                   2
                   2
                   2
                   2
                   2
                   2
                   2
                   2
                   2
                   2
                   2
                   2
                   2
                   2
                   2
                   2
                   2
                   2
                   2
                   2
                   2
                   2
                   2
                   2
                   2
                   2
                   2
                   2
                   2
                   2
                   2
                   2
                   2
                   2
                   2
                   2
                   2
                   2
                   2
                   2
                   2
                   2
                   2
                   2
                   2
                   2
                   2
                   2
                   2
                   2
                   2
                   2
                   2
                   2
                   2
                   2
                   2
                   2
                   2
                   2
                   2
                   2
                   2
                   2
                   2
                   2
                   2
                   2
                   2
                   2
                   2
                   2
                   2
                   2
                   2
                   2
                   2
                   2
                   2
                   2
                   2
                   2
                   2
                   2
                   2
                   2
                   2
                   2
                   2
                   2
                   2
                   2
                   2
                   2
                   2
                   2
                   2
                   2
                   2
                   2
                   2
                   2
                   2
                   2
                   2
                   2
                   2
                   2
                   2
                   2
                   2
                   2
                   2
                   2
                   2
                   2
                   2
                   2
                   2
                   2
                   2
                   2
                   2
                   2
                   2
                   2
                   2
                   2
                   2
                   2
                   2
                   2
                   2
                   2
                   2
                   2
                   2
                   2
                   2
                   2
                   2
                   2
                   2
                   2
                   2
                   2
                   2
                   2
                   2
                   2
                   2
                   2
                   2
                   2
                   2
                   2
                   2
                   2
                   2
                   2
                   2
                   2
                   2
                   2
                   2
                   2
                   2
                   2
                   2
                   2
                   2
                   2
                   2
                   2
                   2
                   2
                   2
                   2
                   2
                   2
                   2
                   2
                   2
                   2
                   2
                   2
                   2
                   2
                   2
                   2
                   2
                   2
                   2
                   2
                   2
                   2
                   2
                   2
                   2
                   2
                   2
                   2
                   2
                   2
                   2
                   2
                   2
                   2
                   2
                   2
                   2
                   2
                   2
                   2
                   2
                   2
                   2
                   2
                   2
                   2
                   2
                   2
                   2
                   2
                   2
                   2
                   2
                   2
                   2
                   2
                   2
                   2
                   2
                   2
                   2
                   2
                   2
                   2
                   2
                   2
                   2
                   2
                   2
                   2
                   2
                   2
                   2
                   2
                   2
                   2
                   2
                   2
                   2
                   2
                   2
                   2
                   2
                   2
                   2
                   2
                   2
                   2
                   2
                   2
                   2
                   2
                   2
                   2
                   2
                   2
                   2
                   2
                   2
                   2
                   2
                   2
                   2
                   2
                   2
                   2
                   2
                   2
                   2
                   2
                   2
                   2
                   2
                   2
                   2
                   2
                   2
                   2
                   2
                   2
                   2
                   2
                   2
                   2
                   2
                   2
                   2
                   2
                   2
                   2
                   2
                   2
                   2
                   2
                   2
                   2
                   2
                   2
                   2
                   2
                   2
                   2
                   2
                   2
                   2
                   2
                   2
                   2
                   2
                   2
                   2
                   2
                   2
                   2
                   2
                   2
                   2
                   2
                   2
                   2
                   2
                   2
                   2
                   2
                   2
                   2
                   2
                   2
                   2
                   2
                   2
                   2
                   2
                   2
                   2
                   2
                   2
                   2
                   2
                   2
                   2
                   2
                   2
                   2
                   2
                   2
                   2
                   2
                   2
                   2
                   2
                   2
                   2
                   2
                   2
                   2
                   2
                   2
                   2
                   2
                   2
                   2
                   2
                   2
                   2
                   2
                   2
                   2
                   2
                   2
                   2
                   2
                   2
                   2
                   2
                   2
                   2
                   2
                   2
                   2
                   2
                   2
                   2
                   2
                   2
                   2
                   2
                   2
                   2
                   2
                   2
                   2
                   2
                   2
                   2
                   2
                   2
                   2
                   2
                   2
                   2
                   2
                   2
                   2
                   2
                   2
                   2
                   2
                   2
                   2
                   2
                   2
                   2
                   2
                   2
                   2
                   2
                   2
                   2
                   2
                   2
                   2
                   2
                   2
                   2
                   2
                   2
                   2
                   2
                   2
                   2
                   2
                   2
                   2
                   2
                   2
                   2
                   2
                   2
                   2
                   2
                   2
                   2
                   2
                   2
                   2
                   2
                   2
                   2
                   2
                   2
                   2
                   2
                   2
                   2
                   2
                   2
                   2
                   2
                   2
                   2
                   2
                   2
                   2
                   2
                   2
                   2
                   2
                   2
                   2
                   2
                   2
                   2
                   2
                   2
                   2
                   2
                   2
                   2
                   2
                   2
                   2
                   2
                   2
                   2
                   2
                   2
                   2
                   2
                   2
                   2
                   2
                   2
                   2
                   2
                   2
                   2
                   2
                   2
                   2
                   2
                   2
                   2
                   2
                   2
                   2
                   2
                   2
                   2
                   2
                   2
                   2
                   2
                   2
                   2
                   2
                   2
                   2
                   2
                   2
                   2
                   2
                   2
                   2
                   2
                   2
                   2
                   2
                   2
                   2
                   2
                   2
                   2
                   2
                   2
                   2
                   2
                   2
                   2
                   2
                   2
                   2
                   2
                   2
                   2
                   2
                   2
                   2
                   2
                   2
                   2
                   2
                   2
                   2
                   2
                   2
                   2
                   2
                   2
                   2
                   2
                   2
                   2
                   2
                   2
                   2
                   2
                   2
                   2
                   2
                   2
                   2
                   2
                   2
                   2
                   2
                   2
                   2
                   2
                   2
                   2
                   2
                   2
                   2
                   2
                   2
                   2
                   2
                   2
                   2
                   2
                   2
                   2
                   2
                   2
                   2
                   2
                   2
                   2
                   2
                   2
                   2
                   2
                   2
                   2
                   2
                   2
                   2
                   2
                   2
                   2
                   2
                   2
                   2
                   2
                   2
                   2
                   2
                   2
                   2
                   2
                   2
                   2
                   2
                   2
                   2
                   2
                   2
                   2
                   2
                   2
                   2
                   2
                   2
                   2
                   2
                   2
                   2
                   2
                   2
                   2
                   2
                   2
                   2
                   2
                   2
                   2
                   2
                   2
                   2
                   2
                   2
                   2
                   2
                   2
                   2
                   2
                   2
                   2
                   2
                   2
                   2
                   2
                   2
                   2
                   2
                   2
                   2
                   2
                   2
                   2
                   2
                   2
                   2
                   2
                   2
                   2
                   2
                   2
                   2
                   2
                   2
                   2
                   2
                   2
                   2
                   2
                   2
                   2
                   2
                   2
                   2
                   2
                   2
                   2
                   2
                   2
                   2
                   2
                   2
                   2
                   2
                   2
                   2
                   2
                   2
                   2
                   2
                   2
                   2
                   2
                   2
                   2
                   2
                   2
                   2
                   2
                   2
                   2
                   2
                   2
                   2
                   2
                   2
                   2
                   2
                   2
                   2
                   2
                   2
                   2
                   2
                   2
                   2
                   2
                   2
                   2
                   2
                   2
                   2
                   2
                   2
                   2
                   2
                   2
                   2
                   2
                   2
                   2
                   2
                   2
                   2
                   2
                   2
                   2
                   2
                   2
                   2
                   2
                   2
                   2
                   2
                   2
                   2
                   2
                   2
                   2
                   2
                   2
                   2
                   2
                   2
                   2
                   2
                   2
                   2
                   2
                   2
                   2
                   2
                   2
                   2
                   2
                   2
                   2
                   2
                   2
                   2
                   2
                   2
                   2
                   2
                   2
                   2
                   2
                   2
                   2
                   2
                   2
                   2
                   2
                   2
                   2
                   2
                   2
                   2
                   2
                   2
                   2
                   2
                   2
                   2
                   2
                   2
                   2
                   2
                   2
                   2
                   2
                   2
                   2
                   2
                   2
                   2
                   2
                   2
                   2
                   2
                   2
                   2
                   2
                   2
                   2
                   2
                   2
                   2
                   2
                   2
                   2
                   2
                   2
                   2
                   2
                   2
                   2
                   2
                   2
                   2
                   2
                   2
                   2
                   2
                   2
                   2
                   2
                   2
                   2
                   2
                   2
                   2
                   2
                   2
                   2
                   2
                   2
                   2
                   2
                   2
                   2
                   2
                   2
                   2
                   2
                   2
                   2
                   2
                   2
                   2
                   2
                   2
                   2
                   2
                   2
                   2
                   2
                   2
                   2
                   2
                   2
                   2
                   2
                   2
                   2
                   2
                   2
                   2
                   2
                   2
                   2
                   2
                   2
                   2
                   2
                   2
                   2
                   2
                   2
                   2
                   2
                   2
                   2
                   2
                   2
                   2
                   2
                   2
                   2
                   2
                   2
                   2
                   2
                   2
                   2
                   2
                   2
                   2
                   2
                   2
                   2
                   2
                   2
                   2
                   2
                   2
                   2
                   2
                   2
                   2
                   2
                   2
                   2
                   2
                   2
                   2
                   2
                   2
                   2
                   2
                   2
                   2
                   2
                   2
                   2
                   2
                   2
                   2
                   2
                   2
                   2
                   2
                   2
                   2
                   2
                   2
                   2
                   2
                   2
                   2
                   2
                   2
                   2
                   2
                   2
                   2
                   2
                   2
                   2
                   2
                   2
                   2
                   2
                   2
                   2
                   2
                   2
                   2
                   2
                   2
                   2
                   2
                   2
                   2
                   2
                   2
                   2
                   2
                   2
                   2
                   2
                   2
                   2
                   2
                   2
                   2
                   2
                   2
                   2
                   2
                   2
                   2
                   2
                   2
                   2
                   2
                   2
                   2
                   2
                   2
                   2
                   2
                   2
                   2
                   2
                   2
                   2
                   2
                   2
                   2
                   2
                   2
                   2
                   2
                   2
                   2
                   2
                   2
                   2
                   2
                   2
                   2
                   2
                   2
                   2
                   2
                   2
                   2
                   2
                   2
                   2
                   2
                   2
                   2
                   2
                   2
                   2
                   2
                   2
                   2
                   2
                   2
                   2
                   2
                   2
                   2
                   2
                   2
                   2
                   2
                   2
                   2
                   2
                   2
                   2
                   2
                   2
                   2
                   2
                   2
                   2
                   2
                   2
                   2
                   2
                   2
                   2
                   2
                   2
                   2
                   2
                   2
                   2
                   2
                   2
                   2
                   2
                   2
                   2
                   2
                   2
                   2
                   2
                   2
                   2
                   2
                   2
                   2
                   2
                   2
                   2
                   2
                   2
                   2
                   2
                   2
                   2
                   2
                   2
                   2
                   2
                   2
                   2
                   2
                   2
                   2
                   2
                   2
                   2
                   2
                   2
                   2
                   2
                   2
                   2
                   2
                   2
                   2
                   2
                   2
                   2
                   2
                   2
                   2
                   2
                   2
                   2
                   2
                   2
                   2
                   2
                   2
                   2
                   2
                   2
                   2
                   2
                   2
                   2
                   2
                   2
                   2
                   2
                   2
                   2
                   2
                   2
                   2
                   2
                   2
                   2
                   2
                   2
                   2
                   2
                   2
                   2
                   2
                   2
                   2
                   2
                   2
                   2
                   2
                   2
                   2
                   2
                   2
                   2
                   2
                   2
                   2
                   2
                   2
                   2
                   2
                   2
                   2
                   2
                   2
                   2
                   2
                   2
                   2
                   2
                   2
                   2
                   2
                   2
                   2
                   2
                   2
                   2
                   2
                   2
                   2
                   2
                   2
                   2
                   2
                   2
                   2
                   2
                   2
                   2
                   2
                   2
                   2
                   2
                   2
                   2
                   2
                   2
                   2
                   2
                   2
                   2
                   2
                   2
                   2
                   2
                   2
                   2
                   2
                   2
                   2
                   2
                   2
                   2
                   2
                   2
                   2
                   2
                   2
                   2
                   2
                   2
                   2
                   2
                   2
                   2
                   2
                   2
                   2
                   2
                   2
                   2
                   2
                   2
                   2
                   2
                   2
                   2
                   2
                   2
                   2
                   2
                   2
                   2
                   2
                   2
                   2
                   2
                   2
                   2
                   2
                   2
                   2
                   2
                   2
                   2
                   2
                   2
                   2
                   2
                   2
                   2
                   2
                   2
                   2
                   2
                   2
                   2
                   2
                   2
                   2
                   2
                   2
                   2
                   2
                   2
                   2
                   2
                   2
                   2
                   2
                   2
                   2
                   2
                   2
                   2
                   2
                   2
                   2
                   2
                   2
                   2
                   2
                   2
                   2
                   2
                   2
                   2
                   2
                   2
                   2
                   2
                   2
                   2
                   2
                   2
                   2
                   2
                   2
                   2
                   2
                   2
                   2
                   2
                   2
                   2
                   2
                   2
                   2
                   2
                   2
                   2
                   2
                   2
                   2
                   2
                   2
                   2
                   2
                   2
                   2
                   2
                   2
                   2
                   2
                   2
                   2
                   2
                   2
                   2
                   2
                   2
                   2
                   2
                   2
                   2
                   2
                   2
                   2
                   2
                   2
                   2
                   2
                   2
                   2
                   2
                   2
                   2
                   2
                   2
                   2
                   2
                   2
                   2
                   2
                   2
                   2
                   2
                   2
                   2
                   2
                   2
                   2
                   2
                   2
                   2
                   2
                   2
                   2
                   2
                   2
                   2
                   2
                   2
                   2
                   2
                   2
                   2
                   2
                   2
                   2
                   2
                   2
                   2
                   2
                   2
                   2
                   2
                   2
                   2
                   2
                   2
                   2
                   2
                   2
                   2
                   2
                   2
                   2
                   2
                   2
                   2
                   2
                   2
                   2
                   2
                   2
                   2
                   2
                   2
                   2
                   2
                   2
                   2
                   2
                   2
                   2
                   2
                   2
                   2
                   2
                   2
                   2
                   2
                   2
                   2
                   2
                   2
                   2
                   2
                   2
                   2
                   2
                   2
                   2
                   2
                   2
                   2
                   2
                   2
                   2
                   2
                   2
                   2
                   2
                   2
                   2
                   2
                   2
                   2
                   2
                   2
                   2
                   2
                   2
                   2
                   2
                   2
                   2
                   2
                   2
                   2
                   2
                   2
                   2
                   2
                   2
                   2
                   2
                   2
                   2
                   2
                   2
                   2
                   2
                   2
                   2
                   2
                   2
                   2
                   2
                   2
                   2
                   2
                   2
                   2
                   2
                   2
                   2
                   2
                   2
                   2
                   2
                   2
                   2
                   2
                   2
                   2
                   2
                   2
                   2
                   2
                   2
                   2
                   2
                   2
                   2
                   2
                   2
                   2
                   2
                   2
                   2
                   2
                   2
                   2
                   2
                   2
                   2
                   2
                   2
                   2
                   2
                   2
                   2
                   2
                   2
                   2
                   2
                   2
                   2
                   2
                   2
                   2
                   2
                   2
                   2
                   2
                   2
                   2
                   2
                   2
                   2
                   2
                   2
                   2
                   2
                   2
                   2
                   2
                   2
                   2
                   2
                   2
                   2
                   2
                   2
                   2
                   2
                   2
                   2
                   2
                   2
                   2
                   2
                   2
                   2
                   2
                   2
                   2
                   2
                   2
                   2
                   2
                   2
                   2
                   2
                   2
                   2
                   2
                   2
                   2
                   2
                   2
                   2
                   2
                   2
                   2
                   2
                   2
                   2
                   2
                   2
                   2
                   2
                   2
                   2
                   2
                   2
                   2
                   2
                   2
                   2
                   2
                   2
                   2
                   2
                   2
                   2
                   2
                   2
                   2
                   2
                   2
                   2
                   2
                   2
                   2
                   2
                   2
                   2
                   2
                   2
                   2
                   2
                   2
                   2
                   2
                   2
  
SCALARS                        node_id  double 1
LOOKUP_TABLE default
                   1
                   2
                   3
                   4
                   5
                   6
                   7
                   8
                   9
                  10
                  11
                  12
                  13
                  14
                  15
                  16
                  17
                  18
                  19
                  20
                  21
                  22
                  23
                  24
                  25
                  26
                  27
                  28
                  29
                  30
                  31
                  32
                  33
                  34
                  35
                  36
                  37
                  38
                  39
                  40
                  41
                  42
                  43
                  44
                  45
                  46
                  47
                  48
                  49
                  50
                  51
                  52
                  53
                  54
                  55
                  56
                  57
                  58
                  59
                  60
                  61
                  62
                  63
                  64
                  65
                  66
                  67
                  68
                  69
                  70
                  71
                  72
                  73
                  74
                  75
                  76
                  77
                  78
                  79
                  80
                  81
                  82
                  83
                  84
                  85
                  86
                  87
                  88
                  89
                  90
                  91
                  92
                  93
                  94
                  95
                  96
                  97
                  98
                  99
                 100
                 101
                 102
                 103
                 104
                 105
                 106
                 107
                 108
                 109
                 110
                 111
                 112
                 113
                 114
                 115
                 116
                 117
                 118
                 119
                 120
                 121
                 122
                 123
                 124
                 125
                 126
                 127
                 128
                 129
                 130
                 131
                 132
                 133
                 134
                 135
                 136
                 137
                 138
                 139
                 140
                 141
                 142
                 143
                 144
                 145
                 146
                 147
                 148
                 149
                 150
                 151
                 152
                 153
                 154
                 155
                 156
                 157
                 158
                 159
                 160
                 161
                 162
                 163
                 164
                 165
                 166
                 167
                 168
                 169
                 170
                 171
                 172
                 173
                 174
                 175
                 176
                 177
                 178
                 179
                 180
                 181
                 182
                 183
                 184
                 185
                 186
                 187
                 188
                 189
                 190
                 191
                 192
                 193
                 194
                 195
                 196
                 197
                 198
                 199
                 200
                 201
                 202
                 203
                 204
                 205
                 206
                 207
                 208
                 209
                 210
                 211
                 212
                 213
                 214
                 215
                 216
                 217
                 218
                 219
                 220
                 221
                 222
                 223
                 224
                 225
                 226
                 227
                 228
                 229
                 230
                 231
                 232
                 233
                 234
                 235
                 236
                 237
                 238
                 239
                 240
                 241
                 242
                 243
                 244
                 245
                 246
                 247
                 248
                 249
                 250
                 251
                 252
                 253
                 254
                 255
                 256
                 257
                 258
                 259
                 260
                 261
                 262
                 263
                 264
                 265
                 266
                 267
                 268
                 269
                 270
                 271
                 272
                 273
                 274
                 275
                 276
                 277
                 278
                 279
                 280
                 281
                 282
                 283
                 284
                 285
                 286
                 287
                 288
                 289
                 290
                 291
                 292
                 293
                 294
                 295
                 296
                 297
                 298
                 299
                 300
                 301
                 302
                 303
                 304
                 305
                 306
                 307
                 308
                 309
                 310
                 311
                 312
                 313
                 314
                 315
                 316
                 317
                 318
                 319
                 320
                 321
                 322
                 323
                 324
                 325
                 326
                 327
                 328
                 329
                 330
                 331
                 332
                 333
                 334
                 335
                 336
                 337
                 338
                 339
                 340
                 341
                 342
                 343
                 344
                 345
                 346
                 347
                 348
                 349
                 350
                 351
                 352
                 353
                 354
                 355
                 356
                 357
                 358
                 359
                 360
                 361
                 362
                 363
                 364
                 365
                 366
                 367
                 368
                 369
                 370
                 371
                 372
                 373
                 374
                 375
                 376
                 377
                 378
                 379
                 380
                 381
                 382
                 383
                 384
                 385
                 386
                 387
                 388
                 389
                 390
                 391
                 392
                 393
                 394
                 395
                 396
                 397
                 398
                 399
                 400
                 401
                 402
                 403
                 404
                 405
                 406
                 407
                 408
                 409
                 410
                 411
                 412
                 413
                 414
                 415
                 416
                 417
                 418
                 419
                 420
                 421
                 422
                 423
                 424
                 425
                 426
                 427
                 428
                 429
                 430
                 431
                 432
                 433
                 434
                 435
                 436
                 437
                 438
                 439
                 440
                 441
                 442
                 443
                 444
                 445
                 446
                 447
                 448
                 449
                 450
                 451
                 452
                 453
                 454
                 455
                 456
                 457
                 458
                 459
                 460
                 461
                 462
                 463
                 464
                 465
                 466
                 467
                 468
                 469
                 470
                 471
                 472
                 473
                 474
                 475
                 476
                 477
                 478
                 479
                 480
                 481
                 482
                 483
                 484
                 485
                 486
                 487
                 488
                 489
                 490
                 491
                 492
                 493
                 494
                 495
                 496
                 497
                 498
                 499
                 500
                 501
                 502
                 503
                 504
                 505
                 506
                 507
                 508
                 509
                 510
                 511
                 512
                 513
                 514
                 515
                 516
                 517
                 518
                 519
                 520
                 521
                 522
                 523
                 524
                 525
                 526
                 527
                 528
                 529
                 530
                 531
                 532
                 533
                 534
                 535
                 536
                 537
                 538
                 539
                 540
                 541
                 542
                 543
                 544
                 545
                 546
                 547
                 548
                 549
                 550
                 551
                 552
                 553
                 554
                 555
                 556
                 557
                 558
                 559
                 560
                 561
                 562
                 563
                 564
                 565
                 566
                 567
                 568
                 569
                 570
                 571
                 572
                 573
                 574
                 575
                 576
                 577
                 578
                 579
                 580
                 581
                 582
                 583
                 584
                 585
                 586
                 587
                 588
                 589
                 590
                 591
                 592
                 593
                 594
                 595
                 596
                 597
                 598
                 599
                 600
                 601
                 602
                 603
                 604
                 605
                 606
                 607
                 608
                 609
                 610
                 611
                 612
                 613
                 614
                 615
                 616
                 617
                 618
                 619
                 620
                 621
                 622
                 623
                 624
                 625
                 626
                 627
                 628
                 629
                 630
                 631
                 632
                 633
                 634
                 635
                 636
                 637
                 638
                 639
                 640
                 641
                 642
                 643
                 644
                 645
                 646
                 647
                 648
                 649
                 650
                 651
                 652
                 653
                 654
                 655
                 656
                 657
                 658
                 659
                 660
                 661
                 662
                 663
                 664
                 665
                 666
                 667
                 668
                 669
                 670
                 671
                 672
                 673
                 674
                 675
                 676
                 677
                 678
                 679
                 680
                 681
                 682
                 683
                 684
                 685
                 686
                 687
                 688
                 689
                 690
                 691
                 692
                 693
                 694
                 695
                 696
                 697
                 698
                 699
                 700
                 701
                 702
                 703
                 704
                 705
                 706
                 707
                 708
                 709
                 710
                 711
                 712
                 713
                 714
                 715
                 716
                 717
                 718
                 719
                 720
                 721
                 722
                 723
                 724
                 725
                 726
                 727
                 728
                 729
                 730
                 731
                 732
                 733
                 734
                 735
                 736
                 737
                 738
                 739
                 740
                 741
                 742
                 743
                 744
                 745
                 746
                 747
                 748
                 749
                 750
                 751
                 752
                 753
                 754
                 755
                 756
                 757
                 758
                 759
                 760
                 761
                 762
                 763
                 764
                 765
                 766
                 767
                 768
                 769
                 770
                 771
                 772
                 773
                 774
                 775
                 776
                 777
                 778
                 779
                 780
                 781
                 782
                 783
                 784
                 785
                 786
                 787
                 788
                 789
                 790
                 791
                 792
                 793
                 794
                 795
                 796
                 797
                 798
                 799
                 800
                 801
                 802
                 803
                 804
                 805
                 806
                 807
                 808
                 809
                 810
                 811
                 812
                 813
                 814
                 815
                 816
                 817
                 818
                 819
                 820
                 821
                 822
                 823
                 824
                 825
                 826
                 827
                 828
                 829
                 830
                 831
                 832
                 833
                 834
                 835
                 836
                 837
                 838
                 839
                 840
                 841
                 842
                 843
                 844
                 845
                 846
                 847
                 848
                 849
                 850
                 851
                 852
                 853
                 854
                 855
                 856
                 857
                 858
                 859
                 860
                 861
                 862
                 863
                 864
                 865
                 866
                 867
                 868
                 869
                 870
                 871
                 872
                 873
                 874
                 875
                 876
                 877
                 878
                 879
                 880
                 881
                 882
                 883
                 884
                 885
                 886
                 887
                 888
                 889
                 890
                 891
                 892
                 893
                 894
                 895
                 896
                 897
                 898
                 899
                 900
                 901
                 902
                 903
                 904
                 905
                 906
                 907
                 908
                 909
                 910
                 911
                 912
                 913
                 914
                 915
                 916
                 917
                 918
                 919
                 920
                 921
                 922
                 923
                 924
                 925
                 926
                 927
                 928
                 929
                 930
                 931
                 932
                 933
                 934
                 935
                 936
                 937
                 938
                 939
                 940
                 941
                 942
                 943
                 944
                 945
                 946
                 947
                 948
                 949
                 950
                 951
                 952
                 953
                 954
                 955
                 956
                 957
                 958
                 959
                 960
                 961
                 962
                 963
                 964
                 965
                 966
                 967
                 968
                 969
                 970
                 971
                 972
                 973
                 974
                 975
                 976
                 977
                 978
                 979
                 980
                 981
                 982
                 983
                 984
                 985
                 986
                 987
                 988
                 989
                 990
                 991
                 992
                 993
                 994
                 995
                 996
                 997
                 998
                 999
                1000
                1001
                1002
                1003
                1004
                1005
                1006
                1007
                1008
                1009
                1010
                1011
                1012
                1013
                1014
                1015
                1016
                1017
                1018
                1019
                1020
                1021
                1022
                1023
                1024
                1025
                1026
                1027
                1028
                1029
                1030
                1031
                1032
                1033
                1034
                1035
                1036
                1037
                1038
                1039
                1040
                1041
                1042
                1043
                1044
                1045
                1046
                1047
                1048
                1049
                1050
                1051
                1052
                1053
                1054
                1055
                1056
                1057
                1058
                1059
                1060
                1061
                1062
                1063
                1064
                1065
                1066
                1067
                1068
                1069
                1070
                1071
                1072
                1073
                1074
                1075
                1076
                1077
                1078
                1079
                1080
                1081
                1082
                1083
                1084
                1085
                1086
                1087
                1088
                1089
                1090
                1091
                1092
                1093
                1094
                1095
                1096
                1097
                1098
                1099
                1100
                1101
                1102
                1103
                1104
                1105
                1106
                1107
                1108
                1109
                1110
                1111
                1112
                1113
                1114
                1115
                1116
                1117
                1118
                1119
                1120
                1121
                1122
                1123
                1124
                1125
                1126
                1127
                1128
                1129
                1130
                1131
                1132
                1133
                1134
                1135
                1136
                1137
                1138
                1139
                1140
                1141
                1142
                1143
                1144
                1145
                1146
                1147
                1148
                1149
                1150
                1151
                1152
                1153
                1154
                1155
                1156
                1157
                1158
                1159
                1160
                1161
                1162
                1163
                1164
                1165
                1166
                1167
                1168
                1169
                1170
                1171
                1172
                1173
                1174
                1175
                1176
                1177
                1178
                1179
                1180
                1181
                1182
                1183
                1184
                1185
                1186
                1187
                1188
                1189
                1190
                1191
                1192
                1193
                1194
                1195
                1196
                1197
                1198
                1199
                1200
                1201
                1202
                1203
                1204
                1205
                1206
                1207
                1208
                1209
                1210
                1211
                1212
                1213
                1214
                1215
                1216
                1217
                1218
                1219
                1220
                1221
                1222
                1223
                1224
                1225
                1226
                1227
                1228
                1229
                1230
                1231
                1232
                1233
                1234
                1235
                1236
                1237
                1238
                1239
                1240
                1241
                1242
                1243
                1244
                1245
                1246
                1247
                1248
                1249
                1250
                1251
                1252
                1253
                1254
                1255
                1256
                1257
                1258
                1259
                1260
                1261
                1262
                1263
                1264
                1265
                1266
                1267
                1268
                1269
                1270
                1271
                1272
                1273
                1274
                1275
                1276
                1277
                1278
                1279
                1280
                1281
                1282
                1283
                1284
                1285
                1286
                1287
                1288
                1289
                1290
                1291
                1292
                1293
                1294
                1295
                1296
                1297
                1298
                1299
                1300
                1301
                1302
                1303
                1304
                1305
                1306
                1307
                1308
                1309
                1310
                1311
                1312
                1313
                1314
                1315
                1316
                1317
                1318
                1319
                1320
                1321
                1322
                1323
                1324
                1325
                1326
                1327
                1328
                1329
                1330
                1331
                1332
                1333
                1334
                1335
                1336
                1337
                1338
                1339
                1340
                1341
                1342
                1343
                1344
                1345
                1346
                1347
                1348
                1349
                1350
                1351
                1352
                1353
                1354
                1355
                1356
                1357
                1358
                1359
                1360
                1361
                1362
                1363
                1364
                1365
                1366
                1367
                1368
                1369
                1370
                1371
                1372
                1373
                1374
                1375
                1376
                1377
                1378
                1379
                1380
                1381
                1382
                1383
                1384
                1385
                1386
                1387
                1388
                1389
                1390
                1391
                1392
                1393
                1394
                1395
                1396
                1397
                1398
                1399
                1400
                1401
                1402
                1403
                1404
                1405
                1406
                1407
                1408
                1409
                1410
                1411
                1412
                1413
                1414
                1415
                1416
                1417
                1418
                1419
                1420
                1421
                1422
                1423
                1424
                1425
                1426
                1427
                1428
                1429
                1430
                1431
                1432
                1433
                1434
                1435
                1436
                1437
                1438
                1439
                1440
                1441
                1442
                1443
                1444
                1445
                1446
                1447
                1448
                1449
                1450
                1451
                1452
                1453
                1454
                1455
                1456
                1457
                1458
                1459
                1460
                1461
                1462
                1463
                1464
                1465
                1466
                1467
                1468
                1469
                1470
                1471
                1472
                1473
                1474
                1475
                1476
                1477
                1478
                1479
                1480
                1481
                1482
                1483
                1484
                1485
                1486
                1487
                1488
                1489
                1490
                1491
                1492
                1493
                1494
                1495
                1496
                1497
                1498
                1499
                1500
                1501
                1502
                1503
                1504
                1505
                1506
                1507
                1508
                1509
                1510
                1511
                1512
                1513
                1514
                1515
                1516
                1517
                1518
                1519
                1520
                1521
                1522
                1523
                1524
                1525
                1526
                1527
                1528
                1529
                1530
                1531
                1532
                1533
                1534
                1535
                1536
                1537
                1538
                1539
                1540
                1541
                1542
                1543
                1544
                1545
                1546
                1547
                1548
                1549
                1550
                1551
                1552
                1553
                1554
                1555
                1556
                1557
                1558
                1559
                1560
                1561
                1562
                1563
                1564
                1565
                1566
                1567
                1568
                1569
                1570
                1571
                1572
                1573
                1574
                1575
                1576
                1577
                1578
                1579
                1580
                1581
                1582
                1583
                1584
                1585
                1586
                1587
                1588
                1589
                1590
                1591
                1592
                1593
                1594
                1595
                1596
                1597
                1598
                1599
                1600
                1601
                1602
                1603
                1604
                1605
                1606
                1607
                1608
                1609
                1610
                1611
                1612
                1613
                1614
                1615
                1616
                1617
                1618
                1619
                1620
                1621
                1622
                1623
                1624
                1625
                1626
                1627
                1628
                1629
                1630
                1631
                1632
                1633
                1634
                1635
                1636
                1637
                1638
                1639
                1640
                1641
                1642
                1643
                1644
                1645
                1646
                1647
                1648
                1649
                1650
                1651
                1652
                1653
                1654
                1655
                1656
                1657
                1658
                1659
                1660
                1661
                1662
                1663
                1664
                1665
                1666
                1667
                1668
                1669
                1670
                1671
                1672
                1673
                1674
                1675
                1676
                1677
                1678
                1679
                1680
                1681
                1682
                1683
                1684
                1685
                1686
                1687
                1688
                1689
                1690
                1691
                1692
                1693
                1694
                1695
                1696
                1697
                1698
                1699
                1700
                1701
                1702
                1703
                1704
                1705
                1706
                1707
                1708
                1709
                1710
                1711
                1712
                1713
                1714
                1715
                1716
                1717
                1718
                1719
                1720
                1721
                1722
                1723
                1724
                1725
                1726
                1727
                1728
                1729
                1730
                1731
                1732
                1733
                1734
                1735
                1736
                1737
                1738
                1739
                1740
                1741
                1742
                1743
                1744
                1745
                1746
                1747
                1748
                1749
                1750
                1751
                1752
                1753
                1754
                1755
                1756
                1757
                1758
                1759
                1760
                1761
                1762
                1763
                1764
                1765
                1766
                1767
                1768
                1769
                1770
                1771
                1772
                1773
                1774
                1775
                1776
                1777
                1778
                1779
                1780
                1781
                1782
                1783
                1784
                1785
                1786
                1787
                1788
                1789
                1790
                1791
                1792
                1793
                1794
                1795
                1796
                1797
                1798
                1799
                1800
                1801
                1802
                1803
                1804
                1805
                1806
                1807
                1808
                1809
                1810
                1811
                1812
                1813
                1814
                1815
                1816
                1817
                1818
                1819
                1820
                1821
                1822
                1823
                1824
                1825
                1826
                1827
                1828
                1829
                1830
                1831
                1832
                1833
                1834
                1835
                1836
                1837
                1838
                1839
                1840
                1841
                1842
                1843
                1844
                1845
                1846
                1847
                1848
                1849
                1850
                1851
                1852
                1853
                1854
                1855
                1856
                1857
                1858
                1859
                1860
                1861
                1862
                1863
                1864
                1865
                1866
                1867
                1868
                1869
                1870
                1871
                1872
                1873
                1874
                1875
                1876
                1877
                1878
                1879
                1880
                1881
                1882
                1883
                1884
                1885
                1886
                1887
                1888
                1889
                1890
                1891
                1892
                1893
                1894
                1895
                1896
                1897
                1898
                1899
                1900
                1901
                1902
                1903
                1904
                1905
                1906
                1907
                1908
                1909
                1910
                1911
                1912
                1913
                1914
                1915
                1916
                1917
                1918
                1919
                1920
                1921
                1922
                1923
                1924
                1925
                1926
                1927
                1928
                1929
                1930
                1931
                1932
                1933
                1934
                1935
                1936
                1937
                1938
                1939
                1940
                1941
                1942
                1943
                1944
                1945
                1946
                1947
                1948
                1949
                1950
  
SCALARS                         bodyid  double 1
LOOKUP_TABLE default
                   1
                   1
                   1
                   1
                   1
                   1
                   1
                   1
                   1
                   1
                   1
                   1
                   1
                   1
                   1
                   1
                   1
                   1
                   1
                   1
                   1
                   1
                   1
                   1
                   1
                   1
                   1
                   1
                   1
                   1
                   1
                   1
                   1
                   1
                   1
                   1
                   1
                   1
                   1
                   1
                   1
                   1
                   1
                   1
                   1
                   1
                   1
                   1
                   1
                   1
                   1
                   1
                   1
                   1
                   1
                   1
                   1
                   1
                   1
                   1
                   1
                   1
                   1
                   1
                   1
                   1
                   1
                   1
                   1
                   1
                   1
                   1
                   1
                   1
                   1
                   1
                   1
                   1
                   1
                   1
                   1
                   1
                   1
                   1
                   1
                   1
                   1
                   1
                   1
                   1
                   1
                   1
                   1
                   1
                   1
                   1
                   1
                   1
                   1
                   1
                   1
                   1
                   1
                   1
                   1
                   1
                   1
                   1
                   1
                   1
                   1
                   1
                   1
                   1
                   1
                   1
                   1
                   1
                   1
                   1
                   1
                   1
                   1
                   1
                   1
                   1
                   1
                   1
                   1
                   1
                   1
                   1
                   1
                   1
                   1
                   1
                   1
                   1
                   1
                   1
                   1
                   1
                   1
                   1
                   1
                   1
                   1
                   1
                   1
                   1
                   1
                   1
                   1
                   1
                   1
                   1
                   1
                   1
                   1
                   1
                   1
                   1
                   1
                   1
                   1
                   1
                   1
                   1
                   1
                   1
                   1
                   1
                   1
                   1
                   1
                   1
                   1
                   1
                   1
                   1
                   1
                   1
                   1
                   1
                   1
                   1
                   1
                   1
                   1
                   1
                   1
                   1
                   1
                   1
                   1
                   1
                   1
                   1
                   1
                   1
                   1
                   1
                   1
                   1
                   1
                   1
                   1
                   1
                   1
                   1
                   1
                   1
                   1
                   1
                   1
                   1
                   1
                   1
                   1
                   1
                   1
                   1
                   1
                   1
                   1
                   1
                   1
                   1
                   1
                   1
                   1
                   1
                   1
                   1
                   1
                   1
                   1
                   1
                   1
                   1
                   1
                   1
                   1
                   1
                   1
                   1
                   1
                   1
                   1
                   1
                   1
                   1
                   1
                   1
                   1
                   1
                   1
                   1
                   1
                   1
                   1
                   1
                   1
                   1
                   1
                   1
                   1
                   1
                   1
                   1
                   1
                   1
                   1
                   1
                   1
                   1
                   1
                   1
                   1
                   1
                   1
                   1
                   1
                   1
                   1
                   1
                   1
                   1
                   1
                   1
                   1
                   1
                   1
                   1
                   1
                   1
                   1
                   1
                   1
                   1
                   1
                   1
                   1
                   1
                   1
                   1
                   1
                   1
                   1
                   1
                   1
                   1
                   1
                   1
                   1
                   1
                   1
                   1
                   1
                   1
                   1
                   1
                   1
                   1
                   1
                   1
                   1
                   1
                   1
                   1
                   1
                   1
                   1
                   1
                   1
                   1
                   1
                   1
                   1
                   1
                   1
                   1
                   1
                   1
                   1
                   1
                   1
                   1
                   1
                   1
                   1
                   1
                   1
                   1
                   1
                   1
                   1
                   1
                   1
                   1
                   1
                   1
                   1
                   1
                   1
                   1
                   1
                   1
                   1
                   1
                   1
                   1
                   1
                   1
                   1
                   1
                   1
                   1
                   1
                   1
                   1
                   1
                   1
                   1
                   1
                   1
                   1
                   1
                   1
                   1
                   1
                   1
                   1
                   1
                   1
                   1
                   1
                   1
                   1
                   1
                   1
                   1
                   1
                   1
                   1
                   1
                   1
                   1
                   1
                   1
                   1
                   1
                   1
                   1
                   1
                   1
                   1
                   1
                   1
                   1
                   1
                   1
                   1
                   1
                   1
                   1
                   1
                   1
                   1
                   1
                   1
                   1
                   1
                   1
                   1
                   1
                   1
                   1
                   1
                   1
                   1
                   1
                   1
                   1
                   1
                   1
                   1
                   1
                   1
                   1
                   1
                   1
                   1
                   1
                   1
                   1
                   1
                   1
                   1
                   1
                   1
                   1
                   1
                   1
                   1
                   1
                   1
                   1
                   1
                   1
                   1
                   1
                   1
                   1
                   1
                   1
                   1
                   1
                   1
                   1
                   1
                   1
                   1
                   1
                   1
                   1
                   1
                   1
                   1
                   1
                   1
                   1
                   1
                   1
                   1
                   1
                   1
                   1
                   1
                   1
                   1
                   1
                   1
                   1
                   1
                   1
                   1
                   1
                   1
                   1
                   1
                   1
                   1
                   1
                   1
                   1
                   1
                   1
                   1
                   1
                   1
                   1
                   1
                   1
                   1
                   1
                   1
                   1
                   1
                   1
                   1
                   1
                   1
                   1
                   1
                   1
                   1
                   1
                   1
                   1
                   1
                   1
                   1
                   1
                   1
                   1
                   1
                   1
                   1
                   1
                   1
                   1
                   1
                   1
                   1
                   1
                   1
                   1
                   1
                   1
                   1
                   1
                   1
                   1
                   1
                   1
                   1
                   1
                   1
                   1
                   1
                   1
                   1
                   1
                   1
                   1
                   1
                   1
                   1
                   1
                   1
                   1
                   1
                   1
                   1
                   1
                   1
                   1
                   1
                   1
                   1
                   1
                   1
                   1
                   1
                   1
                   1
                   1
                   1
                   1
                   1
                   1
                   1
                   1
                   1
                   1
                   1
                   1
                   1
                   1
                   1
                   1
                   1
                   1
                   1
                   1
                   1
                   1
                   1
                   1
                   1
                   1
                   1
                   1
                   1
                   1
                   1
                   1
                   1
                   1
                   1
                   1
                   1
                   1
                   1
                   1
                   1
                   1
                   1
                   1
                   1
                   1
                   1
                   1
                   1
                   1
                   1
                   1
                   1
                   1
                   1
                   1
                   1
                   1
                   1
                   1
                   1
                   1
                   1
                   1
                   1
                   1
                   1
                   1
                   1
                   1
                   1
                   1
                   1
                   1
                   1
                   1
                   1
                   1
                   1
                   1
                   1
                   1
                   1
                   1
                   1
                   1
                   1
                   1
                   1
                   1
                   1
                   1
                   1
                   1
                   1
                   1
                   1
                   1
                   1
                   1
                   1
                   1
                   1
                   1
                   1
                   1
                   1
                   1
                   1
                   1
                   1
                   1
                   1
                   1
                   1
                   1
                   1
                   1
                   1
                   1
                   1
                   1
                   1
                   1
                   1
                   1
                   1
                   1
                   1
                   1
                   1
                   1
                   1
                   1
                   1
                   1
                   1
                   1
                   1
                   1
                   1
                   1
                   1
                   1
                   1
                   1
                   1
                   1
                   1
                   1
                   1
                   1
                   1
                   1
                   1
                   1
                   1
                   1
                   1
                   1
                   1
                   1
                   1
                   1
                   1
                   1
                   1
                   1
                   1
                   1
                   1
                   1
                   1
                   1
                   1
                   1
                   1
                   1
                   1
                   1
                   1
                   1
                   1
                   1
                   1
                   1
                   1
                   1
                   1
                   1
                   1
                   1
                   1
                   1
                   1
                   1
                   1
                   1
                   1
                   1
                   1
                   1
                   1
                   1
                   1
                   1
                   1
                   1
                   1
                   1
                   1
                   1
                   1
                   1
                   1
                   1
                   1
                   1
                   1
                   1
                   1
                   1
                   1
                   1
                   1
                   1
                   1
                   1
                   1
                   1
                   1
                   1
                   1
                   1
                   1
                   1
                   1
                   1
                   1
                   1
                   1
                   1
                   1
                   1
                   1
                   1
                   1
                   1
                   1
                   1
                   1
                   1
                   1
                   1
                   1
                   1
                   1
                   1
                   1
                   1
                   1
                   1
                   1
                   1
                   1
                   1
                   1
                   1
                   1
                   1
                   1
                   1
                   1
                   1
                   1
                   1
                   1
                   1
                   1
                   1
                   1
                   1
                   1
                   1
                   1
                   1
                   1
                   1
                   1
                   1
                   1
                   1
                   1
                   1
                   1
                   1
                   1
                   1
                   1
                   1
                   1
                   1
                   1
                   1
                   1
                   1
                   1
                   1
                   1
                   1
                   1
                   1
                   1
                   1
                   1
                   1
                   1
                   1
                   1
                   1
                   1
                   1
                   1
                   1
                   1
                   1
                   1
                   1
                   1
                   1
                   1
                   1
                   1
                   1
                   1
                   1
                   1
                   1
                   1
                   1
                   1
                   1
                   1
                   1
                   1
                   1
                   1
                   1
                   1
                   1
                   1
                   1
                   1
                   1
                   1
                   1
                   1
                   1
                   1
                   1
                   1
                   1
                   1
                   1
                   1
                   1
                   1
                   1
                   1
                   1
                   1
                   1
                   1
                   1
                   1
                   1
                   1
                   1
                   1
                   1
                   1
                   1
                   1
                   1
                   1
                   1
                   1
                   1
                   1
                   1
                   1
                   1
                   1
                   1
                   1
                   1
                   1
                   1
                   1
                   1
                   1
                   1
                   1
                   1
                   1
                   1
                   1
                   1
                   1
                   1
                   1
                   1
                   1
                   1
                   1
                   1
                   1
                   1
                   1
                   1
                   1
                   1
                   1
                   1
                   1
                   1
                   1
                   1
                   1
                   1
                   1
                   1
                   1
                   1
                   1
                   1
                   1
                   1
                   1
                   1
                   1
                   1
                   1
                   1
                   1
                   1
                   1
                   1
                   1
                   1
                   1
                   1
                   1
                   1
                   1
                   1
                   1
                   1
                   1
                   1
                   1
                   1
                   1
                   1
                   1
                   1
                   1
                   1
                   1
                   1
                   1
                   1
                   1
                   1
                   1
                   1
                   1
                   1
                   1
                   1
                   1
                   1
                   1
                   1
                   1
                   1
                   1
                   1
                   1
                   1
                   1
                   1
                   1
                   1
                   1
                   1
                   1
                   1
                   1
                   1
                   1
                   1
                   1
                   1
                   1
                   1
                   1
                   1
                   1
                   1
                   1
                   1
                   1
                   1
                   1
                   1
                   1
                   1
                   1
                   1
                   1
                   1
                   1
                   1
                   1
                   1
                   1
                   1
                   1
                   1
                   1
                   1
                   1
                   1
                   1
                   1
                   1
                   1
                   1
                   1
                   1
                   1
                   1
                   1
                   1
                   1
                   1
                   1
                   1
                   1
                   1
                   1
                   1
                   1
                   1
                   1
                   1
                   1
                   1
                   1
                   1
                   1
                   1
                   1
                   1
                   1
                   1
                   1
                   1
                   1
                   1
                   1
                   1
                   1
                   1
                   1
                   1
                   1
                   1
                   1
                   1
                   1
                   1
                   1
                   1
                   1
                   1
                   1
                   1
                   1
                   1
                   1
                   1
                   1
                   1
                   1
                   1
                   1
                   1
                   1
                   1
                   1
                   1
                   1
                   1
                   1
                   1
                   1
                   1
                   1
                   1
                   1
                   1
                   1
                   1
                   1
                   1
                   1
                   1
                   1
                   1
                   1
                   1
                   1
                   1
                   1
                   1
                   1
                   1
                   1
                   1
                   1
                   1
                   1
                   1
                   1
                   1
                   1
                   1
                   1
                   1
                   1
                   1
                   1
                   1
                   1
                   1
                   1
                   1
                   1
                   1
                   1
                   1
                   1
                   1
                   1
                   1
                   1
                   1
                   1
                   1
                   1
                   1
                   1
                   1
                   1
                   1
                   1
                   1
                   1
                   1
                   1
                   1
                   1
                   1
                   1
                   1
                   1
                   1
                   1
                   1
                   1
                   1
                   1
                   1
                   1
                   1
                   1
                   1
                   1
                   1
                   1
                   1
                   1
                   1
                   1
                   1
                   1
                   1
                   1
                   1
                   1
                   1
                   1
                   1
                   1
                   1
                   1
                   1
                   1
                   1
                   1
                   1
                   1
                   1
                   1
                   1
                   1
                   1
                   1
                   1
                   1
                   1
                   1
                   1
                   1
                   1
                   1
                   1
                   1
                   1
                   1
                   1
                   1
                   1
                   1
                   1
                   1
                   1
                   1
                   1
                   1
                   1
                   1
                   1
                   1
                   1
                   1
                   1
                   1
                   1
                   1
                   1
                   1
                   1
                   1
                   1
                   1
                   1
                   1
                   1
                   1
                   1
                   1
                   1
                   1
                   1
                   1
                   1
                   1
                   1
                   1
                   1
                   1
                   1
                   1
                   1
                   1
                   1
                   1
                   1
                   1
                   1
                   1
                   1
                   1
                   1
                   1
                   1
                   1
                   1
                   1
                   1
                   1
                   1
                   1
                   1
                   1
                   1
                   1
                   1
                   1
                   1
                   1
                   1
                   1
                   1
                   1
                   1
                   1
                   1
                   1
                   1
                   1
                   1
                   1
                   1
                   1
                   1
                   1
                   1
                   1
                   1
                   1
                   1
                   1
                   1
                   1
                   1
                   1
                   1
                   1
                   1
                   1
                   1
                   1
                   1
                   1
                   1
                   1
                   1
                   1
                   1
                   1
                   1
                   1
                   1
                   1
                   1
                   1
                   1
                   1
                   1
                   1
                   1
                   1
                   1
                   1
                   1
                   1
                   1
                   1
                   1
                   1
                   1
                   1
                   1
                   1
                   1
                   1
                   1
                   1
                   1
                   1
                   1
                   1
                   1
                   1
                   1
                   1
                   1
                   1
                   1
                   1
                   1
                   1
                   1
                   1
                   1
                   1
                   1
                   1
                   1
                   1
                   1
                   1
                   1
                   1
                   1
                   1
                   1
                   1
                   1
                   1
                   1
                   1
                   1
                   1
                   1
                   1
                   1
                   1
                   1
                   1
                   1
                   1
                   1
                   1
                   1
                   1
                   1
                   1
                   1
                   1
                   1
                   1
                   1
                   1
                   1
                   1
                   1
                   1
                   1
                   1
                   1
                   1
                   1
                   1
                   1
                   1
                   1
                   1
                   1
                   1
                   1
                   1
                   1
                   1
                   1
                   1
                   1
                   1
                   1
                   1
                   1
                   1
                   1
                   1
                   1
                   1
                   1
                   1
                   1
                   1
                   1
                   1
                   1
                   1
                   1
                   1
                   1
                   1
                   1
                   1
                   1
                   1
                   1
                   1
                   1
                   1
                   1
                   1
                   1
                   1
                   1
                   1
                   1
                   1
                   1
                   1
                   1
                   1
                   1
                   1
                   1
                   1
                   1
                   1
                   1
                   1
                   1
                   1
                   1
                   1
                   1
                   1
                   1
                   1
                   1
                   1
                   1
                   1
                   1
                   1
                   1
                   1
                   1
                   1
                   1
                   1
                   1
                   1
                   1
                   1
                   1
                   1
                   1
                   1
                   1
                   1
                   1
                   1
                   1
                   1
                   1
                   1
                   1
                   1
                   1
                   1
                   1
                   1
                   1
                   1
                   1
                   1
                   1
                   1
                   1
                   1
                   1
                   1
                   1
                   1
                   1
                   1
                   1
                   1
                   1
                   1
                   1
                   1
                   1
                   1
                   1
                   1
                   1
                   1
                   1
                   1
                   1
                   1
                   1
                   1
                   1
                   1
                   1
                   1
                   1
                   1
                   1
                   1
                   1
                   1
                   1
                   1
                   1
                   1
                   1
                   1
                   1
                   1
                   1
                   1
                   1
                   1
                   1
                   1
                   1
                   1
                   1
                   1
                   1
                   1
                   1
                   1
                   1
                   1
                   1
                   1
                   1
                   1
                   1
                   1
                   1
                   1
                   1
                   1
                   1
                   1
                   1
                   1
                   1
                   1
                   1
                   1
                   1
                   1
                   1
                   1
                   1
                   1
                   1
                   1
                   1
                   1
                   1
                   1
                   1
                   1
                   1
                   1
                   1
                   1
                   1
                   1
                   1
                   1
                   1
                   1
                   1
                   1
                   1
                   1
                   1
                   1
                   1
                   1
                   1
                   1
                   1
                   1
                   1
                   1
                   1
                   1
                   1
                   1
                   1
                   1
                   1
                   1
                   1
                   1
                   1
                   1
                   1
                   1
                   1
                   1
                   1
                   1
                   1
                   1
                   1
                   1
                   1
                   1
                   1
                   1
                   1
                   1
                   1
                   1
                   1
                   1
                   1
                   1
                   1
                   1
                   1
                   1
                   1
                   1
                   1
                   1
                   1
                   1
                   1
                   1
                   1
                   1
                   1
                   1
                   1
                   1
                   1
                   1
                   1
                   1
                   1
                   1
                   1
                   1
                   1
                   1
                   1
                   1
                   1
                   1
                   1
                   1
                   1
                   1
                   1
                   1
                   1
                   1
                   1
                   1
                   1
                   1
                   1
                   1
                   1
                   1
                   1
                   1
                   1
                   1
                   1
                   1
                   1
                   1
                   1
                   1
                   1
                   1
                   1
                   1
                   1
                   1
                   1
                   1
                   1
                   1
                   1
                   1
                   1
                   1
                   1
                   1
                   1
                   1
                   1
                   1
                   1
                   1
                   1
                   1
                   1
                   1
                   1
                   1
                   1
                   1
                   1
                   1
                   1
                   1
                   1
                   1
                   1
                   1
                   1
                   1
                   1
                   1
                   1
                   1
                   1
                   1
                   1
                   1
                   1
                   1
                   1
                   1
                   1
                   1
                   1
                   1
                   1
                   1
                   1
                   1
                   1
                   1
                   1
                   1
                   1
                   1
                   1
                   1
                   1
                   1
                   1
                   1
                   1
                   1
                   1
                   1
                   1
                   1
                   1
                   1
                   1
                   1
                   1
                   1
                   1
                   1
                   1
                   1
                   1
                   1
                   1
                   1
                   1
                   1
                   1
                   1
                   1
                   1
  
SCALARS                  material_type  double 1
LOOKUP_TABLE default
                   2
                   2
                   2
                   2
                   2
                   2
                   2
                   2
                   2
                   2
                   2
                   2
                   2
                   2
                   2
                   2
                   2
                   2
                   2
                   2
                   2
                   2
                   2
                   2
                   2
                   2
                   2
                   2
                   2
                   2
                   2
                   2
                   2
                   2
                   2
                   2
                   2
                   2
                   2
                   2
                   2
                   2
                   2
                   2
                   2
                   2
                   2
                   2
                   2
                   2
                   2
                   2
                   2
                   2
                   2
                   2
                   2
                   2
                   2
                   2
                   2
                   2
                   2
                   2
                   2
                   2
                   2
                   2
                   2
                   2
                   2
                   2
                   2
                   2
                   2
                   2
                   2
                   2
                   2
                   2
                   2
                   2
                   2
                   2
                   2
                   2
                   2
                   2
                   2
                   2
                   2
                   2
                   2
                   2
                   2
                   2
                   2
                   2
                   2
                   2
                   2
                   2
                   2
                   2
                   2
                   2
                   2
                   2
                   2
                   2
                   2
                   2
                   2
                   2
                   2
                   2
                   2
                   2
                   2
                   2
                   2
                   2
                   2
                   2
                   2
                   2
                   2
                   2
                   2
                   2
                   2
                   2
                   2
                   2
                   2
                   2
                   2
                   2
                   2
                   2
                   2
                   2
                   2
                   2
                   2
                   2
                   2
                   2
                   2
                   2
                   2
                   2
                   2
                   2
                   2
                   2
                   2
                   2
                   2
                   2
                   2
                   2
                   2
                   2
                   2
                   2
                   2
                   2
                   2
                   2
                   2
                   2
                   2
                   2
                   2
                   2
                   2
                   2
                   2
                   2
                   2
                   2
                   2
                   2
                   2
                   2
                   2
                   2
                   2
                   2
                   2
                   2
                   2
                   2
                   2
                   2
                   2
                   2
                   2
                   2
                   2
                   2
                   2
                   2
                   2
                   2
                   2
                   2
                   2
                   2
                   2
                   2
                   2
                   2
                   2
                   2
                   2
                   2
                   2
                   2
                   2
                   2
                   2
                   2
                   2
                   2
                   2
                   2
                   2
                   2
                   2
                   2
                   2
                   2
                   2
                   2
                   2
                   2
                   2
                   2
                   2
                   2
                   2
                   2
                   2
                   2
                   2
                   2
                   2
                   2
                   2
                   2
                   2
                   2
                   2
                   2
                   2
                   2
                   2
                   2
                   2
                   2
                   2
                   2
                   2
                   2
                   2
                   2
                   2
                   2
                   2
                   2
                   2
                   2
                   2
                   2
                   2
                   2
                   2
                   2
                   2
                   2
                   2
                   2
                   2
                   2
                   2
                   2
                   2
                   2
                   2
                   2
                   2
                   2
                   2
                   2
                   2
                   2
                   2
                   2
                   2
                   2
                   2
                   2
                   2
                   2
                   2
                   2
                   2
                   2
                   2
                   2
                   2
                   2
                   2
                   2
                   2
                   2
                   2
                   2
                   2
                   2
                   2
                   2
                   2
                   2
                   2
                   2
                   2
                   2
                   2
                   2
                   2
                   2
                   2
                   2
                   2
                   2
                   2
                   2
                   2
                   2
                   2
                   2
                   2
                   2
                   2
                   2
                   2
                   2
                   2
                   2
                   2
                   2
                   2
                   2
                   2
                   2
                   2
                   2
                   2
                   2
                   2
                   2
                   2
                   2
                   2
                   2
                   2
                   2
                   2
                   2
                   2
                   2
                   2
                   2
                   2
                   2
                   2
                   2
                   2
                   2
                   2
                   2
                   2
                   2
                   2
                   2
                   2
                   2
                   2
                   2
                   2
                   2
                   2
                   2
                   2
                   2
                   2
                   2
                   2
                   2
                   2
                   2
                   2
                   2
                   2
                   2
                   2
                   2
                   2
                   2
                   2
                   2
                   2
                   2
                   2
                   2
                   2
                   2
                   2
                   2
                   2
                   2
                   2
                   2
                   2
                   2
                   2
                   2
                   2
                   2
                   2
                   2
                   2
                   2
                   2
                   2
                   2
                   2
                   2
                   2
                   2
                   2
                   2
                   2
                   2
                   2
                   2
                   2
                   2
                   2
                   2
                   2
                   2
                   2
                   2
                   2
                   2
                   2
                   2
                   2
                   2
                   2
                   2
                   2
                   2
                   2
                   2
                   2
                   2
                   2
                   2
                   2
                   2
                   2
                   2
                   2
                   2
                   2
                   2
                   2
                   2
                   2
                   2
                   2
                   2
                   2
                   2
                   2
                   2
                   2
                   2
                   2
                   2
                   2
                   2
                   2
                   2
                   2
                   2
                   2
                   2
                   2
                   2
                   2
                   2
                   2
                   2
                   2
                   2
                   2
                   2
                   2
                   2
                   2
                   2
                   2
                   2
                   2
                   2
                   2
                   2
                   2
                   2
                   2
                   2
                   2
                   2
                   2
                   2
                   2
                   2
                   2
                   2
                   2
                   2
                   2
                   2
                   2
                   2
                   2
                   2
                   2
                   2
                   2
                   2
                   2
                   2
                   2
                   2
                   2
                   2
                   2
                   2
                   2
                   2
                   2
                   2
                   2
                   2
                   2
                   2
                   2
                   2
                   2
                   2
                   2
                   2
                   2
                   2
                   2
                   2
                   2
                   2
                   2
                   2
                   2
                   2
                   2
                   2
                   2
                   2
                   2
                   2
                   2
                   2
                   2
                   2
                   2
                   2
                   2
                   2
                   2
                   2
                   2
                   2
                   2
                   2
                   2
                   2
                   2
                   2
                   2
                   2
                   2
                   2
                   2
                   2
                   2
                   2
                   2
                   2
                   2
                   2
                   2
                   2
                   2
                   2
                   2
                   2
                   2
                   2
                   2
                   2
                   2
                   2
                   2
                   2
                   2
                   2
                   2
                   2
                   2
                   2
                   2
                   2
                   2
                   2
                   2
                   2
                   2
                   2
                   2
                   2
                   2
                   2
                   2
                   2
                   2
                   2
                   2
                   2
                   2
                   2
                   2
                   2
                   2
                   2
                   2
                   2
                   2
                   2
                   2
                   2
                   2
                   2
                   2
                   2
                   2
                   2
                   2
                   2
                   2
                   2
                   2
                   2
                   2
                   2
                   2
                   2
                   2
                   2
                   2
                   2
                   2
                   2
                   2
                   2
                   2
                   2
                   2
                   2
                   2
                   2
                   2
                   2
                   2
                   2
                   2
                   2
                   2
                   2
                   2
                   2
                   2
                   2
                   2
                   2
                   2
                   2
                   2
                   2
                   2
                   2
                   2
                   2
                   2
                   2
                   2
                   2
                   2
                   2
                   2
                   2
                   2
                   2
                   2
                   2
                   2
                   2
                   2
                   2
                   2
                   2
                   2
                   2
                   2
                   2
                   2
                   2
                   2
                   2
                   2
                   2
                   2
                   2
                   2
                   2
                   2
                   2
                   2
                   2
                   2
                   2
                   2
                   2
                   2
                   2
                   2
                   2
                   2
                   2
                   2
                   2
                   2
                   2
                   2
                   2
                   2
                   2
                   2
                   2
                   2
                   2
                   2
                   2
                   2
                   2
                   2
                   2
                   2
                   2
                   2
                   2
                   2
                   2
                   2
                   2
                   2
                   2
                   2
                   2
                   2
                   2
                   2
                   2
                   2
                   2
                   2
                   2
                   2
                   2
                   2
                   2
                   2
                   2
                   2
                   2
                   2
                   2
                   2
                   2
                   2
                   2
                   2
                   2
                   2
                   2
                   2
                   2
                   2
                   2
                   2
                   2
                   2
                   2
                   2
                   2
                   2
                   2
                   2
                   2
                   2
                   2
                   2
                   2
                   2
                   2
                   2
                   2
                   2
                   2
                   2
                   2
                   2
                   2
                   2
                   2
                   2
                   2
                   2
                   2
                   2
                   2
                   2
                   2
                   2
                   2
                   2
                   2
                   2
                   2
                   2
                   2
                   2
                   2
                   2
                   2
                   2
                   2
                   2
                   2
                   2
                   2
                   2
                   2
                   2
                   2
                   2
                   2
                   2
                   2
                   2
                   2
                   2
                   2
                   2
                   2
                   2
                   2
                   2
                   2
                   2
                   2
                   2
                   2
                   2
                   2
                   2
                   2
                   2
                   2
                   2
                   2
                   2
                   2
                   2
                   2
                   2
                   2
                   2
                   2
                   2
                   2
                   2
                   2
                   2
                   2
                   2
                   2
                   2
                   2
                   2
                   2
                   2
                   2
                   2
                   2
                   2
                   2
                   2
                   2
                   2
                   2
                   2
                   2
                   2
                   2
                   2
                   2
                   2
                   2
                   2
                   2
                   2
                   2
                   2
                   2
                   2
                   2
                   2
                   2
                   2
                   2
                   2
                   2
                   2
                   2
                   2
                   2
                   2
                   2
                   2
                   2
                   2
                   2
                   2
                   2
                   2
                   2
                   2
                   2
                   2
                   2
                   2
                   2
                   2
                   2
                   2
                   2
                   2
                   2
                   2
                   2
                   2
                   2
                   2
                   2
                   2
                   2
                   2
                   2
                   2
                   2
                   2
                   2
                   2
                   2
                   2
                   2
                   2
                   2
                   2
                   2
                   2
                   2
                   2
                   2
                   2
                   2
                   2
                   2
                   2
                   2
                   2
                   2
                   2
                   2
                   2
                   2
                   2
                   2
                   2
                   2
                   2
                   2
                   2
                   2
                   2
                   2
                   2
                   2
                   2
                   2
                   2
                   2
                   2
                   2
                   2
                   2
                   2
                   2
                   2
                   2
                   2
                   2
                   2
                   2
                   2
                   2
                   2
                   2
                   2
                   2
                   2
                   2
                   2
                   2
                   2
                   2
                   2
                   2
                   2
                   2
                   2
                   2
                   2
                   2
                   2
                   2
                   2
                   2
                   2
                   2
                   2
                   2
                   2
                   2
                   2
                   2
                   2
                   2
                   2
                   2
                   2
                   2
                   2
                   2
                   2
                   2
                   2
                   2
                   2
                   2
                   2
                   2
                   2
                   2
                   2
                   2
                   2
                   2
                   2
                   2
                   2
                   2
                   2
                   2
                   2
                   2
                   2
                   2
                   2
                   2
                   2
                   2
                   2
                   2
                   2
                   2
                   2
                   2
                   2
                   2
                   2
                   2
                   2
                   2
                   2
                   2
                   2
                   2
                   2
                   2
                   2
                   2
                   2
                   2
                   2
                   2
                   2
                   2
                   2
                   2
                   2
                   2
                   2
                   2
                   2
                   2
                   2
                   2
                   2
                   2
                   2
                   2
                   2
                   2
                   2
                   2
                   2
                   2
                   2
                   2
                   2
                   2
                   2
                   2
                   2
                   2
                   2
                   2
                   2
                   2
                   2
                   2
                   2
                   2
                   2
                   2
                   2
                   2
                   2
                   2
                   2
                   2
                   2
                   2
                   2
                   2
                   2
                   2
                   2
                   2
                   2
                   2
                   2
                   2
                   2
                   2
                   2
                   2
                   2
                   2
                   2
                   2
                   2
                   2
                   2
                   2
                   2
                   2
                   2
                   2
                   2
                   2
                   2
                   2
                   2
                   2
                   2
                   2
                   2
                   2
                   2
                   2
                   2
                   2
                   2
                   2
                   2
                   2
                   2
                   2
                   2
                   2
                   2
                   2
                   2
                   2
                   2
                   2
                   2
                   2
                   2
                   2
                   2
                   2
                   2
                   2
                   2
                   2
                   2
                   2
                   2
                   2
                   2
                   2
                   2
                   2
                   2
                   2
                   2
                   2
                   2
                   2
                   2
                   2
                   2
                   2
                   2
                   2
                   2
                   2
                   2
                   2
                   2
                   2
                   2
                   2
                   2
                   2
                   2
                   2
                   2
                   2
                   2
                   2
                   2
                   2
                   2
                   2
                   2
                   2
                   2
                   2
                   2
                   2
                   2
                   2
                   2
                   2
                   2
                   2
                   2
                   2
                   2
                   2
                   2
                   2
                   2
                   2
                   2
                   2
                   2
                   2
                   2
                   2
                   2
                   2
                   2
                   2
                   2
                   2
                   2
                   2
                   2
                   2
                   2
                   2
                   2
                   2
                   2
                   2
                   2
                   2
                   2
                   2
                   2
                   2
                   2
                   2
                   2
                   2
                   2
                   2
                   2
                   2
                   2
                   2
                   2
                   2
                   2
                   2
                   2
                   2
                   2
                   2
                   2
                   2
                   2
                   2
                   2
                   2
                   2
                   2
                   2
                   2
                   2
                   2
                   2
                   2
                   2
                   2
                   2
                   2
                   2
                   2
                   2
                   2
                   2
                   2
                   2
                   2
                   2
                   2
                   2
                   2
                   2
                   2
                   2
                   2
                   2
                   2
                   2
                   2
                   2
                   2
                   2
                   2
                   2
                   2
                   2
                   2
                   2
                   2
                   2
                   2
                   2
                   2
                   2
                   2
                   2
                   2
                   2
                   2
                   2
                   2
                   2
                   2
                   2
                   2
                   2
                   2
                   2
                   2
                   2
                   2
                   2
                   2
                   2
                   2
                   2
                   2
                   2
                   2
                   2
                   2
                   2
                   2
                   2
                   2
                   2
                   2
                   2
                   2
                   2
                   2
                   2
                   2
                   2
                   2
                   2
                   2
                   2
                   2
                   2
                   2
                   2
                   2
                   2
                   2
                   2
                   2
                   2
                   2
                   2
                   2
                   2
                   2
                   2
                   2
                   2
                   2
                   2
                   2
                   2
                   2
                   2
                   2
                   2
                   2
                   2
                   2
                   2
                   2
                   2
                   2
                   2
                   2
                   2
                   2
                   2
                   2
                   2
                   2
                   2
                   2
                   2
                   2
                   2
                   2
                   2
                   2
                   2
                   2
                   2
                   2
                   2
                   2
                   2
                   2
                   2
                   2
                   2
                   2
                   2
                   2
                   2
                   2
                   2
                   2
                   2
                   2
                   2
                   2
                   2
                   2
                   2
                   2
                   2
                   2
                   2
                   2
                   2
                   2
                   2
                   2
                   2
                   2
                   2
                   2
                   2
                   2
                   2
                   2
                   2
                   2
                   2
                   2
                   2
                   2
                   2
                   2
                   2
                   2
                   2
                   2
                   2
                   2
                   2
                   2
                   2
                   2
                   2
                   2
                   2
                   2
                   2
                   2
                   2
                   2
                   2
                   2
                   2
                   2
                   2
                   2
                   2
                   2
                   2
                   2
                   2
                   2
                   2
                   2
                   2
                   2
                   2
                   2
                   2
                   2
                   2
                   2
                   2
                   2
                   2
                   2
                   2
                   2
                   2
                   2
                   2
                   2
                   2
                   2
                   2
                   2
                   2
                   2
                   2
                   2
                   2
                   2
                   2
                   2
                   2
                   2
                   2
                   2
                   2
                   2
                   2
                   2
                   2
                   2
                   2
                   2
                   2
                   2
                   2
                   2
                   2
                   2
                   2
                   2
                   2
                   2
                   2
                   2
                   2
                   2
                   2
                   2
                   2
                   2
                   2
                   2
                   2
                   2
                   2
                   2
                   2
                   2
                   2
                   2
                   2
                   2
                   2
                   2
                   2
                   2
                   2
                   2
                   2
                   2
                   2
                   2
                   2
                   2
                   2
                   2
                   2
                   2
                   2
                   2
                   2
                   2
                   2
                   2
                   2
                   2
                   2
                   2
                   2
                   2
                   2
                   2
                   2
                   2
                   2
                   2
                   2
                   2
                   2
                   2
                   2
                   2
                   2
                   2
                   2
                   2
                   2
                   2
                   2
                   2
                   2
                   2
                   2
                   2
                   2
                   2
                   2
                   2
                   2
                   2
                   2
                   2
                   2
                   2
                   2
                   2
                   2
                   2
                   2
                   2
                   2
                   2
                   2
                   2
                   2
                   2
                   2
                   2
                   2
                   2
                   2
                   2
                   2
                   2
                   2
                   2
                   2
                   2
                   2
                   2
                   2
                   2
                   2
                   2
                   2
                   2
                   2
                   2
                   2
                   2
                   2
                   2
                   2
                   2
                   2
                   2
                   2
                   2
                   2
                   2
                   2
                   2
                   2
                   2
                   2
                   2
                   2
                   2
                   2
                   2
                   2
                   2
                   2
                   2
                   2
                   2
                   2
                   2
                   2
                   2
                   2
                   2
                   2
                   2
                   2
                   2
                   2
                   2
                   2
                   2
                   2
                   2
                   2
                   2
                   2
                   2
                   2
                   2
                   2
                   2
                   2
                   2
                   2
                   2
                   2
                   2
                   2
                   2
                   2
                   2
                   2
                   2
                   2
                   2
                   2
                   2
                   2
                   2
                   2
                   2
                   2
                   2
                   2
                   2
                   2
                   2
                   2
                   2
                   2
                   2
                   2
                   2
                   2
                   2
                   2
                   2
                   2
                   2
                   2
                   2
                   2
                   2
                   2
                   2
                   2
                   2
                   2
                   2
                   2
                   2
                   2
                   2
                   2
                   2
                   2
                   2
                   2
                   2
                   2
                   2
                   2
                   2
                   2
                   2
                   2
                   2
                   2
                   2
                   2
                   2
                   2
                   2
                   2
                   2
                   2
                   2
                   2
                   2
                   2
                   2
                   2
                   2
                   2
                   2
                   2
                   2
                   2
                   2
                   2
                   2
                   2
                   2
                   2
                   2
                   2
                   2
                   2
                   2
                   2
                   2
                   2
                   2
                   2
                   2
                   2
                   2
                   2
                   2
                   2
                   2
                   2
                   2
                   2
                   2
                   2
                   2
                   2
                   2
                   2
                   2
                   2
                   2
                   2
                   2
                   2
                   2
                   2
                   2
                   2
                   2
                   2
                   2
                   2
                   2
                   2
                   2
                   2
                   2
                   2
                   2
                   2
                   2
                   2
  
SCALARS                       fixity_x  double 1
LOOKUP_TABLE default
                   0
                   0
                   0
                   0
                   0
                   0
                   0
                   0
                   0
                   0
                   0
                   0
                   0
                   0
                   0
                   0
                   0
                   0
                   0
                   0
                   0
                   0
                   0
                   0
                   0
                   0
                   0
                   0
                   0
                   0
                   0
                   0
                   0
                   0
                   0
                   0
                   0
                   0
                   0
                   0
                   0
                   0
                   0
                   0
                   0
                   0
                   0
                   0
                   0
                   0
                   0
                   0
                   0
                   0
                   0
                   0
                   0
                   0
                   0
                   0
                   0
                   0
                   0
                   0
                   0
                   0
                   0
                   0
                   0
                   0
                   0
                   0
                   0
                   0
                   0
                   0
                   0
                   0
                   0
                   0
                   0
                   0
                   0
                   0
                   0
                   0
                   0
                   0
                   0
                   0
                   0
                   0
                   0
                   0
                   0
                   0
                   0
                   0
                   0
                   0
                   0
                   0
                   0
                   0
                   0
                   0
                   0
                   0
                   0
                   0
                   0
                   0
                   0
                   0
                   0
                   0
                   0
                   0
                   0
                   0
                   0
                   0
                   0
                   0
                   0
                   0
                   0
                   0
                   0
                   0
                   0
                   0
                   0
                   0
                   0
                   0
                   0
                   0
                   0
                   0
                   0
                   0
                   0
                   0
                   0
                   0
                   0
                   0
                   0
                   0
                   0
                   0
                   0
                   0
                   0
                   0
                   0
                   0
                   0
                   0
                   0
                   0
                   0
                   0
                   0
                   0
                   0
                   0
                   0
                   0
                   0
                   0
                   0
                   0
                   0
                   0
                   0
                   0
                   0
                   0
                   0
                   0
                   0
                   0
                   0
                   0
                   0
                   0
                   0
                   0
                   0
                   0
                   0
                   0
                   0
                   0
                   0
                   0
                   0
                   0
                   0
                   0
                   0
                   0
                   0
                   0
                   0
                   0
                   0
                   0
                   0
                   0
                   0
                   0
                   0
                   0
                   0
                   0
                   0
                   0
                   0
                   0
                   0
                   0
                   0
                   0
                   0
                   0
                   0
                   0
                   0
                   0
                   0
                   0
                   0
                   0
                   0
                   0
                   0
                   0
                   0
                   0
                   0
                   0
                   0
                   0
                   0
                   0
                   0
                   0
                   0
                   0
                   0
                   0
                   0
                   0
                   0
                   0
                   0
                   0
                   0
                   0
                   0
                   0
                   0
                   0
                   0
                   0
                   0
                   0
                   0
                   0
                   0
                   0
                   0
                   0
                   0
                   0
                   0
                   0
                   0
                   0
                   0
                   0
                   0
                   0
                   0
                   0
                   0
                   0
                   0
                   0
                   0
                   0
                   0
                   0
                   0
                   0
                   0
                   0
                   0
                   0
                   0
                   0
                   0
                   0
                   0
                   0
                   0
                   0
                   0
                   0
                   0
                   0
                   0
                   0
                   0
                   0
                   0
                   0
                   0
                   0
                   0
                   0
                   0
                   0
                   0
                   0
                   0
                   0
                   0
                   0
                   0
                   0
                   0
                   0
                   0
                   0
                   0
                   0
                   0
                   0
                   0
                   0
                   0
                   0
                   0
                   0
                   0
                   0
                   0
                   0
                   0
                   0
                   0
                   0
                   0
                   0
                   0
                   0
                   0
                   0
                   0
                   0
                   0
                   0
                   0
                   0
                   0
                   0
                   0
                   0
                   0
                   0
                   0
                   0
                   0
                   0
                   0
                   0
                   0
                   0
                   0
                   0
                   0
                   0
                   0
                   0
                   0
                   0
                   0
                   0
                   0
                   0
                   0
                   0
                   0
                   0
                   0
                   0
                   0
                   0
                   0
                   0
                   0
                   0
                   0
                   0
                   0
                   0
                   0
                   0
                   0
                   0
                   0
                   0
                   0
                   0
                   0
                   0
                   0
                   0
                   0
                   0
                   0
                   0
                   0
                   0
                   0
                   0
                   0
                   0
                   0
                   0
                   0
                   0
                   0
                   0
                   0
                   0
                   0
                   0
                   0
                   0
                   0
                   0
                   0
                   0
                   0
                   0
                   0
                   0
                   0
                   0
                   0
                   0
                   0
                   0
                   0
                   0
                   0
                   0
                   0
                   0
                   0
                   0
                   0
                   0
                   0
                   0
                   0
                   0
                   0
                   0
                   0
                   0
                   0
                   0
                   0
                   0
                   0
                   0
                   0
                   0
                   0
                   0
                   0
                   0
                   0
                   0
                   0
                   0
                   0
                   0
                   0
                   0
                   0
                   0
                   0
                   0
                   0
                   0
                   0
                   0
                   0
                   0
                   0
                   0
                   0
                   0
                   0
                   0
                   0
                   0
                   0
                   0
                   0
                   0
                   0
                   0
                   0
                   0
                   0
                   0
                   0
                   0
                   0
                   0
                   0
                   0
                   0
                   0
                   0
                   0
                   0
                   0
                   0
                   0
                   0
                   0
                   0
                   0
                   0
                   0
                   0
                   0
                   0
                   0
                   0
                   0
                   0
                   0
                   0
                   0
                   0
                   0
                   0
                   0
                   0
                   0
                   0
                   0
                   0
                   0
                   0
                   0
                   0
                   0
                   0
                   0
                   0
                   0
                   0
                   0
                   0
                   0
                   0
                   0
                   0
                   0
                   0
                   0
                   0
                   0
                   0
                   0
                   0
                   0
                   0
                   0
                   0
                   0
                   0
                   0
                   0
                   0
                   0
                   0
                   0
                   0
                   0
                   0
                   0
                   0
                   0
                   0
                   0
                   0
                   0
                   0
                   0
                   0
                   0
                   0
                   0
                   0
                   0
                   0
                   0
                   0
                   0
                   0
                   0
                   0
                   0
                   0
                   0
                   0
                   0
                   0
                   0
                   0
                   0
                   0
                   0
                   0
                   0
                   0
                   0
                   0
                   0
                   0
                   0
                   0
                   0
                   0
                   0
                   0
                   0
                   0
                   0
                   0
                   0
                   0
                   0
                   0
                   0
                   0
                   0
                   0
                   0
                   0
                   0
                   0
                   0
                   0
                   0
                   0
                   0
                   0
                   0
                   0
                   0
                   0
                   0
                   0
                   0
                   0
                   0
                   0
                   0
                   0
                   0
                   0
                   0
                   0
                   0
                   0
                   0
                   0
                   0
                   0
                   0
                   0
                   0
                   0
                   0
                   0
                   0
                   0
                   0
                   0
                   0
                   0
                   0
                   0
                   0
                   0
                   0
                   0
                   0
                   0
                   0
                   0
                   0
                   0
                   0
                   0
                   0
                   0
                   0
                   0
                   0
                   0
                   0
                   0
                   0
                   0
                   0
                   0
                   0
                   0
                   0
                   0
                   0
                   0
                   0
                   0
                   0
                   0
                   0
                   0
                   0
                   0
                   0
                   0
                   0
                   0
                   0
                   0
                   0
                   0
                   0
                   0
                   0
                   0
                   0
                   0
                   0
                   0
                   0
                   0
                   0
                   0
                   0
                   0
                   0
                   0
                   0
                   0
                   0
                   0
                   0
                   0
                   0
                   0
                   0
                   0
                   0
                   0
                   0
                   0
                   0
                   0
                   0
                   0
                   0
                   0
                   0
                   0
                   0
                   0
                   0
                   0
                   0
                   0
                   0
                   0
                   0
                   0
                   0
                   0
                   0
                   0
                   0
                   0
                   0
                   0
                   0
                   0
                   0
                   0
                   0
                   0
                   0
                   0
                   0
                   0
                   0
                   0
                   0
                   0
                   0
                   0
                   0
                   0
                   0
                   0
                   0
                   0
                   0
                   0
                   0
                   0
                   0
                   0
                   0
                   0
                   0
                   0
                   0
                   0
                   0
                   0
                   0
                   0
                   0
                   0
                   0
                   0
                   0
                   0
                   0
                   0
                   0
                   0
                   0
                   0
                   0
                   0
                   0
                   0
                   0
                   0
                   0
                   0
                   0
                   0
                   0
                   0
                   0
                   0
                   0
                   0
                   0
                   0
                   0
                   0
                   0
                   0
                   0
                   0
                   0
                   0
                   0
                   0
                   0
                   0
                   0
                   0
                   0
                   0
                   0
                   0
                   0
                   0
                   0
                   0
                   0
                   0
                   0
                   0
                   0
                   0
                   0
                   0
                   0
                   0
                   0
                   0
                   0
                   0
                   0
                   0
                   0
                   0
                   0
                   0
                   0
                   0
                   0
                   0
                   0
                   0
                   0
                   0
                   0
                   0
                   0
                   0
                   0
                   0
                   0
                   0
                   0
                   0
                   0
                   0
                   0
                   0
                   0
                   0
                   0
                   0
                   0
                   0
                   0
                   0
                   0
                   0
                   0
                   0
                   0
                   0
                   0
                   0
                   0
                   0
                   0
                   0
                   0
                   0
                   0
                   0
                   0
                   0
                   0
                   0
                   0
                   0
                   0
                   0
                   0
                   0
                   0
                   0
                   0
                   0
                   0
                   0
                   0
                   0
                   0
                   0
                   0
                   0
                   0
                   0
                   0
                   0
                   0
                   0
                   0
                   0
                   0
                   0
                   0
                   0
                   0
                   0
                   0
                   0
                   0
                   0
                   0
                   0
                   0
                   0
                   0
                   0
                   0
                   0
                   0
                   0
                   0
                   0
                   0
                   0
                   0
                   0
                   0
                   0
                   0
                   0
                   0
                   0
                   0
                   0
                   0
                   0
                   0
                   0
                   0
                   0
                   0
                   0
                   0
                   0
                   0
                   0
                   0
                   0
                   0
                   0
                   0
                   0
                   0
                   0
                   0
                   0
                   0
                   0
                   0
                   0
                   0
                   0
                   0
                   0
                   0
                   0
                   0
                   0
                   0
                   0
                   0
                   0
                   0
                   0
                   0
                   0
                   0
                   0
                   0
                   0
                   0
                   0
                   0
                   0
                   0
                   0
                   0
                   0
                   0
                   0
                   0
                   0
                   0
                   0
                   0
                   0
                   0
                   0
                   0
                   0
                   0
                   0
                   0
                   0
                   0
                   0
                   0
                   0
                   0
                   0
                   0
                   0
                   0
                   0
                   0
                   0
                   0
                   0
                   0
                   0
                   0
                   0
                   0
                   0
                   0
                   0
                   0
                   0
                   0
                   0
                   0
                   0
                   0
                   0
                   0
                   0
                   0
                   0
                   0
                   0
                   0
                   0
                   0
                   0
                   0
                   0
                   0
                   0
                   0
                   0
                   0
                   0
                   0
                   0
                   0
                   0
                   0
                   0
                   0
                   0
                   0
                   0
                   0
                   0
                   0
                   0
                   0
                   0
                   0
                   0
                   0
                   0
                   0
                   0
                   0
                   0
                   0
                   0
                   0
                   0
                   0
                   0
                   0
                   0
                   0
                   0
                   0
                   0
                   0
                   0
                   0
                   0
                   0
                   0
                   0
                   0
                   0
                   0
                   0
                   0
                   0
                   0
                   0
                   0
                   0
                   0
                   0
                   0
                   0
                   0
                   0
                   0
                   0
                   0
                   0
                   0
                   0
                   0
                   0
                   0
                   0
                   0
                   0
                   0
                   0
                   0
                   0
                   0
                   0
                   0
                   0
                   0
                   0
                   0
                   0
                   0
                   0
                   0
                   0
                   0
                   0
                   0
                   0
                   0
                   0
                   0
                   0
                   0
                   0
                   0
                   0
                   0
                   0
                   0
                   0
                   0
                   0
                   0
                   0
                   0
                   0
                   0
                   0
                   0
                   0
                   0
                   0
                   0
                   0
                   0
                   0
                   0
                   0
                   0
                   0
                   0
                   0
                   0
                   0
                   0
                   0
                   0
                   0
                   0
                   0
                   0
                   0
                   0
                   0
                   0
                   0
                   0
                   0
                   0
                   0
                   0
                   0
                   0
                   0
                   0
                   0
                   0
                   0
                   0
                   0
                   0
                   0
                   0
                   0
                   0
                   0
                   0
                   0
                   0
                   0
                   0
                   0
                   0
                   0
                   0
                   0
                   0
                   0
                   0
                   0
                   0
                   0
                   0
                   0
                   0
                   0
                   0
                   0
                   0
                   0
                   0
                   0
                   0
                   0
                   0
                   0
                   0
                   0
                   0
                   0
                   0
                   0
                   0
                   0
                   0
                   0
                   0
                   0
                   0
                   0
                   0
                   0
                   0
                   0
                   0
                   0
                   0
                   0
                   0
                   0
                   0
                   0
                   0
                   0
                   0
                   0
                   0
                   0
                   0
                   0
                   0
                   0
                   0
                   0
                   0
                   0
                   0
                   0
                   0
                   0
                   0
                   0
                   0
                   0
                   0
                   0
                   0
                   0
                   0
                   0
                   0
                   0
                   0
                   0
                   0
                   0
                   0
                   0
                   0
                   0
                   0
                   0
                   0
                   0
                   0
                   0
                   0
                   0
                   0
                   0
                   0
                   0
                   0
                   0
                   0
                   0
                   0
                   0
                   0
                   0
                   0
                   0
                   0
                   0
                   0
                   0
                   0
                   0
                   0
                   0
                   0
                   0
                   0
                   0
                   0
                   0
                   0
                   0
                   0
                   0
                   0
                   0
                   0
                   0
                   0
                   0
                   0
                   0
                   0
                   0
                   0
                   0
                   0
                   0
                   0
                   0
                   0
                   0
                   0
                   0
                   0
                   0
                   0
                   0
                   0
                   0
                   0
                   0
                   0
                   0
                   0
                   0
                   0
                   0
                   0
                   0
                   0
                   0
                   0
                   0
                   0
                   0
                   0
                   0
                   0
                   0
                   0
                   0
                   0
                   0
                   0
                   0
                   0
                   0
                   0
                   0
                   0
                   0
                   0
                   0
                   0
                   0
                   0
                   0
                   0
                   0
                   0
                   0
                   0
                   0
                   0
                   0
                   0
                   0
                   0
                   0
                   0
                   0
                   0
                   0
                   0
                   0
                   0
                   0
                   0
                   0
                   0
                   0
                   0
                   0
                   0
                   0
                   0
                   0
                   0
                   0
                   0
                   0
                   0
                   0
                   0
                   0
                   0
                   0
                   0
                   0
                   0
                   0
                   0
                   0
                   0
                   0
                   0
                   0
                   0
                   0
                   0
                   0
                   0
                   0
                   0
                   0
                   0
                   0
                   0
                   0
                   0
                   0
                   0
                   0
                   0
                   0
                   0
                   0
                   0
                   0
                   0
                   0
                   0
                   0
                   0
                   0
                   0
                   0
                   0
                   0
                   0
                   0
                   0
                   0
                   0
                   0
                   0
                   0
                   0
                   0
                   0
                   0
                   0
                   0
                   0
                   0
                   0
                   0
                   0
                   0
                   0
                   0
                   0
                   0
                   0
                   0
                   0
                   0
                   0
                   0
                   0
                   0
                   0
                   0
                   0
                   0
                   0
                   0
                   0
                   0
                   0
                   0
                   0
                   0
                   0
                   0
                   0
                   0
                   0
                   0
                   0
                   0
                   0
                   0
                   0
                   0
                   0
                   0
                   0
                   0
                   0
                   0
                   0
                   0
                   0
                   0
                   0
                   0
                   0
                   0
                   0
                   0
                   0
                   0
                   0
                   0
                   0
                   0
                   0
                   0
                   0
                   0
                   0
                   0
                   0
                   0
                   0
                   0
                   0
                   0
                   0
                   0
                   0
                   0
                   0
                   0
                   0
                   0
                   0
                   0
                   0
                   0
                   0
                   0
                   0
                   0
                   0
                   0
                   0
                   0
                   0
                   0
                   0
                   0
                   0
                   0
                   0
                   0
                   0
                   0
                   0
                   0
                   0
                   0
                   0
                   0
                   0
                   0
                   0
                   0
                   0
                   0
                   0
                   0
                   0
                   0
                   0
                   0
                   0
                   0
                   0
                   0
                   0
                   0
                   0
                   0
                   0
                   0
                   0
                   0
                   0
                   0
                   0
                   0
                   0
                   0
                   0
                   0
                   0
                   0
                   0
                   0
                   0
                   0
                   0
                   0
                   0
                   0
                   0
                   0
                   0
                   0
                   0
                   0
                   0
                   0
                   0
                   0
                   0
                   0
                   0
                   0
                   0
                   0
                   0
                   0
                   0
                   0
                   0
                   0
                   0
                   0
                   0
                   0
                   0
                   0
                   0
                   0
                   0
                   0
                   0
                   0
                   0
                   0
                   0
                   0
                   0
                   0
                   0
                   0
                   0
                   0
                   0
                   0
                   0
                   0
                   0
                   0
                   0
                   0
                   0
                   0
                   0
                   0
                   0
                   0
                   0
                   0
                   0
                   0
                   0
                   0
                   0
                   0
                   0
                   0
                   0
                   0
                   0
                   0
                   0
                   0
                   0
                   0
                   0
                   0
                   0
                   0
                   0
                   0
                   0
                   0
                   0
                   0
                   0
                   0
                   0
                   0
                   0
                   0
                   0
                   0
                   0
                   0
                   0
                   0
                   0
                   0
                   0
                   0
                   0
                   0
                   0
                   0
                   0
                   0
                   0
                   0
                   0
                   0
                   0
                   0
                   0
                   0
                   0
                   0
                   0
                   0
                   0
                   0
                   0
                   0
                   0
                   0
                   0
                   0
                   0
                   0
                   0
                   0
                   0
                   0
                   0
                   0
                   0
                   0
                   0
                   0
                   0
                   0
                   0
                   0
                   0
                   0
                   0
                   0
                   0
                   0
                   0
                   0
                   0
                   0
                   0
                   0
                   0
                   0
                   0
                   0
                   0
                   0
                   0
                   0
                   0
                   0
                   0
                   0
                   0
                   0
                   0
                   0
                   0
                   0
                   0
                   0
                   0
                   0
                   0
                   0
                   0
                   0
                   0
                   0
                   0
                   0
                   0
                   0
                   0
                   0
                   0
                   0
                   0
                   0
                   0
                   0
                   0
  
SCALARS                       fixity_y  double 1
LOOKUP_TABLE default
                   0
                   0
                   0
                   0
                   0
                   0
                   0
                   0
                   0
                   0
                   0
                   0
                   0
                   0
                   0
                   0
                   0
                   0
                   0
                   0
                   0
                   0
                   0
                   0
                   0
                   0
                   0
                   0
                   0
                   0
                   0
                   0
                   0
                   0
                   0
                   0
                   0
                   0
                   0
                   0
                   0
                   0
                   0
                   0
                   0
                   0
                   0
                   0
                   0
                   0
                   0
                   0
                   0
                   0
                   0
                   0
                   0
                   0
                   0
                   0
                   0
                   0
                   0
                   0
                   0
                   0
                   0
                   0
                   0
                   0
                   0
                   0
                   0
                   0
                   0
                   0
                   0
                   0
                   0
                   0
                   0
                   0
                   0
                   0
                   0
                   0
                   0
                   0
                   0
                   0
                   0
                   0
                   0
                   0
                   0
                   0
                   0
                   0
                   0
                   0
                   0
                   0
                   0
                   0
                   0
                   0
                   0
                   0
                   0
                   0
                   0
                   0
                   0
                   0
                   0
                   0
                   0
                   0
                   0
                   0
                   0
                   0
                   0
                   0
                   0
                   0
                   0
                   0
                   0
                   0
                   0
                   0
                   0
                   0
                   0
                   0
                   0
                   0
                   0
                   0
                   0
                   0
                   0
                   0
                   0
                   0
                   0
                   0
                   0
                   0
                   0
                   0
                   0
                   0
                   0
                   0
                   0
                   0
                   0
                   0
                   0
                   0
                   0
                   0
                   0
                   0
                   0
                   0
                   0
                   0
                   0
                   0
                   0
                   0
                   0
                   0
                   0
                   0
                   0
                   0
                   0
                   0
                   0
                   0
                   0
                   0
                   0
                   0
                   0
                   0
                   0
                   0
                   0
                   0
                   0
                   0
                   0
                   0
                   0
                   0
                   0
                   0
                   0
                   0
                   0
                   0
                   0
                   0
                   0
                   0
                   0
                   0
                   0
                   0
                   0
                   0
                   0
                   0
                   0
                   0
                   0
                   0
                   0
                   0
                   0
                   0
                   0
                   0
                   0
                   0
                   0
                   0
                   0
                   0
                   0
                   0
                   0
                   0
                   0
                   0
                   0
                   0
                   0
                   0
                   0
                   0
                   0
                   0
                   0
                   0
                   0
                   0
                   0
                   0
                   0
                   0
                   0
                   0
                   0
                   0
                   0
                   0
                   0
                   0
                   0
                   0
                   0
                   0
                   0
                   0
                   0
                   0
                   0
                   0
                   0
                   0
                   0
                   0
                   0
                   0
                   0
                   0
                   0
                   0
                   0
                   0
                   0
                   0
                   0
                   0
                   0
                   0
                   0
                   0
                   0
                   0
                   0
                   0
                   0
                   0
                   0
                   0
                   0
                   0
                   0
                   0
                   0
                   0
                   0
                   0
                   0
                   0
                   0
                   0
                   0
                   0
                   0
                   0
                   0
                   0
                   0
                   0
                   0
                   0
                   0
                   0
                   0
                   0
                   0
                   0
                   0
                   0
                   0
                   0
                   0
                   0
                   0
                   0
                   0
                   0
                   0
                   0
                   0
                   0
                   0
                   0
                   0
                   0
                   0
                   0
                   0
                   0
                   0
                   0
                   0
                   0
                   0
                   0
                   0
                   0
                   0
                   0
                   0
                   0
                   0
                   0
                   0
                   0
                   0
                   0
                   0
                   0
                   0
                   0
                   0
                   0
                   0
                   0
                   0
                   0
                   0
                   0
                   0
                   0
                   0
                   0
                   0
                   0
                   0
                   0
                   0
                   0
                   0
                   0
                   0
                   0
                   0
                   0
                   0
                   0
                   0
                   0
                   0
                   0
                   0
                   0
                   0
                   0
                   0
                   0
                   0
                   0
                   0
                   0
                   0
                   0
                   0
                   0
                   0
                   0
                   0
                   0
                   0
                   0
                   0
                   0
                   0
                   0
                   0
                   0
                   0
                   0
                   0
                   0
                   0
                   0
                   0
                   0
                   0
                   0
                   0
                   0
                   0
                   0
                   0
                   0
                   0
                   0
                   0
                   0
                   0
                   0
                   0
                   0
                   0
                   0
                   0
                   0
                   0
                   0
                   0
                   0
                   0
                   0
                   0
                   0
                   0
                   0
                   0
                   0
                   0
                   0
                   0
                   0
                   0
                   0
                   0
                   0
                   0
                   0
                   0
                   0
                   0
                   0
                   0
                   0
                   0
                   0
                   0
                   0
                   0
                   0
                   0
                   0
                   0
                   0
                   0
                   0
                   0
                   0
                   0
                   0
                   0
                   0
                   0
                   0
                   0
                   0
                   0
                   0
                   0
                   0
                   0
                   0
                   0
                   0
                   0
                   0
                   0
                   0
                   0
                   0
                   0
                   0
                   0
                   0
                   0
                   0
                   0
                   0
                   0
                   0
                   0
                   0
                   0
                   0
                   0
                   0
                   0
                   0
                   0
                   0
                   0
                   0
                   0
                   0
                   0
                   0
                   0
                   0
                   0
                   0
                   0
                   0
                   0
                   0
                   0
                   0
                   0
                   0
                   0
                   0
                   0
                   0
                   0
                   0
                   0
                   0
                   0
                   0
                   0
                   0
                   0
                   0
                   0
                   0
                   0
                   0
                   0
                   0
                   0
                   0
                   0
                   0
                   0
                   0
                   0
                   0
                   0
                   0
                   0
                   0
                   0
                   0
                   0
                   0
                   0
                   0
                   0
                   0
                   0
                   0
                   0
                   0
                   0
                   0
                   0
                   0
                   0
                   0
                   0
                   0
                   0
                   0
                   0
                   0
                   0
                   0
                   0
                   0
                   0
                   0
                   0
                   0
                   0
                   0
                   0
                   0
                   0
                   0
                   0
                   0
                   0
                   0
                   0
                   0
                   0
                   0
                   0
                   0
                   0
                   0
                   0
                   0
                   0
                   0
                   0
                   0
                   0
                   0
                   0
                   0
                   0
                   0
                   0
                   0
                   0
                   0
                   0
                   0
                   0
                   0
                   0
                   0
                   0
                   0
                   0
                   0
                   0
                   0
                   0
                   0
                   0
                   0
                   0
                   0
                   0
                   0
                   0
                   0
                   0
                   0
                   0
                   0
                   0
                   0
                   0
                   0
                   0
                   0
                   0
                   0
                   0
                   0
                   0
                   0
                   0
                   0
                   0
                   0
                   0
                   0
                   0
                   0
                   0
                   0
                   0
                   0
                   0
                   0
                   0
                   0
                   0
                   0
                   0
                   0
                   0
                   0
                   0
                   0
                   0
                   0
                   0
                   0
                   0
                   0
                   0
                   0
                   0
                   0
                   0
                   0
                   0
                   0
                   0
                   0
                   0
                   0
                   0
                   0
                   0
                   0
                   0
                   0
                   0
                   0
                   0
                   0
                   0
                   0
                   0
                   0
                   0
                   0
                   0
                   0
                   0
                   0
                   0
                   0
                   0
                   0
                   0
                   0
                   0
                   0
                   0
                   0
                   0
                   0
                   0
                   0
                   0
                   0
                   0
                   0
                   0
                   0
                   0
                   0
                   0
                   0
                   0
                   0
                   0
                   0
                   0
                   0
                   0
                   0
                   0
                   0
                   0
                   0
                   0
                   0
                   0
                   0
                   0
                   0
                   0
                   0
                   0
                   0
                   0
                   0
                   0
                   0
                   0
                   0
                   0
                   0
                   0
                   0
                   0
                   0
                   0
                   0
                   0
                   0
                   0
                   0
                   0
                   0
                   0
                   0
                   0
                   0
                   0
                   0
                   0
                   0
                   0
                   0
                   0
                   0
                   0
                   0
                   0
                   0
                   0
                   0
                   0
                   0
                   0
                   0
                   0
                   0
                   0
                   0
                   0
                   0
                   0
                   0
                   0
                   0
                   0
                   0
                   0
                   0
                   0
                   0
                   0
                   0
                   0
                   0
                   0
                   0
                   0
                   0
                   0
                   0
                   0
                   0
                   0
                   0
                   0
                   0
                   0
                   0
                   0
                   0
                   0
                   0
                   0
                   0
                   0
                   0
                   0
                   0
                   0
                   0
                   0
                   0
                   0
                   0
                   0
                   0
                   0
                   0
                   0
                   0
                   0
                   0
                   0
                   0
                   0
                   0
                   0
                   0
                   0
                   0
                   0
                   0
                   0
                   0
                   0
                   0
                   0
                   0
                   0
                   0
                   0
                   0
                   0
                   0
                   0
                   0
                   0
                   0
                   0
                   0
                   0
                   0
                   0
                   0
                   0
                   0
                   0
                   0
                   0
                   0
                   0
                   0
                   0
                   0
                   0
                   0
                   0
                   0
                   0
                   0
                   0
                   0
                   0
                   0
                   0
                   0
                   0
                   0
                   0
                   0
                   0
                   0
                   0
                   0
                   0
                   0
                   0
                   0
                   0
                   0
                   0
                   0
                   0
                   0
                   0
                   0
                   0
                   0
                   0
                   0
                   0
                   0
                   0
                   0
                   0
                   0
                   0
                   0
                   0
                   0
                   0
                   0
                   0
                   0
                   0
                   0
                   0
                   0
                   0
                   0
                   0
                   0
                   0
                   0
                   0
                   0
                   0
                   0
                   0
                   0
                   0
                   0
                   0
                   0
                   0
                   0
                   0
                   0
                   0
                   0
                   0
                   0
                   0
                   0
                   0
                   0
                   0
                   0
                   0
                   0
                   0
                   0
                   0
                   0
                   0
                   0
                   0
                   0
                   0
                   0
                   0
                   0
                   0
                   0
                   0
                   0
                   0
                   0
                   0
                   0
                   0
                   0
                   0
                   0
                   0
                   0
                   0
                   0
                   0
                   0
                   0
                   0
                   0
                   0
                   0
                   0
                   0
                   0
                   0
                   0
                   0
                   0
                   0
                   0
                   0
                   0
                   0
                   0
                   0
                   0
                   0
                   0
                   0
                   0
                   0
                   0
                   0
                   0
                   0
                   0
                   0
                   0
                   0
                   0
                   0
                   0
                   0
                   0
                   0
                   0
                   0
                   0
                   0
                   0
                   0
                   0
                   0
                   0
                   0
                   0
                   0
                   0
                   0
                   0
                   0
                   0
                   0
                   0
                   0
                   0
                   0
                   0
                   0
                   0
                   0
                   0
                   0
                   0
                   0
                   0
                   0
                   0
                   0
                   0
                   0
                   0
                   0
                   0
                   0
                   0
                   0
                   0
                   0
                   0
                   0
                   0
                   0
                   0
                   0
                   0
                   0
                   0
                   0
                   0
                   0
                   0
                   0
                   0
                   0
                   0
                   0
                   0
                   0
                   0
                   0
                   0
                   0
                   0
                   0
                   0
                   0
                   0
                   0
                   0
                   0
                   0
                   0
                   0
                   0
                   0
                   0
                   0
                   0
                   0
                   0
                   0
                   0
                   0
                   0
                   0
                   0
                   0
                   0
                   0
                   0
                   0
                   0
                   0
                   0
                   0
                   0
                   0
                   0
                   0
                   0
                   0
                   0
                   0
                   0
                   0
                   0
                   0
                   0
                   0
                   0
                   0
                   0
                   0
                   0
                   0
                   0
                   0
                   0
                   0
                   0
                   0
                   0
                   0
                   0
                   0
                   0
                   0
                   0
                   0
                   0
                   0
                   0
                   0
                   0
                   0
                   0
                   0
                   0
                   0
                   0
                   0
                   0
                   0
                   0
                   0
                   0
                   0
                   0
                   0
                   0
                   0
                   0
                   0
                   0
                   0
                   0
                   0
                   0
                   0
                   0
                   0
                   0
                   0
                   0
                   0
                   0
                   0
                   0
                   0
                   0
                   0
                   0
                   0
                   0
                   0
                   0
                   0
                   0
                   0
                   0
                   0
                   0
                   0
                   0
                   0
                   0
                   0
                   0
                   0
                   0
                   0
                   0
                   0
                   0
                   0
                   0
                   0
                   0
                   0
                   0
                   0
                   0
                   0
                   0
                   0
                   0
                   0
                   0
                   0
                   0
                   0
                   0
                   0
                   0
                   0
                   0
                   0
                   0
                   0
                   0
                   0
                   0
                   0
                   0
                   0
                   0
                   0
                   0
                   0
                   0
                   0
                   0
                   0
                   0
                   0
                   0
                   0
                   0
                   0
                   0
                   0
                   0
                   0
                   0
                   0
                   0
                   0
                   0
                   0
                   0
                   0
                   0
                   0
                   0
                   0
                   0
                   0
                   0
                   0
                   0
                   0
                   0
                   0
                   0
                   0
                   0
                   0
                   0
                   0
                   0
                   0
                   0
                   0
                   0
                   0
                   0
                   0
                   0
                   0
                   0
                   0
                   0
                   0
                   0
                   0
                   0
                   0
                   0
                   0
                   0
                   0
                   0
                   0
                   0
                   0
                   0
                   0
                   0
                   0
                   0
                   0
                   0
                   0
                   0
                   0
                   0
                   0
                   0
                   0
                   0
                   0
                   0
                   0
                   0
                   0
                   0
                   0
                   0
                   0
                   0
                   0
                   0
                   0
                   0
                   0
                   0
                   0
                   0
                   0
                   0
                   0
                   0
                   0
                   0
                   0
                   0
                   0
                   0
                   0
                   0
                   0
                   0
                   0
                   0
                   0
                   0
                   0
                   0
                   0
                   0
                   0
                   0
                   0
                   0
                   0
                   0
                   0
                   0
                   0
                   0
                   0
                   0
                   0
                   0
                   0
                   0
                   0
                   0
                   0
                   0
                   0
                   0
                   0
                   0
                   0
                   0
                   0
                   0
                   0
                   0
                   0
                   0
                   0
                   0
                   0
                   0
                   0
                   0
                   0
                   0
                   0
                   0
                   0
                   0
                   0
                   0
                   0
                   0
                   0
                   0
                   0
                   0
                   0
                   0
                   0
                   0
                   0
                   0
                   0
                   0
                   0
                   0
                   0
                   0
                   0
                   0
                   0
                   0
                   0
                   0
                   0
                   0
                   0
                   0
                   0
                   0
                   0
                   0
                   0
                   0
                   0
                   0
                   0
                   0
                   0
                   0
                   0
                   0
                   0
                   0
                   0
                   0
                   0
                   0
                   0
                   0
                   0
                   0
                   0
                   0
                   0
                   0
                   0
                   0
                   0
                   0
                   0
                   0
                   0
                   0
                   0
                   0
                   0
                   0
                   0
                   0
                   0
                   0
                   0
                   0
                   0
                   0
                   0
                   0
                   0
                   0
                   0
                   0
                   0
                   0
                   0
                   0
                   0
                   0
                   0
                   0
                   0
                   0
                   0
                   0
                   0
                   0
                   0
                   0
                   0
                   0
                   0
                   0
                   0
                   0
                   0
                   0
                   0
                   0
                   0
                   0
                   0
                   0
                   0
                   0
                   0
                   0
                   0
                   0
                   0
                   0
                   0
                   0
                   0
                   0
                   0
                   0
                   0
                   0
                   0
                   0
                   0
                   0
                   0
                   0
                   0
                   0
                   0
                   0
                   0
                   0
                   0
                   0
                   0
                   0
                   0
                   0
                   0
                   0
                   0
                   0
                   0
                   0
                   0
                   0
                   0
                   0
                   0
                   0
                   0
                   0
                   0
                   0
                   0
                   0
                   0
                   0
                   0
                   0
                   0
                   0
                   0
                   0
                   0
                   0
                   0
                   0
                   0
                   0
                   0
                   0
                   0
                   0
                   0
                   0
                   0
                   0
                   0
                   0
                   0
                   0
                   0
                   0
                   0
                   0
                   0
                   0
                   0
                   0
                   0
                   0
                   0
                   0
                   0
                   0
                   0
                   0
                   0
                   0
                   0
                   0
                   0
                   0
                   0
                   0
                   0
                   0
                   0
                   0
                   0
                   0
                   0
                   0
                   0
                   0
                   0
                   0
                   0
                   0
                   0
                   0
                   0
                   0
                   0
                   0
                   0
                   0
                   0
                   0
                   0
                   0
                   0
                   0
                   0
                   0
                   0
                   0
                   0
                   0
                   0
                   0
                   0
                   0
                   0
                   0
                   0
                   0
                   0
                   0
                   0
                   0
                   0
                   0
                   0
                   0
                   0
                   0
                   0
                   0
                   0
                   0
                   0
                   0
                   0
                   0
                   0
                   0
                   0
                   0
                   0
                   0
                   0
                   0
                   0
                   0
                   0
                   0
                   0
                   0
                   0
                   0
                   0
                   0
                   0
                   0
                   0
                   0
                   0
                   0
                   0
                   0
                   0
                   0
                   0
                   0
                   0
                   0
                   0
                   0
                   0
                   0
                   0
                   0
                   0
                   0
                   0
                   0
                   0
                   0
                   0
                   0
                   0
                   0
                   0
                   0
                   0
                   0
                   0
                   0
                   0
                   0
                   0
                   0
                   0
                   0
                   0
                   0
                   0
                   0
                   0
                   0
                   0
                   0
                   0
                   0
                   0
                   0
                   0
                   0
                   0
                   0
                   0
                   0
                   0
                   0
                   0
                   0
                   0
                   0
                   0
                   0
                   0
                   0
                   0
                   0
                   0
                   0
                   0
                   0
                   0
                   0
                   0
                   0
                   0
                   0
                   0
                   0
                   0
                   0
                   0
                   0
                   0
                   0
                   0
                   0
                   0
                   0
                   0
                   0
                   0
                   0
                   0
                   0
                   0
                   0
                   0
                   0
                   0
                   0
                   0
                   0
                   0
                   0
                   0
                   0
                   0
                   0
                   0
                   0
                   0
                   0
                   0
                   0
                   0
                   0
                   0
                   0
                   0
                   0
                   0
                   0
                   0
                   0
                   0
                   0
                   0
                   0
                   0
                   0
                   0
                   0
                   0
                   0
                   0
                   0
                   0
                   0
                   0
                   0
                   0
                   0
                   0
                   0
                   0
                   0
                   0
                   0
                   0
  
SCALARS                       fixity_z  double 1
LOOKUP_TABLE default
                   0
                   0
                   0
                   0
                   1
                   1
                   1
                   1
                   0
                   0
                   1
                   1
                   0
                   0
                   1
                   1
                   0
                   0
                   1
                   1
                   0
                   0
                   0
                   1
                   1
                   1
                   0
                   0
                   1
                   1
                   0
                   0
                   0
                   1
                   1
                   1
                   0
                   0
                   1
                   1
                   0
                   0
                   1
                   1
                   0
                   0
                   1
                   1
                   0
                   1
                   0
                   1
                   0
                   1
                   0
                   1
                   0
                   0
                   1
                   1
                   0
                   0
                   1
                   1
                   0
                   1
                   0
                   1
                   0
                   0
                   1
                   1
                   0
                   1
                   0
                   1
                   0
                   1
                   0
                   1
                   0
                   0
                   1
                   1
                   0
                   1
                   0
                   1
                   0
                   1
                   0
                   0
                   1
                   1
                   0
                   1
                   0
                   1
                   0
                   1
                   0
                   0
                   1
                   1
                   0
                   0
                   1
                   1
                   0
                   1
                   0
                   1
                   0
                   1
                   0
                   1
                   0
                   1
                   0
                   1
                   0
                   1
                   0
                   1
                   0
                   1
                   0
                   1
                   0
                   1
                   0
                   1
                   0
                   1
                   0
                   1
                   0
                   1
                   0
                   1
                   0
                   1
                   0
                   1
                   0
                   1
                   0
                   1
                   0
                   1
                   0
                   1
                   0
                   1
                   0
                   1
                   0
                   0
                   0
                   0
                   0
                   0
                   0
                   0
                   0
                   0
                   0
                   0
                   0
                   0
                   0
                   0
                   0
                   0
                   0
                   0
                   0
                   0
                   0
                   0
                   0
                   0
                   0
                   0
                   0
                   0
                   0
                   0
                   0
                   0
                   0
                   0
                   0
                   0
                   0
                   0
                   0
                   0
                   0
                   0
                   0
                   0
                   0
                   0
                   0
                   0
                   0
                   0
                   0
                   0
                   0
                   0
                   0
                   0
                   0
                   0
                   0
                   0
                   0
                   0
                   0
                   0
                   0
                   0
                   0
                   0
                   0
                   0
                   0
                   0
                   0
                   0
                   0
                   0
                   0
                   0
                   0
                   0
                   0
                   0
                   0
                   0
                   0
                   0
                   0
                   0
                   0
                   0
                   0
                   0
                   0
                   0
                   0
                   0
                   0
                   0
                   0
                   0
                   0
                   0
                   0
                   0
                   0
                   0
                   0
                   0
                   0
                   0
                   0
                   0
                   0
                   0
                   0
                   0
                   0
                   0
                   0
                   0
                   0
                   0
                   0
                   0
                   0
                   0
                   0
                   0
                   0
                   0
                   0
                   0
                   0
                   0
                   0
                   0
                   0
                   0
                   0
                   0
                   0
                   0
                   0
                   0
                   0
                   0
                   0
                   0
                   0
                   0
                   0
                   0
                   0
                   0
                   0
                   0
                   0
                   0
                   0
                   0
                   0
                   0
                   0
                   0
                   0
                   0
                   0
                   0
                   0
                   0
                   0
                   0
                   0
                   0
                   0
                   0
                   0
                   0
                   0
                   0
                   0
                   0
                   0
                   0
                   0
                   0
                   0
                   0
                   0
                   0
                   0
                   0
                   0
                   0
                   0
                   0
                   0
                   0
                   0
                   0
                   0
                   0
                   0
                   0
                   0
                   0
                   0
                   0
                   0
                   0
                   0
                   0
                   0
                   0
                   0
                   0
                   0
                   0
                   0
                   0
                   0
                   0
                   0
                   0
                   0
                   0
                   0
                   0
                   0
                   0
                   0
                   0
                   0
                   0
                   0
                   0
                   0
                   0
                   0
                   0
                   0
                   0
                   0
                   0
                   0
                   0
                   0
                   0
                   0
                   0
                   0
                   0
                   0
                   0
                   0
                   0
                   0
                   0
                   0
                   0
                   0
                   0
                   0
                   0
                   0
                   0
                   0
                   0
                   0
                   0
                   0
                   0
                   0
                   0
                   0
                   0
                   0
                   0
                   0
                   0
                   0
                   0
                   0
                   0
                   0
                   0
                   0
                   0
                   0
                   0
                   0
                   0
                   0
                   0
                   0
                   0
                   0
                   0
                   0
                   0
                   0
                   0
                   0
                   0
                   0
                   0
                   0
                   0
                   0
                   0
                   0
                   0
                   0
                   0
                   0
                   0
                   0
                   0
                   0
                   0
                   0
                   0
                   0
                   0
                   0
                   0
                   0
                   0
                   0
                   0
                   0
                   0
                   0
                   0
                   0
                   0
                   0
                   0
                   0
                   0
                   0
                   0
                   0
                   0
                   0
                   0
                   0
                   0
                   0
                   0
                   0
                   0
                   0
                   0
                   0
                   0
                   0
                   0
                   0
                   0
                   0
                   0
                   0
                   0
                   0
                   0
                   0
                   0
                   0
                   0
                   0
                   0
                   0
                   0
                   0
                   0
                   0
                   0
                   0
                   0
                   0
                   0
                   0
                   0
                   0
                   0
                   0
                   0
                   0
                   0
                   0
                   0
                   0
                   0
                   0
                   0
                   0
                   0
                   0
                   0
                   0
                   0
                   0
                   0
                   0
                   0
                   0
                   0
                   0
                   0
                   0
                   0
                   0
                   0
                   0
                   0
                   0
                   0
                   0
                   0
                   0
                   0
                   0
                   0
                   0
                   0
                   0
                   0
                   0
                   0
                   0
                   0
                   0
                   0
                   0
                   0
                   0
                   0
                   0
                   0
                   0
                   0
                   0
                   0
                   0
                   0
                   0
                   0
                   0
                   0
                   0
                   0
                   0
                   0
                   0
                   0
                   0
                   0
                   0
                   0
                   0
                   0
                   0
                   0
                   0
                   0
                   0
                   0
                   0
                   0
                   0
                   0
                   0
                   0
                   0
                   0
                   0
                   0
                   0
                   0
                   0
                   0
                   0
                   0
                   0
                   0
                   0
                   0
                   0
                   0
                   0
                   0
                   0
                   0
                   0
                   0
                   0
                   0
                   0
                   0
                   0
                   0
                   0
                   0
                   0
                   0
                   0
                   0
                   0
                   0
                   0
                   0
                   0
                   0
                   0
                   0
                   0
                   0
                   0
                   0
                   0
                   0
                   0
                   0
                   0
                   0
                   0
                   0
                   0
                   0
                   0
                   0
                   0
                   0
                   0
                   0
                   0
                   0
                   0
                   0
                   0
                   0
                   0
                   0
                   0
                   0
                   0
                   0
                   0
                   0
                   0
                   0
                   0
                   0
                   0
                   0
                   0
                   0
                   0
                   0
                   0
                   0
                   0
                   0
                   0
                   0
                   0
                   0
                   0
                   0
                   0
                   0
                   0
                   0
                   0
                   0
                   0
                   0
                   0
                   0
                   0
                   0
                   0
                   0
                   0
                   0
                   0
                   0
                   0
                   0
                   0
                   0
                   0
                   0
                   0
                   0
                   0
                   0
                   0
                   0
                   0
                   0
                   0
                   0
                   0
                   0
                   0
                   0
                   0
                   0
                   0
                   0
                   0
                   0
                   0
                   0
                   0
                   0
                   0
                   0
                   0
                   0
                   0
                   0
                   0
                   0
                   0
                   0
                   0
                   0
                   0
                   0
                   0
                   0
                   0
                   0
                   0
                   0
                   0
                   0
                   0
                   0
                   0
                   0
                   0
                   0
                   0
                   0
                   0
                   0
                   0
                   0
                   0
                   0
                   0
                   0
                   0
                   0
                   0
                   0
                   0
                   0
                   0
                   0
                   0
                   0
                   0
                   0
                   0
                   0
                   0
                   0
                   0
                   0
                   0
                   0
                   0
                   0
                   0
                   0
                   0
                   0
                   0
                   0
                   0
                   0
                   0
                   0
                   0
                   0
                   0
                   0
                   0
                   0
                   0
                   0
                   0
                   0
                   0
                   0
                   0
                   0
                   0
                   0
                   0
                   0
                   0
                   0
                   0
                   0
                   0
                   0
                   0
                   0
                   0
                   0
                   0
                   0
                   0
                   0
                   0
                   0
                   0
                   0
                   0
                   0
                   0
                   0
                   0
                   0
                   0
                   0
                   0
                   0
                   0
                   0
                   0
                   0
                   0
                   0
                   0
                   0
                   0
                   0
                   0
                   0
                   0
                   0
                   0
                   0
                   0
                   0
                   0
                   0
                   0
                   0
                   0
                   0
                   0
                   0
                   0
                   0
                   0
                   0
                   0
                   0
                   0
                   0
                   0
                   0
                   0
                   0
                   0
                   0
                   0
                   0
                   0
                   0
                   0
                   0
                   0
                   0
                   0
                   0
                   0
                   0
                   0
                   0
                   0
                   0
                   0
                   0
                   0
                   0
                   0
                   0
                   0
                   0
                   0
                   0
                   0
                   0
                   0
                   0
                   0
                   0
                   0
                   0
                   0
                   0
                   0
                   0
                   0
                   0
                   0
                   0
                   0
                   0
                   0
                   0
                   0
                   0
                   0
                   0
                   0
                   0
                   0
                   0
                   0
                   0
                   0
                   0
                   0
                   0
                   0
                   0
                   0
                   0
                   0
                   0
                   0
                   0
                   0
                   0
                   0
                   0
                   0
                   0
                   0
                   0
                   0
                   0
                   0
                   0
                   0
                   0
                   0
                   0
                   0
                   0
                   0
                   0
                   0
                   0
                   0
                   0
                   0
                   0
                   0
                   0
                   0
                   0
                   0
                   0
                   0
                   0
                   0
                   0
                   0
                   0
                   0
                   0
                   0
                   0
                   0
                   0
                   0
                   0
                   0
                   0
                   0
                   0
                   0
                   0
                   0
                   0
                   0
                   0
                   0
                   0
                   0
                   0
                   0
                   0
                   0
                   0
                   0
                   0
                   0
                   0
                   0
                   0
                   0
                   0
                   0
                   0
                   0
                   0
                   0
                   0
                   0
                   0
                   0
                   0
                   0
                   0
                   0
                   0
                   0
                   0
                   0
                   0
                   0
                   0
                   0
                   0
                   0
                   0
                   0
                   0
                   0
                   0
                   0
                   0
                   0
                   0
                   0
                   0
                   0
                   0
                   0
                   0
                   0
                   0
                   0
                   0
                   0
                   0
                   0
                   0
                   0
                   0
                   0
                   0
                   0
                   0
                   0
                   0
                   0
                   0
                   0
                   0
                   0
                   0
                   0
                   0
                   0
                   0
                   0
                   0
                   0
                   0
                   0
                   0
                   0
                   0
                   0
                   0
                   0
                   0
                   0
                   0
                   0
                   0
                   0
                   0
                   0
                   0
                   0
                   0
                   0
                   0
                   0
                   0
                   0
                   0
                   0
                   0
                   0
                   0
                   0
                   0
                   0
                   0
                   0
                   0
                   0
                   0
                   0
                   0
                   0
                   0
                   0
                   0
                   0
                   0
                   0
                   0
                   0
                   0
                   0
                   0
                   0
                   0
                   0
                   0
                   0
                   0
                   0
                   0
                   0
                   0
                   0
                   0
                   0
                   0
                   0
                   0
                   0
                   0
                   0
                   0
                   0
                   0
                   0
                   0
                   0
                   0
                   0
                   0
                   0
                   0
                   0
                   0
                   0
                   0
                   0
                   0
                   0
                   0
                   0
                   0
                   0
                   0
                   0
                   0
                   0
                   0
                   0
                   0
                   0
                   0
                   0
                   0
                   0
                   0
                   0
                   0
                   0
                   0
                   0
                   0
                   0
                   0
                   0
                   0
                   0
                   0
                   0
                   0
                   0
                   0
                   0
                   0
                   0
                   0
                   0
                   0
                   0
                   0
                   0
                   0
                   0
                   0
                   0
                   0
                   0
                   0
                   0
                   0
                   0
                   0
                   0
                   0
                   0
                   0
                   0
                   0
                   0
                   0
                   0
                   0
                   0
                   0
                   0
                   0
                   0
                   0
                   0
                   0
                   0
                   0
                   0
                   0
                   0
                   0
                   0
                   0
                   0
                   0
                   0
                   0
                   0
                   0
                   0
                   0
                   0
                   0
                   0
                   0
                   0
                   0
                   0
                   0
                   0
                   0
                   0
                   0
                   0
                   0
                   0
                   0
                   0
                   0
                   0
                   0
                   0
                   0
                   0
                   0
                   0
                   0
                   0
                   0
                   0
                   0
                   0
                   0
                   0
                   0
                   0
                   0
                   0
                   0
                   0
                   0
                   0
                   0
                   0
                   0
                   0
                   0
                   0
                   0
                   0
                   0
                   0
                   0
                   0
                   0
                   0
                   0
                   0
                   0
                   0
                   0
                   0
                   0
                   0
                   0
                   0
                   0
                   0
                   0
                   0
                   0
                   0
                   0
                   0
                   0
                   0
                   0
                   0
                   0
                   0
                   0
                   0
                   0
                   0
                   0
                   0
                   0
                   0
                   0
                   0
                   0
                   0
                   0
                   0
                   0
                   0
                   0
                   0
                   0
                   0
                   0
                   0
                   0
                   0
                   0
                   0
                   0
                   0
                   0
                   0
                   0
                   0
                   0
                   0
                   0
                   0
                   0
                   0
                   0
                   0
                   0
                   0
                   0
                   0
                   0
                   0
                   0
                   0
                   0
                   0
                   0
                   0
                   0
                   0
                   0
                   0
                   0
                   0
                   0
                   0
                   0
                   0
                   0
                   0
                   0
                   0
                   0
                   0
                   0
                   0
                   0
                   0
                   0
                   0
                   0
                   0
                   0
                   0
                   0
                   0
                   0
                   0
                   0
                   0
                   0
                   0
                   0
                   0
                   0
                   0
                   0
                   0
                   0
                   0
                   0
                   0
                   0
                   0
                   0
                   0
                   0
                   0
                   0
                   0
                   0
                   0
                   0
                   0
                   0
                   0
                   0
                   0
                   0
                   0
                   0
                   0
                   0
                   0
                   0
                   0
                   0
                   0
                   0
                   0
                   0
                   0
                   0
                   0
                   0
                   0
                   0
                   0
                   0
                   0
                   0
                   0
                   0
                   0
                   0
                   0
                   0
                   0
                   0
                   0
                   0
                   0
                   0
                   0
                   0
                   0
                   0
                   0
                   0
                   0
                   0
                   0
                   0
                   0
                   0
                   0
                   0
                   0
                   0
                   0
                   0
                   0
                   0
                   0
                   0
                   0
                   0
                   0
                   0
                   0
                   0
                   0
                   0
                   0
                   0
                   0
                   0
                   0
                   0
                   0
                   0
                   0
                   0
                   0
                   0
                   0
                   0
                   0
                   0
                   0
                   0
                   0
                   0
                   0
                   0
                   0
                   0
                   0
                   0
                   0
                   0
                   0
                   0
                   0
                   0
                   0
                   0
                   0
                   0
                   0
                   0
                   0
                   0
                   0
                   0
                   0
                   0
                   0
                   0
                   0
                   0
                   0
                   0
                   0
                   0
                   0
                   0
                   0
                   0
                   0
                   0
                   0
                   0
                   0
                   0
                   0
                   0
                   0
                   0
                   0
                   0
                   0
                   0
                   0
                   0
                   0
                   0
                   0
                   0
                   0
                   0
                   0
                   0
                   0
                   0
                   0
                   0
                   0
                   0
                   0
                   0
                   0
                   0
                   0
                   0
                   0
                   0
                   0
                   0
                   0
                   0
                   0
                   0
                   0
                   0
                   0
                   0
                   0
                   0
                   0
                   0
                   0
                   0
                   0
                   0
                   0
                   0
                   0
                   0
                   0
                   0
                   0
                   0
                   0
                   0
                   0
                   0
                   0
                   0
                   0
                   0
                   0
                   0
                   0
                   0
                   0
                   0
                   0
                   0
                   0
                   0
                   0
                   0
                   0
                   0
                   0
                   0
                   0
                   0
                   0
                   0
                   0
                   0
                   0
                   0
                   0
                   0
                   0
                   0
                   0
                   0
                   0
                   0
                   0
                   0
                   0
                   0
                   0
                   0
                   0
                   0
                   0
                   0
                   0
                   0
                   0
                   0
                   0
                   0
                   0
                   0
                   0
                   0
                   0
                   0
                   0
                   0
                   0
                   0
                   0
                   0
                   0
                   0
                   0
                   0
                   0
                   0
                   0
                   0
                   0
                   0
                   0
                   0
                   0
                   0
                   0
                   0
                   0
                   0
                   0
                   0
                   0
                   0
                   0
                   0
                   0
                   0
                   0
                   0
                   0
                   0
                   0
                   0
                   0
                   0
                   0
                   0
                   0
                   0
                   0
                   0
                   0
                   0
                   0
                   0
                   0
                   0
                   0
                   0
                   0
                   0
                   0
                   0
                   0
                   0
                   0
                   0
                   0
                   0
                   0
                   0
                   0
                   0
                   0
                   0
                   0
                   0
                   0
                   0
                   0
                   0
                   0
                   0
                   0
                   0
                   0
                   0
                   0
                   0
                   0
                   0
                   0
                   0
                   0
                   0
                   0
                   0
                   0
                   0
                   0
                   0
                   0
                   0
                   0
                   0
                   0
                   0
                   0
                   0
                   0
                   0
                   0
                   0
                   0
                   0
                   0
                   0
                   0
                   0
                   0
                   0
                   0
                   0
                   0
                   0
                   0
                   0
                   0
                   0
                   0
                   0
                   0
                   0
                   0
                   0
                   0
                   0
                   0
                   0
                   0
                   0
                   0
                   0
                   0
                   0
                   0
                   0
                   0
                   0
                   0
                   0
                   0
                   0
                   0
                   0
                   0
                   0
                   0
                   0
                   0
                   0
                   0
                   0
                   0
                   0
                   0
                   0
                   0
                   0
                   0
                   0
                   0
                   0
                   0
                   0
                   0
                   0
                   0
                   0
                   0
                   0
                   0
                   0
                   0
                   0
                   0
                   0
                   0
                   0
                   0
                   0
                   0
                   0
                   0
                   0
                   0
                   0
                   0
                   0
                   0
                   0
                   0
                   0
  
SCALARS                         Ispace  double 1
LOOKUP_TABLE default
                  12
                  12
                  12
                  12
                  12
                  12
                  12
                  12
                  12
                  12
                  12
                  12
                  12
                  11
                  12
                  11
                  11
                  11
                  11
                  11
                  11
                  12
                  12
                  11
                  12
                  12
                  11
                  11
                  11
                  11
                  11
                  11
                  11
                  11
                  11
                  11
                  11
                  11
                  11
                  11
                  11
                  11
                  11
                  11
                  11
                  11
                  11
                  11
                  11
                  11
                  11
                  11
                  11
                  11
                  11
                  11
                  11
                  11
                  11
                  11
                  11
                  11
                  11
                  11
                  11
                  11
                  12
                  12
                  12
                  12
                  12
                  12
                  12
                  12
                  11
                  11
                  11
                  11
                  11
                  11
                  11
                  11
                  11
                  11
                  11
                  11
                  11
                  11
                  11
                  11
                  11
                  11
                  11
                  11
                  11
                  11
                  12
                  12
                  12
                  12
                  12
                  12
                  12
                  12
                  12
                  12
                  12
                  12
                  12
                  12
                  12
                  12
                  12
                  12
                  12
                  12
                  11
                  11
                  11
                  11
                  11
                  11
                  11
                  11
                  11
                  11
                  11
                  11
                  11
                  11
                  11
                  11
                  11
                  11
                  11
                  11
                  11
                  11
                  11
                  11
                  11
                  11
                  11
                  11
                  11
                  11
                  12
                  12
                  12
                  12
                  12
                  12
                  12
                  12
                  12
                  12
                  12
                  12
                  12
                  12
                  12
                  12
                  12
                  11
                  11
                  11
                  11
                  12
                  12
                  11
                  11
                  11
                  11
                  11
                  11
                  11
                  11
                  11
                  11
                  11
                  11
                  11
                  11
                  11
                  11
                  11
                  11
                  11
                  11
                  12
                  12
                  12
                  12
                  11
                  11
                  11
                  11
                  11
                  11
                  11
                  11
                  11
                  11
                  11
                  12
                  12
                  12
                  12
                  12
                  12
                  12
                  12
                  12
                  12
                  11
                  11
                  11
                  11
                  11
                  11
                  11
                  11
                  11
                  11
                  11
                  11
                  11
                  11
                  11
                  12
                  12
                  12
                  12
                  12
                  12
                  12
                  12
                  12
                  12
                  12
                  12
                  11
                  11
                  11
                  11
                  12
                  12
                  11
                  11
                  11
                  11
                  11
                  11
                  11
                  11
                  11
                  11
                  11
                  11
                  11
                  11
                  11
                  11
                  11
                  11
                  11
                  11
                  12
                  12
                  12
                  12
                  11
                  11
                  11
                  11
                  11
                  11
                  11
                  11
                  11
                  11
                  11
                  12
                  12
                  12
                  12
                  12
                  12
                  12
                  12
                  12
                  12
                  11
                  11
                  11
                  11
                  11
                  11
                  11
                  11
                  11
                  11
                  11
                  11
                  11
                  11
                  11
                  12
                  12
                  12
                  12
                  12
                  12
                  12
                  12
                  12
                  12
                  12
                  12
                  11
                  11
                  11
                  11
                  12
                  12
                  11
                  11
                  11
                  11
                  11
                  11
                  11
                  11
                  11
                  11
                  11
                  11
                  11
                  11
                  11
                  11
                  11
                  11
                  11
                  11
                  12
                  12
                  12
                  12
                  11
                  11
                  11
                  11
                  11
                  11
                  11
                  11
                  11
                  11
                  11
                  12
                  12
                  12
                  12
                  12
                  12
                  12
                  12
                  12
                  12
                  11
                  11
                  11
                  11
                  11
                  11
                  11
                  11
                  11
                  11
                  11
                  11
                  11
                  11
                  11
                  12
                  12
                  12
                  12
                  12
                  12
                  12
                  12
                  12
                  12
                  12
                  12
                  11
                  11
                  11
                  11
                  12
                  12
                  11
                  11
                  11
                  11
                  11
                  11
                  11
                  11
                  11
                  11
                  11
                  11
                  11
                  11
                  11
                  11
                  11
                  11
                  11
                  11
                  12
                  12
                  12
                  12
                  11
                  11
                  11
                  11
                  11
                  11
                  11
                  11
                  11
                  11
                  11
                  12
                  12
                  12
                  12
                  12
                  12
                  12
                  12
                  12
                  12
                  11
                  11
                  11
                  11
                  11
                  11
                  11
                  11
                  11
                  11
                  11
                  11
                  11
                  11
                  11
                  12
                  12
                  12
                  12
                  12
                  12
                  12
                  12
                  12
                  12
                  12
                  12
                  11
                  11
                  11
                  11
                  12
                  12
                  11
                  11
                  11
                  11
                  11
                  11
                  11
                  11
                  11
                  11
                  11
                  11
                  11
                  11
                  11
                  11
                  11
                  11
                  11
                  11
                  12
                  12
                  12
                  12
                  11
                  11
                  11
                  11
                  11
                  11
                  11
                  11
                  11
                  11
                  11
                  12
                  12
                  12
                  12
                  12
                  12
                  12
                  12
                  12
                  12
                  11
                  11
                  11
                  11
                  11
                  11
                  11
                  11
                  11
                  11
                  11
                  11
                  11
                  11
                  11
                  12
                  12
                  12
                  12
                  12
                  12
                  12
                  12
                  12
                  12
                  12
                  12
                  11
                  11
                  11
                  11
                  12
                  12
                  11
                  11
                  11
                  11
                  11
                  11
                  11
                  11
                  11
                  11
                  11
                  11
                  11
                  11
                  11
                  11
                  11
                  11
                  11
                  11
                  12
                  12
                  12
                  12
                  11
                  11
                  11
                  11
                  11
                  11
                  11
                  11
                  11
                  11
                  11
                  12
                  12
                  12
                  12
                  12
                  12
                  12
                  12
                  12
                  12
                  11
                  11
                  11
                  11
                  11
                  11
                  11
                  11
                  11
                  11
                  11
                  11
                  11
                  11
                  11
                  12
                  12
                  12
                  12
                  12
                  12
                  12
                  12
                  12
                  12
                  12
                  12
                  11
                  11
                  11
                  11
                  12
                  12
                  11
                  11
                  11
                  11
                  11
                  11
                  11
                  11
                  11
                  11
                  11
                  11
                  11
                  11
                  11
                  11
                  11
                  11
                  11
                  11
                  12
                  12
                  12
                  12
                  11
                  11
                  11
                  11
                  11
                  11
                  11
                  11
                  11
                  11
                  11
                  12
                  12
                  12
                  12
                  12
                  12
                  12
                  12
                  12
                  12
                  11
                  11
                  11
                  11
                  11
                  11
                  11
                  11
                  11
                  11
                  11
                  11
                  11
                  11
                  11
                  12
                  12
                  12
                  12
                  12
                  12
                  12
                  12
                  12
                  12
                  12
                  12
                  11
                  11
                  11
                  11
                  12
                  12
                  11
                  11
                  11
                  11
                  11
                  11
                  11
                  11
                  11
                  11
                  11
                  11
                  11
                  11
                  11
                  11
                  11
                  11
                  11
                  11
                  12
                  12
                  12
                  12
                  11
                  11
                  11
                  11
                  11
                  11
                  11
                  11
                  11
                  11
                  11
                  12
                  12
                  12
                  12
                  12
                  12
                  12
                  12
                  12
                  12
                  11
                  11
                  11
                  11
                  11
                  11
                  11
                  11
                  11
                  11
                  11
                  11
                  11
                  11
                  11
                  12
                  12
                  12
                  12
                  12
                  12
                  12
                  12
                  12
                  12
                  12
                  12
                  11
                  11
                  11
                  11
                  12
                  12
                  11
                  11
                  11
                  11
                  11
                  11
                  11
                  11
                  11
                  11
                  11
                  11
                  11
                  11
                  11
                  11
                  11
                  11
                  11
                  11
                  12
                  12
                  12
                  12
                  11
                  11
                  11
                  11
                  11
                  11
                  11
                  11
                  11
                  11
                  11
                  12
                  12
                  12
                  12
                  12
                  12
                  12
                  12
                  12
                  12
                  11
                  11
                  11
                  11
                  11
                  11
                  11
                  11
                  11
                  11
                  11
                  11
                  11
                  11
                  11
                  12
                  12
                  12
                  12
                  12
                  12
                  12
                  12
                  12
                  12
                  12
                  12
                  11
                  11
                  11
                  11
                  12
                  12
                  11
                  11
                  11
                  11
                  11
                  11
                  11
                  11
                  11
                  11
                  11
                  11
                  11
                  11
                  11
                  11
                  11
                  11
                  11
                  11
                  12
                  12
                  12
                  12
                  11
                  11
                  11
                  11
                  11
                  11
                  11
                  11
                  11
                  11
                  11
                  12
                  12
                  12
                  12
                  12
                  12
                  12
                  12
                  12
                  12
                  11
                  11
                  11
                  11
                  11
                  11
                  11
                  11
                  11
                  11
                  11
                  11
                  11
                  11
                  11
                  12
                  12
                  12
                  12
                  12
                  12
                  12
                  12
                  12
                  12
                  12
                  12
                  11
                  11
                  11
                  11
                  12
                  12
                  11
                  11
                  11
                  11
                  11
                  11
                  11
                  11
                  11
                  11
                  11
                  11
                  11
                  11
                  11
                  11
                  11
                  11
                  11
                  11
                  12
                  12
                  12
                  12
                  11
                  11
                  11
                  11
                  11
                  11
                  11
                  11
                  11
                  11
                  11
                  12
                  12
                  12
                  12
                  12
                  12
                  12
                  12
                  12
                  12
                  11
                  11
                  11
                  11
                  11
                  11
                  11
                  11
                  11
                  11
                  11
                  11
                  11
                  11
                  11
                  12
                  12
                  12
                  12
                  12
                  12
                  12
                  12
                  12
                  12
                  12
                  12
                  11
                  11
                  11
                  11
                  12
                  12
                  11
                  11
                  11
                  11
                  11
                  11
                  11
                  11
                  11
                  11
                  11
                  11
                  11
                  11
                  11
                  11
                  11
                  11
                  11
                  11
                  12
                  12
                  12
                  12
                  11
                  11
                  11
                  11
                  11
                  11
                  11
                  11
                  11
                  11
                  11
                  12
                  12
                  12
                  12
                  12
                  12
                  12
                  12
                  12
                  12
                  11
                  11
                  11
                  11
                  11
                  11
                  11
                  11
                  11
                  11
                  11
                  11
                  11
                  11
                  11
                  12
                  12
                  12
                  12
                  12
                  12
                  12
                  12
                  12
                  12
                  12
                  12
                  11
                  11
                  11
                  11
                  12
                  12
                  11
                  11
                  11
                  11
                  11
                  11
                  11
                  11
                  11
                  11
                  11
                  11
                  11
                  11
                  11
                  11
                  11
                  11
                  11
                  11
                  12
                  12
                  12
                  12
                  11
                  11
                  11
                  11
                  11
                  11
                  11
                  11
                  11
                  11
                  11
                  12
                  12
                  12
                  12
                  12
                  12
                  12
                  12
                  12
                  12
                  11
                  11
                  11
                  11
                  11
                  11
                  11
                  11
                  11
                  11
                  11
                  11
                  11
                  11
                  11
                  12
                  12
                  12
                  12
                  12
                  12
                  12
                  12
                  12
                  12
                  12
                  12
                  11
                  11
                  11
                  11
                  12
                  12
                  11
                  11
                  11
                  11
                  11
                  11
                  11
                  11
                  11
                  11
                  11
                  11
                  11
                  11
                  11
                  11
                  11
                  11
                  11
                  11
                  12
                  12
                  12
                  12
                  11
                  11
                  11
                  11
                  11
                  11
                  11
                  11
                  11
                  11
                  11
                  12
                  12
                  12
                  12
                  12
                  12
                  12
                  12
                  12
                  12
                  11
                  11
                  11
                  11
                  11
                  11
                  11
                  11
                  11
                  11
                  11
                  11
                  11
                  11
                  11
                  12
                  12
                  12
                  12
                  12
                  12
                  12
                  12
                  12
                  12
                  12
                  12
                  11
                  11
                  11
                  11
                  12
                  12
                  11
                  11
                  11
                  11
                  11
                  11
                  11
                  11
                  11
                  11
                  11
                  11
                  11
                  11
                  11
                  11
                  11
                  11
                  11
                  11
                  12
                  12
                  12
                  12
                  11
                  11
                  11
                  11
                  11
                  11
                  11
                  11
                  11
                  11
                  11
                  12
                  12
                  12
                  12
                  12
                  12
                  12
                  12
                  12
                  12
                  11
                  11
                  11
                  11
                  11
                  11
                  11
                  11
                  11
                  11
                  11
                  11
                  11
                  11
                  11
                  12
                  12
                  12
                  12
                  12
                  12
                  12
                  12
                  12
                  12
                  12
                  12
                  11
                  11
                  11
                  11
                  12
                  12
                  11
                  11
                  11
                  11
                  11
                  11
                  11
                  11
                  11
                  11
                  11
                  11
                  11
                  11
                  11
                  11
                  11
                  11
                  11
                  11
                  12
                  12
                  12
                  12
                  11
                  11
                  11
                  11
                  11
                  11
                  11
                  11
                  11
                  11
                  11
                  12
                  12
                  12
                  12
                  12
                  12
                  12
                  12
                  12
                  12
                  11
                  11
                  11
                  11
                  11
                  11
                  11
                  11
                  11
                  11
                  11
                  11
                  11
                  11
                  11
                  12
                  12
                  12
                  12
                  12
                  12
                  12
                  12
                  12
                  12
                  12
                  12
                  11
                  11
                  11
                  11
                  12
                  12
                  11
                  11
                  11
                  11
                  11
                  11
                  11
                  11
                  11
                  11
                  11
                  11
                  11
                  11
                  11
                  11
                  11
                  11
                  11
                  11
                  12
                  12
                  12
                  12
                  11
                  11
                  11
                  11
                  11
                  11
                  11
                  11
                  11
                  11
                  11
                  12
                  12
                  12
                  12
                  12
                  12
                  12
                  12
                  12
                  12
                  11
                  11
                  11
                  11
                  11
                  11
                  11
                  11
                  11
                  11
                  11
                  11
                  11
                  11
                  11
                  12
                  12
                  12
                  12
                  12
                  12
                  12
                  12
                  12
                  12
                  12
                  12
                  11
                  11
                  11
                  11
                  12
                  12
                  11
                  11
                  11
                  11
                  11
                  11
                  11
                  11
                  11
                  11
                  11
                  11
                  11
                  11
                  11
                  11
                  11
                  11
                  11
                  11
                  12
                  12
                  12
                  12
                  11
                  11
                  11
                  11
                  11
                  11
                  11
                  11
                  11
                  11
                  11
                  12
                  12
                  12
                  12
                  12
                  12
                  12
                  12
                  12
                  12
                  11
                  11
                  11
                  11
                  11
                  11
                  11
                  11
                  11
                  11
                  11
                  11
                  11
                  11
                  11
                  12
                  12
                  12
                  12
                  12
                  12
                  12
                  12
                  12
                  12
                  12
                  12
                  11
                  11
                  11
                  11
                  12
                  12
                  11
                  11
                  11
                  11
                  11
                  11
                  11
                  11
                  11
                  11
                  11
                  11
                  11
                  11
                  11
                  11
                  11
                  11
                  11
                  11
                  12
                  12
                  12
                  12
                  11
                  11
                  11
                  11
                  11
                  11
                  11
                  11
                  11
                  11
                  11
                  12
                  12
                  12
                  12
                  12
                  12
                  12
                  12
                  12
                  12
                  11
                  11
                  11
                  11
                  11
                  11
                  11
                  11
                  11
                  11
                  11
                  11
                  11
                  11
                  11
                  12
                  12
                  12
                  12
                  12
                  12
                  12
                  12
                  12
                  12
                  12
                  12
                  11
                  11
                  11
                  11
                  12
                  12
                  11
                  11
                  11
                  11
                  11
                  11
                  11
                  11
                  11
                  11
                  11
                  11
                  11
                  11
                  11
                  11
                  11
                  11
                  11
                  11
                  12
                  12
                  12
                  12
                  11
                  11
                  11
                  11
                  11
                  11
                  11
                  11
                  11
                  11
                  11
                  12
                  12
                  12
                  12
                  12
                  12
                  12
                  12
                  12
                  12
                  11
                  11
                  11
                  11
                  11
                  11
                  11
                  11
                  11
                  11
                  11
                  11
                  11
                  11
                  11
                  12
                  12
                  12
                  12
                  12
                  12
                  12
                  12
                  12
                  12
                  12
                  12
                  11
                  11
                  11
                  11
                  12
                  12
                  11
                  11
                  11
                  11
                  11
                  11
                  11
                  11
                  11
                  11
                  11
                  11
                  11
                  11
                  11
                  11
                  11
                  11
                  11
                  11
                  12
                  12
                  12
                  12
                  11
                  11
                  11
                  11
                  11
                  11
                  11
                  11
                  11
                  11
                  11
                  12
                  12
                  12
                  12
                  12
                  12
                  12
                  12
                  12
                  12
                  11
                  11
                  11
                  11
                  11
                  11
                  11
                  11
                  11
                  11
                  11
                  11
                  11
                  11
                  11
                  12
                  12
                  12
                  12
                  12
                  12
                  12
                  12
                  12
                  12
                  12
                  12
                  11
                  11
                  11
                  11
                  12
                  12
                  11
                  11
                  11
                  11
                  11
                  11
                  11
                  11
                  11
                  11
                  11
                  11
                  11
                  11
                  11
                  11
                  11
                  11
                  11
                  11
                  12
                  12
                  12
                  12
                  11
                  11
                  11
                  11
                  11
                  11
                  11
                  11
                  11
                  11
                  11
                  12
                  12
                  12
                  12
                  12
                  12
                  12
                  12
                  12
                  12
                  11
                  11
                  11
                  11
                  11
                  11
                  11
                  11
                  11
                  11
                  11
                  11
                  11
                  11
                  11
                  12
                  12
                  12
                  12
                  12
                  12
                  12
                  12
                  12
                  12
                  12
                  12
                  11
                  11
                  11
                  11
                  12
                  12
                  11
                  11
                  11
                  11
                  11
                  11
                  11
                  11
                  11
                  11
                  11
                  11
                  11
                  11
                  11
                  11
                  11
                  11
                  11
                  11
                  12
                  12
                  12
                  12
                  11
                  11
                  11
                  11
                  11
                  11
                  11
                  11
                  11
                  11
                  11
                  12
                  12
                  12
                  12
                  12
                  12
                  12
                  12
                  12
                  12
                  11
                  11
                  11
                  11
                  11
                  11
                  11
                  11
                  11
                  11
                  11
                  11
                  11
                  11
                  11
                  12
                  12
                  12
                  12
                  12
  
SCALARS                         Jspace  double 1
LOOKUP_TABLE default
                  11
                  12
                  11
                  11
                  11
                  12
                  11
                  11
                  11
                  11
                  11
                  11
                  12
                  12
                  12
                  12
                  11
                  12
                  11
                  12
                  12
                  12
                  12
                  12
                  12
                  12
                  12
                  12
                  12
                  12
                  11
                  11
                  11
                  11
                  11
                  11
                  11
                  11
                  11
                  11
                  11
                  11
                  11
                  11
                  11
                  11
                  11
                  11
                  11
                  11
                  11
                  11
                  12
                  12
                  12
                  12
                  12
                  11
                  12
                  11
                  11
                  11
                  11
                  11
                  11
                  11
                  11
                  11
                  11
                  12
                  11
                  12
                  12
                  12
                  12
                  12
                  12
                  12
                  12
                  12
                  12
                  12
                  12
                  12
                  11
                  11
                  11
                  11
                  11
                  11
                  11
                  11
                  11
                  11
                  11
                  11
                  11
                  11
                  11
                  11
                  11
                  11
                  11
                  11
                  11
                  11
                  11
                  11
                  12
                  12
                  12
                  12
                  12
                  12
                  12
                  12
                  12
                  12
                  12
                  12
                  12
                  12
                  12
                  12
                  12
                  12
                  12
                  12
                  11
                  11
                  11
                  11
                  11
                  11
                  11
                  11
                  11
                  11
                  11
                  11
                  11
                  11
                  11
                  11
                  11
                  11
                  11
                  11
                  11
                  11
                  11
                  11
                  11
                  11
                  11
                  11
                  11
                  12
                  11
                  11
                  11
                  11
                  12
                  12
                  11
                  12
                  12
                  12
                  12
                  12
                  12
                  11
                  11
                  11
                  11
                  11
                  11
                  11
                  11
                  11
                  11
                  11
                  12
                  12
                  12
                  11
                  11
                  11
                  11
                  11
                  11
                  12
                  12
                  12
                  12
                  12
                  12
                  12
                  11
                  11
                  11
                  11
                  11
                  11
                  11
                  11
                  11
                  11
                  11
                  11
                  12
                  12
                  12
                  12
                  12
                  12
                  12
                  12
                  12
                  12
                  11
                  11
                  11
                  11
                  11
                  11
                  11
                  11
                  11
                  11
                  11
                  11
                  11
                  11
                  11
                  12
                  11
                  11
                  11
                  11
                  12
                  12
                  11
                  12
                  12
                  12
                  12
                  12
                  12
                  11
                  11
                  11
                  11
                  11
                  11
                  11
                  11
                  11
                  11
                  11
                  12
                  12
                  12
                  11
                  11
                  11
                  11
                  11
                  11
                  12
                  12
                  12
                  12
                  12
                  12
                  12
                  11
                  11
                  11
                  11
                  11
                  11
                  11
                  11
                  11
                  11
                  11
                  11
                  12
                  12
                  12
                  12
                  12
                  12
                  12
                  12
                  12
                  12
                  11
                  11
                  11
                  11
                  11
                  11
                  11
                  11
                  11
                  11
                  11
                  11
                  11
                  11
                  11
                  12
                  11
                  11
                  11
                  11
                  12
                  12
                  11
                  12
                  12
                  12
                  12
                  12
                  12
                  11
                  11
                  11
                  11
                  11
                  11
                  11
                  11
                  11
                  11
                  11
                  12
                  12
                  12
                  11
                  11
                  11
                  11
                  11
                  11
                  12
                  12
                  12
                  12
                  12
                  12
                  12
                  11
                  11
                  11
                  11
                  11
                  11
                  11
                  11
                  11
                  11
                  11
                  11
                  12
                  12
                  12
                  12
                  12
                  12
                  12
                  12
                  12
                  12
                  11
                  11
                  11
                  11
                  11
                  11
                  11
                  11
                  11
                  11
                  11
                  11
                  11
                  11
                  11
                  12
                  11
                  11
                  11
                  11
                  12
                  12
                  11
                  12
                  12
                  12
                  12
                  12
                  12
                  11
                  11
                  11
                  11
                  11
                  11
                  11
                  11
                  11
                  11
                  11
                  12
                  12
                  12
                  11
                  11
                  11
                  11
                  11
                  11
                  12
                  12
                  12
                  12
                  12
                  12
                  12
                  11
                  11
                  11
                  11
                  11
                  11
                  11
                  11
                  11
                  11
                  11
                  11
                  12
                  12
                  12
                  12
                  12
                  12
                  12
                  12
                  12
                  12
                  11
                  11
                  11
                  11
                  11
                  11
                  11
                  11
                  11
                  11
                  11
                  11
                  11
                  11
                  11
                  12
                  11
                  11
                  11
                  11
                  12
                  12
                  11
                  12
                  12
                  12
                  12
                  12
                  12
                  11
                  11
                  11
                  11
                  11
                  11
                  11
                  11
                  11
                  11
                  11
                  12
                  12
                  12
                  11
                  11
                  11
                  11
                  11
                  11
                  12
                  12
                  12
                  12
                  12
                  12
                  12
                  11
                  11
                  11
                  11
                  11
                  11
                  11
                  11
                  11
                  11
                  11
                  11
                  12
                  12
                  12
                  12
                  12
                  12
                  12
                  12
                  12
                  12
                  11
                  11
                  11
                  11
                  11
                  11
                  11
                  11
                  11
                  11
                  11
                  11
                  11
                  11
                  11
                  12
                  11
                  11
                  11
                  11
                  12
                  12
                  11
                  12
                  12
                  12
                  12
                  12
                  12
                  11
                  11
                  11
                  11
                  11
                  11
                  11
                  11
                  11
                  11
                  11
                  12
                  12
                  12
                  11
                  11
                  11
                  11
                  11
                  11
                  12
                  12
                  12
                  12
                  12
                  12
                  12
                  11
                  11
                  11
                  11
                  11
                  11
                  11
                  11
                  11
                  11
                  11
                  11
                  12
                  12
                  12
                  12
                  12
                  12
                  12
                  12
                  12
                  12
                  11
                  11
                  11
                  11
                  11
                  11
                  11
                  11
                  11
                  11
                  11
                  11
                  11
                  11
                  11
                  12
                  11
                  11
                  11
                  11
                  12
                  12
                  11
                  12
                  12
                  12
                  12
                  12
                  12
                  11
                  11
                  11
                  11
                  11
                  11
                  11
                  11
                  11
                  11
                  11
                  12
                  12
                  12
                  11
                  11
                  11
                  11
                  11
                  11
                  12
                  12
                  12
                  12
                  12
                  12
                  12
                  11
                  11
                  11
                  11
                  11
                  11
                  11
                  11
                  11
                  11
                  11
                  11
                  12
                  12
                  12
                  12
                  12
                  12
                  12
                  12
                  12
                  12
                  11
                  11
                  11
                  11
                  11
                  11
                  11
                  11
                  11
                  11
                  11
                  11
                  11
                  11
                  11
                  12
                  11
                  11
                  11
                  11
                  12
                  12
                  11
                  12
                  12
                  12
                  12
                  12
                  12
                  11
                  11
                  11
                  11
                  11
                  11
                  11
                  11
                  11
                  11
                  11
                  12
                  12
                  12
                  11
                  11
                  11
                  11
                  11
                  11
                  12
                  12
                  12
                  12
                  12
                  12
                  12
                  11
                  11
                  11
                  11
                  11
                  11
                  11
                  11
                  11
                  11
                  11
                  11
                  12
                  12
                  12
                  12
                  12
                  12
                  12
                  12
                  12
                  12
                  11
                  11
                  11
                  11
                  11
                  11
                  11
                  11
                  11
                  11
                  11
                  11
                  11
                  11
                  11
                  12
                  11
                  11
                  11
                  11
                  12
                  12
                  11
                  12
                  12
                  12
                  12
                  12
                  12
                  11
                  11
                  11
                  11
                  11
                  11
                  11
                  11
                  11
                  11
                  11
                  12
                  12
                  12
                  11
                  11
                  11
                  11
                  11
                  11
                  12
                  12
                  12
                  12
                  12
                  12
                  12
                  11
                  11
                  11
                  11
                  11
                  11
                  11
                  11
                  11
                  11
                  11
                  11
                  12
                  12
                  12
                  12
                  12
                  12
                  12
                  12
                  12
                  12
                  11
                  11
                  11
                  11
                  11
                  11
                  11
                  11
                  11
                  11
                  11
                  11
                  11
                  11
                  11
                  12
                  11
                  11
                  11
                  11
                  12
                  12
                  11
                  12
                  12
                  12
                  12
                  12
                  12
                  11
                  11
                  11
                  11
                  11
                  11
                  11
                  11
                  11
                  11
                  11
                  12
                  12
                  12
                  11
                  11
                  11
                  11
                  11
                  11
                  12
                  12
                  12
                  12
                  12
                  12
                  12
                  11
                  11
                  11
                  11
                  11
                  11
                  11
                  11
                  11
                  11
                  11
                  11
                  12
                  12
                  12
                  12
                  12
                  12
                  12
                  12
                  12
                  12
                  11
                  11
                  11
                  11
                  11
                  11
                  11
                  11
                  11
                  11
                  11
                  11
                  11
                  11
                  11
                  12
                  11
                  11
                  11
                  11
                  12
                  12
                  11
                  12
                  12
                  12
                  12
                  12
                  12
                  11
                  11
                  11
                  11
                  11
                  11
                  11
                  11
                  11
                  11
                  11
                  12
                  12
                  12
                  11
                  11
                  11
                  11
                  11
                  11
                  12
                  12
                  12
                  12
                  12
                  12
                  12
                  11
                  11
                  11
                  11
                  11
                  11
                  11
                  11
                  11
                  11
                  11
                  11
                  12
                  12
                  12
                  12
                  12
                  12
                  12
                  12
                  12
                  12
                  11
                  11
                  11
                  11
                  11
                  11
                  11
                  11
                  11
                  11
                  11
                  11
                  11
                  11
                  11
                  12
                  11
                  11
                  11
                  11
                  12
                  12
                  11
                  12
                  12
                  12
                  12
                  12
                  12
                  11
                  11
                  11
                  11
                  11
                  11
                  11
                  11
                  11
                  11
                  11
                  12
                  12
                  12
                  11
                  11
                  11
                  11
                  11
                  11
                  12
                  12
                  12
                  12
                  12
                  12
                  12
                  11
                  11
                  11
                  11
                  11
                  11
                  11
                  11
                  11
                  11
                  11
                  11
                  12
                  12
                  12
                  12
                  12
                  12
                  12
                  12
                  12
                  12
                  11
                  11
                  11
                  11
                  11
                  11
                  11
                  11
                  11
                  11
                  11
                  11
                  11
                  11
                  11
                  12
                  11
                  11
                  11
                  11
                  12
                  12
                  11
                  12
                  12
                  12
                  12
                  12
                  12
                  11
                  11
                  11
                  11
                  11
                  11
                  11
                  11
                  11
                  11
                  11
                  12
                  12
                  12
                  11
                  11
                  11
                  11
                  11
                  11
                  12
                  12
                  12
                  12
                  12
                  12
                  12
                  11
                  11
                  11
                  11
                  11
                  11
                  11
                  11
                  11
                  11
                  11
                  11
                  12
                  12
                  12
                  12
                  12
                  12
                  12
                  12
                  12
                  12
                  11
                  11
                  11
                  11
                  11
                  11
                  11
                  11
                  11
                  11
                  11
                  11
                  11
                  11
                  11
                  12
                  11
                  11
                  11
                  11
                  12
                  12
                  11
                  12
                  12
                  12
                  12
                  12
                  12
                  11
                  11
                  11
                  11
                  11
                  11
                  11
                  11
                  11
                  11
                  11
                  12
                  12
                  12
                  11
                  11
                  11
                  11
                  11
                  11
                  12
                  12
                  12
                  12
                  12
                  12
                  12
                  11
                  11
                  11
                  11
                  11
                  11
                  11
                  11
                  11
                  11
                  11
                  11
                  12
                  12
                  12
                  12
                  12
                  12
                  12
                  12
                  12
                  12
                  11
                  11
                  11
                  11
                  11
                  11
                  11
                  11
                  11
                  11
                  11
                  11
                  11
                  11
                  11
                  12
                  11
                  11
                  11
                  11
                  12
                  12
                  11
                  12
                  12
                  12
                  12
                  12
                  12
                  11
                  11
                  11
                  11
                  11
                  11
                  11
                  11
                  11
                  11
                  11
                  12
                  12
                  12
                  11
                  11
                  11
                  11
                  11
                  11
                  12
                  12
                  12
                  12
                  12
                  12
                  12
                  11
                  11
                  11
                  11
                  11
                  11
                  11
                  11
                  11
                  11
                  11
                  11
                  12
                  12
                  12
                  12
                  12
                  12
                  12
                  12
                  12
                  12
                  11
                  11
                  11
                  11
                  11
                  11
                  11
                  11
                  11
                  11
                  11
                  11
                  11
                  11
                  11
                  12
                  11
                  11
                  11
                  11
                  12
                  12
                  11
                  12
                  12
                  12
                  12
                  12
                  12
                  11
                  11
                  11
                  11
                  11
                  11
                  11
                  11
                  11
                  11
                  11
                  12
                  12
                  12
                  11
                  11
                  11
                  11
                  11
                  11
                  12
                  12
                  12
                  12
                  12
                  12
                  12
                  11
                  11
                  11
                  11
                  11
                  11
                  11
                  11
                  11
                  11
                  11
                  11
                  12
                  12
                  12
                  12
                  12
                  12
                  12
                  12
                  12
                  12
                  11
                  11
                  11
                  11
                  11
                  11
                  11
                  11
                  11
                  11
                  11
                  11
                  11
                  11
                  11
                  12
                  11
                  11
                  11
                  11
                  12
                  12
                  11
                  12
                  12
                  12
                  12
                  12
                  12
                  11
                  11
                  11
                  11
                  11
                  11
                  11
                  11
                  11
                  11
                  11
                  12
                  12
                  12
                  11
                  11
                  11
                  11
                  11
                  11
                  12
                  12
                  12
                  12
                  12
                  12
                  12
                  11
                  11
                  11
                  11
                  11
                  11
                  11
                  11
                  11
                  11
                  11
                  11
                  12
                  12
                  12
                  12
                  12
                  12
                  12
                  12
                  12
                  12
                  11
                  11
                  11
                  11
                  11
                  11
                  11
                  11
                  11
                  11
                  11
                  11
                  11
                  11
                  11
                  12
                  11
                  11
                  11
                  11
                  12
                  12
                  11
                  12
                  12
                  12
                  12
                  12
                  12
                  11
                  11
                  11
                  11
                  11
                  11
                  11
                  11
                  11
                  11
                  11
                  12
                  12
                  12
                  11
                  11
                  11
                  11
                  11
                  11
                  12
                  12
                  12
                  12
                  12
                  12
                  12
                  11
                  11
                  11
                  11
                  11
                  11
                  11
                  11
                  11
                  11
                  11
                  11
                  12
                  12
                  12
                  12
                  12
                  12
                  12
                  12
                  12
                  12
                  11
                  11
                  11
                  11
                  11
                  11
                  11
                  11
                  11
                  11
                  11
                  11
                  11
                  11
                  11
                  12
                  11
                  11
                  11
                  11
                  12
                  12
                  11
                  12
                  12
                  12
                  12
                  12
                  12
                  11
                  11
                  11
                  11
                  11
                  11
                  11
                  11
                  11
                  11
                  11
                  12
                  12
                  12
                  11
                  11
                  11
                  11
                  11
                  11
                  12
                  12
                  12
                  12
                  12
                  12
                  12
                  11
                  11
                  11
                  11
                  11
                  11
                  11
                  11
                  11
                  11
                  11
                  11
                  12
                  12
                  12
                  12
                  12
                  12
                  12
                  12
                  12
                  12
                  11
                  11
                  11
                  11
                  11
                  11
                  11
                  11
                  11
                  11
                  11
                  11
                  11
                  11
                  11
                  12
                  11
                  11
                  11
                  11
                  12
                  12
                  11
                  12
                  12
                  12
                  12
                  12
                  12
                  11
                  11
                  11
                  11
                  11
                  11
                  11
                  11
                  11
                  11
                  11
                  12
                  12
                  12
                  11
                  11
                  11
                  11
                  11
                  11
                  12
                  12
                  12
                  12
                  12
                  12
                  12
                  11
                  11
                  11
                  11
                  11
                  11
                  11
                  11
                  11
                  11
                  11
                  11
                  12
                  12
                  12
                  12
                  12
                  12
                  12
                  12
                  12
                  12
                  11
                  11
                  11
                  11
                  11
                  11
                  11
                  11
                  11
                  11
                  11
                  11
                  11
                  11
                  11
                  12
                  11
                  11
                  11
                  11
                  12
                  12
                  11
                  12
                  12
                  12
                  12
                  12
                  12
                  11
                  11
                  11
                  11
                  11
                  11
                  11
                  11
                  11
                  11
                  11
                  12
                  12
                  12
                  11
                  11
                  11
                  11
                  11
                  11
                  12
                  12
                  12
                  12
                  12
                  12
                  12
                  11
                  11
                  11
                  11
                  11
                  11
                  11
                  11
                  11
                  11
                  11
                  11
                  12
                  12
                  12
                  12
                  12
                  12
                  12
                  12
                  12
                  12
                  11
                  11
                  11
                  11
                  11
                  11
                  11
                  11
                  11
                  11
                  11
                  11
                  11
                  11
                  11
                  12
                  11
                  11
                  11
                  11
                  12
                  12
                  11
                  12
                  12
                  12
                  12
                  12
                  12
                  11
                  11
                  11
                  11
                  11
                  11
                  11
                  11
                  11
                  11
                  11
                  12
                  12
                  12
                  11
                  11
                  11
                  11
                  11
                  11
                  12
                  12
                  12
                  12
                  12
                  12
                  12
                  11
                  11
                  11
                  11
                  11
                  11
                  11
                  11
                  11
                  11
                  11
                  11
                  12
                  12
                  12
                  12
                  12
                  12
                  12
                  12
                  12
                  12
                  11
                  11
                  11
                  11
                  11
                  11
                  11
                  11
                  11
                  11
                  11
                  11
                  11
                  11
                  11
                  12
                  11
                  11
                  11
                  11
                  12
                  12
                  11
                  12
                  12
                  12
                  12
                  12
                  12
                  11
                  11
                  11
                  11
                  11
                  11
                  11
                  11
                  11
                  11
                  11
                  12
                  12
                  12
                  11
                  11
                  11
                  11
                  11
                  11
                  12
                  12
                  12
                  12
                  12
                  12
                  12
                  11
                  11
                  11
                  11
                  11
                  11
                  11
                  11
                  11
                  11
                  11
                  11
                  12
                  12
                  12
                  12
                  12
                  12
                  12
                  12
                  12
                  12
                  11
                  11
                  11
                  11
                  11
                  11
                  11
                  11
                  11
                  11
                  11
                  11
                  11
                  11
  
SCALARS                         Kspace  double 1
LOOKUP_TABLE default
                  11
                  11
                  11
                  11
                  11
                  11
                  11
                  11
                  11
                  11
                  11
                  11
                  11
                  11
                  11
                  11
                  11
                  11
                  11
                  11
                  11
                  11
                  11
                  11
                  11
                  11
                  11
                  11
                  11
                  11
                  11
                  11
                  11
                  11
                  11
                  11
                  11
                  11
                  11
                  11
                  11
                  11
                  11
                  11
                  11
                  11
                  11
                  11
                  11
                  11
                  11
                  11
                  11
                  11
                  11
                  11
                  11
                  11
                  11
                  11
                  11
                  11
                  11
                  11
                  11
                  11
                  11
                  11
                  11
                  11
                  11
                  11
                  11
                  11
                  11
                  11
                  11
                  11
                  11
                  11
                  11
                  11
                  11
                  11
                  11
                  11
                  11
                  11
                  11
                  11
                  11
                  11
                  11
                  11
                  11
                  11
                  11
                  11
                  11
                  11
                  11
                  11
                  11
                  11
                  11
                  11
                  11
                  11
                  11
                  11
                  11
                  11
                  11
                  11
                  11
                  11
                  11
                  11
                  11
                  11
                  11
                  11
                  11
                  11
                  11
                  11
                  11
                  11
                  11
                  11
                  11
                  11
                  11
                  11
                  11
                  11
                  11
                  11
                  11
                  11
                  11
                  11
                  11
                  11
                  11
                  11
                  11
                  11
                  11
                  11
                  11
                  11
                  11
                  11
                  11
                  11
                  11
                  11
                  11
                  11
                  11
                  11
                  11
                  11
                  11
                  11
                  11
                  11
                  11
                  11
                  11
                  11
                  11
                  11
                  11
                  11
                  11
                  11
                  11
                  11
                  11
                  11
                  11
                  11
                  11
                  11
                  11
                  11
                  11
                  11
                  11
                  11
                  11
                  11
                  11
                  11
                  11
                  11
                  11
                  11
                  11
                  11
                  11
                  11
                  11
                  11
                  11
                  11
                  11
                  11
                  11
                  11
                  11
                  11
                  11
                  11
                  11
                  11
                  11
                  11
                  11
                  11
                  11
                  11
                  11
                  11
                  11
                  11
                  11
                  11
                  11
                  11
                  11
                  11
                  11
                  11
                  11
                  11
                  11
                  11
                  11
                  11
                  11
                  11
                  11
                  11
                  11
                  11
                  11
                  11
                  11
                  11
                  11
                  11
                  11
                  11
                  11
                  11
                  11
                  11
                  11
                  11
                  11
                  11
                  11
                  11
                  11
                  11
                  11
                  11
                  11
                  11
                  11
                  11
                  11
                  11
                  11
                  11
                  11
                  11
                  11
                  11
                  11
                  11
                  11
                  11
                  11
                  11
                  11
                  11
                  11
                  11
                  11
                  11
                  11
                  11
                  11
                  11
                  11
                  11
                  11
                  11
                  11
                  11
                  11
                  11
                  11
                  11
                  11
                  11
                  11
                  11
                  12
                  12
                  12
                  12
                  12
                  12
                  12
                  12
                  12
                  12
                  12
                  12
                  12
                  12
                  12
                  12
                  12
                  12
                  12
                  12
                  12
                  12
                  12
                  12
                  12
                  12
                  12
                  12
                  12
                  12
                  12
                  12
                  12
                  12
                  12
                  12
                  12
                  12
                  12
                  12
                  12
                  12
                  12
                  12
                  12
                  12
                  12
                  12
                  12
                  12
                  12
                  12
                  12
                  12
                  12
                  12
                  12
                  12
                  12
                  12
                  12
                  12
                  12
                  12
                  12
                  12
                  12
                  12
                  12
                  12
                  12
                  12
                  12
                  12
                  12
                  12
                  12
                  12
                  12
                  12
                  12
                  12
                  12
                  12
                  12
                  12
                  12
                  12
                  12
                  12
                  12
                  12
                  12
                  12
                  12
                  12
                  12
                  12
                  12
                  12
                  12
                  12
                  12
                  12
                  12
                  12
                  12
                  12
                  12
                  12
                  12
                  12
                  12
                  12
                  12
                  12
                  12
                  12
                  12
                  12
                  12
                  12
                  12
                  12
                  12
                  12
                  12
                  12
                  12
                  12
                  12
                  12
                  12
                  12
                  12
                  12
                  12
                  12
                  12
                  12
                  12
                  12
                  12
                  12
                  12
                  12
                  12
                  12
                  12
                  12
                  12
                  12
                  12
                  12
                  12
                  12
                  12
                  12
                  12
                  12
                  12
                  12
                  12
                  12
                  12
                  12
                  12
                  12
                  12
                  12
                  12
                  12
                  12
                  12
                  12
                  12
                  12
                  12
                  12
                  12
                  12
                  12
                  12
                  12
                  12
                  12
                  12
                  12
                  12
                  12
                  12
                  12
                  12
                  12
                  12
                  12
                  12
                  12
                  12
                  12
                  12
                  12
                  12
                  12
                  12
                  12
                  12
                  12
                  12
                  12
                  12
                  12
                  12
                  12
                  12
                  12
                  12
                  12
                  12
                  12
                  12
                  12
                  12
                  12
                  12
                  12
                  12
                  12
                  12
                  12
                  12
                  12
                  12
                  12
                  13
                  13
                  13
                  13
                  13
                  13
                  13
                  13
                  13
                  13
                  13
                  13
                  13
                  13
                  13
                  13
                  13
                  13
                  13
                  13
                  13
                  13
                  13
                  13
                  13
                  13
                  13
                  13
                  13
                  13
                  13
                  13
                  13
                  13
                  13
                  13
                  13
                  13
                  13
                  13
                  13
                  13
                  13
                  13
                  13
                  13
                  13
                  13
                  13
                  13
                  13
                  13
                  13
                  13
                  13
                  13
                  13
                  13
                  13
                  13
                  13
                  13
                  13
                  13
                  13
                  13
                  13
                  13
                  13
                  13
                  13
                  13
                  13
                  13
                  13
                  13
                  13
                  13
                  13
                  13
                  13
                  13
                  13
                  13
                  13
                  13
                  13
                  13
                  13
                  13
                  13
                  13
                  13
                  13
                  13
                  13
                  13
                  13
                  13
                  13
                  13
                  13
                  13
                  13
                  13
                  13
                  13
                  13
                  13
                  13
                  13
                  13
                  13
                  13
                  13
                  13
                  13
                  13
                  13
                  13
                  13
                  13
                  13
                  13
                  13
                  13
                  13
                  13
                  13
                  13
                  13
                  13
                  13
                  13
                  13
                  13
                  13
                  13
                  13
                  13
                  13
                  13
                  13
                  13
                  13
                  13
                  13
                  13
                  13
                  13
                  13
                  13
                  13
                  13
                  13
                  13
                  13
                  13
                  13
                  13
                  13
                  13
                  13
                  13
                  13
                  13
                  13
                  13
                  13
                  13
                  13
                  13
                  13
                  13
                  13
                  13
                  13
                  13
                  13
                  13
                  13
                  13
                  13
                  13
                  13
                  13
                  13
                  13
                  13
                  13
                  13
                  13
                  13
                  13
                  13
                  13
                  13
                  13
                  13
                  13
                  13
                  13
                  13
                  13
                  13
                  13
                  13
                  13
                  13
                  13
                  13
                  13
                  13
                  13
                  13
                  13
                  13
                  13
                  13
                  13
                  13
                  13
                  13
                  13
                  13
                  13
                  13
                  13
                  13
                  13
                  13
                  13
                  13
                  13
                  14
                  14
                  14
                  14
                  14
                  14
                  14
                  14
                  14
                  14
                  14
                  14
                  14
                  14
                  14
                  14
                  14
                  14
                  14
                  14
                  14
                  14
                  14
                  14
                  14
                  14
                  14
                  14
                  14
                  14
                  14
                  14
                  14
                  14
                  14
                  14
                  14
                  14
                  14
                  14
                  14
                  14
                  14
                  14
                  14
                  14
                  14
                  14
                  14
                  14
                  14
                  14
                  14
                  14
                  14
                  14
                  14
                  14
                  14
                  14
                  14
                  14
                  14
                  14
                  14
                  14
                  14
                  14
                  14
                  14
                  14
                  14
                  14
                  14
                  14
                  14
                  14
                  14
                  14
                  14
                  14
                  14
                  14
                  14
                  14
                  14
                  14
                  14
                  14
                  14
                  14
                  14
                  14
                  14
                  14
                  14
                  14
                  14
                  14
                  14
                  14
                  14
                  14
                  14
                  14
                  14
                  14
                  14
                  14
                  14
                  14
                  14
                  14
                  14
                  14
                  14
                  14
                  14
                  14
                  14
                  14
                  14
                  14
                  14
                  14
                  14
                  14
                  14
                  14
                  14
                  14
                  14
                  14
                  14
                  14
                  14
                  14
                  14
                  14
                  14
                  14
                  14
                  14
                  14
                  14
                  14
                  14
                  14
                  14
                  14
                  14
                  14
                  14
                  14
                  14
                  14
                  14
                  14
                  14
                  14
                  14
                  14
                  14
                  14
                  14
                  14
                  14
                  14
                  14
                  14
                  14
                  14
                  14
                  14
                  14
                  14
                  14
                  14
                  14
                  14
                  14
                  14
                  14
                  14
                  14
                  14
                  14
                  14
                  14
                  14
                  14
                  14
                  14
                  14
                  14
                  14
                  14
                  14
                  14
                  14
                  14
                  14
                  14
                  14
                  14
                  14
                  14
                  14
                  14
                  14
                  14
                  14
                  14
                  14
                  14
                  14
                  14
                  14
                  14
                  14
                  14
                  14
                  14
                  14
                  14
                  14
                  14
                  14
                  14
                  14
                  14
                  14
                  14
                  14
                  15
                  15
                  15
                  15
                  15
                  15
                  15
                  15
                  15
                  15
                  15
                  15
                  15
                  15
                  15
                  15
                  15
                  15
                  15
                  15
                  15
                  15
                  15
                  15
                  15
                  15
                  15
                  15
                  15
                  15
                  15
                  15
                  15
                  15
                  15
                  15
                  15
                  15
                  15
                  15
                  15
                  15
                  15
                  15
                  15
                  15
                  15
                  15
                  15
                  15
                  15
                  15
                  15
                  15
                  15
                  15
                  15
                  15
                  15
                  15
                  15
                  15
                  15
                  15
                  15
                  15
                  15
                  15
                  15
                  15
                  15
                  15
                  15
                  15
                  15
                  15
                  15
                  15
                  15
                  15
                  15
                  15
                  15
                  15
                  15
                  15
                  15
                  15
                  15
                  15
                  15
                  15
                  15
                  15
                  15
                  15
                  15
                  15
                  15
                  15
                  15
                  15
                  15
                  15
                  15
                  15
                  15
                  15
                  15
                  15
                  15
                  15
                  15
                  15
                  15
                  15
                  15
                  15
                  15
                  15
                  15
                  15
                  15
                  15
                  15
                  15
                  15
                  15
                  15
                  15
                  15
                  15
                  15
                  15
                  15
                  15
                  15
                  15
                  15
                  15
                  15
                  15
                  15
                  15
                  15
                  15
                  15
                  15
                  15
                  15
                  15
                  15
                  15
                  15
                  15
                  15
                  15
                  15
                  15
                  15
                  15
                  15
                  15
                  15
                  15
                  15
                  15
                  15
                  15
                  15
                  15
                  15
                  15
                  15
                  15
                  15
                  15
                  15
                  15
                  15
                  15
                  15
                  15
                  15
                  15
                  15
                  15
                  15
                  15
                  15
                  15
                  15
                  15
                  15
                  15
                  15
                  15
                  15
                  15
                  15
                  15
                  15
                  15
                  15
                  15
                  15
                  15
                  15
                  15
                  15
                  15
                  15
                  15
                  15
                  15
                  15
                  15
                  15
                  15
                  15
                  15
                  15
                  15
                  15
                  15
                  15
                  15
                  15
                  15
                  15
                  15
                  15
                  15
                  15
                  15
                  15
                  15
                  15
                  15
                  15
                  15
                  15
                  15
                  15
                  15
                  15
                  15
                  15
                  15
                  15
                  15
                  15
                  15
                  15
                  15
                  15
                  15
                  15
                  15
                  15
                  15
                  15
                  15
                  15
                  15
                  15
                  15
                  15
                  15
                  15
                  15
                  15
                  15
                  15
                  15
                  15
                  15
                  15
                  15
                  15
                  15
                  15
                  15
                  15
                  15
                  15
                  15
                  15
                  15
                  15
                  15
                  15
                  15
                  15
                  15
                  15
                  15
                  15
                  15
                  15
                  15
                  15
                  15
                  15
                  15
                  15
                  15
                  15
                  15
                  15
                  15
                  15
                  16
                  16
                  16
                  16
                  16
                  16
                  16
                  16
                  16
                  16
                  16
                  16
                  16
                  16
                  16
                  16
                  16
                  16
                  16
                  16
                  16
                  16
                  16
                  16
                  16
                  16
                  16
                  16
                  16
                  16
                  16
                  16
                  16
                  16
                  16
                  16
                  16
                  16
                  16
                  16
                  16
                  16
                  16
                  16
                  16
                  16
                  16
                  16
                  16
                  16
                  16
                  16
                  16
                  16
                  16
                  16
                  16
                  16
                  16
                  16
                  16
                  16
                  16
                  16
                  16
                  16
                  16
                  16
                  16
                  16
                  16
                  16
                  16
                  16
                  16
                  16
                  16
                  16
                  16
                  16
                  16
                  16
                  16
                  16
                  16
                  16
                  16
                  16
                  16
                  16
                  16
                  16
                  16
                  16
                  16
                  16
                  16
                  16
                  16
                  16
                  16
                  16
                  16
                  16
                  16
                  16
                  16
                  16
                  16
                  16
                  16
                  16
                  16
                  16
                  16
                  16
                  16
                  16
                  16
                  16
                  16
                  16
                  16
                  16
                  16
                  16
                  16
                  16
                  16
                  16
                  16
                  16
                  16
                  16
                  16
                  16
                  16
                  16
                  16
                  16
                  16
                  16
                  16
                  16
                  16
                  16
                  16
                  16
                  16
                  16
                  16
                  16
                  16
                  16
                  16
                  16
                  16
                  16
                  16
                  16
                  16
                  16
                  16
                  16
                  16
                  16
                  16
                  16
                  16
                  16
                  16
                  16
                  16
                  16
                  16
                  16
                  16
                  16
                  16
                  16
                  16
                  16
                  16
                  16
                  16
                  16
                  16
                  16
                  16
                  16
                  16
                  16
                  16
                  16
                  16
                  16
                  16
                  16
                  16
                  16
                  16
                  16
                  16
                  16
                  16
                  16
                  16
                  16
                  16
                  16
                  16
                  16
                  16
                  16
                  16
                  16
                  16
                  16
                  16
                  16
                  16
                  16
                  16
                  16
                  16
                  16
                  16
                  16
                  16
                  16
                  16
                  16
                  16
                  16
                  17
                  17
                  17
                  17
                  17
                  17
                  17
                  17
                  17
                  17
                  17
                  17
                  17
                  17
                  17
                  17
                  17
                  17
                  17
                  17
                  17
                  17
                  17
                  17
                  17
                  17
                  17
                  17
                  17
                  17
                  17
                  17
                  17
                  17
                  17
                  17
                  17
                  17
                  17
                  17
                  17
                  17
                  17
                  17
                  17
                  17
                  17
                  17
                  17
                  17
                  17
                  17
                  17
                  17
                  17
                  17
                  17
                  17
                  17
                  17
                  17
                  17
                  17
                  17
                  17
                  17
                  17
                  17
                  17
                  17
                  17
                  17
                  17
                  17
                  17
                  17
                  17
                  17
                  17
                  17
                  17
                  17
                  17
                  17
                  17
                  17
                  17
                  17
                  17
                  17
                  17
                  17
                  17
                  17
                  17
                  17
                  17
                  17
                  17
                  17
                  17
                  17
                  17
                  17
                  17
                  17
                  17
                  17
                  17
                  17
                  17
                  17
                  17
                  17
                  17
                  17
                  17
                  17
                  17
                  17
                  17
                  17
                  17
                  17
                  17
                  17
                  17
                  17
                  17
                  17
                  17
                  17
                  17
                  17
                  17
                  17
                  17
                  17
                  17
                  17
                  17
                  17
                  17
                  17
                  17
                  17
                  17
                  17
                  17
                  17
                  17
                  17
                  17
                  17
                  17
                  17
                  17
                  17
                  17
                  17
                  17
                  17
                  17
                  17
                  17
                  17
                  17
                  17
                  17
                  17
                  17
                  17
                  17
                  17
                  17
                  17
                  17
                  17
                  17
                  17
                  17
                  17
                  17
                  17
                  17
                  17
                  17
                  17
                  17
                  17
                  17
                  17
                  17
                  17
                  17
                  17
                  17
                  17
                  17
                  17
                  17
                  17
                  17
                  17
                  17
                  17
                  17
                  17
                  17
                  17
                  17
                  17
                  17
                  17
                  17
                  17
                  17
                  17
                  17
                  17
                  17
                  17
                  17
                  17
                  17
                  17
                  17
                  17
                  17
                  17
                  17
                  17
                  17
                  17
                  18
                  18
                  18
                  18
                  18
                  18
                  18
                  18
                  18
                  18
                  18
                  18
                  18
                  18
                  18
                  18
                  18
                  18
                  18
                  18
                  18
                  18
                  18
                  18
                  18
                  18
                  18
                  18
                  18
                  18
                  18
                  18
                  18
                  18
                  18
                  18
                  18
                  18
                  18
                  18
                  18
                  18
                  18
                  18
                  18
                  18
                  18
                  18
                  18
                  18
                  18
                  18
                  18
                  18
                  18
                  18
                  18
                  18
                  18
                  18
                  18
                  18
                  18
                  18
                  18
                  18
                  18
                  18
                  18
                  18
                  18
                  18
                  18
                  18
                  18
                  18
                  18
                  18
                  18
                  18
                  18
                  18
                  18
                  18
                  18
                  18
                  18
                  18
                  18
                  18
                  18
                  18
                  18
                  18
                  18
                  18
                  18
                  18
                  18
                  18
                  18
                  18
                  18
                  18
                  18
                  18
                  18
                  18
                  18
                  18
                  18
                  18
                  18
                  18
                  18
                  18
                  18
                  18
                  18
                  18
                  18
                  18
                  18
                  18
                  18
                  18
                  18
                  18
                  18
                  18
                  18
                  18
                  18
                  18
                  18
                  18
                  18
                  18
                  18
                  18
                  18
                  18
                  18
                  18
                  18
                  18
                  18
                  18
                  18
                  18
                  18
                  18
                  18
                  18
                  18
                  18
  
SCALARS                 displacement_x  double 1
LOOKUP_TABLE default
         0.00000E+00
         0.00000E+00
         0.00000E+00
         0.00000E+00
         0.00000E+00
         0.00000E+00
         0.00000E+00
         0.00000E+00
         0.00000E+00
         0.00000E+00
         0.00000E+00
         0.00000E+00
         0.00000E+00
         0.00000E+00
         0.00000E+00
         0.00000E+00
         0.00000E+00
         0.00000E+00
         0.00000E+00
         0.00000E+00
         0.00000E+00
         0.00000E+00
         0.00000E+00
         0.00000E+00
         0.00000E+00
         0.00000E+00
         0.00000E+00
         0.00000E+00
         0.00000E+00
         0.00000E+00
         0.00000E+00
         0.00000E+00
         0.00000E+00
         0.00000E+00
         0.00000E+00
         0.00000E+00
         0.00000E+00
         0.00000E+00
         0.00000E+00
         0.00000E+00
         0.00000E+00
         0.00000E+00
         0.00000E+00
         0.00000E+00
         0.00000E+00
         0.00000E+00
         0.00000E+00
         0.00000E+00
         0.00000E+00
         0.00000E+00
         0.00000E+00
         0.00000E+00
         0.00000E+00
         0.00000E+00
         0.00000E+00
         0.00000E+00
         0.00000E+00
         0.00000E+00
         0.00000E+00
         0.00000E+00
         0.00000E+00
         0.00000E+00
         0.00000E+00
         0.00000E+00
         0.00000E+00
         0.00000E+00
         0.00000E+00
         0.00000E+00
         0.00000E+00
         0.00000E+00
         0.00000E+00
         0.00000E+00
         0.00000E+00
         0.00000E+00
         0.00000E+00
         0.00000E+00
         0.00000E+00
         0.00000E+00
         0.00000E+00
         0.00000E+00
         0.00000E+00
         0.00000E+00
         0.00000E+00
         0.00000E+00
         0.00000E+00
         0.00000E+00
         0.00000E+00
         0.00000E+00
         0.00000E+00
         0.00000E+00
         0.00000E+00
         0.00000E+00
         0.00000E+00
         0.00000E+00
         0.00000E+00
         0.00000E+00
         0.00000E+00
         0.00000E+00
         0.00000E+00
         0.00000E+00
         0.00000E+00
         0.00000E+00
         0.00000E+00
         0.00000E+00
         0.00000E+00
         0.00000E+00
         0.00000E+00
         0.00000E+00
         0.00000E+00
         0.00000E+00
         0.00000E+00
         0.00000E+00
         0.00000E+00
         0.00000E+00
         0.00000E+00
         0.00000E+00
         0.00000E+00
         0.00000E+00
         0.00000E+00
         0.00000E+00
         0.00000E+00
         0.00000E+00
         0.00000E+00
         0.00000E+00
         0.00000E+00
         0.00000E+00
         0.00000E+00
         0.00000E+00
         0.00000E+00
         0.00000E+00
         0.00000E+00
         0.00000E+00
         0.00000E+00
         0.00000E+00
         0.00000E+00
         0.00000E+00
         0.00000E+00
         0.00000E+00
         0.00000E+00
         0.00000E+00
         0.00000E+00
         0.00000E+00
         0.00000E+00
         0.00000E+00
         0.00000E+00
         0.00000E+00
         0.00000E+00
         0.00000E+00
         0.00000E+00
         0.00000E+00
         0.00000E+00
         0.00000E+00
         0.00000E+00
         0.00000E+00
         0.00000E+00
         0.00000E+00
         0.00000E+00
         0.00000E+00
         0.00000E+00
         0.00000E+00
         0.00000E+00
         0.00000E+00
         0.00000E+00
         0.00000E+00
         0.00000E+00
         0.00000E+00
         0.00000E+00
         0.00000E+00
         0.00000E+00
         0.00000E+00
         0.00000E+00
         0.00000E+00
         0.00000E+00
         0.00000E+00
         0.00000E+00
         0.00000E+00
         0.00000E+00
         0.00000E+00
         0.00000E+00
         0.00000E+00
         0.00000E+00
         0.00000E+00
         0.00000E+00
         0.00000E+00
         0.00000E+00
         0.00000E+00
         0.00000E+00
         0.00000E+00
         0.00000E+00
         0.00000E+00
         0.00000E+00
         0.00000E+00
         0.00000E+00
         0.00000E+00
         0.00000E+00
         0.00000E+00
         0.00000E+00
         0.00000E+00
         0.00000E+00
         0.00000E+00
         0.00000E+00
         0.00000E+00
         0.00000E+00
         0.00000E+00
         0.00000E+00
         0.00000E+00
         0.00000E+00
         0.00000E+00
         0.00000E+00
         0.00000E+00
         0.00000E+00
         0.00000E+00
         0.00000E+00
         0.00000E+00
         0.00000E+00
         0.00000E+00
         0.00000E+00
         0.00000E+00
         0.00000E+00
         0.00000E+00
         0.00000E+00
         0.00000E+00
         0.00000E+00
         0.00000E+00
         0.00000E+00
         0.00000E+00
         0.00000E+00
         0.00000E+00
         0.00000E+00
         0.00000E+00
         0.00000E+00
         0.00000E+00
         0.00000E+00
         0.00000E+00
         0.00000E+00
         0.00000E+00
         0.00000E+00
         0.00000E+00
         0.00000E+00
         0.00000E+00
         0.00000E+00
         0.00000E+00
         0.00000E+00
         0.00000E+00
         0.00000E+00
         0.00000E+00
         0.00000E+00
         0.00000E+00
         0.00000E+00
         0.00000E+00
         0.00000E+00
         0.00000E+00
         0.00000E+00
         0.00000E+00
         0.00000E+00
         0.00000E+00
         0.00000E+00
         0.00000E+00
         0.00000E+00
         0.00000E+00
         0.00000E+00
         0.00000E+00
         0.00000E+00
         0.00000E+00
         0.00000E+00
         0.00000E+00
         0.00000E+00
         0.00000E+00
         0.00000E+00
         0.00000E+00
         0.00000E+00
         0.00000E+00
         0.00000E+00
         0.00000E+00
         0.00000E+00
         0.00000E+00
         0.00000E+00
         0.00000E+00
         0.00000E+00
         0.00000E+00
         0.00000E+00
         0.00000E+00
         0.00000E+00
         0.00000E+00
         0.00000E+00
         0.00000E+00
         0.00000E+00
         0.00000E+00
         0.00000E+00
         0.00000E+00
         0.00000E+00
         0.00000E+00
         0.00000E+00
         0.00000E+00
         0.00000E+00
         0.00000E+00
         0.00000E+00
         0.00000E+00
         0.00000E+00
         0.00000E+00
         0.00000E+00
         0.00000E+00
         0.00000E+00
         0.00000E+00
         0.00000E+00
         0.00000E+00
         0.00000E+00
         0.00000E+00
         0.00000E+00
         0.00000E+00
         0.00000E+00
         0.00000E+00
         0.00000E+00
         0.00000E+00
         0.00000E+00
         0.00000E+00
         0.00000E+00
         0.00000E+00
         0.00000E+00
         0.00000E+00
         0.00000E+00
         0.00000E+00
         0.00000E+00
         0.00000E+00
         0.00000E+00
         0.00000E+00
         0.00000E+00
         0.00000E+00
         0.00000E+00
         0.00000E+00
         0.00000E+00
         0.00000E+00
         0.00000E+00
         0.00000E+00
         0.00000E+00
         0.00000E+00
         0.00000E+00
         0.00000E+00
         0.00000E+00
         0.00000E+00
         0.00000E+00
         0.00000E+00
         0.00000E+00
         0.00000E+00
         0.00000E+00
         0.00000E+00
         0.00000E+00
         0.00000E+00
         0.00000E+00
         0.00000E+00
         0.00000E+00
         0.00000E+00
         0.00000E+00
         0.00000E+00
         0.00000E+00
         0.00000E+00
         0.00000E+00
         0.00000E+00
         0.00000E+00
         0.00000E+00
         0.00000E+00
         0.00000E+00
         0.00000E+00
         0.00000E+00
         0.00000E+00
         0.00000E+00
         0.00000E+00
         0.00000E+00
         0.00000E+00
         0.00000E+00
         0.00000E+00
         0.00000E+00
         0.00000E+00
         0.00000E+00
         0.00000E+00
         0.00000E+00
         0.00000E+00
         0.00000E+00
         0.00000E+00
         0.00000E+00
         0.00000E+00
         0.00000E+00
         0.00000E+00
         0.00000E+00
         0.00000E+00
         0.00000E+00
         0.00000E+00
         0.00000E+00
         0.00000E+00
         0.00000E+00
         0.00000E+00
         0.00000E+00
         0.00000E+00
         0.00000E+00
         0.00000E+00
         0.00000E+00
         0.00000E+00
         0.00000E+00
         0.00000E+00
         0.00000E+00
         0.00000E+00
         0.00000E+00
         0.00000E+00
         0.00000E+00
         0.00000E+00
         0.00000E+00
         0.00000E+00
         0.00000E+00
         0.00000E+00
         0.00000E+00
         0.00000E+00
         0.00000E+00
         0.00000E+00
         0.00000E+00
         0.00000E+00
         0.00000E+00
         0.00000E+00
         0.00000E+00
         0.00000E+00
         0.00000E+00
         0.00000E+00
         0.00000E+00
         0.00000E+00
         0.00000E+00
         0.00000E+00
         0.00000E+00
         0.00000E+00
         0.00000E+00
         0.00000E+00
         0.00000E+00
         0.00000E+00
         0.00000E+00
         0.00000E+00
         0.00000E+00
         0.00000E+00
         0.00000E+00
         0.00000E+00
         0.00000E+00
         0.00000E+00
         0.00000E+00
         0.00000E+00
         0.00000E+00
         0.00000E+00
         0.00000E+00
         0.00000E+00
         0.00000E+00
         0.00000E+00
         0.00000E+00
         0.00000E+00
         0.00000E+00
         0.00000E+00
         0.00000E+00
         0.00000E+00
         0.00000E+00
         0.00000E+00
         0.00000E+00
         0.00000E+00
         0.00000E+00
         0.00000E+00
         0.00000E+00
         0.00000E+00
         0.00000E+00
         0.00000E+00
         0.00000E+00
         0.00000E+00
         0.00000E+00
         0.00000E+00
         0.00000E+00
         0.00000E+00
         0.00000E+00
         0.00000E+00
         0.00000E+00
         0.00000E+00
         0.00000E+00
         0.00000E+00
         0.00000E+00
         0.00000E+00
         0.00000E+00
         0.00000E+00
         0.00000E+00
         0.00000E+00
         0.00000E+00
         0.00000E+00
         0.00000E+00
         0.00000E+00
         0.00000E+00
         0.00000E+00
         0.00000E+00
         0.00000E+00
         0.00000E+00
         0.00000E+00
         0.00000E+00
         0.00000E+00
         0.00000E+00
         0.00000E+00
         0.00000E+00
         0.00000E+00
         0.00000E+00
         0.00000E+00
         0.00000E+00
         0.00000E+00
         0.00000E+00
         0.00000E+00
         0.00000E+00
         0.00000E+00
         0.00000E+00
         0.00000E+00
         0.00000E+00
         0.00000E+00
         0.00000E+00
         0.00000E+00
         0.00000E+00
         0.00000E+00
         0.00000E+00
         0.00000E+00
         0.00000E+00
         0.00000E+00
         0.00000E+00
         0.00000E+00
         0.00000E+00
         0.00000E+00
         0.00000E+00
         0.00000E+00
         0.00000E+00
         0.00000E+00
         0.00000E+00
         0.00000E+00
         0.00000E+00
         0.00000E+00
         0.00000E+00
         0.00000E+00
         0.00000E+00
         0.00000E+00
         0.00000E+00
         0.00000E+00
         0.00000E+00
         0.00000E+00
         0.00000E+00
         0.00000E+00
         0.00000E+00
         0.00000E+00
         0.00000E+00
         0.00000E+00
         0.00000E+00
         0.00000E+00
         0.00000E+00
         0.00000E+00
         0.00000E+00
         0.00000E+00
         0.00000E+00
         0.00000E+00
         0.00000E+00
         0.00000E+00
         0.00000E+00
         0.00000E+00
         0.00000E+00
         0.00000E+00
         0.00000E+00
         0.00000E+00
         0.00000E+00
         0.00000E+00
         0.00000E+00
         0.00000E+00
         0.00000E+00
         0.00000E+00
         0.00000E+00
         0.00000E+00
         0.00000E+00
         0.00000E+00
         0.00000E+00
         0.00000E+00
         0.00000E+00
         0.00000E+00
         0.00000E+00
         0.00000E+00
         0.00000E+00
         0.00000E+00
         0.00000E+00
         0.00000E+00
         0.00000E+00
         0.00000E+00
         0.00000E+00
         0.00000E+00
         0.00000E+00
         0.00000E+00
         0.00000E+00
         0.00000E+00
         0.00000E+00
         0.00000E+00
         0.00000E+00
         0.00000E+00
         0.00000E+00
         0.00000E+00
         0.00000E+00
         0.00000E+00
         0.00000E+00
         0.00000E+00
         0.00000E+00
         0.00000E+00
         0.00000E+00
         0.00000E+00
         0.00000E+00
         0.00000E+00
         0.00000E+00
         0.00000E+00
         0.00000E+00
         0.00000E+00
         0.00000E+00
         0.00000E+00
         0.00000E+00
         0.00000E+00
         0.00000E+00
         0.00000E+00
         0.00000E+00
         0.00000E+00
         0.00000E+00
         0.00000E+00
         0.00000E+00
         0.00000E+00
         0.00000E+00
         0.00000E+00
         0.00000E+00
         0.00000E+00
         0.00000E+00
         0.00000E+00
         0.00000E+00
         0.00000E+00
         0.00000E+00
         0.00000E+00
         0.00000E+00
         0.00000E+00
         0.00000E+00
         0.00000E+00
         0.00000E+00
         0.00000E+00
         0.00000E+00
         0.00000E+00
         0.00000E+00
         0.00000E+00
         0.00000E+00
         0.00000E+00
         0.00000E+00
         0.00000E+00
         0.00000E+00
         0.00000E+00
         0.00000E+00
         0.00000E+00
         0.00000E+00
         0.00000E+00
         0.00000E+00
         0.00000E+00
         0.00000E+00
         0.00000E+00
         0.00000E+00
         0.00000E+00
         0.00000E+00
         0.00000E+00
         0.00000E+00
         0.00000E+00
         0.00000E+00
         0.00000E+00
         0.00000E+00
         0.00000E+00
         0.00000E+00
         0.00000E+00
         0.00000E+00
         0.00000E+00
         0.00000E+00
         0.00000E+00
         0.00000E+00
         0.00000E+00
         0.00000E+00
         0.00000E+00
         0.00000E+00
         0.00000E+00
         0.00000E+00
         0.00000E+00
         0.00000E+00
         0.00000E+00
         0.00000E+00
         0.00000E+00
         0.00000E+00
         0.00000E+00
         0.00000E+00
         0.00000E+00
         0.00000E+00
         0.00000E+00
         0.00000E+00
         0.00000E+00
         0.00000E+00
         0.00000E+00
         0.00000E+00
         0.00000E+00
         0.00000E+00
         0.00000E+00
         0.00000E+00
         0.00000E+00
         0.00000E+00
         0.00000E+00
         0.00000E+00
         0.00000E+00
         0.00000E+00
         0.00000E+00
         0.00000E+00
         0.00000E+00
         0.00000E+00
         0.00000E+00
         0.00000E+00
         0.00000E+00
         0.00000E+00
         0.00000E+00
         0.00000E+00
         0.00000E+00
         0.00000E+00
         0.00000E+00
         0.00000E+00
         0.00000E+00
         0.00000E+00
         0.00000E+00
         0.00000E+00
         0.00000E+00
         0.00000E+00
         0.00000E+00
         0.00000E+00
         0.00000E+00
         0.00000E+00
         0.00000E+00
         0.00000E+00
         0.00000E+00
         0.00000E+00
         0.00000E+00
         0.00000E+00
         0.00000E+00
         0.00000E+00
         0.00000E+00
         0.00000E+00
         0.00000E+00
         0.00000E+00
         0.00000E+00
         0.00000E+00
         0.00000E+00
         0.00000E+00
         0.00000E+00
         0.00000E+00
         0.00000E+00
         0.00000E+00
         0.00000E+00
         0.00000E+00
         0.00000E+00
         0.00000E+00
         0.00000E+00
         0.00000E+00
         0.00000E+00
         0.00000E+00
         0.00000E+00
         0.00000E+00
         0.00000E+00
         0.00000E+00
         0.00000E+00
         0.00000E+00
         0.00000E+00
         0.00000E+00
         0.00000E+00
         0.00000E+00
         0.00000E+00
         0.00000E+00
         0.00000E+00
         0.00000E+00
         0.00000E+00
         0.00000E+00
         0.00000E+00
         0.00000E+00
         0.00000E+00
         0.00000E+00
         0.00000E+00
         0.00000E+00
         0.00000E+00
         0.00000E+00
         0.00000E+00
         0.00000E+00
         0.00000E+00
         0.00000E+00
         0.00000E+00
         0.00000E+00
         0.00000E+00
         0.00000E+00
         0.00000E+00
         0.00000E+00
         0.00000E+00
         0.00000E+00
         0.00000E+00
         0.00000E+00
         0.00000E+00
         0.00000E+00
         0.00000E+00
         0.00000E+00
         0.00000E+00
         0.00000E+00
         0.00000E+00
         0.00000E+00
         0.00000E+00
         0.00000E+00
         0.00000E+00
         0.00000E+00
         0.00000E+00
         0.00000E+00
         0.00000E+00
         0.00000E+00
         0.00000E+00
         0.00000E+00
         0.00000E+00
         0.00000E+00
         0.00000E+00
         0.00000E+00
         0.00000E+00
         0.00000E+00
         0.00000E+00
         0.00000E+00
         0.00000E+00
         0.00000E+00
         0.00000E+00
         0.00000E+00
         0.00000E+00
         0.00000E+00
         0.00000E+00
         0.00000E+00
         0.00000E+00
         0.00000E+00
         0.00000E+00
         0.00000E+00
         0.00000E+00
         0.00000E+00
         0.00000E+00
         0.00000E+00
         0.00000E+00
         0.00000E+00
         0.00000E+00
         0.00000E+00
         0.00000E+00
         0.00000E+00
         0.00000E+00
         0.00000E+00
         0.00000E+00
         0.00000E+00
         0.00000E+00
         0.00000E+00
         0.00000E+00
         0.00000E+00
         0.00000E+00
         0.00000E+00
         0.00000E+00
         0.00000E+00
         0.00000E+00
         0.00000E+00
         0.00000E+00
         0.00000E+00
         0.00000E+00
         0.00000E+00
         0.00000E+00
         0.00000E+00
         0.00000E+00
         0.00000E+00
         0.00000E+00
         0.00000E+00
         0.00000E+00
         0.00000E+00
         0.00000E+00
         0.00000E+00
         0.00000E+00
         0.00000E+00
         0.00000E+00
         0.00000E+00
         0.00000E+00
         0.00000E+00
         0.00000E+00
         0.00000E+00
         0.00000E+00
         0.00000E+00
         0.00000E+00
         0.00000E+00
         0.00000E+00
         0.00000E+00
         0.00000E+00
         0.00000E+00
         0.00000E+00
         0.00000E+00
         0.00000E+00
         0.00000E+00
         0.00000E+00
         0.00000E+00
         0.00000E+00
         0.00000E+00
         0.00000E+00
         0.00000E+00
         0.00000E+00
         0.00000E+00
         0.00000E+00
         0.00000E+00
         0.00000E+00
         0.00000E+00
         0.00000E+00
         0.00000E+00
         0.00000E+00
         0.00000E+00
         0.00000E+00
         0.00000E+00
         0.00000E+00
         0.00000E+00
         0.00000E+00
         0.00000E+00
         0.00000E+00
         0.00000E+00
         0.00000E+00
         0.00000E+00
         0.00000E+00
         0.00000E+00
         0.00000E+00
         0.00000E+00
         0.00000E+00
         0.00000E+00
         0.00000E+00
         0.00000E+00
         0.00000E+00
         0.00000E+00
         0.00000E+00
         0.00000E+00
         0.00000E+00
         0.00000E+00
         0.00000E+00
         0.00000E+00
         0.00000E+00
         0.00000E+00
         0.00000E+00
         0.00000E+00
         0.00000E+00
         0.00000E+00
         0.00000E+00
         0.00000E+00
         0.00000E+00
         0.00000E+00
         0.00000E+00
         0.00000E+00
         0.00000E+00
         0.00000E+00
         0.00000E+00
         0.00000E+00
         0.00000E+00
         0.00000E+00
         0.00000E+00
         0.00000E+00
         0.00000E+00
         0.00000E+00
         0.00000E+00
         0.00000E+00
         0.00000E+00
         0.00000E+00
         0.00000E+00
         0.00000E+00
         0.00000E+00
         0.00000E+00
         0.00000E+00
         0.00000E+00
         0.00000E+00
         0.00000E+00
         0.00000E+00
         0.00000E+00
         0.00000E+00
         0.00000E+00
         0.00000E+00
         0.00000E+00
         0.00000E+00
         0.00000E+00
         0.00000E+00
         0.00000E+00
         0.00000E+00
         0.00000E+00
         0.00000E+00
         0.00000E+00
         0.00000E+00
         0.00000E+00
         0.00000E+00
         0.00000E+00
         0.00000E+00
         0.00000E+00
         0.00000E+00
         0.00000E+00
         0.00000E+00
         0.00000E+00
         0.00000E+00
         0.00000E+00
         0.00000E+00
         0.00000E+00
         0.00000E+00
         0.00000E+00
         0.00000E+00
         0.00000E+00
         0.00000E+00
         0.00000E+00
         0.00000E+00
         0.00000E+00
         0.00000E+00
         0.00000E+00
         0.00000E+00
         0.00000E+00
         0.00000E+00
         0.00000E+00
         0.00000E+00
         0.00000E+00
         0.00000E+00
         0.00000E+00
         0.00000E+00
         0.00000E+00
         0.00000E+00
         0.00000E+00
         0.00000E+00
         0.00000E+00
         0.00000E+00
         0.00000E+00
         0.00000E+00
         0.00000E+00
         0.00000E+00
         0.00000E+00
         0.00000E+00
         0.00000E+00
         0.00000E+00
         0.00000E+00
         0.00000E+00
         0.00000E+00
         0.00000E+00
         0.00000E+00
         0.00000E+00
         0.00000E+00
         0.00000E+00
         0.00000E+00
         0.00000E+00
         0.00000E+00
         0.00000E+00
         0.00000E+00
         0.00000E+00
         0.00000E+00
         0.00000E+00
         0.00000E+00
         0.00000E+00
         0.00000E+00
         0.00000E+00
         0.00000E+00
         0.00000E+00
         0.00000E+00
         0.00000E+00
         0.00000E+00
         0.00000E+00
         0.00000E+00
         0.00000E+00
         0.00000E+00
         0.00000E+00
         0.00000E+00
         0.00000E+00
         0.00000E+00
         0.00000E+00
         0.00000E+00
         0.00000E+00
         0.00000E+00
         0.00000E+00
         0.00000E+00
         0.00000E+00
         0.00000E+00
         0.00000E+00
         0.00000E+00
         0.00000E+00
         0.00000E+00
         0.00000E+00
         0.00000E+00
         0.00000E+00
         0.00000E+00
         0.00000E+00
         0.00000E+00
         0.00000E+00
         0.00000E+00
         0.00000E+00
         0.00000E+00
         0.00000E+00
         0.00000E+00
         0.00000E+00
         0.00000E+00
         0.00000E+00
         0.00000E+00
         0.00000E+00
         0.00000E+00
         0.00000E+00
         0.00000E+00
         0.00000E+00
         0.00000E+00
         0.00000E+00
         0.00000E+00
         0.00000E+00
         0.00000E+00
         0.00000E+00
         0.00000E+00
         0.00000E+00
         0.00000E+00
         0.00000E+00
         0.00000E+00
         0.00000E+00
         0.00000E+00
         0.00000E+00
         0.00000E+00
         0.00000E+00
         0.00000E+00
         0.00000E+00
         0.00000E+00
         0.00000E+00
         0.00000E+00
         0.00000E+00
         0.00000E+00
         0.00000E+00
         0.00000E+00
         0.00000E+00
         0.00000E+00
         0.00000E+00
         0.00000E+00
         0.00000E+00
         0.00000E+00
         0.00000E+00
         0.00000E+00
         0.00000E+00
         0.00000E+00
         0.00000E+00
         0.00000E+00
         0.00000E+00
         0.00000E+00
         0.00000E+00
         0.00000E+00
         0.00000E+00
         0.00000E+00
         0.00000E+00
         0.00000E+00
         0.00000E+00
         0.00000E+00
         0.00000E+00
         0.00000E+00
         0.00000E+00
         0.00000E+00
         0.00000E+00
         0.00000E+00
         0.00000E+00
         0.00000E+00
         0.00000E+00
         0.00000E+00
         0.00000E+00
         0.00000E+00
         0.00000E+00
         0.00000E+00
         0.00000E+00
         0.00000E+00
         0.00000E+00
         0.00000E+00
         0.00000E+00
         0.00000E+00
         0.00000E+00
         0.00000E+00
         0.00000E+00
         0.00000E+00
         0.00000E+00
         0.00000E+00
         0.00000E+00
         0.00000E+00
         0.00000E+00
         0.00000E+00
         0.00000E+00
         0.00000E+00
         0.00000E+00
         0.00000E+00
         0.00000E+00
         0.00000E+00
         0.00000E+00
         0.00000E+00
         0.00000E+00
         0.00000E+00
         0.00000E+00
         0.00000E+00
         0.00000E+00
         0.00000E+00
         0.00000E+00
         0.00000E+00
         0.00000E+00
         0.00000E+00
         0.00000E+00
         0.00000E+00
         0.00000E+00
         0.00000E+00
         0.00000E+00
         0.00000E+00
         0.00000E+00
         0.00000E+00
         0.00000E+00
         0.00000E+00
         0.00000E+00
         0.00000E+00
         0.00000E+00
         0.00000E+00
         0.00000E+00
         0.00000E+00
         0.00000E+00
         0.00000E+00
         0.00000E+00
         0.00000E+00
         0.00000E+00
         0.00000E+00
         0.00000E+00
         0.00000E+00
         0.00000E+00
         0.00000E+00
         0.00000E+00
         0.00000E+00
         0.00000E+00
         0.00000E+00
         0.00000E+00
         0.00000E+00
         0.00000E+00
         0.00000E+00
         0.00000E+00
         0.00000E+00
         0.00000E+00
         0.00000E+00
         0.00000E+00
         0.00000E+00
         0.00000E+00
         0.00000E+00
         0.00000E+00
         0.00000E+00
         0.00000E+00
         0.00000E+00
         0.00000E+00
         0.00000E+00
         0.00000E+00
         0.00000E+00
         0.00000E+00
         0.00000E+00
         0.00000E+00
         0.00000E+00
         0.00000E+00
         0.00000E+00
         0.00000E+00
         0.00000E+00
         0.00000E+00
         0.00000E+00
         0.00000E+00
         0.00000E+00
         0.00000E+00
         0.00000E+00
         0.00000E+00
         0.00000E+00
         0.00000E+00
         0.00000E+00
         0.00000E+00
         0.00000E+00
         0.00000E+00
         0.00000E+00
         0.00000E+00
         0.00000E+00
         0.00000E+00
         0.00000E+00
         0.00000E+00
         0.00000E+00
         0.00000E+00
         0.00000E+00
         0.00000E+00
         0.00000E+00
         0.00000E+00
         0.00000E+00
         0.00000E+00
         0.00000E+00
         0.00000E+00
         0.00000E+00
         0.00000E+00
         0.00000E+00
         0.00000E+00
         0.00000E+00
         0.00000E+00
         0.00000E+00
         0.00000E+00
         0.00000E+00
         0.00000E+00
         0.00000E+00
         0.00000E+00
         0.00000E+00
         0.00000E+00
         0.00000E+00
         0.00000E+00
         0.00000E+00
         0.00000E+00
         0.00000E+00
         0.00000E+00
         0.00000E+00
         0.00000E+00
         0.00000E+00
         0.00000E+00
         0.00000E+00
         0.00000E+00
         0.00000E+00
         0.00000E+00
         0.00000E+00
         0.00000E+00
         0.00000E+00
         0.00000E+00
         0.00000E+00
         0.00000E+00
         0.00000E+00
         0.00000E+00
         0.00000E+00
         0.00000E+00
         0.00000E+00
         0.00000E+00
         0.00000E+00
         0.00000E+00
         0.00000E+00
         0.00000E+00
         0.00000E+00
         0.00000E+00
         0.00000E+00
         0.00000E+00
         0.00000E+00
         0.00000E+00
         0.00000E+00
         0.00000E+00
         0.00000E+00
         0.00000E+00
         0.00000E+00
         0.00000E+00
         0.00000E+00
         0.00000E+00
         0.00000E+00
         0.00000E+00
         0.00000E+00
         0.00000E+00
         0.00000E+00
         0.00000E+00
         0.00000E+00
         0.00000E+00
         0.00000E+00
         0.00000E+00
         0.00000E+00
         0.00000E+00
         0.00000E+00
         0.00000E+00
         0.00000E+00
         0.00000E+00
         0.00000E+00
         0.00000E+00
         0.00000E+00
         0.00000E+00
         0.00000E+00
         0.00000E+00
         0.00000E+00
         0.00000E+00
         0.00000E+00
         0.00000E+00
         0.00000E+00
         0.00000E+00
         0.00000E+00
         0.00000E+00
         0.00000E+00
         0.00000E+00
         0.00000E+00
         0.00000E+00
         0.00000E+00
         0.00000E+00
         0.00000E+00
         0.00000E+00
         0.00000E+00
         0.00000E+00
         0.00000E+00
         0.00000E+00
         0.00000E+00
         0.00000E+00
         0.00000E+00
         0.00000E+00
         0.00000E+00
         0.00000E+00
         0.00000E+00
         0.00000E+00
         0.00000E+00
         0.00000E+00
         0.00000E+00
         0.00000E+00
         0.00000E+00
         0.00000E+00
         0.00000E+00
         0.00000E+00
         0.00000E+00
         0.00000E+00
         0.00000E+00
         0.00000E+00
         0.00000E+00
         0.00000E+00
         0.00000E+00
         0.00000E+00
         0.00000E+00
         0.00000E+00
         0.00000E+00
         0.00000E+00
         0.00000E+00
         0.00000E+00
         0.00000E+00
         0.00000E+00
         0.00000E+00
         0.00000E+00
         0.00000E+00
         0.00000E+00
         0.00000E+00
         0.00000E+00
         0.00000E+00
         0.00000E+00
         0.00000E+00
         0.00000E+00
         0.00000E+00
         0.00000E+00
         0.00000E+00
         0.00000E+00
         0.00000E+00
         0.00000E+00
         0.00000E+00
         0.00000E+00
         0.00000E+00
         0.00000E+00
         0.00000E+00
         0.00000E+00
         0.00000E+00
         0.00000E+00
         0.00000E+00
         0.00000E+00
         0.00000E+00
         0.00000E+00
         0.00000E+00
         0.00000E+00
         0.00000E+00
         0.00000E+00
         0.00000E+00
         0.00000E+00
         0.00000E+00
         0.00000E+00
         0.00000E+00
         0.00000E+00
         0.00000E+00
         0.00000E+00
         0.00000E+00
         0.00000E+00
         0.00000E+00
         0.00000E+00
         0.00000E+00
         0.00000E+00
         0.00000E+00
         0.00000E+00
         0.00000E+00
         0.00000E+00
         0.00000E+00
         0.00000E+00
         0.00000E+00
         0.00000E+00
         0.00000E+00
         0.00000E+00
         0.00000E+00
         0.00000E+00
         0.00000E+00
         0.00000E+00
         0.00000E+00
         0.00000E+00
         0.00000E+00
         0.00000E+00
         0.00000E+00
         0.00000E+00
         0.00000E+00
         0.00000E+00
         0.00000E+00
         0.00000E+00
         0.00000E+00
         0.00000E+00
         0.00000E+00
         0.00000E+00
         0.00000E+00
         0.00000E+00
         0.00000E+00
         0.00000E+00
         0.00000E+00
         0.00000E+00
         0.00000E+00
         0.00000E+00
         0.00000E+00
         0.00000E+00
         0.00000E+00
         0.00000E+00
         0.00000E+00
         0.00000E+00
         0.00000E+00
         0.00000E+00
         0.00000E+00
         0.00000E+00
         0.00000E+00
         0.00000E+00
         0.00000E+00
         0.00000E+00
         0.00000E+00
         0.00000E+00
         0.00000E+00
         0.00000E+00
         0.00000E+00
         0.00000E+00
         0.00000E+00
         0.00000E+00
         0.00000E+00
         0.00000E+00
         0.00000E+00
         0.00000E+00
         0.00000E+00
         0.00000E+00
         0.00000E+00
         0.00000E+00
         0.00000E+00
         0.00000E+00
         0.00000E+00
         0.00000E+00
         0.00000E+00
         0.00000E+00
         0.00000E+00
         0.00000E+00
         0.00000E+00
         0.00000E+00
         0.00000E+00
         0.00000E+00
         0.00000E+00
         0.00000E+00
         0.00000E+00
         0.00000E+00
         0.00000E+00
         0.00000E+00
         0.00000E+00
         0.00000E+00
         0.00000E+00
         0.00000E+00
         0.00000E+00
         0.00000E+00
         0.00000E+00
         0.00000E+00
         0.00000E+00
         0.00000E+00
         0.00000E+00
         0.00000E+00
         0.00000E+00
         0.00000E+00
         0.00000E+00
         0.00000E+00
         0.00000E+00
         0.00000E+00
         0.00000E+00
         0.00000E+00
         0.00000E+00
         0.00000E+00
         0.00000E+00
         0.00000E+00
         0.00000E+00
         0.00000E+00
         0.00000E+00
         0.00000E+00
         0.00000E+00
         0.00000E+00
         0.00000E+00
         0.00000E+00
         0.00000E+00
         0.00000E+00
         0.00000E+00
         0.00000E+00
         0.00000E+00
         0.00000E+00
         0.00000E+00
         0.00000E+00
         0.00000E+00
         0.00000E+00
         0.00000E+00
         0.00000E+00
         0.00000E+00
         0.00000E+00
         0.00000E+00
         0.00000E+00
         0.00000E+00
         0.00000E+00
         0.00000E+00
         0.00000E+00
         0.00000E+00
         0.00000E+00
         0.00000E+00
         0.00000E+00
         0.00000E+00
         0.00000E+00
         0.00000E+00
         0.00000E+00
         0.00000E+00
         0.00000E+00
         0.00000E+00
         0.00000E+00
         0.00000E+00
         0.00000E+00
         0.00000E+00
         0.00000E+00
         0.00000E+00
         0.00000E+00
         0.00000E+00
         0.00000E+00
         0.00000E+00
         0.00000E+00
         0.00000E+00
         0.00000E+00
         0.00000E+00
         0.00000E+00
         0.00000E+00
         0.00000E+00
         0.00000E+00
         0.00000E+00
         0.00000E+00
         0.00000E+00
         0.00000E+00
         0.00000E+00
         0.00000E+00
         0.00000E+00
         0.00000E+00
         0.00000E+00
         0.00000E+00
         0.00000E+00
         0.00000E+00
         0.00000E+00
         0.00000E+00
         0.00000E+00
         0.00000E+00
         0.00000E+00
         0.00000E+00
         0.00000E+00
         0.00000E+00
         0.00000E+00
         0.00000E+00
         0.00000E+00
         0.00000E+00
         0.00000E+00
         0.00000E+00
         0.00000E+00
         0.00000E+00
         0.00000E+00
         0.00000E+00
         0.00000E+00
         0.00000E+00
         0.00000E+00
         0.00000E+00
         0.00000E+00
         0.00000E+00
         0.00000E+00
         0.00000E+00
         0.00000E+00
         0.00000E+00
         0.00000E+00
         0.00000E+00
         0.00000E+00
         0.00000E+00
         0.00000E+00
         0.00000E+00
         0.00000E+00
         0.00000E+00
         0.00000E+00
         0.00000E+00
         0.00000E+00
         0.00000E+00
         0.00000E+00
         0.00000E+00
         0.00000E+00
         0.00000E+00
         0.00000E+00
         0.00000E+00
         0.00000E+00
         0.00000E+00
         0.00000E+00
         0.00000E+00
         0.00000E+00
         0.00000E+00
         0.00000E+00
         0.00000E+00
         0.00000E+00
         0.00000E+00
         0.00000E+00
         0.00000E+00
         0.00000E+00
         0.00000E+00
         0.00000E+00
         0.00000E+00
         0.00000E+00
         0.00000E+00
         0.00000E+00
         0.00000E+00
         0.00000E+00
         0.00000E+00
         0.00000E+00
         0.00000E+00
         0.00000E+00
         0.00000E+00
         0.00000E+00
         0.00000E+00
         0.00000E+00
         0.00000E+00
         0.00000E+00
         0.00000E+00
         0.00000E+00
         0.00000E+00
         0.00000E+00
         0.00000E+00
         0.00000E+00
         0.00000E+00
         0.00000E+00
         0.00000E+00
         0.00000E+00
         0.00000E+00
         0.00000E+00
         0.00000E+00
         0.00000E+00
         0.00000E+00
         0.00000E+00
         0.00000E+00
         0.00000E+00
         0.00000E+00
         0.00000E+00
         0.00000E+00
         0.00000E+00
         0.00000E+00
         0.00000E+00
         0.00000E+00
         0.00000E+00
         0.00000E+00
         0.00000E+00
         0.00000E+00
         0.00000E+00
         0.00000E+00
         0.00000E+00
         0.00000E+00
         0.00000E+00
         0.00000E+00
         0.00000E+00
         0.00000E+00
         0.00000E+00
         0.00000E+00
         0.00000E+00
         0.00000E+00
         0.00000E+00
         0.00000E+00
         0.00000E+00
         0.00000E+00
         0.00000E+00
         0.00000E+00
         0.00000E+00
         0.00000E+00
         0.00000E+00
         0.00000E+00
         0.00000E+00
         0.00000E+00
         0.00000E+00
         0.00000E+00
         0.00000E+00
         0.00000E+00
         0.00000E+00
         0.00000E+00
         0.00000E+00
         0.00000E+00
         0.00000E+00
         0.00000E+00
         0.00000E+00
         0.00000E+00
         0.00000E+00
         0.00000E+00
         0.00000E+00
         0.00000E+00
         0.00000E+00
         0.00000E+00
         0.00000E+00
         0.00000E+00
         0.00000E+00
         0.00000E+00
         0.00000E+00
         0.00000E+00
         0.00000E+00
         0.00000E+00
         0.00000E+00
         0.00000E+00
         0.00000E+00
         0.00000E+00
         0.00000E+00
         0.00000E+00
         0.00000E+00
         0.00000E+00
         0.00000E+00
         0.00000E+00
         0.00000E+00
         0.00000E+00
         0.00000E+00
         0.00000E+00
         0.00000E+00
         0.00000E+00
         0.00000E+00
         0.00000E+00
         0.00000E+00
         0.00000E+00
         0.00000E+00
         0.00000E+00
         0.00000E+00
         0.00000E+00
         0.00000E+00
         0.00000E+00
         0.00000E+00
         0.00000E+00
         0.00000E+00
         0.00000E+00
         0.00000E+00
         0.00000E+00
         0.00000E+00
         0.00000E+00
         0.00000E+00
         0.00000E+00
         0.00000E+00
         0.00000E+00
         0.00000E+00
         0.00000E+00
         0.00000E+00
         0.00000E+00
         0.00000E+00
         0.00000E+00
         0.00000E+00
         0.00000E+00
         0.00000E+00
         0.00000E+00
         0.00000E+00
         0.00000E+00
         0.00000E+00
         0.00000E+00
         0.00000E+00
         0.00000E+00
         0.00000E+00
         0.00000E+00
         0.00000E+00
         0.00000E+00
         0.00000E+00
         0.00000E+00
         0.00000E+00
         0.00000E+00
         0.00000E+00
         0.00000E+00
         0.00000E+00
         0.00000E+00
         0.00000E+00
         0.00000E+00
         0.00000E+00
         0.00000E+00
         0.00000E+00
         0.00000E+00
         0.00000E+00
         0.00000E+00
         0.00000E+00
         0.00000E+00
         0.00000E+00
         0.00000E+00
         0.00000E+00
         0.00000E+00
         0.00000E+00
         0.00000E+00
         0.00000E+00
         0.00000E+00
         0.00000E+00
         0.00000E+00
         0.00000E+00
         0.00000E+00
         0.00000E+00
         0.00000E+00
         0.00000E+00
         0.00000E+00
         0.00000E+00
         0.00000E+00
         0.00000E+00
         0.00000E+00
         0.00000E+00
         0.00000E+00
         0.00000E+00
         0.00000E+00
         0.00000E+00
         0.00000E+00
         0.00000E+00
         0.00000E+00
         0.00000E+00
         0.00000E+00
         0.00000E+00
         0.00000E+00
         0.00000E+00
         0.00000E+00
         0.00000E+00
         0.00000E+00
         0.00000E+00
         0.00000E+00
         0.00000E+00
         0.00000E+00
         0.00000E+00
         0.00000E+00
         0.00000E+00
         0.00000E+00
         0.00000E+00
         0.00000E+00
         0.00000E+00
         0.00000E+00
         0.00000E+00
         0.00000E+00
         0.00000E+00
         0.00000E+00
         0.00000E+00
         0.00000E+00
         0.00000E+00
         0.00000E+00
         0.00000E+00
         0.00000E+00
         0.00000E+00
         0.00000E+00
         0.00000E+00
         0.00000E+00
         0.00000E+00
         0.00000E+00
         0.00000E+00
         0.00000E+00
         0.00000E+00
         0.00000E+00
         0.00000E+00
         0.00000E+00
         0.00000E+00
         0.00000E+00
         0.00000E+00
         0.00000E+00
         0.00000E+00
         0.00000E+00
         0.00000E+00
         0.00000E+00
         0.00000E+00
         0.00000E+00
         0.00000E+00
         0.00000E+00
         0.00000E+00
         0.00000E+00
         0.00000E+00
         0.00000E+00
         0.00000E+00
         0.00000E+00
         0.00000E+00
         0.00000E+00
  
SCALARS                 displacement_y  double 1
LOOKUP_TABLE default
         0.00000E+00
         0.00000E+00
         0.00000E+00
         0.00000E+00
         0.00000E+00
         0.00000E+00
         0.00000E+00
         0.00000E+00
         0.00000E+00
         0.00000E+00
         0.00000E+00
         0.00000E+00
         0.00000E+00
         0.00000E+00
         0.00000E+00
         0.00000E+00
         0.00000E+00
         0.00000E+00
         0.00000E+00
         0.00000E+00
         0.00000E+00
         0.00000E+00
         0.00000E+00
         0.00000E+00
         0.00000E+00
         0.00000E+00
         0.00000E+00
         0.00000E+00
         0.00000E+00
         0.00000E+00
         0.00000E+00
         0.00000E+00
         0.00000E+00
         0.00000E+00
         0.00000E+00
         0.00000E+00
         0.00000E+00
         0.00000E+00
         0.00000E+00
         0.00000E+00
         0.00000E+00
         0.00000E+00
         0.00000E+00
         0.00000E+00
         0.00000E+00
         0.00000E+00
         0.00000E+00
         0.00000E+00
         0.00000E+00
         0.00000E+00
         0.00000E+00
         0.00000E+00
         0.00000E+00
         0.00000E+00
         0.00000E+00
         0.00000E+00
         0.00000E+00
         0.00000E+00
         0.00000E+00
         0.00000E+00
         0.00000E+00
         0.00000E+00
         0.00000E+00
         0.00000E+00
         0.00000E+00
         0.00000E+00
         0.00000E+00
         0.00000E+00
         0.00000E+00
         0.00000E+00
         0.00000E+00
         0.00000E+00
         0.00000E+00
         0.00000E+00
         0.00000E+00
         0.00000E+00
         0.00000E+00
         0.00000E+00
         0.00000E+00
         0.00000E+00
         0.00000E+00
         0.00000E+00
         0.00000E+00
         0.00000E+00
         0.00000E+00
         0.00000E+00
         0.00000E+00
         0.00000E+00
         0.00000E+00
         0.00000E+00
         0.00000E+00
         0.00000E+00
         0.00000E+00
         0.00000E+00
         0.00000E+00
         0.00000E+00
         0.00000E+00
         0.00000E+00
         0.00000E+00
         0.00000E+00
         0.00000E+00
         0.00000E+00
         0.00000E+00
         0.00000E+00
         0.00000E+00
         0.00000E+00
         0.00000E+00
         0.00000E+00
         0.00000E+00
         0.00000E+00
         0.00000E+00
         0.00000E+00
         0.00000E+00
         0.00000E+00
         0.00000E+00
         0.00000E+00
         0.00000E+00
         0.00000E+00
         0.00000E+00
         0.00000E+00
         0.00000E+00
         0.00000E+00
         0.00000E+00
         0.00000E+00
         0.00000E+00
         0.00000E+00
         0.00000E+00
         0.00000E+00
         0.00000E+00
         0.00000E+00
         0.00000E+00
         0.00000E+00
         0.00000E+00
         0.00000E+00
         0.00000E+00
         0.00000E+00
         0.00000E+00
         0.00000E+00
         0.00000E+00
         0.00000E+00
         0.00000E+00
         0.00000E+00
         0.00000E+00
         0.00000E+00
         0.00000E+00
         0.00000E+00
         0.00000E+00
         0.00000E+00
         0.00000E+00
         0.00000E+00
         0.00000E+00
         0.00000E+00
         0.00000E+00
         0.00000E+00
         0.00000E+00
         0.00000E+00
         0.00000E+00
         0.00000E+00
         0.00000E+00
         0.00000E+00
         0.00000E+00
         0.00000E+00
         0.00000E+00
         0.00000E+00
         0.00000E+00
         0.00000E+00
         0.00000E+00
         0.00000E+00
         0.00000E+00
         0.00000E+00
         0.00000E+00
         0.00000E+00
         0.00000E+00
         0.00000E+00
         0.00000E+00
         0.00000E+00
         0.00000E+00
         0.00000E+00
         0.00000E+00
         0.00000E+00
         0.00000E+00
         0.00000E+00
         0.00000E+00
         0.00000E+00
         0.00000E+00
         0.00000E+00
         0.00000E+00
         0.00000E+00
         0.00000E+00
         0.00000E+00
         0.00000E+00
         0.00000E+00
         0.00000E+00
         0.00000E+00
         0.00000E+00
         0.00000E+00
         0.00000E+00
         0.00000E+00
         0.00000E+00
         0.00000E+00
         0.00000E+00
         0.00000E+00
         0.00000E+00
         0.00000E+00
         0.00000E+00
         0.00000E+00
         0.00000E+00
         0.00000E+00
         0.00000E+00
         0.00000E+00
         0.00000E+00
         0.00000E+00
         0.00000E+00
         0.00000E+00
         0.00000E+00
         0.00000E+00
         0.00000E+00
         0.00000E+00
         0.00000E+00
         0.00000E+00
         0.00000E+00
         0.00000E+00
         0.00000E+00
         0.00000E+00
         0.00000E+00
         0.00000E+00
         0.00000E+00
         0.00000E+00
         0.00000E+00
         0.00000E+00
         0.00000E+00
         0.00000E+00
         0.00000E+00
         0.00000E+00
         0.00000E+00
         0.00000E+00
         0.00000E+00
         0.00000E+00
         0.00000E+00
         0.00000E+00
         0.00000E+00
         0.00000E+00
         0.00000E+00
         0.00000E+00
         0.00000E+00
         0.00000E+00
         0.00000E+00
         0.00000E+00
         0.00000E+00
         0.00000E+00
         0.00000E+00
         0.00000E+00
         0.00000E+00
         0.00000E+00
         0.00000E+00
         0.00000E+00
         0.00000E+00
         0.00000E+00
         0.00000E+00
         0.00000E+00
         0.00000E+00
         0.00000E+00
         0.00000E+00
         0.00000E+00
         0.00000E+00
         0.00000E+00
         0.00000E+00
         0.00000E+00
         0.00000E+00
         0.00000E+00
         0.00000E+00
         0.00000E+00
         0.00000E+00
         0.00000E+00
         0.00000E+00
         0.00000E+00
         0.00000E+00
         0.00000E+00
         0.00000E+00
         0.00000E+00
         0.00000E+00
         0.00000E+00
         0.00000E+00
         0.00000E+00
         0.00000E+00
         0.00000E+00
         0.00000E+00
         0.00000E+00
         0.00000E+00
         0.00000E+00
         0.00000E+00
         0.00000E+00
         0.00000E+00
         0.00000E+00
         0.00000E+00
         0.00000E+00
         0.00000E+00
         0.00000E+00
         0.00000E+00
         0.00000E+00
         0.00000E+00
         0.00000E+00
         0.00000E+00
         0.00000E+00
         0.00000E+00
         0.00000E+00
         0.00000E+00
         0.00000E+00
         0.00000E+00
         0.00000E+00
         0.00000E+00
         0.00000E+00
         0.00000E+00
         0.00000E+00
         0.00000E+00
         0.00000E+00
         0.00000E+00
         0.00000E+00
         0.00000E+00
         0.00000E+00
         0.00000E+00
         0.00000E+00
         0.00000E+00
         0.00000E+00
         0.00000E+00
         0.00000E+00
         0.00000E+00
         0.00000E+00
         0.00000E+00
         0.00000E+00
         0.00000E+00
         0.00000E+00
         0.00000E+00
         0.00000E+00
         0.00000E+00
         0.00000E+00
         0.00000E+00
         0.00000E+00
         0.00000E+00
         0.00000E+00
         0.00000E+00
         0.00000E+00
         0.00000E+00
         0.00000E+00
         0.00000E+00
         0.00000E+00
         0.00000E+00
         0.00000E+00
         0.00000E+00
         0.00000E+00
         0.00000E+00
         0.00000E+00
         0.00000E+00
         0.00000E+00
         0.00000E+00
         0.00000E+00
         0.00000E+00
         0.00000E+00
         0.00000E+00
         0.00000E+00
         0.00000E+00
         0.00000E+00
         0.00000E+00
         0.00000E+00
         0.00000E+00
         0.00000E+00
         0.00000E+00
         0.00000E+00
         0.00000E+00
         0.00000E+00
         0.00000E+00
         0.00000E+00
         0.00000E+00
         0.00000E+00
         0.00000E+00
         0.00000E+00
         0.00000E+00
         0.00000E+00
         0.00000E+00
         0.00000E+00
         0.00000E+00
         0.00000E+00
         0.00000E+00
         0.00000E+00
         0.00000E+00
         0.00000E+00
         0.00000E+00
         0.00000E+00
         0.00000E+00
         0.00000E+00
         0.00000E+00
         0.00000E+00
         0.00000E+00
         0.00000E+00
         0.00000E+00
         0.00000E+00
         0.00000E+00
         0.00000E+00
         0.00000E+00
         0.00000E+00
         0.00000E+00
         0.00000E+00
         0.00000E+00
         0.00000E+00
         0.00000E+00
         0.00000E+00
         0.00000E+00
         0.00000E+00
         0.00000E+00
         0.00000E+00
         0.00000E+00
         0.00000E+00
         0.00000E+00
         0.00000E+00
         0.00000E+00
         0.00000E+00
         0.00000E+00
         0.00000E+00
         0.00000E+00
         0.00000E+00
         0.00000E+00
         0.00000E+00
         0.00000E+00
         0.00000E+00
         0.00000E+00
         0.00000E+00
         0.00000E+00
         0.00000E+00
         0.00000E+00
         0.00000E+00
         0.00000E+00
         0.00000E+00
         0.00000E+00
         0.00000E+00
         0.00000E+00
         0.00000E+00
         0.00000E+00
         0.00000E+00
         0.00000E+00
         0.00000E+00
         0.00000E+00
         0.00000E+00
         0.00000E+00
         0.00000E+00
         0.00000E+00
         0.00000E+00
         0.00000E+00
         0.00000E+00
         0.00000E+00
         0.00000E+00
         0.00000E+00
         0.00000E+00
         0.00000E+00
         0.00000E+00
         0.00000E+00
         0.00000E+00
         0.00000E+00
         0.00000E+00
         0.00000E+00
         0.00000E+00
         0.00000E+00
         0.00000E+00
         0.00000E+00
         0.00000E+00
         0.00000E+00
         0.00000E+00
         0.00000E+00
         0.00000E+00
         0.00000E+00
         0.00000E+00
         0.00000E+00
         0.00000E+00
         0.00000E+00
         0.00000E+00
         0.00000E+00
         0.00000E+00
         0.00000E+00
         0.00000E+00
         0.00000E+00
         0.00000E+00
         0.00000E+00
         0.00000E+00
         0.00000E+00
         0.00000E+00
         0.00000E+00
         0.00000E+00
         0.00000E+00
         0.00000E+00
         0.00000E+00
         0.00000E+00
         0.00000E+00
         0.00000E+00
         0.00000E+00
         0.00000E+00
         0.00000E+00
         0.00000E+00
         0.00000E+00
         0.00000E+00
         0.00000E+00
         0.00000E+00
         0.00000E+00
         0.00000E+00
         0.00000E+00
         0.00000E+00
         0.00000E+00
         0.00000E+00
         0.00000E+00
         0.00000E+00
         0.00000E+00
         0.00000E+00
         0.00000E+00
         0.00000E+00
         0.00000E+00
         0.00000E+00
         0.00000E+00
         0.00000E+00
         0.00000E+00
         0.00000E+00
         0.00000E+00
         0.00000E+00
         0.00000E+00
         0.00000E+00
         0.00000E+00
         0.00000E+00
         0.00000E+00
         0.00000E+00
         0.00000E+00
         0.00000E+00
         0.00000E+00
         0.00000E+00
         0.00000E+00
         0.00000E+00
         0.00000E+00
         0.00000E+00
         0.00000E+00
         0.00000E+00
         0.00000E+00
         0.00000E+00
         0.00000E+00
         0.00000E+00
         0.00000E+00
         0.00000E+00
         0.00000E+00
         0.00000E+00
         0.00000E+00
         0.00000E+00
         0.00000E+00
         0.00000E+00
         0.00000E+00
         0.00000E+00
         0.00000E+00
         0.00000E+00
         0.00000E+00
         0.00000E+00
         0.00000E+00
         0.00000E+00
         0.00000E+00
         0.00000E+00
         0.00000E+00
         0.00000E+00
         0.00000E+00
         0.00000E+00
         0.00000E+00
         0.00000E+00
         0.00000E+00
         0.00000E+00
         0.00000E+00
         0.00000E+00
         0.00000E+00
         0.00000E+00
         0.00000E+00
         0.00000E+00
         0.00000E+00
         0.00000E+00
         0.00000E+00
         0.00000E+00
         0.00000E+00
         0.00000E+00
         0.00000E+00
         0.00000E+00
         0.00000E+00
         0.00000E+00
         0.00000E+00
         0.00000E+00
         0.00000E+00
         0.00000E+00
         0.00000E+00
         0.00000E+00
         0.00000E+00
         0.00000E+00
         0.00000E+00
         0.00000E+00
         0.00000E+00
         0.00000E+00
         0.00000E+00
         0.00000E+00
         0.00000E+00
         0.00000E+00
         0.00000E+00
         0.00000E+00
         0.00000E+00
         0.00000E+00
         0.00000E+00
         0.00000E+00
         0.00000E+00
         0.00000E+00
         0.00000E+00
         0.00000E+00
         0.00000E+00
         0.00000E+00
         0.00000E+00
         0.00000E+00
         0.00000E+00
         0.00000E+00
         0.00000E+00
         0.00000E+00
         0.00000E+00
         0.00000E+00
         0.00000E+00
         0.00000E+00
         0.00000E+00
         0.00000E+00
         0.00000E+00
         0.00000E+00
         0.00000E+00
         0.00000E+00
         0.00000E+00
         0.00000E+00
         0.00000E+00
         0.00000E+00
         0.00000E+00
         0.00000E+00
         0.00000E+00
         0.00000E+00
         0.00000E+00
         0.00000E+00
         0.00000E+00
         0.00000E+00
         0.00000E+00
         0.00000E+00
         0.00000E+00
         0.00000E+00
         0.00000E+00
         0.00000E+00
         0.00000E+00
         0.00000E+00
         0.00000E+00
         0.00000E+00
         0.00000E+00
         0.00000E+00
         0.00000E+00
         0.00000E+00
         0.00000E+00
         0.00000E+00
         0.00000E+00
         0.00000E+00
         0.00000E+00
         0.00000E+00
         0.00000E+00
         0.00000E+00
         0.00000E+00
         0.00000E+00
         0.00000E+00
         0.00000E+00
         0.00000E+00
         0.00000E+00
         0.00000E+00
         0.00000E+00
         0.00000E+00
         0.00000E+00
         0.00000E+00
         0.00000E+00
         0.00000E+00
         0.00000E+00
         0.00000E+00
         0.00000E+00
         0.00000E+00
         0.00000E+00
         0.00000E+00
         0.00000E+00
         0.00000E+00
         0.00000E+00
         0.00000E+00
         0.00000E+00
         0.00000E+00
         0.00000E+00
         0.00000E+00
         0.00000E+00
         0.00000E+00
         0.00000E+00
         0.00000E+00
         0.00000E+00
         0.00000E+00
         0.00000E+00
         0.00000E+00
         0.00000E+00
         0.00000E+00
         0.00000E+00
         0.00000E+00
         0.00000E+00
         0.00000E+00
         0.00000E+00
         0.00000E+00
         0.00000E+00
         0.00000E+00
         0.00000E+00
         0.00000E+00
         0.00000E+00
         0.00000E+00
         0.00000E+00
         0.00000E+00
         0.00000E+00
         0.00000E+00
         0.00000E+00
         0.00000E+00
         0.00000E+00
         0.00000E+00
         0.00000E+00
         0.00000E+00
         0.00000E+00
         0.00000E+00
         0.00000E+00
         0.00000E+00
         0.00000E+00
         0.00000E+00
         0.00000E+00
         0.00000E+00
         0.00000E+00
         0.00000E+00
         0.00000E+00
         0.00000E+00
         0.00000E+00
         0.00000E+00
         0.00000E+00
         0.00000E+00
         0.00000E+00
         0.00000E+00
         0.00000E+00
         0.00000E+00
         0.00000E+00
         0.00000E+00
         0.00000E+00
         0.00000E+00
         0.00000E+00
         0.00000E+00
         0.00000E+00
         0.00000E+00
         0.00000E+00
         0.00000E+00
         0.00000E+00
         0.00000E+00
         0.00000E+00
         0.00000E+00
         0.00000E+00
         0.00000E+00
         0.00000E+00
         0.00000E+00
         0.00000E+00
         0.00000E+00
         0.00000E+00
         0.00000E+00
         0.00000E+00
         0.00000E+00
         0.00000E+00
         0.00000E+00
         0.00000E+00
         0.00000E+00
         0.00000E+00
         0.00000E+00
         0.00000E+00
         0.00000E+00
         0.00000E+00
         0.00000E+00
         0.00000E+00
         0.00000E+00
         0.00000E+00
         0.00000E+00
         0.00000E+00
         0.00000E+00
         0.00000E+00
         0.00000E+00
         0.00000E+00
         0.00000E+00
         0.00000E+00
         0.00000E+00
         0.00000E+00
         0.00000E+00
         0.00000E+00
         0.00000E+00
         0.00000E+00
         0.00000E+00
         0.00000E+00
         0.00000E+00
         0.00000E+00
         0.00000E+00
         0.00000E+00
         0.00000E+00
         0.00000E+00
         0.00000E+00
         0.00000E+00
         0.00000E+00
         0.00000E+00
         0.00000E+00
         0.00000E+00
         0.00000E+00
         0.00000E+00
         0.00000E+00
         0.00000E+00
         0.00000E+00
         0.00000E+00
         0.00000E+00
         0.00000E+00
         0.00000E+00
         0.00000E+00
         0.00000E+00
         0.00000E+00
         0.00000E+00
         0.00000E+00
         0.00000E+00
         0.00000E+00
         0.00000E+00
         0.00000E+00
         0.00000E+00
         0.00000E+00
         0.00000E+00
         0.00000E+00
         0.00000E+00
         0.00000E+00
         0.00000E+00
         0.00000E+00
         0.00000E+00
         0.00000E+00
         0.00000E+00
         0.00000E+00
         0.00000E+00
         0.00000E+00
         0.00000E+00
         0.00000E+00
         0.00000E+00
         0.00000E+00
         0.00000E+00
         0.00000E+00
         0.00000E+00
         0.00000E+00
         0.00000E+00
         0.00000E+00
         0.00000E+00
         0.00000E+00
         0.00000E+00
         0.00000E+00
         0.00000E+00
         0.00000E+00
         0.00000E+00
         0.00000E+00
         0.00000E+00
         0.00000E+00
         0.00000E+00
         0.00000E+00
         0.00000E+00
         0.00000E+00
         0.00000E+00
         0.00000E+00
         0.00000E+00
         0.00000E+00
         0.00000E+00
         0.00000E+00
         0.00000E+00
         0.00000E+00
         0.00000E+00
         0.00000E+00
         0.00000E+00
         0.00000E+00
         0.00000E+00
         0.00000E+00
         0.00000E+00
         0.00000E+00
         0.00000E+00
         0.00000E+00
         0.00000E+00
         0.00000E+00
         0.00000E+00
         0.00000E+00
         0.00000E+00
         0.00000E+00
         0.00000E+00
         0.00000E+00
         0.00000E+00
         0.00000E+00
         0.00000E+00
         0.00000E+00
         0.00000E+00
         0.00000E+00
         0.00000E+00
         0.00000E+00
         0.00000E+00
         0.00000E+00
         0.00000E+00
         0.00000E+00
         0.00000E+00
         0.00000E+00
         0.00000E+00
         0.00000E+00
         0.00000E+00
         0.00000E+00
         0.00000E+00
         0.00000E+00
         0.00000E+00
         0.00000E+00
         0.00000E+00
         0.00000E+00
         0.00000E+00
         0.00000E+00
         0.00000E+00
         0.00000E+00
         0.00000E+00
         0.00000E+00
         0.00000E+00
         0.00000E+00
         0.00000E+00
         0.00000E+00
         0.00000E+00
         0.00000E+00
         0.00000E+00
         0.00000E+00
         0.00000E+00
         0.00000E+00
         0.00000E+00
         0.00000E+00
         0.00000E+00
         0.00000E+00
         0.00000E+00
         0.00000E+00
         0.00000E+00
         0.00000E+00
         0.00000E+00
         0.00000E+00
         0.00000E+00
         0.00000E+00
         0.00000E+00
         0.00000E+00
         0.00000E+00
         0.00000E+00
         0.00000E+00
         0.00000E+00
         0.00000E+00
         0.00000E+00
         0.00000E+00
         0.00000E+00
         0.00000E+00
         0.00000E+00
         0.00000E+00
         0.00000E+00
         0.00000E+00
         0.00000E+00
         0.00000E+00
         0.00000E+00
         0.00000E+00
         0.00000E+00
         0.00000E+00
         0.00000E+00
         0.00000E+00
         0.00000E+00
         0.00000E+00
         0.00000E+00
         0.00000E+00
         0.00000E+00
         0.00000E+00
         0.00000E+00
         0.00000E+00
         0.00000E+00
         0.00000E+00
         0.00000E+00
         0.00000E+00
         0.00000E+00
         0.00000E+00
         0.00000E+00
         0.00000E+00
         0.00000E+00
         0.00000E+00
         0.00000E+00
         0.00000E+00
         0.00000E+00
         0.00000E+00
         0.00000E+00
         0.00000E+00
         0.00000E+00
         0.00000E+00
         0.00000E+00
         0.00000E+00
         0.00000E+00
         0.00000E+00
         0.00000E+00
         0.00000E+00
         0.00000E+00
         0.00000E+00
         0.00000E+00
         0.00000E+00
         0.00000E+00
         0.00000E+00
         0.00000E+00
         0.00000E+00
         0.00000E+00
         0.00000E+00
         0.00000E+00
         0.00000E+00
         0.00000E+00
         0.00000E+00
         0.00000E+00
         0.00000E+00
         0.00000E+00
         0.00000E+00
         0.00000E+00
         0.00000E+00
         0.00000E+00
         0.00000E+00
         0.00000E+00
         0.00000E+00
         0.00000E+00
         0.00000E+00
         0.00000E+00
         0.00000E+00
         0.00000E+00
         0.00000E+00
         0.00000E+00
         0.00000E+00
         0.00000E+00
         0.00000E+00
         0.00000E+00
         0.00000E+00
         0.00000E+00
         0.00000E+00
         0.00000E+00
         0.00000E+00
         0.00000E+00
         0.00000E+00
         0.00000E+00
         0.00000E+00
         0.00000E+00
         0.00000E+00
         0.00000E+00
         0.00000E+00
         0.00000E+00
         0.00000E+00
         0.00000E+00
         0.00000E+00
         0.00000E+00
         0.00000E+00
         0.00000E+00
         0.00000E+00
         0.00000E+00
         0.00000E+00
         0.00000E+00
         0.00000E+00
         0.00000E+00
         0.00000E+00
         0.00000E+00
         0.00000E+00
         0.00000E+00
         0.00000E+00
         0.00000E+00
         0.00000E+00
         0.00000E+00
         0.00000E+00
         0.00000E+00
         0.00000E+00
         0.00000E+00
         0.00000E+00
         0.00000E+00
         0.00000E+00
         0.00000E+00
         0.00000E+00
         0.00000E+00
         0.00000E+00
         0.00000E+00
         0.00000E+00
         0.00000E+00
         0.00000E+00
         0.00000E+00
         0.00000E+00
         0.00000E+00
         0.00000E+00
         0.00000E+00
         0.00000E+00
         0.00000E+00
         0.00000E+00
         0.00000E+00
         0.00000E+00
         0.00000E+00
         0.00000E+00
         0.00000E+00
         0.00000E+00
         0.00000E+00
         0.00000E+00
         0.00000E+00
         0.00000E+00
         0.00000E+00
         0.00000E+00
         0.00000E+00
         0.00000E+00
         0.00000E+00
         0.00000E+00
         0.00000E+00
         0.00000E+00
         0.00000E+00
         0.00000E+00
         0.00000E+00
         0.00000E+00
         0.00000E+00
         0.00000E+00
         0.00000E+00
         0.00000E+00
         0.00000E+00
         0.00000E+00
         0.00000E+00
         0.00000E+00
         0.00000E+00
         0.00000E+00
         0.00000E+00
         0.00000E+00
         0.00000E+00
         0.00000E+00
         0.00000E+00
         0.00000E+00
         0.00000E+00
         0.00000E+00
         0.00000E+00
         0.00000E+00
         0.00000E+00
         0.00000E+00
         0.00000E+00
         0.00000E+00
         0.00000E+00
         0.00000E+00
         0.00000E+00
         0.00000E+00
         0.00000E+00
         0.00000E+00
         0.00000E+00
         0.00000E+00
         0.00000E+00
         0.00000E+00
         0.00000E+00
         0.00000E+00
         0.00000E+00
         0.00000E+00
         0.00000E+00
         0.00000E+00
         0.00000E+00
         0.00000E+00
         0.00000E+00
         0.00000E+00
         0.00000E+00
         0.00000E+00
         0.00000E+00
         0.00000E+00
         0.00000E+00
         0.00000E+00
         0.00000E+00
         0.00000E+00
         0.00000E+00
         0.00000E+00
         0.00000E+00
         0.00000E+00
         0.00000E+00
         0.00000E+00
         0.00000E+00
         0.00000E+00
         0.00000E+00
         0.00000E+00
         0.00000E+00
         0.00000E+00
         0.00000E+00
         0.00000E+00
         0.00000E+00
         0.00000E+00
         0.00000E+00
         0.00000E+00
         0.00000E+00
         0.00000E+00
         0.00000E+00
         0.00000E+00
         0.00000E+00
         0.00000E+00
         0.00000E+00
         0.00000E+00
         0.00000E+00
         0.00000E+00
         0.00000E+00
         0.00000E+00
         0.00000E+00
         0.00000E+00
         0.00000E+00
         0.00000E+00
         0.00000E+00
         0.00000E+00
         0.00000E+00
         0.00000E+00
         0.00000E+00
         0.00000E+00
         0.00000E+00
         0.00000E+00
         0.00000E+00
         0.00000E+00
         0.00000E+00
         0.00000E+00
         0.00000E+00
         0.00000E+00
         0.00000E+00
         0.00000E+00
         0.00000E+00
         0.00000E+00
         0.00000E+00
         0.00000E+00
         0.00000E+00
         0.00000E+00
         0.00000E+00
         0.00000E+00
         0.00000E+00
         0.00000E+00
         0.00000E+00
         0.00000E+00
         0.00000E+00
         0.00000E+00
         0.00000E+00
         0.00000E+00
         0.00000E+00
         0.00000E+00
         0.00000E+00
         0.00000E+00
         0.00000E+00
         0.00000E+00
         0.00000E+00
         0.00000E+00
         0.00000E+00
         0.00000E+00
         0.00000E+00
         0.00000E+00
         0.00000E+00
         0.00000E+00
         0.00000E+00
         0.00000E+00
         0.00000E+00
         0.00000E+00
         0.00000E+00
         0.00000E+00
         0.00000E+00
         0.00000E+00
         0.00000E+00
         0.00000E+00
         0.00000E+00
         0.00000E+00
         0.00000E+00
         0.00000E+00
         0.00000E+00
         0.00000E+00
         0.00000E+00
         0.00000E+00
         0.00000E+00
         0.00000E+00
         0.00000E+00
         0.00000E+00
         0.00000E+00
         0.00000E+00
         0.00000E+00
         0.00000E+00
         0.00000E+00
         0.00000E+00
         0.00000E+00
         0.00000E+00
         0.00000E+00
         0.00000E+00
         0.00000E+00
         0.00000E+00
         0.00000E+00
         0.00000E+00
         0.00000E+00
         0.00000E+00
         0.00000E+00
         0.00000E+00
         0.00000E+00
         0.00000E+00
         0.00000E+00
         0.00000E+00
         0.00000E+00
         0.00000E+00
         0.00000E+00
         0.00000E+00
         0.00000E+00
         0.00000E+00
         0.00000E+00
         0.00000E+00
         0.00000E+00
         0.00000E+00
         0.00000E+00
         0.00000E+00
         0.00000E+00
         0.00000E+00
         0.00000E+00
         0.00000E+00
         0.00000E+00
         0.00000E+00
         0.00000E+00
         0.00000E+00
         0.00000E+00
         0.00000E+00
         0.00000E+00
         0.00000E+00
         0.00000E+00
         0.00000E+00
         0.00000E+00
         0.00000E+00
         0.00000E+00
         0.00000E+00
         0.00000E+00
         0.00000E+00
         0.00000E+00
         0.00000E+00
         0.00000E+00
         0.00000E+00
         0.00000E+00
         0.00000E+00
         0.00000E+00
         0.00000E+00
         0.00000E+00
         0.00000E+00
         0.00000E+00
         0.00000E+00
         0.00000E+00
         0.00000E+00
         0.00000E+00
         0.00000E+00
         0.00000E+00
         0.00000E+00
         0.00000E+00
         0.00000E+00
         0.00000E+00
         0.00000E+00
         0.00000E+00
         0.00000E+00
         0.00000E+00
         0.00000E+00
         0.00000E+00
         0.00000E+00
         0.00000E+00
         0.00000E+00
         0.00000E+00
         0.00000E+00
         0.00000E+00
         0.00000E+00
         0.00000E+00
         0.00000E+00
         0.00000E+00
         0.00000E+00
         0.00000E+00
         0.00000E+00
         0.00000E+00
         0.00000E+00
         0.00000E+00
         0.00000E+00
         0.00000E+00
         0.00000E+00
         0.00000E+00
         0.00000E+00
         0.00000E+00
         0.00000E+00
         0.00000E+00
         0.00000E+00
         0.00000E+00
         0.00000E+00
         0.00000E+00
         0.00000E+00
         0.00000E+00
         0.00000E+00
         0.00000E+00
         0.00000E+00
         0.00000E+00
         0.00000E+00
         0.00000E+00
         0.00000E+00
         0.00000E+00
         0.00000E+00
         0.00000E+00
         0.00000E+00
         0.00000E+00
         0.00000E+00
         0.00000E+00
         0.00000E+00
         0.00000E+00
         0.00000E+00
         0.00000E+00
         0.00000E+00
         0.00000E+00
         0.00000E+00
         0.00000E+00
         0.00000E+00
         0.00000E+00
         0.00000E+00
         0.00000E+00
         0.00000E+00
         0.00000E+00
         0.00000E+00
         0.00000E+00
         0.00000E+00
         0.00000E+00
         0.00000E+00
         0.00000E+00
         0.00000E+00
         0.00000E+00
         0.00000E+00
         0.00000E+00
         0.00000E+00
         0.00000E+00
         0.00000E+00
         0.00000E+00
         0.00000E+00
         0.00000E+00
         0.00000E+00
         0.00000E+00
         0.00000E+00
         0.00000E+00
         0.00000E+00
         0.00000E+00
         0.00000E+00
         0.00000E+00
         0.00000E+00
         0.00000E+00
         0.00000E+00
         0.00000E+00
         0.00000E+00
         0.00000E+00
         0.00000E+00
         0.00000E+00
         0.00000E+00
         0.00000E+00
         0.00000E+00
         0.00000E+00
         0.00000E+00
         0.00000E+00
         0.00000E+00
         0.00000E+00
         0.00000E+00
         0.00000E+00
         0.00000E+00
         0.00000E+00
         0.00000E+00
         0.00000E+00
         0.00000E+00
         0.00000E+00
         0.00000E+00
         0.00000E+00
         0.00000E+00
         0.00000E+00
         0.00000E+00
         0.00000E+00
         0.00000E+00
         0.00000E+00
         0.00000E+00
         0.00000E+00
         0.00000E+00
         0.00000E+00
         0.00000E+00
         0.00000E+00
         0.00000E+00
         0.00000E+00
         0.00000E+00
         0.00000E+00
         0.00000E+00
         0.00000E+00
         0.00000E+00
         0.00000E+00
         0.00000E+00
         0.00000E+00
         0.00000E+00
         0.00000E+00
         0.00000E+00
         0.00000E+00
         0.00000E+00
         0.00000E+00
         0.00000E+00
         0.00000E+00
         0.00000E+00
         0.00000E+00
         0.00000E+00
         0.00000E+00
         0.00000E+00
         0.00000E+00
         0.00000E+00
         0.00000E+00
         0.00000E+00
         0.00000E+00
         0.00000E+00
         0.00000E+00
         0.00000E+00
         0.00000E+00
         0.00000E+00
         0.00000E+00
         0.00000E+00
         0.00000E+00
         0.00000E+00
         0.00000E+00
         0.00000E+00
         0.00000E+00
         0.00000E+00
         0.00000E+00
         0.00000E+00
         0.00000E+00
         0.00000E+00
         0.00000E+00
         0.00000E+00
         0.00000E+00
         0.00000E+00
         0.00000E+00
         0.00000E+00
         0.00000E+00
         0.00000E+00
         0.00000E+00
         0.00000E+00
         0.00000E+00
         0.00000E+00
         0.00000E+00
         0.00000E+00
         0.00000E+00
         0.00000E+00
         0.00000E+00
         0.00000E+00
         0.00000E+00
         0.00000E+00
         0.00000E+00
         0.00000E+00
         0.00000E+00
         0.00000E+00
         0.00000E+00
         0.00000E+00
         0.00000E+00
         0.00000E+00
         0.00000E+00
         0.00000E+00
         0.00000E+00
         0.00000E+00
         0.00000E+00
         0.00000E+00
         0.00000E+00
         0.00000E+00
         0.00000E+00
         0.00000E+00
         0.00000E+00
         0.00000E+00
         0.00000E+00
         0.00000E+00
         0.00000E+00
         0.00000E+00
         0.00000E+00
         0.00000E+00
         0.00000E+00
         0.00000E+00
         0.00000E+00
         0.00000E+00
         0.00000E+00
         0.00000E+00
         0.00000E+00
         0.00000E+00
         0.00000E+00
         0.00000E+00
         0.00000E+00
         0.00000E+00
         0.00000E+00
         0.00000E+00
         0.00000E+00
         0.00000E+00
         0.00000E+00
         0.00000E+00
         0.00000E+00
         0.00000E+00
         0.00000E+00
         0.00000E+00
         0.00000E+00
         0.00000E+00
         0.00000E+00
         0.00000E+00
         0.00000E+00
         0.00000E+00
         0.00000E+00
         0.00000E+00
         0.00000E+00
         0.00000E+00
         0.00000E+00
         0.00000E+00
         0.00000E+00
         0.00000E+00
         0.00000E+00
         0.00000E+00
         0.00000E+00
         0.00000E+00
         0.00000E+00
         0.00000E+00
         0.00000E+00
         0.00000E+00
         0.00000E+00
         0.00000E+00
         0.00000E+00
         0.00000E+00
         0.00000E+00
         0.00000E+00
         0.00000E+00
         0.00000E+00
         0.00000E+00
         0.00000E+00
         0.00000E+00
         0.00000E+00
         0.00000E+00
         0.00000E+00
         0.00000E+00
         0.00000E+00
         0.00000E+00
         0.00000E+00
         0.00000E+00
         0.00000E+00
         0.00000E+00
         0.00000E+00
         0.00000E+00
         0.00000E+00
         0.00000E+00
         0.00000E+00
         0.00000E+00
         0.00000E+00
         0.00000E+00
         0.00000E+00
         0.00000E+00
         0.00000E+00
         0.00000E+00
         0.00000E+00
         0.00000E+00
         0.00000E+00
         0.00000E+00
         0.00000E+00
         0.00000E+00
         0.00000E+00
         0.00000E+00
         0.00000E+00
         0.00000E+00
         0.00000E+00
         0.00000E+00
         0.00000E+00
         0.00000E+00
         0.00000E+00
         0.00000E+00
         0.00000E+00
         0.00000E+00
         0.00000E+00
         0.00000E+00
         0.00000E+00
         0.00000E+00
         0.00000E+00
         0.00000E+00
         0.00000E+00
         0.00000E+00
         0.00000E+00
         0.00000E+00
         0.00000E+00
         0.00000E+00
         0.00000E+00
         0.00000E+00
         0.00000E+00
         0.00000E+00
         0.00000E+00
         0.00000E+00
         0.00000E+00
         0.00000E+00
         0.00000E+00
         0.00000E+00
         0.00000E+00
         0.00000E+00
         0.00000E+00
         0.00000E+00
         0.00000E+00
         0.00000E+00
         0.00000E+00
         0.00000E+00
         0.00000E+00
         0.00000E+00
         0.00000E+00
         0.00000E+00
         0.00000E+00
         0.00000E+00
         0.00000E+00
         0.00000E+00
         0.00000E+00
         0.00000E+00
         0.00000E+00
         0.00000E+00
         0.00000E+00
         0.00000E+00
         0.00000E+00
         0.00000E+00
         0.00000E+00
         0.00000E+00
         0.00000E+00
         0.00000E+00
         0.00000E+00
         0.00000E+00
         0.00000E+00
         0.00000E+00
         0.00000E+00
         0.00000E+00
         0.00000E+00
         0.00000E+00
         0.00000E+00
         0.00000E+00
         0.00000E+00
         0.00000E+00
         0.00000E+00
         0.00000E+00
         0.00000E+00
         0.00000E+00
         0.00000E+00
         0.00000E+00
         0.00000E+00
         0.00000E+00
         0.00000E+00
         0.00000E+00
         0.00000E+00
         0.00000E+00
         0.00000E+00
         0.00000E+00
         0.00000E+00
         0.00000E+00
         0.00000E+00
         0.00000E+00
         0.00000E+00
         0.00000E+00
         0.00000E+00
         0.00000E+00
         0.00000E+00
         0.00000E+00
         0.00000E+00
         0.00000E+00
         0.00000E+00
         0.00000E+00
         0.00000E+00
         0.00000E+00
         0.00000E+00
         0.00000E+00
         0.00000E+00
         0.00000E+00
         0.00000E+00
         0.00000E+00
         0.00000E+00
         0.00000E+00
         0.00000E+00
         0.00000E+00
         0.00000E+00
         0.00000E+00
         0.00000E+00
         0.00000E+00
         0.00000E+00
         0.00000E+00
         0.00000E+00
         0.00000E+00
         0.00000E+00
         0.00000E+00
         0.00000E+00
         0.00000E+00
         0.00000E+00
         0.00000E+00
         0.00000E+00
         0.00000E+00
         0.00000E+00
         0.00000E+00
         0.00000E+00
         0.00000E+00
         0.00000E+00
         0.00000E+00
         0.00000E+00
         0.00000E+00
         0.00000E+00
         0.00000E+00
         0.00000E+00
         0.00000E+00
         0.00000E+00
         0.00000E+00
         0.00000E+00
         0.00000E+00
         0.00000E+00
         0.00000E+00
         0.00000E+00
         0.00000E+00
         0.00000E+00
         0.00000E+00
         0.00000E+00
         0.00000E+00
         0.00000E+00
         0.00000E+00
         0.00000E+00
         0.00000E+00
         0.00000E+00
         0.00000E+00
         0.00000E+00
         0.00000E+00
         0.00000E+00
         0.00000E+00
         0.00000E+00
         0.00000E+00
         0.00000E+00
         0.00000E+00
         0.00000E+00
         0.00000E+00
         0.00000E+00
         0.00000E+00
         0.00000E+00
         0.00000E+00
         0.00000E+00
         0.00000E+00
         0.00000E+00
         0.00000E+00
         0.00000E+00
         0.00000E+00
         0.00000E+00
         0.00000E+00
         0.00000E+00
         0.00000E+00
         0.00000E+00
         0.00000E+00
         0.00000E+00
         0.00000E+00
         0.00000E+00
         0.00000E+00
         0.00000E+00
         0.00000E+00
         0.00000E+00
         0.00000E+00
         0.00000E+00
         0.00000E+00
         0.00000E+00
         0.00000E+00
         0.00000E+00
         0.00000E+00
         0.00000E+00
         0.00000E+00
         0.00000E+00
         0.00000E+00
         0.00000E+00
         0.00000E+00
         0.00000E+00
         0.00000E+00
         0.00000E+00
         0.00000E+00
         0.00000E+00
         0.00000E+00
         0.00000E+00
         0.00000E+00
         0.00000E+00
         0.00000E+00
         0.00000E+00
         0.00000E+00
         0.00000E+00
         0.00000E+00
         0.00000E+00
         0.00000E+00
         0.00000E+00
         0.00000E+00
         0.00000E+00
         0.00000E+00
         0.00000E+00
         0.00000E+00
         0.00000E+00
         0.00000E+00
         0.00000E+00
         0.00000E+00
         0.00000E+00
         0.00000E+00
         0.00000E+00
         0.00000E+00
         0.00000E+00
         0.00000E+00
         0.00000E+00
         0.00000E+00
         0.00000E+00
         0.00000E+00
         0.00000E+00
         0.00000E+00
         0.00000E+00
         0.00000E+00
         0.00000E+00
         0.00000E+00
         0.00000E+00
         0.00000E+00
         0.00000E+00
         0.00000E+00
         0.00000E+00
         0.00000E+00
         0.00000E+00
         0.00000E+00
         0.00000E+00
         0.00000E+00
         0.00000E+00
         0.00000E+00
         0.00000E+00
         0.00000E+00
         0.00000E+00
         0.00000E+00
         0.00000E+00
         0.00000E+00
         0.00000E+00
         0.00000E+00
         0.00000E+00
         0.00000E+00
         0.00000E+00
         0.00000E+00
         0.00000E+00
         0.00000E+00
         0.00000E+00
         0.00000E+00
         0.00000E+00
         0.00000E+00
         0.00000E+00
         0.00000E+00
         0.00000E+00
         0.00000E+00
         0.00000E+00
         0.00000E+00
         0.00000E+00
         0.00000E+00
         0.00000E+00
         0.00000E+00
         0.00000E+00
         0.00000E+00
         0.00000E+00
         0.00000E+00
         0.00000E+00
         0.00000E+00
         0.00000E+00
         0.00000E+00
         0.00000E+00
         0.00000E+00
         0.00000E+00
         0.00000E+00
         0.00000E+00
         0.00000E+00
         0.00000E+00
         0.00000E+00
         0.00000E+00
         0.00000E+00
         0.00000E+00
         0.00000E+00
         0.00000E+00
         0.00000E+00
         0.00000E+00
         0.00000E+00
         0.00000E+00
         0.00000E+00
  
SCALARS                 displacement_z  double 1
LOOKUP_TABLE default
        -0.74744E-02
        -0.74625E-02
        -0.74607E-02
        -0.74827E-02
        -0.45932E-16
        -0.51504E-16
        -0.49317E-16
        -0.44804E-16
        -0.74384E-02
        -0.74647E-02
        -0.46316E-16
        -0.44823E-16
        -0.74496E-02
        -0.74664E-02
        -0.55031E-16
        -0.51743E-16
        -0.74754E-02
        -0.74786E-02
        -0.40664E-16
        -0.45101E-16
        -0.74405E-02
        -0.74304E-02
        -0.74353E-02
        -0.54542E-16
        -0.47633E-16
        -0.49187E-16
        -0.74614E-02
        -0.74547E-02
        -0.52324E-16
        -0.44127E-16
        -0.74848E-02
        -0.74906E-02
        -0.74808E-02
        -0.44654E-16
        -0.41513E-16
        -0.40361E-16
        -0.74611E-02
        -0.74852E-02
        -0.47241E-16
        -0.43108E-16
        -0.74541E-02
        -0.74744E-02
        -0.40830E-16
        -0.36146E-16
        -0.74353E-02
        -0.74448E-02
        -0.44744E-16
        -0.49995E-16
        -0.74923E-02
        -0.43710E-16
        -0.74580E-02
        -0.51362E-16
        -0.74833E-02
        -0.46157E-16
        -0.74907E-02
        -0.44275E-16
        -0.74705E-02
        -0.74865E-02
        -0.45112E-16
        -0.43935E-16
        -0.74794E-02
        -0.74579E-02
        -0.45237E-16
        -0.51140E-16
        -0.74781E-02
        -0.43652E-16
        -0.74692E-02
        -0.47641E-16
        -0.74050E-02
        -0.74310E-02
        -0.45857E-16
        -0.48050E-16
        -0.74406E-02
        -0.48453E-16
        -0.74685E-02
        -0.38281E-16
        -0.74659E-02
        -0.37157E-16
        -0.74415E-02
        -0.39179E-16
        -0.74136E-02
        -0.74485E-02
        -0.37329E-16
        -0.38918E-16
        -0.74768E-02
        -0.36247E-16
        -0.74377E-02
        -0.47532E-16
        -0.74276E-02
        -0.48648E-16
        -0.74023E-02
        -0.74367E-02
        -0.46718E-16
        -0.47264E-16
        -0.74601E-02
        -0.42929E-16
        -0.74567E-02
        -0.42317E-16
        -0.74380E-02
        -0.45301E-16
        -0.74113E-02
        -0.74425E-02
        -0.44424E-16
        -0.45728E-16
        -0.73338E-02
        -0.73461E-02
        -0.34490E-16
        -0.32441E-16
        -0.73447E-02
        -0.32934E-16
        -0.73358E-02
        -0.31578E-16
        -0.73366E-02
        -0.31138E-16
        -0.73354E-02
        -0.29426E-16
        -0.73425E-02
        -0.26142E-16
        -0.73456E-02
        -0.23540E-16
        -0.73438E-02
        -0.23376E-16
        -0.73423E-02
        -0.25350E-16
        -0.73315E-02
        -0.26642E-16
        -0.73453E-02
        -0.24327E-16
        -0.73502E-02
        -0.21928E-16
        -0.73490E-02
        -0.21903E-16
        -0.73434E-02
        -0.24482E-16
        -0.73379E-02
        -0.27915E-16
        -0.73350E-02
        -0.29989E-16
        -0.73436E-02
        -0.32388E-16
        -0.73353E-02
        -0.34699E-16
        -0.73479E-02
        -0.31787E-16
        -0.73436E-02
        -0.27886E-16
        -0.73395E-02
        -0.27799E-16
        -0.73466E-02
        -0.30416E-16
        -0.73367E-02
        -0.32426E-16
        -0.73467E-02
        -0.30772E-16
        -0.73469E-02
        -0.29749E-16
        -0.10535E-01
        -0.10533E-01
        -0.10533E-01
        -0.10536E-01
        -0.10529E-01
        -0.10533E-01
        -0.10531E-01
        -0.10533E-01
        -0.10535E-01
        -0.10536E-01
        -0.10530E-01
        -0.10528E-01
        -0.10529E-01
        -0.10533E-01
        -0.10532E-01
        -0.10536E-01
        -0.10537E-01
        -0.10536E-01
        -0.10533E-01
        -0.10537E-01
        -0.10532E-01
        -0.10535E-01
        -0.10529E-01
        -0.10530E-01
        -0.10538E-01
        -0.10532E-01
        -0.10536E-01
        -0.10537E-01
        -0.10534E-01
        -0.10537E-01
        -0.10536E-01
        -0.10532E-01
        -0.10535E-01
        -0.10534E-01
        -0.10525E-01
        -0.10528E-01
        -0.10529E-01
        -0.10534E-01
        -0.10534E-01
        -0.10530E-01
        -0.10526E-01
        -0.10531E-01
        -0.10535E-01
        -0.10529E-01
        -0.10527E-01
        -0.10524E-01
        -0.10529E-01
        -0.10533E-01
        -0.10532E-01
        -0.10529E-01
        -0.10526E-01
        -0.10530E-01
        -0.10517E-01
        -0.10519E-01
        -0.10519E-01
        -0.10518E-01
        -0.10518E-01
        -0.10518E-01
        -0.10519E-01
        -0.10519E-01
        -0.10519E-01
        -0.10518E-01
        -0.10516E-01
        -0.10519E-01
        -0.10520E-01
        -0.10520E-01
        -0.10519E-01
        -0.10518E-01
        -0.10518E-01
        -0.10519E-01
        -0.10517E-01
        -0.10520E-01
        -0.10519E-01
        -0.10518E-01
        -0.10519E-01
        -0.10517E-01
        -0.10519E-01
        -0.10520E-01
        -0.10786E-01
        -0.10786E-01
        -0.10786E-01
        -0.10786E-01
        -0.10786E-01
        -0.10786E-01
        -0.10786E-01
        -0.10786E-01
        -0.10786E-01
        -0.10786E-01
        -0.10786E-01
        -0.10786E-01
        -0.10786E-01
        -0.10786E-01
        -0.10786E-01
        -0.10786E-01
        -0.10786E-01
        -0.10786E-01
        -0.10786E-01
        -0.10786E-01
        -0.10786E-01
        -0.10786E-01
        -0.10786E-01
        -0.10786E-01
        -0.10786E-01
        -0.10786E-01
        -0.10786E-01
        -0.10786E-01
        -0.10786E-01
        -0.10786E-01
        -0.10786E-01
        -0.10786E-01
        -0.10786E-01
        -0.10786E-01
        -0.10786E-01
        -0.10786E-01
        -0.10786E-01
        -0.10786E-01
        -0.10786E-01
        -0.10786E-01
        -0.10786E-01
        -0.10786E-01
        -0.10786E-01
        -0.10786E-01
        -0.10786E-01
        -0.10786E-01
        -0.10786E-01
        -0.10786E-01
        -0.10786E-01
        -0.10786E-01
        -0.10786E-01
        -0.10786E-01
        -0.10786E-01
        -0.10786E-01
        -0.10786E-01
        -0.10786E-01
        -0.10786E-01
        -0.10786E-01
        -0.10786E-01
        -0.10786E-01
        -0.10786E-01
        -0.10786E-01
        -0.10786E-01
        -0.10786E-01
        -0.10786E-01
        -0.10786E-01
        -0.10786E-01
        -0.10786E-01
        -0.10786E-01
        -0.10786E-01
        -0.10786E-01
        -0.10786E-01
        -0.10786E-01
        -0.10786E-01
        -0.10786E-01
        -0.10786E-01
        -0.10786E-01
        -0.10786E-01
        -0.10786E-01
        -0.10786E-01
        -0.10786E-01
        -0.10786E-01
        -0.10786E-01
        -0.10786E-01
        -0.10786E-01
        -0.10786E-01
        -0.10786E-01
        -0.10786E-01
        -0.10786E-01
        -0.10786E-01
        -0.10786E-01
        -0.10786E-01
        -0.10786E-01
        -0.10786E-01
        -0.10786E-01
        -0.10786E-01
        -0.10786E-01
        -0.10786E-01
        -0.10786E-01
        -0.10786E-01
        -0.10786E-01
        -0.10786E-01
        -0.10786E-01
        -0.10786E-01
        -0.10786E-01
        -0.10786E-01
        -0.10786E-01
        -0.10786E-01
        -0.10786E-01
        -0.10786E-01
        -0.10786E-01
        -0.10786E-01
        -0.10786E-01
        -0.10786E-01
        -0.10786E-01
        -0.10786E-01
        -0.10786E-01
        -0.10786E-01
        -0.10786E-01
        -0.10786E-01
        -0.10786E-01
        -0.10786E-01
        -0.10786E-01
        -0.10786E-01
        -0.10786E-01
        -0.10786E-01
        -0.10786E-01
        -0.10786E-01
        -0.10786E-01
        -0.10786E-01
        -0.10786E-01
        -0.10786E-01
        -0.10786E-01
        -0.10786E-01
        -0.10786E-01
        -0.10786E-01
        -0.10786E-01
        -0.10786E-01
        -0.10786E-01
        -0.10786E-01
        -0.10786E-01
        -0.10786E-01
        -0.10786E-01
        -0.10786E-01
        -0.10786E-01
        -0.10786E-01
        -0.10786E-01
        -0.10786E-01
        -0.10786E-01
        -0.10786E-01
        -0.10786E-01
        -0.10786E-01
        -0.10786E-01
        -0.10786E-01
        -0.10786E-01
        -0.10786E-01
        -0.10786E-01
        -0.10786E-01
        -0.10786E-01
        -0.10786E-01
        -0.10786E-01
        -0.10786E-01
        -0.10786E-01
        -0.10786E-01
        -0.10786E-01
        -0.10786E-01
        -0.10786E-01
        -0.10786E-01
        -0.10786E-01
        -0.10786E-01
        -0.10786E-01
        -0.10786E-01
        -0.10786E-01
        -0.10786E-01
        -0.10786E-01
        -0.10786E-01
        -0.10786E-01
        -0.10786E-01
        -0.10786E-01
        -0.10786E-01
        -0.10786E-01
        -0.10786E-01
        -0.10786E-01
        -0.10786E-01
        -0.10786E-01
        -0.10786E-01
        -0.10786E-01
        -0.10786E-01
        -0.10786E-01
        -0.10786E-01
        -0.10786E-01
        -0.10786E-01
        -0.10786E-01
        -0.10786E-01
        -0.10786E-01
        -0.10786E-01
        -0.10786E-01
        -0.10786E-01
        -0.10786E-01
        -0.10786E-01
        -0.10786E-01
        -0.10786E-01
        -0.10786E-01
        -0.10786E-01
        -0.10786E-01
        -0.10786E-01
        -0.10786E-01
        -0.10786E-01
        -0.10786E-01
        -0.10786E-01
        -0.10786E-01
        -0.10786E-01
        -0.10786E-01
        -0.10786E-01
        -0.10786E-01
        -0.10786E-01
        -0.10786E-01
        -0.10786E-01
        -0.10786E-01
        -0.10786E-01
        -0.10786E-01
        -0.10786E-01
        -0.10786E-01
        -0.10786E-01
        -0.10786E-01
        -0.10786E-01
        -0.10786E-01
        -0.10786E-01
        -0.10786E-01
        -0.10786E-01
        -0.10786E-01
        -0.10786E-01
        -0.10786E-01
        -0.10786E-01
        -0.10786E-01
        -0.10786E-01
        -0.10786E-01
        -0.10786E-01
        -0.10786E-01
        -0.10786E-01
        -0.10786E-01
        -0.10786E-01
        -0.10786E-01
        -0.10786E-01
        -0.10786E-01
        -0.10786E-01
        -0.10786E-01
        -0.10786E-01
        -0.10786E-01
        -0.10786E-01
        -0.10786E-01
        -0.10786E-01
        -0.10786E-01
        -0.10786E-01
        -0.10786E-01
        -0.10786E-01
        -0.10786E-01
        -0.10786E-01
        -0.10786E-01
        -0.10786E-01
        -0.10786E-01
        -0.10786E-01
        -0.10786E-01
        -0.10786E-01
        -0.10786E-01
        -0.10786E-01
        -0.10786E-01
        -0.10786E-01
        -0.10786E-01
        -0.10786E-01
        -0.10786E-01
        -0.10786E-01
        -0.10786E-01
        -0.10786E-01
        -0.10786E-01
        -0.10786E-01
        -0.10786E-01
        -0.10786E-01
        -0.10786E-01
        -0.10786E-01
        -0.10786E-01
        -0.10786E-01
        -0.10786E-01
        -0.10786E-01
        -0.10786E-01
        -0.10786E-01
        -0.10786E-01
        -0.10786E-01
        -0.10786E-01
        -0.10786E-01
        -0.10786E-01
        -0.10786E-01
        -0.10786E-01
        -0.10786E-01
        -0.10786E-01
        -0.10786E-01
        -0.10786E-01
        -0.10786E-01
        -0.10786E-01
        -0.10786E-01
        -0.10786E-01
        -0.10786E-01
        -0.10786E-01
        -0.10786E-01
        -0.10786E-01
        -0.10786E-01
        -0.10786E-01
        -0.10786E-01
        -0.10786E-01
        -0.10786E-01
        -0.10786E-01
        -0.10786E-01
        -0.10786E-01
        -0.10786E-01
        -0.10786E-01
        -0.10786E-01
        -0.10786E-01
        -0.10786E-01
        -0.10786E-01
        -0.10786E-01
        -0.10786E-01
        -0.10786E-01
        -0.10786E-01
        -0.10786E-01
        -0.10786E-01
        -0.10786E-01
        -0.10786E-01
        -0.10786E-01
        -0.10786E-01
        -0.10786E-01
        -0.10786E-01
        -0.10786E-01
        -0.10786E-01
        -0.10786E-01
        -0.10786E-01
        -0.10786E-01
        -0.10786E-01
        -0.10786E-01
        -0.10786E-01
        -0.10786E-01
        -0.10786E-01
        -0.10786E-01
        -0.10786E-01
        -0.10786E-01
        -0.10786E-01
        -0.10786E-01
        -0.10786E-01
        -0.10786E-01
        -0.10786E-01
        -0.10786E-01
        -0.10786E-01
        -0.10786E-01
        -0.10786E-01
        -0.10786E-01
        -0.10786E-01
        -0.10786E-01
        -0.10786E-01
        -0.10786E-01
        -0.10786E-01
        -0.10786E-01
        -0.10786E-01
        -0.10786E-01
        -0.10786E-01
        -0.10786E-01
        -0.10786E-01
        -0.10786E-01
        -0.10786E-01
        -0.10786E-01
        -0.10786E-01
        -0.10786E-01
        -0.10786E-01
        -0.10786E-01
        -0.10786E-01
        -0.10786E-01
        -0.10786E-01
        -0.10786E-01
        -0.10786E-01
        -0.10786E-01
        -0.10786E-01
        -0.10786E-01
        -0.10786E-01
        -0.10786E-01
        -0.10786E-01
        -0.10786E-01
        -0.10786E-01
        -0.10786E-01
        -0.10786E-01
        -0.10786E-01
        -0.10786E-01
        -0.10786E-01
        -0.10786E-01
        -0.10786E-01
        -0.10786E-01
        -0.10786E-01
        -0.10786E-01
        -0.10786E-01
        -0.10786E-01
        -0.10786E-01
        -0.10786E-01
        -0.10786E-01
        -0.10786E-01
        -0.10786E-01
        -0.10786E-01
        -0.10786E-01
        -0.10786E-01
        -0.10786E-01
        -0.10786E-01
        -0.10786E-01
        -0.10786E-01
        -0.10786E-01
        -0.10786E-01
        -0.10786E-01
        -0.10786E-01
        -0.10786E-01
        -0.10786E-01
        -0.10786E-01
        -0.10786E-01
        -0.10786E-01
        -0.10786E-01
        -0.10786E-01
        -0.10786E-01
        -0.10786E-01
        -0.10786E-01
        -0.10786E-01
        -0.10786E-01
        -0.10786E-01
        -0.10786E-01
        -0.10786E-01
        -0.10786E-01
        -0.10786E-01
        -0.10786E-01
        -0.10786E-01
        -0.10786E-01
        -0.10786E-01
        -0.10786E-01
        -0.10786E-01
        -0.10786E-01
        -0.10786E-01
        -0.10786E-01
        -0.10786E-01
        -0.10786E-01
        -0.10786E-01
        -0.10786E-01
        -0.10786E-01
        -0.10786E-01
        -0.10786E-01
        -0.10786E-01
        -0.10786E-01
        -0.10786E-01
        -0.10786E-01
        -0.10786E-01
        -0.10786E-01
        -0.10786E-01
        -0.10786E-01
        -0.10786E-01
        -0.10786E-01
        -0.10786E-01
        -0.10786E-01
        -0.10786E-01
        -0.10786E-01
        -0.10786E-01
        -0.10786E-01
        -0.10786E-01
        -0.10786E-01
        -0.10786E-01
        -0.10786E-01
        -0.10786E-01
        -0.10786E-01
        -0.10786E-01
        -0.10786E-01
        -0.10786E-01
        -0.10786E-01
        -0.10786E-01
        -0.10786E-01
        -0.10786E-01
        -0.10786E-01
        -0.10786E-01
        -0.10786E-01
        -0.10786E-01
        -0.10786E-01
        -0.10786E-01
        -0.10786E-01
        -0.10786E-01
        -0.10786E-01
        -0.10786E-01
        -0.10786E-01
        -0.10786E-01
        -0.10786E-01
        -0.10786E-01
        -0.10786E-01
        -0.10786E-01
        -0.10786E-01
        -0.10786E-01
        -0.10786E-01
        -0.10786E-01
        -0.10786E-01
        -0.10786E-01
        -0.10786E-01
        -0.10786E-01
        -0.10786E-01
        -0.10786E-01
        -0.10786E-01
        -0.10786E-01
        -0.10786E-01
        -0.10786E-01
        -0.10786E-01
        -0.10786E-01
        -0.10786E-01
        -0.10786E-01
        -0.10786E-01
        -0.10786E-01
        -0.10786E-01
        -0.10786E-01
        -0.10786E-01
        -0.10786E-01
        -0.10786E-01
        -0.10786E-01
        -0.10786E-01
        -0.10786E-01
        -0.10786E-01
        -0.10786E-01
        -0.10786E-01
        -0.10786E-01
        -0.10786E-01
        -0.10786E-01
        -0.10786E-01
        -0.10786E-01
        -0.10786E-01
        -0.10786E-01
        -0.10786E-01
        -0.10786E-01
        -0.10786E-01
        -0.10786E-01
        -0.10786E-01
        -0.10786E-01
        -0.10786E-01
        -0.10786E-01
        -0.10786E-01
        -0.10786E-01
        -0.10786E-01
        -0.10786E-01
        -0.10786E-01
        -0.10786E-01
        -0.10786E-01
        -0.10786E-01
        -0.10786E-01
        -0.10786E-01
        -0.10786E-01
        -0.10786E-01
        -0.10786E-01
        -0.10786E-01
        -0.10786E-01
        -0.10786E-01
        -0.10786E-01
        -0.10786E-01
        -0.10786E-01
        -0.10786E-01
        -0.10786E-01
        -0.10786E-01
        -0.10786E-01
        -0.10786E-01
        -0.10786E-01
        -0.10786E-01
        -0.10786E-01
        -0.10786E-01
        -0.10786E-01
        -0.10786E-01
        -0.10786E-01
        -0.10786E-01
        -0.10786E-01
        -0.10786E-01
        -0.10786E-01
        -0.10786E-01
        -0.10786E-01
        -0.10786E-01
        -0.10786E-01
        -0.10786E-01
        -0.10786E-01
        -0.10786E-01
        -0.10786E-01
        -0.10786E-01
        -0.10786E-01
        -0.10786E-01
        -0.10786E-01
        -0.10786E-01
        -0.10786E-01
        -0.10786E-01
        -0.10786E-01
        -0.10786E-01
        -0.10786E-01
        -0.10786E-01
        -0.10786E-01
        -0.10786E-01
        -0.10786E-01
        -0.10786E-01
        -0.10786E-01
        -0.10786E-01
        -0.10786E-01
        -0.10786E-01
        -0.10786E-01
        -0.10786E-01
        -0.10786E-01
        -0.10786E-01
        -0.10786E-01
        -0.10786E-01
        -0.10786E-01
        -0.10786E-01
        -0.10786E-01
        -0.10786E-01
        -0.10786E-01
        -0.10786E-01
        -0.10786E-01
        -0.10786E-01
        -0.10786E-01
        -0.10786E-01
        -0.10786E-01
        -0.10786E-01
        -0.10786E-01
        -0.10786E-01
        -0.10786E-01
        -0.10786E-01
        -0.10786E-01
        -0.10786E-01
        -0.10786E-01
        -0.10786E-01
        -0.10786E-01
        -0.10786E-01
        -0.10786E-01
        -0.10786E-01
        -0.10786E-01
        -0.10786E-01
        -0.10786E-01
        -0.10786E-01
        -0.10786E-01
        -0.10786E-01
        -0.10786E-01
        -0.10786E-01
        -0.10786E-01
        -0.10786E-01
        -0.10786E-01
        -0.10786E-01
        -0.10786E-01
        -0.10786E-01
        -0.10786E-01
        -0.10786E-01
        -0.10786E-01
        -0.10786E-01
        -0.10786E-01
        -0.10786E-01
        -0.10786E-01
        -0.10786E-01
        -0.10786E-01
        -0.10786E-01
        -0.10786E-01
        -0.10786E-01
        -0.10786E-01
        -0.10786E-01
        -0.10786E-01
        -0.10786E-01
        -0.10786E-01
        -0.10786E-01
        -0.10786E-01
        -0.10786E-01
        -0.10786E-01
        -0.10786E-01
        -0.10786E-01
        -0.10786E-01
        -0.10786E-01
        -0.10786E-01
        -0.10786E-01
        -0.10786E-01
        -0.10786E-01
        -0.10786E-01
        -0.10786E-01
        -0.10786E-01
        -0.10786E-01
        -0.10786E-01
        -0.10786E-01
        -0.10786E-01
        -0.10786E-01
        -0.10786E-01
        -0.10786E-01
        -0.10786E-01
        -0.10786E-01
        -0.10786E-01
        -0.10786E-01
        -0.10786E-01
        -0.10786E-01
        -0.10786E-01
        -0.10786E-01
        -0.10786E-01
        -0.10786E-01
        -0.10786E-01
        -0.10786E-01
        -0.10786E-01
        -0.10786E-01
        -0.10786E-01
        -0.10786E-01
        -0.10786E-01
        -0.10786E-01
        -0.10786E-01
        -0.10786E-01
        -0.10786E-01
        -0.10786E-01
        -0.10786E-01
        -0.10786E-01
        -0.10786E-01
        -0.10786E-01
        -0.10786E-01
        -0.10786E-01
        -0.10786E-01
        -0.10786E-01
        -0.10786E-01
        -0.10786E-01
        -0.10786E-01
        -0.10786E-01
        -0.10786E-01
        -0.10786E-01
        -0.10786E-01
        -0.10786E-01
        -0.10786E-01
        -0.10786E-01
        -0.10786E-01
        -0.10786E-01
        -0.10786E-01
        -0.10786E-01
        -0.10786E-01
        -0.10786E-01
        -0.10786E-01
        -0.10786E-01
        -0.10786E-01
        -0.10786E-01
        -0.10786E-01
        -0.10786E-01
        -0.10786E-01
        -0.10786E-01
        -0.10786E-01
        -0.10786E-01
        -0.10786E-01
        -0.10786E-01
        -0.10786E-01
        -0.10786E-01
        -0.10786E-01
        -0.10786E-01
        -0.10786E-01
        -0.10786E-01
        -0.10786E-01
        -0.10786E-01
        -0.10786E-01
        -0.10786E-01
        -0.10786E-01
        -0.10786E-01
        -0.10786E-01
        -0.10786E-01
        -0.10786E-01
        -0.10786E-01
        -0.10786E-01
        -0.10786E-01
        -0.10786E-01
        -0.10786E-01
        -0.10786E-01
        -0.10786E-01
        -0.10786E-01
        -0.10786E-01
        -0.10786E-01
        -0.10786E-01
        -0.10786E-01
        -0.10786E-01
        -0.10786E-01
        -0.10786E-01
        -0.10786E-01
        -0.10786E-01
        -0.10786E-01
        -0.10786E-01
        -0.10786E-01
        -0.10786E-01
        -0.10786E-01
        -0.10786E-01
        -0.10786E-01
        -0.10786E-01
        -0.10786E-01
        -0.10786E-01
        -0.10786E-01
        -0.10786E-01
        -0.10786E-01
        -0.10786E-01
        -0.10786E-01
        -0.10786E-01
        -0.10786E-01
        -0.10786E-01
        -0.10786E-01
        -0.10786E-01
        -0.10786E-01
        -0.10786E-01
        -0.10786E-01
        -0.10786E-01
        -0.10786E-01
        -0.10786E-01
        -0.10786E-01
        -0.10786E-01
        -0.10786E-01
        -0.10786E-01
        -0.10786E-01
        -0.10786E-01
        -0.10786E-01
        -0.10786E-01
        -0.10786E-01
        -0.10786E-01
        -0.10786E-01
        -0.10786E-01
        -0.10786E-01
        -0.10786E-01
        -0.10786E-01
        -0.10786E-01
        -0.10786E-01
        -0.10786E-01
        -0.10786E-01
        -0.10786E-01
        -0.10786E-01
        -0.10786E-01
        -0.10786E-01
        -0.10786E-01
        -0.10786E-01
        -0.10786E-01
        -0.10786E-01
        -0.10786E-01
        -0.10786E-01
        -0.10786E-01
        -0.10786E-01
        -0.10786E-01
        -0.10786E-01
        -0.10786E-01
        -0.10786E-01
        -0.10786E-01
        -0.10786E-01
        -0.10786E-01
        -0.10786E-01
        -0.10786E-01
        -0.10786E-01
        -0.10786E-01
        -0.10786E-01
        -0.10786E-01
        -0.10786E-01
        -0.10786E-01
        -0.10786E-01
        -0.10786E-01
        -0.10786E-01
        -0.10786E-01
        -0.10786E-01
        -0.10786E-01
        -0.10786E-01
        -0.10786E-01
        -0.10786E-01
        -0.10786E-01
        -0.10786E-01
        -0.10786E-01
        -0.10786E-01
        -0.10786E-01
        -0.10786E-01
        -0.10786E-01
        -0.10786E-01
        -0.10786E-01
        -0.10786E-01
        -0.10786E-01
        -0.10786E-01
        -0.10786E-01
        -0.10786E-01
        -0.10786E-01
        -0.10786E-01
        -0.10786E-01
        -0.10786E-01
        -0.10786E-01
        -0.10786E-01
        -0.10786E-01
        -0.10786E-01
        -0.10786E-01
        -0.10786E-01
        -0.10786E-01
        -0.10786E-01
        -0.10786E-01
        -0.10786E-01
        -0.10786E-01
        -0.10786E-01
        -0.10786E-01
        -0.10786E-01
        -0.10786E-01
        -0.10786E-01
        -0.10786E-01
        -0.10786E-01
        -0.10786E-01
        -0.10786E-01
        -0.10786E-01
        -0.10786E-01
        -0.10786E-01
        -0.10786E-01
        -0.10786E-01
        -0.10786E-01
        -0.10786E-01
        -0.10786E-01
        -0.10786E-01
        -0.10786E-01
        -0.10786E-01
        -0.10786E-01
        -0.10786E-01
        -0.10786E-01
        -0.10786E-01
        -0.10786E-01
        -0.10786E-01
        -0.10786E-01
        -0.10786E-01
        -0.10786E-01
        -0.10786E-01
        -0.10786E-01
        -0.10786E-01
        -0.10786E-01
        -0.10786E-01
        -0.10786E-01
        -0.10786E-01
        -0.10786E-01
        -0.10786E-01
        -0.10786E-01
        -0.10786E-01
        -0.10786E-01
        -0.10786E-01
        -0.10786E-01
        -0.10786E-01
        -0.10786E-01
        -0.10786E-01
        -0.10786E-01
        -0.10786E-01
        -0.10786E-01
        -0.10786E-01
        -0.10786E-01
        -0.10786E-01
        -0.10786E-01
        -0.10786E-01
        -0.10786E-01
        -0.10786E-01
        -0.10786E-01
        -0.10786E-01
        -0.10786E-01
        -0.10786E-01
        -0.10786E-01
        -0.10786E-01
        -0.10786E-01
        -0.10786E-01
        -0.10786E-01
        -0.10786E-01
        -0.10786E-01
        -0.10786E-01
        -0.10786E-01
        -0.10786E-01
        -0.10786E-01
        -0.10786E-01
        -0.10786E-01
        -0.10786E-01
        -0.10786E-01
        -0.10786E-01
        -0.10786E-01
        -0.10786E-01
        -0.10786E-01
        -0.10786E-01
        -0.10786E-01
        -0.10786E-01
        -0.10786E-01
        -0.10786E-01
        -0.10786E-01
        -0.10786E-01
        -0.10786E-01
        -0.10786E-01
        -0.10786E-01
        -0.10786E-01
        -0.10786E-01
        -0.10786E-01
        -0.10786E-01
        -0.10786E-01
        -0.10786E-01
        -0.10786E-01
        -0.10786E-01
        -0.10786E-01
        -0.10786E-01
        -0.10786E-01
        -0.10786E-01
        -0.10786E-01
        -0.10786E-01
        -0.10786E-01
        -0.10786E-01
        -0.10786E-01
        -0.10786E-01
        -0.10786E-01
        -0.10786E-01
        -0.10786E-01
        -0.10786E-01
        -0.10786E-01
        -0.10786E-01
        -0.10786E-01
        -0.10786E-01
        -0.10786E-01
        -0.10786E-01
        -0.10786E-01
        -0.10786E-01
        -0.10786E-01
        -0.10786E-01
        -0.10786E-01
        -0.10786E-01
        -0.10786E-01
        -0.10786E-01
        -0.10786E-01
        -0.10786E-01
        -0.10786E-01
        -0.10786E-01
        -0.10786E-01
        -0.10786E-01
        -0.10786E-01
        -0.10786E-01
        -0.10786E-01
        -0.10786E-01
        -0.10786E-01
        -0.10786E-01
        -0.10786E-01
        -0.10786E-01
        -0.10786E-01
        -0.10786E-01
        -0.10786E-01
        -0.10786E-01
        -0.10786E-01
        -0.10786E-01
        -0.10786E-01
        -0.10786E-01
        -0.10786E-01
        -0.10786E-01
        -0.10786E-01
        -0.10786E-01
        -0.10786E-01
        -0.10786E-01
        -0.10786E-01
        -0.10786E-01
        -0.10786E-01
        -0.10786E-01
        -0.10786E-01
        -0.10786E-01
        -0.10786E-01
        -0.10786E-01
        -0.10786E-01
        -0.10786E-01
        -0.10786E-01
        -0.10786E-01
        -0.10786E-01
        -0.10786E-01
        -0.10786E-01
        -0.10786E-01
        -0.10786E-01
        -0.10786E-01
        -0.10786E-01
        -0.10786E-01
        -0.10786E-01
        -0.10786E-01
        -0.10786E-01
        -0.10786E-01
        -0.10786E-01
        -0.10786E-01
        -0.10786E-01
        -0.10786E-01
        -0.10786E-01
        -0.10786E-01
        -0.10786E-01
        -0.10786E-01
        -0.10786E-01
        -0.10786E-01
        -0.10786E-01
        -0.10786E-01
        -0.10786E-01
        -0.10786E-01
        -0.10786E-01
        -0.10786E-01
        -0.10786E-01
        -0.10786E-01
        -0.10786E-01
        -0.10786E-01
        -0.10786E-01
        -0.10786E-01
        -0.10786E-01
        -0.10786E-01
        -0.10786E-01
        -0.10786E-01
        -0.10786E-01
        -0.10786E-01
        -0.10786E-01
        -0.10786E-01
        -0.10786E-01
        -0.10786E-01
        -0.10786E-01
        -0.10786E-01
        -0.10786E-01
        -0.10786E-01
        -0.10786E-01
        -0.10786E-01
        -0.10786E-01
        -0.10786E-01
        -0.10786E-01
        -0.10786E-01
        -0.10786E-01
        -0.10786E-01
        -0.10786E-01
        -0.10786E-01
        -0.10786E-01
        -0.10786E-01
        -0.10786E-01
        -0.10786E-01
        -0.10786E-01
        -0.10786E-01
        -0.10786E-01
        -0.10786E-01
        -0.10786E-01
        -0.10786E-01
        -0.10786E-01
        -0.10786E-01
        -0.10786E-01
        -0.10786E-01
        -0.10786E-01
        -0.10786E-01
        -0.10786E-01
        -0.10786E-01
        -0.10786E-01
        -0.10786E-01
        -0.10786E-01
        -0.10786E-01
        -0.10786E-01
        -0.10786E-01
        -0.10786E-01
        -0.10786E-01
        -0.10786E-01
        -0.10786E-01
        -0.10786E-01
        -0.10786E-01
        -0.10786E-01
        -0.10786E-01
        -0.10786E-01
        -0.10786E-01
        -0.10786E-01
        -0.10786E-01
        -0.10786E-01
        -0.10786E-01
        -0.10786E-01
        -0.10786E-01
        -0.10786E-01
        -0.10786E-01
        -0.10786E-01
        -0.10786E-01
        -0.10786E-01
        -0.10786E-01
        -0.10786E-01
        -0.10786E-01
        -0.10786E-01
        -0.10786E-01
        -0.10786E-01
        -0.10786E-01
        -0.10786E-01
        -0.10786E-01
        -0.10786E-01
        -0.10786E-01
        -0.10786E-01
        -0.10786E-01
        -0.10786E-01
        -0.10786E-01
        -0.10786E-01
        -0.10786E-01
        -0.10786E-01
        -0.10786E-01
        -0.10786E-01
        -0.10786E-01
        -0.10786E-01
        -0.10786E-01
        -0.10786E-01
        -0.10786E-01
        -0.10786E-01
        -0.10786E-01
        -0.10786E-01
        -0.10786E-01
        -0.10786E-01
        -0.10786E-01
        -0.10786E-01
        -0.10786E-01
        -0.10786E-01
        -0.10786E-01
        -0.10786E-01
        -0.10786E-01
        -0.10786E-01
        -0.10786E-01
        -0.10786E-01
        -0.10786E-01
        -0.10786E-01
        -0.10786E-01
        -0.10786E-01
        -0.10786E-01
        -0.10786E-01
        -0.10786E-01
        -0.10786E-01
        -0.10786E-01
        -0.10786E-01
        -0.10786E-01
        -0.10786E-01
        -0.10786E-01
        -0.10786E-01
        -0.10786E-01
        -0.10786E-01
        -0.10786E-01
        -0.10786E-01
        -0.10786E-01
        -0.10786E-01
        -0.10786E-01
        -0.10786E-01
        -0.10786E-01
        -0.10786E-01
        -0.10786E-01
        -0.10786E-01
        -0.10786E-01
        -0.10786E-01
        -0.10786E-01
        -0.10786E-01
        -0.10786E-01
        -0.10786E-01
        -0.10786E-01
        -0.10786E-01
        -0.10786E-01
        -0.10786E-01
        -0.10786E-01
        -0.10786E-01
        -0.10786E-01
        -0.10786E-01
        -0.10786E-01
        -0.10786E-01
        -0.10786E-01
        -0.10786E-01
        -0.10786E-01
        -0.10786E-01
        -0.10786E-01
        -0.10786E-01
        -0.10786E-01
        -0.10786E-01
        -0.10786E-01
        -0.10786E-01
        -0.10786E-01
        -0.10786E-01
        -0.10786E-01
        -0.10786E-01
        -0.10786E-01
        -0.10786E-01
        -0.10786E-01
        -0.10786E-01
        -0.10786E-01
        -0.10786E-01
        -0.10786E-01
        -0.10786E-01
        -0.10786E-01
        -0.10786E-01
        -0.10786E-01
        -0.10786E-01
        -0.10786E-01
        -0.10786E-01
        -0.10786E-01
        -0.10786E-01
        -0.10786E-01
        -0.10786E-01
        -0.10786E-01
        -0.10786E-01
        -0.10786E-01
        -0.10786E-01
        -0.10786E-01
        -0.10786E-01
        -0.10786E-01
        -0.10786E-01
        -0.10786E-01
        -0.10786E-01
        -0.10786E-01
        -0.10786E-01
        -0.10786E-01
        -0.10786E-01
        -0.10786E-01
        -0.10786E-01
        -0.10786E-01
        -0.10786E-01
        -0.10786E-01
        -0.10786E-01
        -0.10786E-01
        -0.10786E-01
        -0.10786E-01
        -0.10786E-01
        -0.10786E-01
        -0.10786E-01
        -0.10786E-01
        -0.10786E-01
        -0.10786E-01
        -0.10786E-01
        -0.10786E-01
        -0.10786E-01
        -0.10786E-01
        -0.10786E-01
        -0.10786E-01
        -0.10786E-01
        -0.10786E-01
        -0.10786E-01
        -0.10786E-01
        -0.10786E-01
        -0.10786E-01
        -0.10786E-01
        -0.10786E-01
        -0.10786E-01
        -0.10786E-01
        -0.10786E-01
        -0.10786E-01
        -0.10786E-01
        -0.10786E-01
        -0.10786E-01
        -0.10786E-01
        -0.10786E-01
        -0.10786E-01
        -0.10786E-01
        -0.10786E-01
        -0.10786E-01
        -0.10786E-01
        -0.10786E-01
        -0.10786E-01
        -0.10786E-01
        -0.10786E-01
        -0.10786E-01
        -0.10786E-01
        -0.10786E-01
        -0.10786E-01
        -0.10786E-01
        -0.10786E-01
        -0.10786E-01
        -0.10786E-01
        -0.10786E-01
        -0.10786E-01
        -0.10786E-01
        -0.10786E-01
        -0.10786E-01
        -0.10786E-01
        -0.10786E-01
        -0.10786E-01
        -0.10786E-01
        -0.10786E-01
        -0.10786E-01
        -0.10786E-01
        -0.10786E-01
        -0.10786E-01
        -0.10786E-01
        -0.10786E-01
        -0.10786E-01
        -0.10786E-01
        -0.10786E-01
        -0.10786E-01
        -0.10786E-01
        -0.10786E-01
        -0.10786E-01
        -0.10786E-01
        -0.10786E-01
        -0.10786E-01
        -0.10786E-01
        -0.10786E-01
        -0.10786E-01
        -0.10786E-01
        -0.10786E-01
        -0.10786E-01
        -0.10786E-01
        -0.10786E-01
        -0.10786E-01
        -0.10786E-01
        -0.10786E-01
        -0.10786E-01
        -0.10786E-01
        -0.10786E-01
        -0.10786E-01
        -0.10786E-01
        -0.10786E-01
        -0.10786E-01
        -0.10786E-01
        -0.10786E-01
        -0.10786E-01
        -0.10786E-01
        -0.10786E-01
        -0.10786E-01
        -0.10786E-01
        -0.10786E-01
        -0.10786E-01
        -0.10786E-01
        -0.10786E-01
        -0.10786E-01
        -0.10786E-01
        -0.10786E-01
        -0.10786E-01
        -0.10786E-01
        -0.10786E-01
        -0.10786E-01
        -0.10786E-01
        -0.10786E-01
        -0.10786E-01
        -0.10786E-01
        -0.10786E-01
        -0.10786E-01
        -0.10786E-01
        -0.10786E-01
        -0.10786E-01
        -0.10786E-01
        -0.10786E-01
        -0.10786E-01
        -0.10786E-01
        -0.10786E-01
        -0.10786E-01
        -0.10786E-01
        -0.10786E-01
        -0.10786E-01
        -0.10786E-01
        -0.10786E-01
        -0.10786E-01
        -0.10786E-01
        -0.10786E-01
        -0.10786E-01
        -0.10786E-01
        -0.10786E-01
        -0.10786E-01
        -0.10786E-01
        -0.10786E-01
        -0.10786E-01
        -0.10786E-01
        -0.10786E-01
        -0.10786E-01
        -0.10786E-01
        -0.10786E-01
        -0.10786E-01
        -0.10786E-01
        -0.10786E-01
        -0.10786E-01
        -0.10786E-01
        -0.10786E-01
        -0.10786E-01
        -0.10786E-01
        -0.10786E-01
        -0.10786E-01
        -0.10786E-01
        -0.10786E-01
        -0.10786E-01
        -0.10786E-01
        -0.10786E-01
        -0.10786E-01
        -0.10786E-01
        -0.10786E-01
        -0.10786E-01
        -0.10786E-01
        -0.10786E-01
        -0.10786E-01
        -0.10786E-01
        -0.10786E-01
        -0.10786E-01
        -0.10786E-01
        -0.10786E-01
        -0.10786E-01
        -0.10786E-01
        -0.10786E-01
        -0.10786E-01
        -0.10786E-01
        -0.10786E-01
        -0.10786E-01
        -0.10786E-01
        -0.10786E-01
        -0.10786E-01
        -0.10786E-01
        -0.10786E-01
        -0.10786E-01
        -0.10786E-01
        -0.10786E-01
        -0.10786E-01
        -0.10786E-01
        -0.10786E-01
        -0.10786E-01
        -0.10786E-01
        -0.10786E-01
        -0.10786E-01
        -0.10786E-01
        -0.10786E-01
        -0.10786E-01
        -0.10786E-01
        -0.10786E-01
        -0.10786E-01
        -0.10786E-01
        -0.10786E-01
        -0.10786E-01
        -0.10786E-01
        -0.10786E-01
        -0.10786E-01
        -0.10786E-01
        -0.10786E-01
        -0.10786E-01
        -0.10786E-01
        -0.10786E-01
        -0.10786E-01
        -0.10786E-01
        -0.10786E-01
        -0.10786E-01
        -0.10786E-01
        -0.10786E-01
        -0.10786E-01
        -0.10786E-01
        -0.10786E-01
        -0.10786E-01
        -0.10786E-01
        -0.10786E-01
        -0.10786E-01
        -0.10786E-01
        -0.10786E-01
        -0.10786E-01
        -0.10786E-01
        -0.10786E-01
        -0.10786E-01
        -0.10786E-01
        -0.10786E-01
        -0.10786E-01
        -0.10786E-01
        -0.10786E-01
        -0.10786E-01
        -0.10786E-01
        -0.10786E-01
        -0.10786E-01
        -0.10786E-01
        -0.10786E-01
        -0.10786E-01
        -0.10786E-01
        -0.10786E-01
        -0.10786E-01
        -0.10786E-01
        -0.10786E-01
        -0.10786E-01
        -0.10786E-01
        -0.10786E-01
        -0.10786E-01
        -0.10786E-01
        -0.10786E-01
        -0.10786E-01
        -0.10786E-01
        -0.10786E-01
        -0.10786E-01
        -0.10786E-01
        -0.10786E-01
        -0.10786E-01
        -0.10786E-01
        -0.10786E-01
        -0.10786E-01
        -0.10786E-01
        -0.10786E-01
        -0.10786E-01
        -0.10786E-01
        -0.10786E-01
        -0.10786E-01
        -0.10786E-01
        -0.10786E-01
        -0.10786E-01
        -0.10786E-01
        -0.10786E-01
        -0.10786E-01
        -0.10786E-01
        -0.10786E-01
        -0.10786E-01
        -0.10786E-01
        -0.10786E-01
        -0.10786E-01
        -0.10786E-01
        -0.10786E-01
        -0.10786E-01
        -0.10786E-01
        -0.10786E-01
        -0.10786E-01
        -0.10786E-01
        -0.10786E-01
        -0.10786E-01
        -0.10786E-01
        -0.10786E-01
        -0.10786E-01
        -0.10786E-01
        -0.10786E-01
        -0.10786E-01
        -0.10786E-01
        -0.10786E-01
        -0.10786E-01
        -0.10786E-01
        -0.10786E-01
        -0.10786E-01
        -0.10786E-01
        -0.10786E-01
        -0.10786E-01
        -0.10786E-01
        -0.10786E-01
        -0.10786E-01
        -0.10786E-01
        -0.10786E-01
        -0.10786E-01
        -0.10786E-01
        -0.10786E-01
        -0.10786E-01
        -0.10786E-01
        -0.10786E-01
        -0.10786E-01
        -0.10786E-01
        -0.10786E-01
        -0.10786E-01
        -0.10786E-01
        -0.10786E-01
        -0.10786E-01
        -0.10786E-01
        -0.10786E-01
        -0.10786E-01
        -0.10786E-01
        -0.10786E-01
        -0.10786E-01
        -0.10786E-01
        -0.10786E-01
        -0.10786E-01
        -0.10786E-01
        -0.10786E-01
        -0.10786E-01
        -0.10786E-01
        -0.10786E-01
        -0.10786E-01
        -0.10786E-01
        -0.10786E-01
        -0.10786E-01
        -0.10786E-01
        -0.10786E-01
        -0.10786E-01
        -0.10786E-01
        -0.10786E-01
        -0.10786E-01
        -0.10786E-01
        -0.10786E-01
        -0.10786E-01
        -0.10786E-01
        -0.10786E-01
        -0.10786E-01
        -0.10786E-01
        -0.10786E-01
        -0.10786E-01
        -0.10786E-01
        -0.10786E-01
        -0.10786E-01
        -0.10786E-01
        -0.10786E-01
        -0.10786E-01
        -0.10786E-01
        -0.10786E-01
        -0.10786E-01
        -0.10786E-01
        -0.10786E-01
        -0.10786E-01
        -0.10786E-01
        -0.10786E-01
        -0.10786E-01
        -0.10786E-01
        -0.10786E-01
        -0.10786E-01
        -0.10786E-01
        -0.10786E-01
        -0.10786E-01
        -0.10786E-01
        -0.10786E-01
        -0.10786E-01
        -0.10786E-01
        -0.10786E-01
        -0.10786E-01
        -0.10786E-01
        -0.10786E-01
        -0.10786E-01
        -0.10786E-01
        -0.10786E-01
        -0.10786E-01
        -0.10786E-01
        -0.10786E-01
        -0.10786E-01
        -0.10786E-01
        -0.10786E-01
        -0.10786E-01
        -0.10786E-01
        -0.10786E-01
        -0.10786E-01
        -0.10786E-01
        -0.10786E-01
        -0.10786E-01
        -0.10786E-01
        -0.10786E-01
        -0.10786E-01
        -0.10786E-01
        -0.10786E-01
        -0.10786E-01
        -0.10786E-01
        -0.10786E-01
        -0.10786E-01
        -0.10786E-01
        -0.10786E-01
        -0.10786E-01
        -0.10786E-01
        -0.10786E-01
        -0.10786E-01
        -0.10786E-01
        -0.10786E-01
        -0.10786E-01
        -0.10786E-01
        -0.10786E-01
        -0.10786E-01
        -0.10786E-01
        -0.10786E-01
        -0.10786E-01
        -0.10786E-01
        -0.10786E-01
        -0.10786E-01
        -0.10786E-01
        -0.10786E-01
        -0.10786E-01
  
SCALARS                     velocity_x  double 1
LOOKUP_TABLE default
         0.00000E+00
         0.00000E+00
         0.00000E+00
         0.00000E+00
         0.00000E+00
         0.00000E+00
         0.00000E+00
         0.00000E+00
         0.00000E+00
         0.00000E+00
         0.00000E+00
         0.00000E+00
         0.00000E+00
         0.00000E+00
         0.00000E+00
         0.00000E+00
         0.00000E+00
         0.00000E+00
         0.00000E+00
         0.00000E+00
         0.00000E+00
         0.00000E+00
         0.00000E+00
         0.00000E+00
         0.00000E+00
         0.00000E+00
         0.00000E+00
         0.00000E+00
         0.00000E+00
         0.00000E+00
         0.00000E+00
         0.00000E+00
         0.00000E+00
         0.00000E+00
         0.00000E+00
         0.00000E+00
         0.00000E+00
         0.00000E+00
         0.00000E+00
         0.00000E+00
         0.00000E+00
         0.00000E+00
         0.00000E+00
         0.00000E+00
         0.00000E+00
         0.00000E+00
         0.00000E+00
         0.00000E+00
         0.00000E+00
         0.00000E+00
         0.00000E+00
         0.00000E+00
         0.00000E+00
         0.00000E+00
         0.00000E+00
         0.00000E+00
         0.00000E+00
         0.00000E+00
         0.00000E+00
         0.00000E+00
         0.00000E+00
         0.00000E+00
         0.00000E+00
         0.00000E+00
         0.00000E+00
         0.00000E+00
         0.00000E+00
         0.00000E+00
         0.00000E+00
         0.00000E+00
         0.00000E+00
         0.00000E+00
         0.00000E+00
         0.00000E+00
         0.00000E+00
         0.00000E+00
         0.00000E+00
         0.00000E+00
         0.00000E+00
         0.00000E+00
         0.00000E+00
         0.00000E+00
         0.00000E+00
         0.00000E+00
         0.00000E+00
         0.00000E+00
         0.00000E+00
         0.00000E+00
         0.00000E+00
         0.00000E+00
         0.00000E+00
         0.00000E+00
         0.00000E+00
         0.00000E+00
         0.00000E+00
         0.00000E+00
         0.00000E+00
         0.00000E+00
         0.00000E+00
         0.00000E+00
         0.00000E+00
         0.00000E+00
         0.00000E+00
         0.00000E+00
         0.00000E+00
         0.00000E+00
         0.00000E+00
         0.00000E+00
         0.00000E+00
         0.00000E+00
         0.00000E+00
         0.00000E+00
         0.00000E+00
         0.00000E+00
         0.00000E+00
         0.00000E+00
         0.00000E+00
         0.00000E+00
         0.00000E+00
         0.00000E+00
         0.00000E+00
         0.00000E+00
         0.00000E+00
         0.00000E+00
         0.00000E+00
         0.00000E+00
         0.00000E+00
         0.00000E+00
         0.00000E+00
         0.00000E+00
         0.00000E+00
         0.00000E+00
         0.00000E+00
         0.00000E+00
         0.00000E+00
         0.00000E+00
         0.00000E+00
         0.00000E+00
         0.00000E+00
         0.00000E+00
         0.00000E+00
         0.00000E+00
         0.00000E+00
         0.00000E+00
         0.00000E+00
         0.00000E+00
         0.00000E+00
         0.00000E+00
         0.00000E+00
         0.00000E+00
         0.00000E+00
         0.00000E+00
         0.00000E+00
         0.00000E+00
         0.00000E+00
         0.00000E+00
         0.00000E+00
         0.00000E+00
         0.00000E+00
         0.00000E+00
         0.00000E+00
         0.00000E+00
         0.00000E+00
         0.00000E+00
         0.00000E+00
         0.00000E+00
         0.00000E+00
         0.00000E+00
         0.00000E+00
         0.00000E+00
         0.00000E+00
         0.00000E+00
         0.00000E+00
         0.00000E+00
         0.00000E+00
         0.00000E+00
         0.00000E+00
         0.00000E+00
         0.00000E+00
         0.00000E+00
         0.00000E+00
         0.00000E+00
         0.00000E+00
         0.00000E+00
         0.00000E+00
         0.00000E+00
         0.00000E+00
         0.00000E+00
         0.00000E+00
         0.00000E+00
         0.00000E+00
         0.00000E+00
         0.00000E+00
         0.00000E+00
         0.00000E+00
         0.00000E+00
         0.00000E+00
         0.00000E+00
         0.00000E+00
         0.00000E+00
         0.00000E+00
         0.00000E+00
         0.00000E+00
         0.00000E+00
         0.00000E+00
         0.00000E+00
         0.00000E+00
         0.00000E+00
         0.00000E+00
         0.00000E+00
         0.00000E+00
         0.00000E+00
         0.00000E+00
         0.00000E+00
         0.00000E+00
         0.00000E+00
         0.00000E+00
         0.00000E+00
         0.00000E+00
         0.00000E+00
         0.00000E+00
         0.00000E+00
         0.00000E+00
         0.00000E+00
         0.00000E+00
         0.00000E+00
         0.00000E+00
         0.00000E+00
         0.00000E+00
         0.00000E+00
         0.00000E+00
         0.00000E+00
         0.00000E+00
         0.00000E+00
         0.00000E+00
         0.00000E+00
         0.00000E+00
         0.00000E+00
         0.00000E+00
         0.00000E+00
         0.00000E+00
         0.00000E+00
         0.00000E+00
         0.00000E+00
         0.00000E+00
         0.00000E+00
         0.00000E+00
         0.00000E+00
         0.00000E+00
         0.00000E+00
         0.00000E+00
         0.00000E+00
         0.00000E+00
         0.00000E+00
         0.00000E+00
         0.00000E+00
         0.00000E+00
         0.00000E+00
         0.00000E+00
         0.00000E+00
         0.00000E+00
         0.00000E+00
         0.00000E+00
         0.00000E+00
         0.00000E+00
         0.00000E+00
         0.00000E+00
         0.00000E+00
         0.00000E+00
         0.00000E+00
         0.00000E+00
         0.00000E+00
         0.00000E+00
         0.00000E+00
         0.00000E+00
         0.00000E+00
         0.00000E+00
         0.00000E+00
         0.00000E+00
         0.00000E+00
         0.00000E+00
         0.00000E+00
         0.00000E+00
         0.00000E+00
         0.00000E+00
         0.00000E+00
         0.00000E+00
         0.00000E+00
         0.00000E+00
         0.00000E+00
         0.00000E+00
         0.00000E+00
         0.00000E+00
         0.00000E+00
         0.00000E+00
         0.00000E+00
         0.00000E+00
         0.00000E+00
         0.00000E+00
         0.00000E+00
         0.00000E+00
         0.00000E+00
         0.00000E+00
         0.00000E+00
         0.00000E+00
         0.00000E+00
         0.00000E+00
         0.00000E+00
         0.00000E+00
         0.00000E+00
         0.00000E+00
         0.00000E+00
         0.00000E+00
         0.00000E+00
         0.00000E+00
         0.00000E+00
         0.00000E+00
         0.00000E+00
         0.00000E+00
         0.00000E+00
         0.00000E+00
         0.00000E+00
         0.00000E+00
         0.00000E+00
         0.00000E+00
         0.00000E+00
         0.00000E+00
         0.00000E+00
         0.00000E+00
         0.00000E+00
         0.00000E+00
         0.00000E+00
         0.00000E+00
         0.00000E+00
         0.00000E+00
         0.00000E+00
         0.00000E+00
         0.00000E+00
         0.00000E+00
         0.00000E+00
         0.00000E+00
         0.00000E+00
         0.00000E+00
         0.00000E+00
         0.00000E+00
         0.00000E+00
         0.00000E+00
         0.00000E+00
         0.00000E+00
         0.00000E+00
         0.00000E+00
         0.00000E+00
         0.00000E+00
         0.00000E+00
         0.00000E+00
         0.00000E+00
         0.00000E+00
         0.00000E+00
         0.00000E+00
         0.00000E+00
         0.00000E+00
         0.00000E+00
         0.00000E+00
         0.00000E+00
         0.00000E+00
         0.00000E+00
         0.00000E+00
         0.00000E+00
         0.00000E+00
         0.00000E+00
         0.00000E+00
         0.00000E+00
         0.00000E+00
         0.00000E+00
         0.00000E+00
         0.00000E+00
         0.00000E+00
         0.00000E+00
         0.00000E+00
         0.00000E+00
         0.00000E+00
         0.00000E+00
         0.00000E+00
         0.00000E+00
         0.00000E+00
         0.00000E+00
         0.00000E+00
         0.00000E+00
         0.00000E+00
         0.00000E+00
         0.00000E+00
         0.00000E+00
         0.00000E+00
         0.00000E+00
         0.00000E+00
         0.00000E+00
         0.00000E+00
         0.00000E+00
         0.00000E+00
         0.00000E+00
         0.00000E+00
         0.00000E+00
         0.00000E+00
         0.00000E+00
         0.00000E+00
         0.00000E+00
         0.00000E+00
         0.00000E+00
         0.00000E+00
         0.00000E+00
         0.00000E+00
         0.00000E+00
         0.00000E+00
         0.00000E+00
         0.00000E+00
         0.00000E+00
         0.00000E+00
         0.00000E+00
         0.00000E+00
         0.00000E+00
         0.00000E+00
         0.00000E+00
         0.00000E+00
         0.00000E+00
         0.00000E+00
         0.00000E+00
         0.00000E+00
         0.00000E+00
         0.00000E+00
         0.00000E+00
         0.00000E+00
         0.00000E+00
         0.00000E+00
         0.00000E+00
         0.00000E+00
         0.00000E+00
         0.00000E+00
         0.00000E+00
         0.00000E+00
         0.00000E+00
         0.00000E+00
         0.00000E+00
         0.00000E+00
         0.00000E+00
         0.00000E+00
         0.00000E+00
         0.00000E+00
         0.00000E+00
         0.00000E+00
         0.00000E+00
         0.00000E+00
         0.00000E+00
         0.00000E+00
         0.00000E+00
         0.00000E+00
         0.00000E+00
         0.00000E+00
         0.00000E+00
         0.00000E+00
         0.00000E+00
         0.00000E+00
         0.00000E+00
         0.00000E+00
         0.00000E+00
         0.00000E+00
         0.00000E+00
         0.00000E+00
         0.00000E+00
         0.00000E+00
         0.00000E+00
         0.00000E+00
         0.00000E+00
         0.00000E+00
         0.00000E+00
         0.00000E+00
         0.00000E+00
         0.00000E+00
         0.00000E+00
         0.00000E+00
         0.00000E+00
         0.00000E+00
         0.00000E+00
         0.00000E+00
         0.00000E+00
         0.00000E+00
         0.00000E+00
         0.00000E+00
         0.00000E+00
         0.00000E+00
         0.00000E+00
         0.00000E+00
         0.00000E+00
         0.00000E+00
         0.00000E+00
         0.00000E+00
         0.00000E+00
         0.00000E+00
         0.00000E+00
         0.00000E+00
         0.00000E+00
         0.00000E+00
         0.00000E+00
         0.00000E+00
         0.00000E+00
         0.00000E+00
         0.00000E+00
         0.00000E+00
         0.00000E+00
         0.00000E+00
         0.00000E+00
         0.00000E+00
         0.00000E+00
         0.00000E+00
         0.00000E+00
         0.00000E+00
         0.00000E+00
         0.00000E+00
         0.00000E+00
         0.00000E+00
         0.00000E+00
         0.00000E+00
         0.00000E+00
         0.00000E+00
         0.00000E+00
         0.00000E+00
         0.00000E+00
         0.00000E+00
         0.00000E+00
         0.00000E+00
         0.00000E+00
         0.00000E+00
         0.00000E+00
         0.00000E+00
         0.00000E+00
         0.00000E+00
         0.00000E+00
         0.00000E+00
         0.00000E+00
         0.00000E+00
         0.00000E+00
         0.00000E+00
         0.00000E+00
         0.00000E+00
         0.00000E+00
         0.00000E+00
         0.00000E+00
         0.00000E+00
         0.00000E+00
         0.00000E+00
         0.00000E+00
         0.00000E+00
         0.00000E+00
         0.00000E+00
         0.00000E+00
         0.00000E+00
         0.00000E+00
         0.00000E+00
         0.00000E+00
         0.00000E+00
         0.00000E+00
         0.00000E+00
         0.00000E+00
         0.00000E+00
         0.00000E+00
         0.00000E+00
         0.00000E+00
         0.00000E+00
         0.00000E+00
         0.00000E+00
         0.00000E+00
         0.00000E+00
         0.00000E+00
         0.00000E+00
         0.00000E+00
         0.00000E+00
         0.00000E+00
         0.00000E+00
         0.00000E+00
         0.00000E+00
         0.00000E+00
         0.00000E+00
         0.00000E+00
         0.00000E+00
         0.00000E+00
         0.00000E+00
         0.00000E+00
         0.00000E+00
         0.00000E+00
         0.00000E+00
         0.00000E+00
         0.00000E+00
         0.00000E+00
         0.00000E+00
         0.00000E+00
         0.00000E+00
         0.00000E+00
         0.00000E+00
         0.00000E+00
         0.00000E+00
         0.00000E+00
         0.00000E+00
         0.00000E+00
         0.00000E+00
         0.00000E+00
         0.00000E+00
         0.00000E+00
         0.00000E+00
         0.00000E+00
         0.00000E+00
         0.00000E+00
         0.00000E+00
         0.00000E+00
         0.00000E+00
         0.00000E+00
         0.00000E+00
         0.00000E+00
         0.00000E+00
         0.00000E+00
         0.00000E+00
         0.00000E+00
         0.00000E+00
         0.00000E+00
         0.00000E+00
         0.00000E+00
         0.00000E+00
         0.00000E+00
         0.00000E+00
         0.00000E+00
         0.00000E+00
         0.00000E+00
         0.00000E+00
         0.00000E+00
         0.00000E+00
         0.00000E+00
         0.00000E+00
         0.00000E+00
         0.00000E+00
         0.00000E+00
         0.00000E+00
         0.00000E+00
         0.00000E+00
         0.00000E+00
         0.00000E+00
         0.00000E+00
         0.00000E+00
         0.00000E+00
         0.00000E+00
         0.00000E+00
         0.00000E+00
         0.00000E+00
         0.00000E+00
         0.00000E+00
         0.00000E+00
         0.00000E+00
         0.00000E+00
         0.00000E+00
         0.00000E+00
         0.00000E+00
         0.00000E+00
         0.00000E+00
         0.00000E+00
         0.00000E+00
         0.00000E+00
         0.00000E+00
         0.00000E+00
         0.00000E+00
         0.00000E+00
         0.00000E+00
         0.00000E+00
         0.00000E+00
         0.00000E+00
         0.00000E+00
         0.00000E+00
         0.00000E+00
         0.00000E+00
         0.00000E+00
         0.00000E+00
         0.00000E+00
         0.00000E+00
         0.00000E+00
         0.00000E+00
         0.00000E+00
         0.00000E+00
         0.00000E+00
         0.00000E+00
         0.00000E+00
         0.00000E+00
         0.00000E+00
         0.00000E+00
         0.00000E+00
         0.00000E+00
         0.00000E+00
         0.00000E+00
         0.00000E+00
         0.00000E+00
         0.00000E+00
         0.00000E+00
         0.00000E+00
         0.00000E+00
         0.00000E+00
         0.00000E+00
         0.00000E+00
         0.00000E+00
         0.00000E+00
         0.00000E+00
         0.00000E+00
         0.00000E+00
         0.00000E+00
         0.00000E+00
         0.00000E+00
         0.00000E+00
         0.00000E+00
         0.00000E+00
         0.00000E+00
         0.00000E+00
         0.00000E+00
         0.00000E+00
         0.00000E+00
         0.00000E+00
         0.00000E+00
         0.00000E+00
         0.00000E+00
         0.00000E+00
         0.00000E+00
         0.00000E+00
         0.00000E+00
         0.00000E+00
         0.00000E+00
         0.00000E+00
         0.00000E+00
         0.00000E+00
         0.00000E+00
         0.00000E+00
         0.00000E+00
         0.00000E+00
         0.00000E+00
         0.00000E+00
         0.00000E+00
         0.00000E+00
         0.00000E+00
         0.00000E+00
         0.00000E+00
         0.00000E+00
         0.00000E+00
         0.00000E+00
         0.00000E+00
         0.00000E+00
         0.00000E+00
         0.00000E+00
         0.00000E+00
         0.00000E+00
         0.00000E+00
         0.00000E+00
         0.00000E+00
         0.00000E+00
         0.00000E+00
         0.00000E+00
         0.00000E+00
         0.00000E+00
         0.00000E+00
         0.00000E+00
         0.00000E+00
         0.00000E+00
         0.00000E+00
         0.00000E+00
         0.00000E+00
         0.00000E+00
         0.00000E+00
         0.00000E+00
         0.00000E+00
         0.00000E+00
         0.00000E+00
         0.00000E+00
         0.00000E+00
         0.00000E+00
         0.00000E+00
         0.00000E+00
         0.00000E+00
         0.00000E+00
         0.00000E+00
         0.00000E+00
         0.00000E+00
         0.00000E+00
         0.00000E+00
         0.00000E+00
         0.00000E+00
         0.00000E+00
         0.00000E+00
         0.00000E+00
         0.00000E+00
         0.00000E+00
         0.00000E+00
         0.00000E+00
         0.00000E+00
         0.00000E+00
         0.00000E+00
         0.00000E+00
         0.00000E+00
         0.00000E+00
         0.00000E+00
         0.00000E+00
         0.00000E+00
         0.00000E+00
         0.00000E+00
         0.00000E+00
         0.00000E+00
         0.00000E+00
         0.00000E+00
         0.00000E+00
         0.00000E+00
         0.00000E+00
         0.00000E+00
         0.00000E+00
         0.00000E+00
         0.00000E+00
         0.00000E+00
         0.00000E+00
         0.00000E+00
         0.00000E+00
         0.00000E+00
         0.00000E+00
         0.00000E+00
         0.00000E+00
         0.00000E+00
         0.00000E+00
         0.00000E+00
         0.00000E+00
         0.00000E+00
         0.00000E+00
         0.00000E+00
         0.00000E+00
         0.00000E+00
         0.00000E+00
         0.00000E+00
         0.00000E+00
         0.00000E+00
         0.00000E+00
         0.00000E+00
         0.00000E+00
         0.00000E+00
         0.00000E+00
         0.00000E+00
         0.00000E+00
         0.00000E+00
         0.00000E+00
         0.00000E+00
         0.00000E+00
         0.00000E+00
         0.00000E+00
         0.00000E+00
         0.00000E+00
         0.00000E+00
         0.00000E+00
         0.00000E+00
         0.00000E+00
         0.00000E+00
         0.00000E+00
         0.00000E+00
         0.00000E+00
         0.00000E+00
         0.00000E+00
         0.00000E+00
         0.00000E+00
         0.00000E+00
         0.00000E+00
         0.00000E+00
         0.00000E+00
         0.00000E+00
         0.00000E+00
         0.00000E+00
         0.00000E+00
         0.00000E+00
         0.00000E+00
         0.00000E+00
         0.00000E+00
         0.00000E+00
         0.00000E+00
         0.00000E+00
         0.00000E+00
         0.00000E+00
         0.00000E+00
         0.00000E+00
         0.00000E+00
         0.00000E+00
         0.00000E+00
         0.00000E+00
         0.00000E+00
         0.00000E+00
         0.00000E+00
         0.00000E+00
         0.00000E+00
         0.00000E+00
         0.00000E+00
         0.00000E+00
         0.00000E+00
         0.00000E+00
         0.00000E+00
         0.00000E+00
         0.00000E+00
         0.00000E+00
         0.00000E+00
         0.00000E+00
         0.00000E+00
         0.00000E+00
         0.00000E+00
         0.00000E+00
         0.00000E+00
         0.00000E+00
         0.00000E+00
         0.00000E+00
         0.00000E+00
         0.00000E+00
         0.00000E+00
         0.00000E+00
         0.00000E+00
         0.00000E+00
         0.00000E+00
         0.00000E+00
         0.00000E+00
         0.00000E+00
         0.00000E+00
         0.00000E+00
         0.00000E+00
         0.00000E+00
         0.00000E+00
         0.00000E+00
         0.00000E+00
         0.00000E+00
         0.00000E+00
         0.00000E+00
         0.00000E+00
         0.00000E+00
         0.00000E+00
         0.00000E+00
         0.00000E+00
         0.00000E+00
         0.00000E+00
         0.00000E+00
         0.00000E+00
         0.00000E+00
         0.00000E+00
         0.00000E+00
         0.00000E+00
         0.00000E+00
         0.00000E+00
         0.00000E+00
         0.00000E+00
         0.00000E+00
         0.00000E+00
         0.00000E+00
         0.00000E+00
         0.00000E+00
         0.00000E+00
         0.00000E+00
         0.00000E+00
         0.00000E+00
         0.00000E+00
         0.00000E+00
         0.00000E+00
         0.00000E+00
         0.00000E+00
         0.00000E+00
         0.00000E+00
         0.00000E+00
         0.00000E+00
         0.00000E+00
         0.00000E+00
         0.00000E+00
         0.00000E+00
         0.00000E+00
         0.00000E+00
         0.00000E+00
         0.00000E+00
         0.00000E+00
         0.00000E+00
         0.00000E+00
         0.00000E+00
         0.00000E+00
         0.00000E+00
         0.00000E+00
         0.00000E+00
         0.00000E+00
         0.00000E+00
         0.00000E+00
         0.00000E+00
         0.00000E+00
         0.00000E+00
         0.00000E+00
         0.00000E+00
         0.00000E+00
         0.00000E+00
         0.00000E+00
         0.00000E+00
         0.00000E+00
         0.00000E+00
         0.00000E+00
         0.00000E+00
         0.00000E+00
         0.00000E+00
         0.00000E+00
         0.00000E+00
         0.00000E+00
         0.00000E+00
         0.00000E+00
         0.00000E+00
         0.00000E+00
         0.00000E+00
         0.00000E+00
         0.00000E+00
         0.00000E+00
         0.00000E+00
         0.00000E+00
         0.00000E+00
         0.00000E+00
         0.00000E+00
         0.00000E+00
         0.00000E+00
         0.00000E+00
         0.00000E+00
         0.00000E+00
         0.00000E+00
         0.00000E+00
         0.00000E+00
         0.00000E+00
         0.00000E+00
         0.00000E+00
         0.00000E+00
         0.00000E+00
         0.00000E+00
         0.00000E+00
         0.00000E+00
         0.00000E+00
         0.00000E+00
         0.00000E+00
         0.00000E+00
         0.00000E+00
         0.00000E+00
         0.00000E+00
         0.00000E+00
         0.00000E+00
         0.00000E+00
         0.00000E+00
         0.00000E+00
         0.00000E+00
         0.00000E+00
         0.00000E+00
         0.00000E+00
         0.00000E+00
         0.00000E+00
         0.00000E+00
         0.00000E+00
         0.00000E+00
         0.00000E+00
         0.00000E+00
         0.00000E+00
         0.00000E+00
         0.00000E+00
         0.00000E+00
         0.00000E+00
         0.00000E+00
         0.00000E+00
         0.00000E+00
         0.00000E+00
         0.00000E+00
         0.00000E+00
         0.00000E+00
         0.00000E+00
         0.00000E+00
         0.00000E+00
         0.00000E+00
         0.00000E+00
         0.00000E+00
         0.00000E+00
         0.00000E+00
         0.00000E+00
         0.00000E+00
         0.00000E+00
         0.00000E+00
         0.00000E+00
         0.00000E+00
         0.00000E+00
         0.00000E+00
         0.00000E+00
         0.00000E+00
         0.00000E+00
         0.00000E+00
         0.00000E+00
         0.00000E+00
         0.00000E+00
         0.00000E+00
         0.00000E+00
         0.00000E+00
         0.00000E+00
         0.00000E+00
         0.00000E+00
         0.00000E+00
         0.00000E+00
         0.00000E+00
         0.00000E+00
         0.00000E+00
         0.00000E+00
         0.00000E+00
         0.00000E+00
         0.00000E+00
         0.00000E+00
         0.00000E+00
         0.00000E+00
         0.00000E+00
         0.00000E+00
         0.00000E+00
         0.00000E+00
         0.00000E+00
         0.00000E+00
         0.00000E+00
         0.00000E+00
         0.00000E+00
         0.00000E+00
         0.00000E+00
         0.00000E+00
         0.00000E+00
         0.00000E+00
         0.00000E+00
         0.00000E+00
         0.00000E+00
         0.00000E+00
         0.00000E+00
         0.00000E+00
         0.00000E+00
         0.00000E+00
         0.00000E+00
         0.00000E+00
         0.00000E+00
         0.00000E+00
         0.00000E+00
         0.00000E+00
         0.00000E+00
         0.00000E+00
         0.00000E+00
         0.00000E+00
         0.00000E+00
         0.00000E+00
         0.00000E+00
         0.00000E+00
         0.00000E+00
         0.00000E+00
         0.00000E+00
         0.00000E+00
         0.00000E+00
         0.00000E+00
         0.00000E+00
         0.00000E+00
         0.00000E+00
         0.00000E+00
         0.00000E+00
         0.00000E+00
         0.00000E+00
         0.00000E+00
         0.00000E+00
         0.00000E+00
         0.00000E+00
         0.00000E+00
         0.00000E+00
         0.00000E+00
         0.00000E+00
         0.00000E+00
         0.00000E+00
         0.00000E+00
         0.00000E+00
         0.00000E+00
         0.00000E+00
         0.00000E+00
         0.00000E+00
         0.00000E+00
         0.00000E+00
         0.00000E+00
         0.00000E+00
         0.00000E+00
         0.00000E+00
         0.00000E+00
         0.00000E+00
         0.00000E+00
         0.00000E+00
         0.00000E+00
         0.00000E+00
         0.00000E+00
         0.00000E+00
         0.00000E+00
         0.00000E+00
         0.00000E+00
         0.00000E+00
         0.00000E+00
         0.00000E+00
         0.00000E+00
         0.00000E+00
         0.00000E+00
         0.00000E+00
         0.00000E+00
         0.00000E+00
         0.00000E+00
         0.00000E+00
         0.00000E+00
         0.00000E+00
         0.00000E+00
         0.00000E+00
         0.00000E+00
         0.00000E+00
         0.00000E+00
         0.00000E+00
         0.00000E+00
         0.00000E+00
         0.00000E+00
         0.00000E+00
         0.00000E+00
         0.00000E+00
         0.00000E+00
         0.00000E+00
         0.00000E+00
         0.00000E+00
         0.00000E+00
         0.00000E+00
         0.00000E+00
         0.00000E+00
         0.00000E+00
         0.00000E+00
         0.00000E+00
         0.00000E+00
         0.00000E+00
         0.00000E+00
         0.00000E+00
         0.00000E+00
         0.00000E+00
         0.00000E+00
         0.00000E+00
         0.00000E+00
         0.00000E+00
         0.00000E+00
         0.00000E+00
         0.00000E+00
         0.00000E+00
         0.00000E+00
         0.00000E+00
         0.00000E+00
         0.00000E+00
         0.00000E+00
         0.00000E+00
         0.00000E+00
         0.00000E+00
         0.00000E+00
         0.00000E+00
         0.00000E+00
         0.00000E+00
         0.00000E+00
         0.00000E+00
         0.00000E+00
         0.00000E+00
         0.00000E+00
         0.00000E+00
         0.00000E+00
         0.00000E+00
         0.00000E+00
         0.00000E+00
         0.00000E+00
         0.00000E+00
         0.00000E+00
         0.00000E+00
         0.00000E+00
         0.00000E+00
         0.00000E+00
         0.00000E+00
         0.00000E+00
         0.00000E+00
         0.00000E+00
         0.00000E+00
         0.00000E+00
         0.00000E+00
         0.00000E+00
         0.00000E+00
         0.00000E+00
         0.00000E+00
         0.00000E+00
         0.00000E+00
         0.00000E+00
         0.00000E+00
         0.00000E+00
         0.00000E+00
         0.00000E+00
         0.00000E+00
         0.00000E+00
         0.00000E+00
         0.00000E+00
         0.00000E+00
         0.00000E+00
         0.00000E+00
         0.00000E+00
         0.00000E+00
         0.00000E+00
         0.00000E+00
         0.00000E+00
         0.00000E+00
         0.00000E+00
         0.00000E+00
         0.00000E+00
         0.00000E+00
         0.00000E+00
         0.00000E+00
         0.00000E+00
         0.00000E+00
         0.00000E+00
         0.00000E+00
         0.00000E+00
         0.00000E+00
         0.00000E+00
         0.00000E+00
         0.00000E+00
         0.00000E+00
         0.00000E+00
         0.00000E+00
         0.00000E+00
         0.00000E+00
         0.00000E+00
         0.00000E+00
         0.00000E+00
         0.00000E+00
         0.00000E+00
         0.00000E+00
         0.00000E+00
         0.00000E+00
         0.00000E+00
         0.00000E+00
         0.00000E+00
         0.00000E+00
         0.00000E+00
         0.00000E+00
         0.00000E+00
         0.00000E+00
         0.00000E+00
         0.00000E+00
         0.00000E+00
         0.00000E+00
         0.00000E+00
         0.00000E+00
         0.00000E+00
         0.00000E+00
         0.00000E+00
         0.00000E+00
         0.00000E+00
         0.00000E+00
         0.00000E+00
         0.00000E+00
         0.00000E+00
         0.00000E+00
         0.00000E+00
         0.00000E+00
         0.00000E+00
         0.00000E+00
         0.00000E+00
         0.00000E+00
         0.00000E+00
         0.00000E+00
         0.00000E+00
         0.00000E+00
         0.00000E+00
         0.00000E+00
         0.00000E+00
         0.00000E+00
         0.00000E+00
         0.00000E+00
         0.00000E+00
         0.00000E+00
         0.00000E+00
         0.00000E+00
         0.00000E+00
         0.00000E+00
         0.00000E+00
         0.00000E+00
         0.00000E+00
         0.00000E+00
         0.00000E+00
         0.00000E+00
         0.00000E+00
         0.00000E+00
         0.00000E+00
         0.00000E+00
         0.00000E+00
         0.00000E+00
         0.00000E+00
         0.00000E+00
         0.00000E+00
         0.00000E+00
         0.00000E+00
         0.00000E+00
         0.00000E+00
         0.00000E+00
         0.00000E+00
         0.00000E+00
         0.00000E+00
         0.00000E+00
         0.00000E+00
         0.00000E+00
         0.00000E+00
         0.00000E+00
         0.00000E+00
         0.00000E+00
         0.00000E+00
         0.00000E+00
         0.00000E+00
         0.00000E+00
         0.00000E+00
         0.00000E+00
         0.00000E+00
         0.00000E+00
         0.00000E+00
         0.00000E+00
         0.00000E+00
         0.00000E+00
         0.00000E+00
         0.00000E+00
         0.00000E+00
         0.00000E+00
         0.00000E+00
         0.00000E+00
         0.00000E+00
         0.00000E+00
         0.00000E+00
         0.00000E+00
         0.00000E+00
         0.00000E+00
         0.00000E+00
         0.00000E+00
         0.00000E+00
         0.00000E+00
         0.00000E+00
         0.00000E+00
         0.00000E+00
         0.00000E+00
         0.00000E+00
         0.00000E+00
         0.00000E+00
         0.00000E+00
         0.00000E+00
         0.00000E+00
         0.00000E+00
         0.00000E+00
         0.00000E+00
         0.00000E+00
         0.00000E+00
         0.00000E+00
         0.00000E+00
         0.00000E+00
         0.00000E+00
         0.00000E+00
         0.00000E+00
         0.00000E+00
         0.00000E+00
         0.00000E+00
         0.00000E+00
         0.00000E+00
         0.00000E+00
         0.00000E+00
         0.00000E+00
         0.00000E+00
         0.00000E+00
         0.00000E+00
         0.00000E+00
         0.00000E+00
         0.00000E+00
         0.00000E+00
         0.00000E+00
         0.00000E+00
         0.00000E+00
         0.00000E+00
         0.00000E+00
         0.00000E+00
         0.00000E+00
         0.00000E+00
         0.00000E+00
         0.00000E+00
         0.00000E+00
         0.00000E+00
         0.00000E+00
         0.00000E+00
         0.00000E+00
         0.00000E+00
         0.00000E+00
         0.00000E+00
         0.00000E+00
         0.00000E+00
         0.00000E+00
         0.00000E+00
         0.00000E+00
         0.00000E+00
         0.00000E+00
         0.00000E+00
         0.00000E+00
         0.00000E+00
         0.00000E+00
         0.00000E+00
         0.00000E+00
         0.00000E+00
         0.00000E+00
         0.00000E+00
         0.00000E+00
         0.00000E+00
         0.00000E+00
         0.00000E+00
         0.00000E+00
         0.00000E+00
         0.00000E+00
         0.00000E+00
         0.00000E+00
         0.00000E+00
         0.00000E+00
         0.00000E+00
         0.00000E+00
         0.00000E+00
         0.00000E+00
         0.00000E+00
         0.00000E+00
         0.00000E+00
         0.00000E+00
         0.00000E+00
         0.00000E+00
         0.00000E+00
         0.00000E+00
         0.00000E+00
         0.00000E+00
         0.00000E+00
         0.00000E+00
         0.00000E+00
         0.00000E+00
         0.00000E+00
         0.00000E+00
         0.00000E+00
         0.00000E+00
         0.00000E+00
         0.00000E+00
         0.00000E+00
         0.00000E+00
         0.00000E+00
         0.00000E+00
         0.00000E+00
         0.00000E+00
         0.00000E+00
         0.00000E+00
         0.00000E+00
         0.00000E+00
         0.00000E+00
         0.00000E+00
         0.00000E+00
         0.00000E+00
         0.00000E+00
         0.00000E+00
         0.00000E+00
         0.00000E+00
         0.00000E+00
         0.00000E+00
         0.00000E+00
         0.00000E+00
         0.00000E+00
         0.00000E+00
         0.00000E+00
         0.00000E+00
         0.00000E+00
         0.00000E+00
         0.00000E+00
         0.00000E+00
         0.00000E+00
         0.00000E+00
         0.00000E+00
         0.00000E+00
         0.00000E+00
         0.00000E+00
         0.00000E+00
         0.00000E+00
         0.00000E+00
         0.00000E+00
         0.00000E+00
         0.00000E+00
         0.00000E+00
         0.00000E+00
         0.00000E+00
         0.00000E+00
         0.00000E+00
         0.00000E+00
         0.00000E+00
         0.00000E+00
         0.00000E+00
         0.00000E+00
         0.00000E+00
         0.00000E+00
         0.00000E+00
         0.00000E+00
         0.00000E+00
         0.00000E+00
         0.00000E+00
         0.00000E+00
         0.00000E+00
         0.00000E+00
         0.00000E+00
         0.00000E+00
         0.00000E+00
         0.00000E+00
         0.00000E+00
         0.00000E+00
         0.00000E+00
         0.00000E+00
         0.00000E+00
         0.00000E+00
         0.00000E+00
         0.00000E+00
         0.00000E+00
         0.00000E+00
         0.00000E+00
         0.00000E+00
         0.00000E+00
         0.00000E+00
         0.00000E+00
         0.00000E+00
         0.00000E+00
         0.00000E+00
         0.00000E+00
         0.00000E+00
         0.00000E+00
         0.00000E+00
         0.00000E+00
         0.00000E+00
         0.00000E+00
         0.00000E+00
         0.00000E+00
         0.00000E+00
         0.00000E+00
         0.00000E+00
         0.00000E+00
         0.00000E+00
         0.00000E+00
         0.00000E+00
         0.00000E+00
         0.00000E+00
         0.00000E+00
         0.00000E+00
         0.00000E+00
         0.00000E+00
         0.00000E+00
         0.00000E+00
         0.00000E+00
         0.00000E+00
         0.00000E+00
         0.00000E+00
         0.00000E+00
         0.00000E+00
         0.00000E+00
         0.00000E+00
         0.00000E+00
         0.00000E+00
         0.00000E+00
         0.00000E+00
         0.00000E+00
         0.00000E+00
         0.00000E+00
         0.00000E+00
         0.00000E+00
         0.00000E+00
         0.00000E+00
         0.00000E+00
         0.00000E+00
         0.00000E+00
         0.00000E+00
         0.00000E+00
         0.00000E+00
         0.00000E+00
         0.00000E+00
         0.00000E+00
         0.00000E+00
         0.00000E+00
         0.00000E+00
         0.00000E+00
         0.00000E+00
         0.00000E+00
         0.00000E+00
         0.00000E+00
         0.00000E+00
         0.00000E+00
         0.00000E+00
         0.00000E+00
         0.00000E+00
         0.00000E+00
         0.00000E+00
         0.00000E+00
         0.00000E+00
         0.00000E+00
         0.00000E+00
         0.00000E+00
         0.00000E+00
         0.00000E+00
         0.00000E+00
         0.00000E+00
         0.00000E+00
         0.00000E+00
         0.00000E+00
         0.00000E+00
         0.00000E+00
         0.00000E+00
         0.00000E+00
         0.00000E+00
         0.00000E+00
         0.00000E+00
         0.00000E+00
         0.00000E+00
         0.00000E+00
         0.00000E+00
         0.00000E+00
         0.00000E+00
         0.00000E+00
         0.00000E+00
         0.00000E+00
         0.00000E+00
         0.00000E+00
         0.00000E+00
         0.00000E+00
         0.00000E+00
         0.00000E+00
         0.00000E+00
         0.00000E+00
         0.00000E+00
         0.00000E+00
         0.00000E+00
         0.00000E+00
         0.00000E+00
         0.00000E+00
         0.00000E+00
         0.00000E+00
         0.00000E+00
         0.00000E+00
         0.00000E+00
         0.00000E+00
         0.00000E+00
         0.00000E+00
         0.00000E+00
         0.00000E+00
         0.00000E+00
         0.00000E+00
         0.00000E+00
         0.00000E+00
         0.00000E+00
         0.00000E+00
         0.00000E+00
         0.00000E+00
         0.00000E+00
         0.00000E+00
         0.00000E+00
         0.00000E+00
         0.00000E+00
         0.00000E+00
         0.00000E+00
         0.00000E+00
         0.00000E+00
         0.00000E+00
         0.00000E+00
         0.00000E+00
         0.00000E+00
         0.00000E+00
         0.00000E+00
         0.00000E+00
         0.00000E+00
         0.00000E+00
         0.00000E+00
         0.00000E+00
         0.00000E+00
         0.00000E+00
         0.00000E+00
         0.00000E+00
         0.00000E+00
         0.00000E+00
         0.00000E+00
         0.00000E+00
         0.00000E+00
         0.00000E+00
         0.00000E+00
         0.00000E+00
         0.00000E+00
         0.00000E+00
         0.00000E+00
         0.00000E+00
         0.00000E+00
         0.00000E+00
         0.00000E+00
         0.00000E+00
         0.00000E+00
         0.00000E+00
         0.00000E+00
         0.00000E+00
         0.00000E+00
         0.00000E+00
         0.00000E+00
         0.00000E+00
         0.00000E+00
         0.00000E+00
         0.00000E+00
         0.00000E+00
         0.00000E+00
         0.00000E+00
         0.00000E+00
         0.00000E+00
         0.00000E+00
         0.00000E+00
         0.00000E+00
         0.00000E+00
         0.00000E+00
         0.00000E+00
         0.00000E+00
         0.00000E+00
         0.00000E+00
         0.00000E+00
         0.00000E+00
         0.00000E+00
         0.00000E+00
         0.00000E+00
         0.00000E+00
         0.00000E+00
         0.00000E+00
         0.00000E+00
         0.00000E+00
         0.00000E+00
         0.00000E+00
         0.00000E+00
         0.00000E+00
         0.00000E+00
         0.00000E+00
         0.00000E+00
         0.00000E+00
         0.00000E+00
         0.00000E+00
         0.00000E+00
         0.00000E+00
         0.00000E+00
         0.00000E+00
         0.00000E+00
         0.00000E+00
         0.00000E+00
         0.00000E+00
         0.00000E+00
         0.00000E+00
         0.00000E+00
         0.00000E+00
         0.00000E+00
         0.00000E+00
         0.00000E+00
         0.00000E+00
         0.00000E+00
         0.00000E+00
         0.00000E+00
         0.00000E+00
         0.00000E+00
         0.00000E+00
         0.00000E+00
         0.00000E+00
         0.00000E+00
         0.00000E+00
         0.00000E+00
         0.00000E+00
         0.00000E+00
         0.00000E+00
         0.00000E+00
         0.00000E+00
         0.00000E+00
         0.00000E+00
         0.00000E+00
         0.00000E+00
         0.00000E+00
         0.00000E+00
         0.00000E+00
         0.00000E+00
         0.00000E+00
         0.00000E+00
         0.00000E+00
         0.00000E+00
         0.00000E+00
         0.00000E+00
         0.00000E+00
         0.00000E+00
         0.00000E+00
         0.00000E+00
         0.00000E+00
         0.00000E+00
         0.00000E+00
         0.00000E+00
         0.00000E+00
         0.00000E+00
         0.00000E+00
         0.00000E+00
         0.00000E+00
         0.00000E+00
         0.00000E+00
         0.00000E+00
         0.00000E+00
         0.00000E+00
         0.00000E+00
         0.00000E+00
         0.00000E+00
         0.00000E+00
         0.00000E+00
         0.00000E+00
         0.00000E+00
         0.00000E+00
         0.00000E+00
         0.00000E+00
         0.00000E+00
         0.00000E+00
         0.00000E+00
         0.00000E+00
         0.00000E+00
         0.00000E+00
         0.00000E+00
         0.00000E+00
         0.00000E+00
         0.00000E+00
         0.00000E+00
         0.00000E+00
         0.00000E+00
         0.00000E+00
         0.00000E+00
         0.00000E+00
         0.00000E+00
         0.00000E+00
         0.00000E+00
         0.00000E+00
         0.00000E+00
         0.00000E+00
         0.00000E+00
         0.00000E+00
         0.00000E+00
         0.00000E+00
         0.00000E+00
         0.00000E+00
         0.00000E+00
         0.00000E+00
         0.00000E+00
         0.00000E+00
         0.00000E+00
         0.00000E+00
         0.00000E+00
         0.00000E+00
         0.00000E+00
         0.00000E+00
         0.00000E+00
         0.00000E+00
         0.00000E+00
         0.00000E+00
         0.00000E+00
         0.00000E+00
  
SCALARS                     velocity_y  double 1
LOOKUP_TABLE default
         0.00000E+00
         0.00000E+00
         0.00000E+00
         0.00000E+00
         0.00000E+00
         0.00000E+00
         0.00000E+00
         0.00000E+00
         0.00000E+00
         0.00000E+00
         0.00000E+00
         0.00000E+00
         0.00000E+00
         0.00000E+00
         0.00000E+00
         0.00000E+00
         0.00000E+00
         0.00000E+00
         0.00000E+00
         0.00000E+00
         0.00000E+00
         0.00000E+00
         0.00000E+00
         0.00000E+00
         0.00000E+00
         0.00000E+00
         0.00000E+00
         0.00000E+00
         0.00000E+00
         0.00000E+00
         0.00000E+00
         0.00000E+00
         0.00000E+00
         0.00000E+00
         0.00000E+00
         0.00000E+00
         0.00000E+00
         0.00000E+00
         0.00000E+00
         0.00000E+00
         0.00000E+00
         0.00000E+00
         0.00000E+00
         0.00000E+00
         0.00000E+00
         0.00000E+00
         0.00000E+00
         0.00000E+00
         0.00000E+00
         0.00000E+00
         0.00000E+00
         0.00000E+00
         0.00000E+00
         0.00000E+00
         0.00000E+00
         0.00000E+00
         0.00000E+00
         0.00000E+00
         0.00000E+00
         0.00000E+00
         0.00000E+00
         0.00000E+00
         0.00000E+00
         0.00000E+00
         0.00000E+00
         0.00000E+00
         0.00000E+00
         0.00000E+00
         0.00000E+00
         0.00000E+00
         0.00000E+00
         0.00000E+00
         0.00000E+00
         0.00000E+00
         0.00000E+00
         0.00000E+00
         0.00000E+00
         0.00000E+00
         0.00000E+00
         0.00000E+00
         0.00000E+00
         0.00000E+00
         0.00000E+00
         0.00000E+00
         0.00000E+00
         0.00000E+00
         0.00000E+00
         0.00000E+00
         0.00000E+00
         0.00000E+00
         0.00000E+00
         0.00000E+00
         0.00000E+00
         0.00000E+00
         0.00000E+00
         0.00000E+00
         0.00000E+00
         0.00000E+00
         0.00000E+00
         0.00000E+00
         0.00000E+00
         0.00000E+00
         0.00000E+00
         0.00000E+00
         0.00000E+00
         0.00000E+00
         0.00000E+00
         0.00000E+00
         0.00000E+00
         0.00000E+00
         0.00000E+00
         0.00000E+00
         0.00000E+00
         0.00000E+00
         0.00000E+00
         0.00000E+00
         0.00000E+00
         0.00000E+00
         0.00000E+00
         0.00000E+00
         0.00000E+00
         0.00000E+00
         0.00000E+00
         0.00000E+00
         0.00000E+00
         0.00000E+00
         0.00000E+00
         0.00000E+00
         0.00000E+00
         0.00000E+00
         0.00000E+00
         0.00000E+00
         0.00000E+00
         0.00000E+00
         0.00000E+00
         0.00000E+00
         0.00000E+00
         0.00000E+00
         0.00000E+00
         0.00000E+00
         0.00000E+00
         0.00000E+00
         0.00000E+00
         0.00000E+00
         0.00000E+00
         0.00000E+00
         0.00000E+00
         0.00000E+00
         0.00000E+00
         0.00000E+00
         0.00000E+00
         0.00000E+00
         0.00000E+00
         0.00000E+00
         0.00000E+00
         0.00000E+00
         0.00000E+00
         0.00000E+00
         0.00000E+00
         0.00000E+00
         0.00000E+00
         0.00000E+00
         0.00000E+00
         0.00000E+00
         0.00000E+00
         0.00000E+00
         0.00000E+00
         0.00000E+00
         0.00000E+00
         0.00000E+00
         0.00000E+00
         0.00000E+00
         0.00000E+00
         0.00000E+00
         0.00000E+00
         0.00000E+00
         0.00000E+00
         0.00000E+00
         0.00000E+00
         0.00000E+00
         0.00000E+00
         0.00000E+00
         0.00000E+00
         0.00000E+00
         0.00000E+00
         0.00000E+00
         0.00000E+00
         0.00000E+00
         0.00000E+00
         0.00000E+00
         0.00000E+00
         0.00000E+00
         0.00000E+00
         0.00000E+00
         0.00000E+00
         0.00000E+00
         0.00000E+00
         0.00000E+00
         0.00000E+00
         0.00000E+00
         0.00000E+00
         0.00000E+00
         0.00000E+00
         0.00000E+00
         0.00000E+00
         0.00000E+00
         0.00000E+00
         0.00000E+00
         0.00000E+00
         0.00000E+00
         0.00000E+00
         0.00000E+00
         0.00000E+00
         0.00000E+00
         0.00000E+00
         0.00000E+00
         0.00000E+00
         0.00000E+00
         0.00000E+00
         0.00000E+00
         0.00000E+00
         0.00000E+00
         0.00000E+00
         0.00000E+00
         0.00000E+00
         0.00000E+00
         0.00000E+00
         0.00000E+00
         0.00000E+00
         0.00000E+00
         0.00000E+00
         0.00000E+00
         0.00000E+00
         0.00000E+00
         0.00000E+00
         0.00000E+00
         0.00000E+00
         0.00000E+00
         0.00000E+00
         0.00000E+00
         0.00000E+00
         0.00000E+00
         0.00000E+00
         0.00000E+00
         0.00000E+00
         0.00000E+00
         0.00000E+00
         0.00000E+00
         0.00000E+00
         0.00000E+00
         0.00000E+00
         0.00000E+00
         0.00000E+00
         0.00000E+00
         0.00000E+00
         0.00000E+00
         0.00000E+00
         0.00000E+00
         0.00000E+00
         0.00000E+00
         0.00000E+00
         0.00000E+00
         0.00000E+00
         0.00000E+00
         0.00000E+00
         0.00000E+00
         0.00000E+00
         0.00000E+00
         0.00000E+00
         0.00000E+00
         0.00000E+00
         0.00000E+00
         0.00000E+00
         0.00000E+00
         0.00000E+00
         0.00000E+00
         0.00000E+00
         0.00000E+00
         0.00000E+00
         0.00000E+00
         0.00000E+00
         0.00000E+00
         0.00000E+00
         0.00000E+00
         0.00000E+00
         0.00000E+00
         0.00000E+00
         0.00000E+00
         0.00000E+00
         0.00000E+00
         0.00000E+00
         0.00000E+00
         0.00000E+00
         0.00000E+00
         0.00000E+00
         0.00000E+00
         0.00000E+00
         0.00000E+00
         0.00000E+00
         0.00000E+00
         0.00000E+00
         0.00000E+00
         0.00000E+00
         0.00000E+00
         0.00000E+00
         0.00000E+00
         0.00000E+00
         0.00000E+00
         0.00000E+00
         0.00000E+00
         0.00000E+00
         0.00000E+00
         0.00000E+00
         0.00000E+00
         0.00000E+00
         0.00000E+00
         0.00000E+00
         0.00000E+00
         0.00000E+00
         0.00000E+00
         0.00000E+00
         0.00000E+00
         0.00000E+00
         0.00000E+00
         0.00000E+00
         0.00000E+00
         0.00000E+00
         0.00000E+00
         0.00000E+00
         0.00000E+00
         0.00000E+00
         0.00000E+00
         0.00000E+00
         0.00000E+00
         0.00000E+00
         0.00000E+00
         0.00000E+00
         0.00000E+00
         0.00000E+00
         0.00000E+00
         0.00000E+00
         0.00000E+00
         0.00000E+00
         0.00000E+00
         0.00000E+00
         0.00000E+00
         0.00000E+00
         0.00000E+00
         0.00000E+00
         0.00000E+00
         0.00000E+00
         0.00000E+00
         0.00000E+00
         0.00000E+00
         0.00000E+00
         0.00000E+00
         0.00000E+00
         0.00000E+00
         0.00000E+00
         0.00000E+00
         0.00000E+00
         0.00000E+00
         0.00000E+00
         0.00000E+00
         0.00000E+00
         0.00000E+00
         0.00000E+00
         0.00000E+00
         0.00000E+00
         0.00000E+00
         0.00000E+00
         0.00000E+00
         0.00000E+00
         0.00000E+00
         0.00000E+00
         0.00000E+00
         0.00000E+00
         0.00000E+00
         0.00000E+00
         0.00000E+00
         0.00000E+00
         0.00000E+00
         0.00000E+00
         0.00000E+00
         0.00000E+00
         0.00000E+00
         0.00000E+00
         0.00000E+00
         0.00000E+00
         0.00000E+00
         0.00000E+00
         0.00000E+00
         0.00000E+00
         0.00000E+00
         0.00000E+00
         0.00000E+00
         0.00000E+00
         0.00000E+00
         0.00000E+00
         0.00000E+00
         0.00000E+00
         0.00000E+00
         0.00000E+00
         0.00000E+00
         0.00000E+00
         0.00000E+00
         0.00000E+00
         0.00000E+00
         0.00000E+00
         0.00000E+00
         0.00000E+00
         0.00000E+00
         0.00000E+00
         0.00000E+00
         0.00000E+00
         0.00000E+00
         0.00000E+00
         0.00000E+00
         0.00000E+00
         0.00000E+00
         0.00000E+00
         0.00000E+00
         0.00000E+00
         0.00000E+00
         0.00000E+00
         0.00000E+00
         0.00000E+00
         0.00000E+00
         0.00000E+00
         0.00000E+00
         0.00000E+00
         0.00000E+00
         0.00000E+00
         0.00000E+00
         0.00000E+00
         0.00000E+00
         0.00000E+00
         0.00000E+00
         0.00000E+00
         0.00000E+00
         0.00000E+00
         0.00000E+00
         0.00000E+00
         0.00000E+00
         0.00000E+00
         0.00000E+00
         0.00000E+00
         0.00000E+00
         0.00000E+00
         0.00000E+00
         0.00000E+00
         0.00000E+00
         0.00000E+00
         0.00000E+00
         0.00000E+00
         0.00000E+00
         0.00000E+00
         0.00000E+00
         0.00000E+00
         0.00000E+00
         0.00000E+00
         0.00000E+00
         0.00000E+00
         0.00000E+00
         0.00000E+00
         0.00000E+00
         0.00000E+00
         0.00000E+00
         0.00000E+00
         0.00000E+00
         0.00000E+00
         0.00000E+00
         0.00000E+00
         0.00000E+00
         0.00000E+00
         0.00000E+00
         0.00000E+00
         0.00000E+00
         0.00000E+00
         0.00000E+00
         0.00000E+00
         0.00000E+00
         0.00000E+00
         0.00000E+00
         0.00000E+00
         0.00000E+00
         0.00000E+00
         0.00000E+00
         0.00000E+00
         0.00000E+00
         0.00000E+00
         0.00000E+00
         0.00000E+00
         0.00000E+00
         0.00000E+00
         0.00000E+00
         0.00000E+00
         0.00000E+00
         0.00000E+00
         0.00000E+00
         0.00000E+00
         0.00000E+00
         0.00000E+00
         0.00000E+00
         0.00000E+00
         0.00000E+00
         0.00000E+00
         0.00000E+00
         0.00000E+00
         0.00000E+00
         0.00000E+00
         0.00000E+00
         0.00000E+00
         0.00000E+00
         0.00000E+00
         0.00000E+00
         0.00000E+00
         0.00000E+00
         0.00000E+00
         0.00000E+00
         0.00000E+00
         0.00000E+00
         0.00000E+00
         0.00000E+00
         0.00000E+00
         0.00000E+00
         0.00000E+00
         0.00000E+00
         0.00000E+00
         0.00000E+00
         0.00000E+00
         0.00000E+00
         0.00000E+00
         0.00000E+00
         0.00000E+00
         0.00000E+00
         0.00000E+00
         0.00000E+00
         0.00000E+00
         0.00000E+00
         0.00000E+00
         0.00000E+00
         0.00000E+00
         0.00000E+00
         0.00000E+00
         0.00000E+00
         0.00000E+00
         0.00000E+00
         0.00000E+00
         0.00000E+00
         0.00000E+00
         0.00000E+00
         0.00000E+00
         0.00000E+00
         0.00000E+00
         0.00000E+00
         0.00000E+00
         0.00000E+00
         0.00000E+00
         0.00000E+00
         0.00000E+00
         0.00000E+00
         0.00000E+00
         0.00000E+00
         0.00000E+00
         0.00000E+00
         0.00000E+00
         0.00000E+00
         0.00000E+00
         0.00000E+00
         0.00000E+00
         0.00000E+00
         0.00000E+00
         0.00000E+00
         0.00000E+00
         0.00000E+00
         0.00000E+00
         0.00000E+00
         0.00000E+00
         0.00000E+00
         0.00000E+00
         0.00000E+00
         0.00000E+00
         0.00000E+00
         0.00000E+00
         0.00000E+00
         0.00000E+00
         0.00000E+00
         0.00000E+00
         0.00000E+00
         0.00000E+00
         0.00000E+00
         0.00000E+00
         0.00000E+00
         0.00000E+00
         0.00000E+00
         0.00000E+00
         0.00000E+00
         0.00000E+00
         0.00000E+00
         0.00000E+00
         0.00000E+00
         0.00000E+00
         0.00000E+00
         0.00000E+00
         0.00000E+00
         0.00000E+00
         0.00000E+00
         0.00000E+00
         0.00000E+00
         0.00000E+00
         0.00000E+00
         0.00000E+00
         0.00000E+00
         0.00000E+00
         0.00000E+00
         0.00000E+00
         0.00000E+00
         0.00000E+00
         0.00000E+00
         0.00000E+00
         0.00000E+00
         0.00000E+00
         0.00000E+00
         0.00000E+00
         0.00000E+00
         0.00000E+00
         0.00000E+00
         0.00000E+00
         0.00000E+00
         0.00000E+00
         0.00000E+00
         0.00000E+00
         0.00000E+00
         0.00000E+00
         0.00000E+00
         0.00000E+00
         0.00000E+00
         0.00000E+00
         0.00000E+00
         0.00000E+00
         0.00000E+00
         0.00000E+00
         0.00000E+00
         0.00000E+00
         0.00000E+00
         0.00000E+00
         0.00000E+00
         0.00000E+00
         0.00000E+00
         0.00000E+00
         0.00000E+00
         0.00000E+00
         0.00000E+00
         0.00000E+00
         0.00000E+00
         0.00000E+00
         0.00000E+00
         0.00000E+00
         0.00000E+00
         0.00000E+00
         0.00000E+00
         0.00000E+00
         0.00000E+00
         0.00000E+00
         0.00000E+00
         0.00000E+00
         0.00000E+00
         0.00000E+00
         0.00000E+00
         0.00000E+00
         0.00000E+00
         0.00000E+00
         0.00000E+00
         0.00000E+00
         0.00000E+00
         0.00000E+00
         0.00000E+00
         0.00000E+00
         0.00000E+00
         0.00000E+00
         0.00000E+00
         0.00000E+00
         0.00000E+00
         0.00000E+00
         0.00000E+00
         0.00000E+00
         0.00000E+00
         0.00000E+00
         0.00000E+00
         0.00000E+00
         0.00000E+00
         0.00000E+00
         0.00000E+00
         0.00000E+00
         0.00000E+00
         0.00000E+00
         0.00000E+00
         0.00000E+00
         0.00000E+00
         0.00000E+00
         0.00000E+00
         0.00000E+00
         0.00000E+00
         0.00000E+00
         0.00000E+00
         0.00000E+00
         0.00000E+00
         0.00000E+00
         0.00000E+00
         0.00000E+00
         0.00000E+00
         0.00000E+00
         0.00000E+00
         0.00000E+00
         0.00000E+00
         0.00000E+00
         0.00000E+00
         0.00000E+00
         0.00000E+00
         0.00000E+00
         0.00000E+00
         0.00000E+00
         0.00000E+00
         0.00000E+00
         0.00000E+00
         0.00000E+00
         0.00000E+00
         0.00000E+00
         0.00000E+00
         0.00000E+00
         0.00000E+00
         0.00000E+00
         0.00000E+00
         0.00000E+00
         0.00000E+00
         0.00000E+00
         0.00000E+00
         0.00000E+00
         0.00000E+00
         0.00000E+00
         0.00000E+00
         0.00000E+00
         0.00000E+00
         0.00000E+00
         0.00000E+00
         0.00000E+00
         0.00000E+00
         0.00000E+00
         0.00000E+00
         0.00000E+00
         0.00000E+00
         0.00000E+00
         0.00000E+00
         0.00000E+00
         0.00000E+00
         0.00000E+00
         0.00000E+00
         0.00000E+00
         0.00000E+00
         0.00000E+00
         0.00000E+00
         0.00000E+00
         0.00000E+00
         0.00000E+00
         0.00000E+00
         0.00000E+00
         0.00000E+00
         0.00000E+00
         0.00000E+00
         0.00000E+00
         0.00000E+00
         0.00000E+00
         0.00000E+00
         0.00000E+00
         0.00000E+00
         0.00000E+00
         0.00000E+00
         0.00000E+00
         0.00000E+00
         0.00000E+00
         0.00000E+00
         0.00000E+00
         0.00000E+00
         0.00000E+00
         0.00000E+00
         0.00000E+00
         0.00000E+00
         0.00000E+00
         0.00000E+00
         0.00000E+00
         0.00000E+00
         0.00000E+00
         0.00000E+00
         0.00000E+00
         0.00000E+00
         0.00000E+00
         0.00000E+00
         0.00000E+00
         0.00000E+00
         0.00000E+00
         0.00000E+00
         0.00000E+00
         0.00000E+00
         0.00000E+00
         0.00000E+00
         0.00000E+00
         0.00000E+00
         0.00000E+00
         0.00000E+00
         0.00000E+00
         0.00000E+00
         0.00000E+00
         0.00000E+00
         0.00000E+00
         0.00000E+00
         0.00000E+00
         0.00000E+00
         0.00000E+00
         0.00000E+00
         0.00000E+00
         0.00000E+00
         0.00000E+00
         0.00000E+00
         0.00000E+00
         0.00000E+00
         0.00000E+00
         0.00000E+00
         0.00000E+00
         0.00000E+00
         0.00000E+00
         0.00000E+00
         0.00000E+00
         0.00000E+00
         0.00000E+00
         0.00000E+00
         0.00000E+00
         0.00000E+00
         0.00000E+00
         0.00000E+00
         0.00000E+00
         0.00000E+00
         0.00000E+00
         0.00000E+00
         0.00000E+00
         0.00000E+00
         0.00000E+00
         0.00000E+00
         0.00000E+00
         0.00000E+00
         0.00000E+00
         0.00000E+00
         0.00000E+00
         0.00000E+00
         0.00000E+00
         0.00000E+00
         0.00000E+00
         0.00000E+00
         0.00000E+00
         0.00000E+00
         0.00000E+00
         0.00000E+00
         0.00000E+00
         0.00000E+00
         0.00000E+00
         0.00000E+00
         0.00000E+00
         0.00000E+00
         0.00000E+00
         0.00000E+00
         0.00000E+00
         0.00000E+00
         0.00000E+00
         0.00000E+00
         0.00000E+00
         0.00000E+00
         0.00000E+00
         0.00000E+00
         0.00000E+00
         0.00000E+00
         0.00000E+00
         0.00000E+00
         0.00000E+00
         0.00000E+00
         0.00000E+00
         0.00000E+00
         0.00000E+00
         0.00000E+00
         0.00000E+00
         0.00000E+00
         0.00000E+00
         0.00000E+00
         0.00000E+00
         0.00000E+00
         0.00000E+00
         0.00000E+00
         0.00000E+00
         0.00000E+00
         0.00000E+00
         0.00000E+00
         0.00000E+00
         0.00000E+00
         0.00000E+00
         0.00000E+00
         0.00000E+00
         0.00000E+00
         0.00000E+00
         0.00000E+00
         0.00000E+00
         0.00000E+00
         0.00000E+00
         0.00000E+00
         0.00000E+00
         0.00000E+00
         0.00000E+00
         0.00000E+00
         0.00000E+00
         0.00000E+00
         0.00000E+00
         0.00000E+00
         0.00000E+00
         0.00000E+00
         0.00000E+00
         0.00000E+00
         0.00000E+00
         0.00000E+00
         0.00000E+00
         0.00000E+00
         0.00000E+00
         0.00000E+00
         0.00000E+00
         0.00000E+00
         0.00000E+00
         0.00000E+00
         0.00000E+00
         0.00000E+00
         0.00000E+00
         0.00000E+00
         0.00000E+00
         0.00000E+00
         0.00000E+00
         0.00000E+00
         0.00000E+00
         0.00000E+00
         0.00000E+00
         0.00000E+00
         0.00000E+00
         0.00000E+00
         0.00000E+00
         0.00000E+00
         0.00000E+00
         0.00000E+00
         0.00000E+00
         0.00000E+00
         0.00000E+00
         0.00000E+00
         0.00000E+00
         0.00000E+00
         0.00000E+00
         0.00000E+00
         0.00000E+00
         0.00000E+00
         0.00000E+00
         0.00000E+00
         0.00000E+00
         0.00000E+00
         0.00000E+00
         0.00000E+00
         0.00000E+00
         0.00000E+00
         0.00000E+00
         0.00000E+00
         0.00000E+00
         0.00000E+00
         0.00000E+00
         0.00000E+00
         0.00000E+00
         0.00000E+00
         0.00000E+00
         0.00000E+00
         0.00000E+00
         0.00000E+00
         0.00000E+00
         0.00000E+00
         0.00000E+00
         0.00000E+00
         0.00000E+00
         0.00000E+00
         0.00000E+00
         0.00000E+00
         0.00000E+00
         0.00000E+00
         0.00000E+00
         0.00000E+00
         0.00000E+00
         0.00000E+00
         0.00000E+00
         0.00000E+00
         0.00000E+00
         0.00000E+00
         0.00000E+00
         0.00000E+00
         0.00000E+00
         0.00000E+00
         0.00000E+00
         0.00000E+00
         0.00000E+00
         0.00000E+00
         0.00000E+00
         0.00000E+00
         0.00000E+00
         0.00000E+00
         0.00000E+00
         0.00000E+00
         0.00000E+00
         0.00000E+00
         0.00000E+00
         0.00000E+00
         0.00000E+00
         0.00000E+00
         0.00000E+00
         0.00000E+00
         0.00000E+00
         0.00000E+00
         0.00000E+00
         0.00000E+00
         0.00000E+00
         0.00000E+00
         0.00000E+00
         0.00000E+00
         0.00000E+00
         0.00000E+00
         0.00000E+00
         0.00000E+00
         0.00000E+00
         0.00000E+00
         0.00000E+00
         0.00000E+00
         0.00000E+00
         0.00000E+00
         0.00000E+00
         0.00000E+00
         0.00000E+00
         0.00000E+00
         0.00000E+00
         0.00000E+00
         0.00000E+00
         0.00000E+00
         0.00000E+00
         0.00000E+00
         0.00000E+00
         0.00000E+00
         0.00000E+00
         0.00000E+00
         0.00000E+00
         0.00000E+00
         0.00000E+00
         0.00000E+00
         0.00000E+00
         0.00000E+00
         0.00000E+00
         0.00000E+00
         0.00000E+00
         0.00000E+00
         0.00000E+00
         0.00000E+00
         0.00000E+00
         0.00000E+00
         0.00000E+00
         0.00000E+00
         0.00000E+00
         0.00000E+00
         0.00000E+00
         0.00000E+00
         0.00000E+00
         0.00000E+00
         0.00000E+00
         0.00000E+00
         0.00000E+00
         0.00000E+00
         0.00000E+00
         0.00000E+00
         0.00000E+00
         0.00000E+00
         0.00000E+00
         0.00000E+00
         0.00000E+00
         0.00000E+00
         0.00000E+00
         0.00000E+00
         0.00000E+00
         0.00000E+00
         0.00000E+00
         0.00000E+00
         0.00000E+00
         0.00000E+00
         0.00000E+00
         0.00000E+00
         0.00000E+00
         0.00000E+00
         0.00000E+00
         0.00000E+00
         0.00000E+00
         0.00000E+00
         0.00000E+00
         0.00000E+00
         0.00000E+00
         0.00000E+00
         0.00000E+00
         0.00000E+00
         0.00000E+00
         0.00000E+00
         0.00000E+00
         0.00000E+00
         0.00000E+00
         0.00000E+00
         0.00000E+00
         0.00000E+00
         0.00000E+00
         0.00000E+00
         0.00000E+00
         0.00000E+00
         0.00000E+00
         0.00000E+00
         0.00000E+00
         0.00000E+00
         0.00000E+00
         0.00000E+00
         0.00000E+00
         0.00000E+00
         0.00000E+00
         0.00000E+00
         0.00000E+00
         0.00000E+00
         0.00000E+00
         0.00000E+00
         0.00000E+00
         0.00000E+00
         0.00000E+00
         0.00000E+00
         0.00000E+00
         0.00000E+00
         0.00000E+00
         0.00000E+00
         0.00000E+00
         0.00000E+00
         0.00000E+00
         0.00000E+00
         0.00000E+00
         0.00000E+00
         0.00000E+00
         0.00000E+00
         0.00000E+00
         0.00000E+00
         0.00000E+00
         0.00000E+00
         0.00000E+00
         0.00000E+00
         0.00000E+00
         0.00000E+00
         0.00000E+00
         0.00000E+00
         0.00000E+00
         0.00000E+00
         0.00000E+00
         0.00000E+00
         0.00000E+00
         0.00000E+00
         0.00000E+00
         0.00000E+00
         0.00000E+00
         0.00000E+00
         0.00000E+00
         0.00000E+00
         0.00000E+00
         0.00000E+00
         0.00000E+00
         0.00000E+00
         0.00000E+00
         0.00000E+00
         0.00000E+00
         0.00000E+00
         0.00000E+00
         0.00000E+00
         0.00000E+00
         0.00000E+00
         0.00000E+00
         0.00000E+00
         0.00000E+00
         0.00000E+00
         0.00000E+00
         0.00000E+00
         0.00000E+00
         0.00000E+00
         0.00000E+00
         0.00000E+00
         0.00000E+00
         0.00000E+00
         0.00000E+00
         0.00000E+00
         0.00000E+00
         0.00000E+00
         0.00000E+00
         0.00000E+00
         0.00000E+00
         0.00000E+00
         0.00000E+00
         0.00000E+00
         0.00000E+00
         0.00000E+00
         0.00000E+00
         0.00000E+00
         0.00000E+00
         0.00000E+00
         0.00000E+00
         0.00000E+00
         0.00000E+00
         0.00000E+00
         0.00000E+00
         0.00000E+00
         0.00000E+00
         0.00000E+00
         0.00000E+00
         0.00000E+00
         0.00000E+00
         0.00000E+00
         0.00000E+00
         0.00000E+00
         0.00000E+00
         0.00000E+00
         0.00000E+00
         0.00000E+00
         0.00000E+00
         0.00000E+00
         0.00000E+00
         0.00000E+00
         0.00000E+00
         0.00000E+00
         0.00000E+00
         0.00000E+00
         0.00000E+00
         0.00000E+00
         0.00000E+00
         0.00000E+00
         0.00000E+00
         0.00000E+00
         0.00000E+00
         0.00000E+00
         0.00000E+00
         0.00000E+00
         0.00000E+00
         0.00000E+00
         0.00000E+00
         0.00000E+00
         0.00000E+00
         0.00000E+00
         0.00000E+00
         0.00000E+00
         0.00000E+00
         0.00000E+00
         0.00000E+00
         0.00000E+00
         0.00000E+00
         0.00000E+00
         0.00000E+00
         0.00000E+00
         0.00000E+00
         0.00000E+00
         0.00000E+00
         0.00000E+00
         0.00000E+00
         0.00000E+00
         0.00000E+00
         0.00000E+00
         0.00000E+00
         0.00000E+00
         0.00000E+00
         0.00000E+00
         0.00000E+00
         0.00000E+00
         0.00000E+00
         0.00000E+00
         0.00000E+00
         0.00000E+00
         0.00000E+00
         0.00000E+00
         0.00000E+00
         0.00000E+00
         0.00000E+00
         0.00000E+00
         0.00000E+00
         0.00000E+00
         0.00000E+00
         0.00000E+00
         0.00000E+00
         0.00000E+00
         0.00000E+00
         0.00000E+00
         0.00000E+00
         0.00000E+00
         0.00000E+00
         0.00000E+00
         0.00000E+00
         0.00000E+00
         0.00000E+00
         0.00000E+00
         0.00000E+00
         0.00000E+00
         0.00000E+00
         0.00000E+00
         0.00000E+00
         0.00000E+00
         0.00000E+00
         0.00000E+00
         0.00000E+00
         0.00000E+00
         0.00000E+00
         0.00000E+00
         0.00000E+00
         0.00000E+00
         0.00000E+00
         0.00000E+00
         0.00000E+00
         0.00000E+00
         0.00000E+00
         0.00000E+00
         0.00000E+00
         0.00000E+00
         0.00000E+00
         0.00000E+00
         0.00000E+00
         0.00000E+00
         0.00000E+00
         0.00000E+00
         0.00000E+00
         0.00000E+00
         0.00000E+00
         0.00000E+00
         0.00000E+00
         0.00000E+00
         0.00000E+00
         0.00000E+00
         0.00000E+00
         0.00000E+00
         0.00000E+00
         0.00000E+00
         0.00000E+00
         0.00000E+00
         0.00000E+00
         0.00000E+00
         0.00000E+00
         0.00000E+00
         0.00000E+00
         0.00000E+00
         0.00000E+00
         0.00000E+00
         0.00000E+00
         0.00000E+00
         0.00000E+00
         0.00000E+00
         0.00000E+00
         0.00000E+00
         0.00000E+00
         0.00000E+00
         0.00000E+00
         0.00000E+00
         0.00000E+00
         0.00000E+00
         0.00000E+00
         0.00000E+00
         0.00000E+00
         0.00000E+00
         0.00000E+00
         0.00000E+00
         0.00000E+00
         0.00000E+00
         0.00000E+00
         0.00000E+00
         0.00000E+00
         0.00000E+00
         0.00000E+00
         0.00000E+00
         0.00000E+00
         0.00000E+00
         0.00000E+00
         0.00000E+00
         0.00000E+00
         0.00000E+00
         0.00000E+00
         0.00000E+00
         0.00000E+00
         0.00000E+00
         0.00000E+00
         0.00000E+00
         0.00000E+00
         0.00000E+00
         0.00000E+00
         0.00000E+00
         0.00000E+00
         0.00000E+00
         0.00000E+00
         0.00000E+00
         0.00000E+00
         0.00000E+00
         0.00000E+00
         0.00000E+00
         0.00000E+00
         0.00000E+00
         0.00000E+00
         0.00000E+00
         0.00000E+00
         0.00000E+00
         0.00000E+00
         0.00000E+00
         0.00000E+00
         0.00000E+00
         0.00000E+00
         0.00000E+00
         0.00000E+00
         0.00000E+00
         0.00000E+00
         0.00000E+00
         0.00000E+00
         0.00000E+00
         0.00000E+00
         0.00000E+00
         0.00000E+00
         0.00000E+00
         0.00000E+00
         0.00000E+00
         0.00000E+00
         0.00000E+00
         0.00000E+00
         0.00000E+00
         0.00000E+00
         0.00000E+00
         0.00000E+00
         0.00000E+00
         0.00000E+00
         0.00000E+00
         0.00000E+00
         0.00000E+00
         0.00000E+00
         0.00000E+00
         0.00000E+00
         0.00000E+00
         0.00000E+00
         0.00000E+00
         0.00000E+00
         0.00000E+00
         0.00000E+00
         0.00000E+00
         0.00000E+00
         0.00000E+00
         0.00000E+00
         0.00000E+00
         0.00000E+00
         0.00000E+00
         0.00000E+00
         0.00000E+00
         0.00000E+00
         0.00000E+00
         0.00000E+00
         0.00000E+00
         0.00000E+00
         0.00000E+00
         0.00000E+00
         0.00000E+00
         0.00000E+00
         0.00000E+00
         0.00000E+00
         0.00000E+00
         0.00000E+00
         0.00000E+00
         0.00000E+00
         0.00000E+00
         0.00000E+00
         0.00000E+00
         0.00000E+00
         0.00000E+00
         0.00000E+00
         0.00000E+00
         0.00000E+00
         0.00000E+00
         0.00000E+00
         0.00000E+00
         0.00000E+00
         0.00000E+00
         0.00000E+00
         0.00000E+00
         0.00000E+00
         0.00000E+00
         0.00000E+00
         0.00000E+00
         0.00000E+00
         0.00000E+00
         0.00000E+00
         0.00000E+00
         0.00000E+00
         0.00000E+00
         0.00000E+00
         0.00000E+00
         0.00000E+00
         0.00000E+00
         0.00000E+00
         0.00000E+00
         0.00000E+00
         0.00000E+00
         0.00000E+00
         0.00000E+00
         0.00000E+00
         0.00000E+00
         0.00000E+00
         0.00000E+00
         0.00000E+00
         0.00000E+00
         0.00000E+00
         0.00000E+00
         0.00000E+00
         0.00000E+00
         0.00000E+00
         0.00000E+00
         0.00000E+00
         0.00000E+00
         0.00000E+00
         0.00000E+00
         0.00000E+00
         0.00000E+00
         0.00000E+00
         0.00000E+00
         0.00000E+00
         0.00000E+00
         0.00000E+00
         0.00000E+00
         0.00000E+00
         0.00000E+00
         0.00000E+00
         0.00000E+00
         0.00000E+00
         0.00000E+00
         0.00000E+00
         0.00000E+00
         0.00000E+00
         0.00000E+00
         0.00000E+00
         0.00000E+00
         0.00000E+00
         0.00000E+00
         0.00000E+00
         0.00000E+00
         0.00000E+00
         0.00000E+00
         0.00000E+00
         0.00000E+00
         0.00000E+00
         0.00000E+00
         0.00000E+00
         0.00000E+00
         0.00000E+00
         0.00000E+00
         0.00000E+00
         0.00000E+00
         0.00000E+00
         0.00000E+00
         0.00000E+00
         0.00000E+00
         0.00000E+00
         0.00000E+00
         0.00000E+00
         0.00000E+00
         0.00000E+00
         0.00000E+00
         0.00000E+00
         0.00000E+00
         0.00000E+00
         0.00000E+00
         0.00000E+00
         0.00000E+00
         0.00000E+00
         0.00000E+00
         0.00000E+00
         0.00000E+00
         0.00000E+00
         0.00000E+00
         0.00000E+00
         0.00000E+00
         0.00000E+00
         0.00000E+00
         0.00000E+00
         0.00000E+00
         0.00000E+00
         0.00000E+00
         0.00000E+00
         0.00000E+00
         0.00000E+00
         0.00000E+00
         0.00000E+00
         0.00000E+00
         0.00000E+00
         0.00000E+00
         0.00000E+00
         0.00000E+00
         0.00000E+00
         0.00000E+00
         0.00000E+00
         0.00000E+00
         0.00000E+00
         0.00000E+00
         0.00000E+00
         0.00000E+00
         0.00000E+00
         0.00000E+00
         0.00000E+00
         0.00000E+00
         0.00000E+00
         0.00000E+00
         0.00000E+00
         0.00000E+00
         0.00000E+00
         0.00000E+00
         0.00000E+00
         0.00000E+00
         0.00000E+00
         0.00000E+00
         0.00000E+00
         0.00000E+00
         0.00000E+00
         0.00000E+00
         0.00000E+00
         0.00000E+00
         0.00000E+00
         0.00000E+00
         0.00000E+00
         0.00000E+00
         0.00000E+00
         0.00000E+00
         0.00000E+00
         0.00000E+00
         0.00000E+00
         0.00000E+00
         0.00000E+00
         0.00000E+00
         0.00000E+00
         0.00000E+00
         0.00000E+00
         0.00000E+00
         0.00000E+00
         0.00000E+00
         0.00000E+00
         0.00000E+00
         0.00000E+00
         0.00000E+00
         0.00000E+00
         0.00000E+00
         0.00000E+00
         0.00000E+00
         0.00000E+00
         0.00000E+00
         0.00000E+00
         0.00000E+00
         0.00000E+00
         0.00000E+00
         0.00000E+00
         0.00000E+00
         0.00000E+00
         0.00000E+00
         0.00000E+00
         0.00000E+00
         0.00000E+00
         0.00000E+00
         0.00000E+00
         0.00000E+00
         0.00000E+00
         0.00000E+00
         0.00000E+00
         0.00000E+00
         0.00000E+00
         0.00000E+00
         0.00000E+00
         0.00000E+00
         0.00000E+00
         0.00000E+00
         0.00000E+00
         0.00000E+00
         0.00000E+00
         0.00000E+00
         0.00000E+00
         0.00000E+00
         0.00000E+00
         0.00000E+00
         0.00000E+00
         0.00000E+00
         0.00000E+00
         0.00000E+00
         0.00000E+00
         0.00000E+00
         0.00000E+00
         0.00000E+00
         0.00000E+00
         0.00000E+00
         0.00000E+00
         0.00000E+00
         0.00000E+00
         0.00000E+00
         0.00000E+00
         0.00000E+00
         0.00000E+00
         0.00000E+00
         0.00000E+00
         0.00000E+00
         0.00000E+00
         0.00000E+00
         0.00000E+00
         0.00000E+00
         0.00000E+00
         0.00000E+00
         0.00000E+00
         0.00000E+00
         0.00000E+00
         0.00000E+00
         0.00000E+00
         0.00000E+00
         0.00000E+00
         0.00000E+00
         0.00000E+00
         0.00000E+00
         0.00000E+00
         0.00000E+00
         0.00000E+00
         0.00000E+00
         0.00000E+00
         0.00000E+00
         0.00000E+00
         0.00000E+00
         0.00000E+00
         0.00000E+00
         0.00000E+00
         0.00000E+00
         0.00000E+00
         0.00000E+00
         0.00000E+00
         0.00000E+00
         0.00000E+00
         0.00000E+00
         0.00000E+00
         0.00000E+00
         0.00000E+00
         0.00000E+00
         0.00000E+00
         0.00000E+00
         0.00000E+00
         0.00000E+00
         0.00000E+00
         0.00000E+00
         0.00000E+00
         0.00000E+00
         0.00000E+00
         0.00000E+00
         0.00000E+00
         0.00000E+00
         0.00000E+00
         0.00000E+00
         0.00000E+00
         0.00000E+00
         0.00000E+00
         0.00000E+00
         0.00000E+00
         0.00000E+00
         0.00000E+00
         0.00000E+00
         0.00000E+00
         0.00000E+00
         0.00000E+00
         0.00000E+00
         0.00000E+00
         0.00000E+00
         0.00000E+00
         0.00000E+00
         0.00000E+00
         0.00000E+00
         0.00000E+00
         0.00000E+00
         0.00000E+00
         0.00000E+00
         0.00000E+00
         0.00000E+00
         0.00000E+00
         0.00000E+00
         0.00000E+00
         0.00000E+00
         0.00000E+00
         0.00000E+00
         0.00000E+00
         0.00000E+00
         0.00000E+00
         0.00000E+00
         0.00000E+00
         0.00000E+00
         0.00000E+00
         0.00000E+00
         0.00000E+00
         0.00000E+00
         0.00000E+00
         0.00000E+00
         0.00000E+00
         0.00000E+00
         0.00000E+00
         0.00000E+00
         0.00000E+00
         0.00000E+00
         0.00000E+00
         0.00000E+00
         0.00000E+00
         0.00000E+00
         0.00000E+00
         0.00000E+00
         0.00000E+00
         0.00000E+00
         0.00000E+00
         0.00000E+00
         0.00000E+00
         0.00000E+00
         0.00000E+00
         0.00000E+00
         0.00000E+00
         0.00000E+00
         0.00000E+00
         0.00000E+00
         0.00000E+00
         0.00000E+00
         0.00000E+00
         0.00000E+00
         0.00000E+00
         0.00000E+00
         0.00000E+00
         0.00000E+00
         0.00000E+00
         0.00000E+00
         0.00000E+00
         0.00000E+00
         0.00000E+00
         0.00000E+00
         0.00000E+00
         0.00000E+00
         0.00000E+00
         0.00000E+00
         0.00000E+00
         0.00000E+00
         0.00000E+00
         0.00000E+00
         0.00000E+00
         0.00000E+00
         0.00000E+00
         0.00000E+00
         0.00000E+00
         0.00000E+00
         0.00000E+00
         0.00000E+00
         0.00000E+00
         0.00000E+00
         0.00000E+00
         0.00000E+00
         0.00000E+00
         0.00000E+00
         0.00000E+00
         0.00000E+00
         0.00000E+00
         0.00000E+00
         0.00000E+00
         0.00000E+00
         0.00000E+00
         0.00000E+00
         0.00000E+00
         0.00000E+00
         0.00000E+00
         0.00000E+00
         0.00000E+00
         0.00000E+00
         0.00000E+00
         0.00000E+00
         0.00000E+00
         0.00000E+00
         0.00000E+00
         0.00000E+00
         0.00000E+00
         0.00000E+00
         0.00000E+00
         0.00000E+00
         0.00000E+00
         0.00000E+00
         0.00000E+00
         0.00000E+00
         0.00000E+00
         0.00000E+00
         0.00000E+00
         0.00000E+00
         0.00000E+00
         0.00000E+00
         0.00000E+00
         0.00000E+00
         0.00000E+00
         0.00000E+00
         0.00000E+00
         0.00000E+00
         0.00000E+00
         0.00000E+00
         0.00000E+00
         0.00000E+00
         0.00000E+00
         0.00000E+00
         0.00000E+00
         0.00000E+00
         0.00000E+00
         0.00000E+00
         0.00000E+00
         0.00000E+00
         0.00000E+00
         0.00000E+00
         0.00000E+00
         0.00000E+00
         0.00000E+00
         0.00000E+00
         0.00000E+00
         0.00000E+00
         0.00000E+00
         0.00000E+00
         0.00000E+00
         0.00000E+00
         0.00000E+00
         0.00000E+00
         0.00000E+00
         0.00000E+00
         0.00000E+00
         0.00000E+00
         0.00000E+00
         0.00000E+00
         0.00000E+00
         0.00000E+00
         0.00000E+00
         0.00000E+00
         0.00000E+00
         0.00000E+00
         0.00000E+00
         0.00000E+00
         0.00000E+00
         0.00000E+00
         0.00000E+00
         0.00000E+00
         0.00000E+00
         0.00000E+00
  
SCALARS                     velocity_z  double 1
LOOKUP_TABLE default
        -0.37300E+03
        -0.37300E+03
        -0.37300E+03
        -0.37300E+03
         0.00000E+00
         0.00000E+00
         0.00000E+00
         0.00000E+00
        -0.37300E+03
        -0.37300E+03
         0.00000E+00
         0.00000E+00
        -0.37300E+03
        -0.37300E+03
         0.00000E+00
         0.00000E+00
        -0.37300E+03
        -0.37300E+03
         0.00000E+00
         0.00000E+00
        -0.37300E+03
        -0.37300E+03
        -0.37300E+03
         0.00000E+00
         0.00000E+00
         0.00000E+00
        -0.37300E+03
        -0.37300E+03
         0.00000E+00
         0.00000E+00
        -0.37300E+03
        -0.37300E+03
        -0.37300E+03
         0.00000E+00
         0.00000E+00
         0.00000E+00
        -0.37300E+03
        -0.37300E+03
         0.00000E+00
         0.00000E+00
        -0.37300E+03
        -0.37300E+03
         0.00000E+00
         0.00000E+00
        -0.37300E+03
        -0.37300E+03
         0.00000E+00
         0.00000E+00
        -0.37300E+03
         0.00000E+00
        -0.37300E+03
         0.00000E+00
        -0.37300E+03
         0.00000E+00
        -0.37300E+03
         0.00000E+00
        -0.37300E+03
        -0.37300E+03
         0.00000E+00
         0.00000E+00
        -0.37300E+03
        -0.37300E+03
         0.00000E+00
         0.00000E+00
        -0.37300E+03
         0.00000E+00
        -0.37300E+03
         0.00000E+00
        -0.37300E+03
        -0.37300E+03
         0.00000E+00
         0.00000E+00
        -0.37300E+03
         0.00000E+00
        -0.37300E+03
         0.00000E+00
        -0.37300E+03
         0.00000E+00
        -0.37300E+03
         0.00000E+00
        -0.37300E+03
        -0.37300E+03
         0.00000E+00
         0.00000E+00
        -0.37300E+03
         0.00000E+00
        -0.37300E+03
         0.00000E+00
        -0.37300E+03
         0.00000E+00
        -0.37300E+03
        -0.37300E+03
         0.00000E+00
         0.00000E+00
        -0.37300E+03
         0.00000E+00
        -0.37300E+03
         0.00000E+00
        -0.37300E+03
         0.00000E+00
        -0.37300E+03
        -0.37300E+03
         0.00000E+00
         0.00000E+00
        -0.37300E+03
        -0.37300E+03
         0.00000E+00
         0.00000E+00
        -0.37300E+03
         0.00000E+00
        -0.37300E+03
         0.00000E+00
        -0.37300E+03
         0.00000E+00
        -0.37300E+03
         0.00000E+00
        -0.37300E+03
         0.00000E+00
        -0.37300E+03
         0.00000E+00
        -0.37300E+03
         0.00000E+00
        -0.37300E+03
         0.00000E+00
        -0.37300E+03
         0.00000E+00
        -0.37300E+03
         0.00000E+00
        -0.37300E+03
         0.00000E+00
        -0.37300E+03
         0.00000E+00
        -0.37300E+03
         0.00000E+00
        -0.37300E+03
         0.00000E+00
        -0.37300E+03
         0.00000E+00
        -0.37300E+03
         0.00000E+00
        -0.37300E+03
         0.00000E+00
        -0.37300E+03
         0.00000E+00
        -0.37300E+03
         0.00000E+00
        -0.37300E+03
         0.00000E+00
        -0.37300E+03
         0.00000E+00
        -0.37300E+03
         0.00000E+00
        -0.37300E+03
         0.00000E+00
        -0.37300E+03
         0.00000E+00
        -0.37300E+03
        -0.37300E+03
        -0.37300E+03
        -0.37300E+03
        -0.37300E+03
        -0.37300E+03
        -0.37300E+03
        -0.37300E+03
        -0.37300E+03
        -0.37300E+03
        -0.37300E+03
        -0.37300E+03
        -0.37300E+03
        -0.37300E+03
        -0.37300E+03
        -0.37300E+03
        -0.37300E+03
        -0.37300E+03
        -0.37300E+03
        -0.37300E+03
        -0.37300E+03
        -0.37300E+03
        -0.37300E+03
        -0.37300E+03
        -0.37300E+03
        -0.37300E+03
        -0.37300E+03
        -0.37300E+03
        -0.37300E+03
        -0.37300E+03
        -0.37300E+03
        -0.37300E+03
        -0.37300E+03
        -0.37300E+03
        -0.37300E+03
        -0.37300E+03
        -0.37300E+03
        -0.37300E+03
        -0.37300E+03
        -0.37300E+03
        -0.37300E+03
        -0.37300E+03
        -0.37300E+03
        -0.37300E+03
        -0.37300E+03
        -0.37300E+03
        -0.37300E+03
        -0.37300E+03
        -0.37300E+03
        -0.37300E+03
        -0.37300E+03
        -0.37300E+03
        -0.37300E+03
        -0.37300E+03
        -0.37300E+03
        -0.37300E+03
        -0.37300E+03
        -0.37300E+03
        -0.37300E+03
        -0.37300E+03
        -0.37300E+03
        -0.37300E+03
        -0.37300E+03
        -0.37300E+03
        -0.37300E+03
        -0.37300E+03
        -0.37300E+03
        -0.37300E+03
        -0.37300E+03
        -0.37300E+03
        -0.37300E+03
        -0.37300E+03
        -0.37300E+03
        -0.37300E+03
        -0.37300E+03
        -0.37300E+03
        -0.37300E+03
        -0.37300E+03
        -0.37300E+03
        -0.37300E+03
        -0.37300E+03
        -0.37300E+03
        -0.37300E+03
        -0.37300E+03
        -0.37300E+03
        -0.37300E+03
        -0.37300E+03
        -0.37300E+03
        -0.37300E+03
        -0.37300E+03
        -0.37300E+03
        -0.37300E+03
        -0.37300E+03
        -0.37300E+03
        -0.37300E+03
        -0.37300E+03
        -0.37300E+03
        -0.37300E+03
        -0.37300E+03
        -0.37300E+03
        -0.37300E+03
        -0.37300E+03
        -0.37300E+03
        -0.37300E+03
        -0.37300E+03
        -0.37300E+03
        -0.37300E+03
        -0.37300E+03
        -0.37300E+03
        -0.37300E+03
        -0.37300E+03
        -0.37300E+03
        -0.37300E+03
        -0.37300E+03
        -0.37300E+03
        -0.37300E+03
        -0.37300E+03
        -0.37300E+03
        -0.37300E+03
        -0.37300E+03
        -0.37300E+03
        -0.37300E+03
        -0.37300E+03
        -0.37300E+03
        -0.37300E+03
        -0.37300E+03
        -0.37300E+03
        -0.37300E+03
        -0.37300E+03
        -0.37300E+03
        -0.37300E+03
        -0.37300E+03
        -0.37300E+03
        -0.37300E+03
        -0.37300E+03
        -0.37300E+03
        -0.37300E+03
        -0.37300E+03
        -0.37300E+03
        -0.37300E+03
        -0.37300E+03
        -0.37300E+03
        -0.37300E+03
        -0.37300E+03
        -0.37300E+03
        -0.37300E+03
        -0.37300E+03
        -0.37300E+03
        -0.37300E+03
        -0.37300E+03
        -0.37300E+03
        -0.37300E+03
        -0.37300E+03
        -0.37300E+03
        -0.37300E+03
        -0.37300E+03
        -0.37300E+03
        -0.37300E+03
        -0.37300E+03
        -0.37300E+03
        -0.37300E+03
        -0.37300E+03
        -0.37300E+03
        -0.37300E+03
        -0.37300E+03
        -0.37300E+03
        -0.37300E+03
        -0.37300E+03
        -0.37300E+03
        -0.37300E+03
        -0.37300E+03
        -0.37300E+03
        -0.37300E+03
        -0.37300E+03
        -0.37300E+03
        -0.37300E+03
        -0.37300E+03
        -0.37300E+03
        -0.37300E+03
        -0.37300E+03
        -0.37300E+03
        -0.37300E+03
        -0.37300E+03
        -0.37300E+03
        -0.37300E+03
        -0.37300E+03
        -0.37300E+03
        -0.37300E+03
        -0.37300E+03
        -0.37300E+03
        -0.37300E+03
        -0.37300E+03
        -0.37300E+03
        -0.37300E+03
        -0.37300E+03
        -0.37300E+03
        -0.37300E+03
        -0.37300E+03
        -0.37300E+03
        -0.37300E+03
        -0.37300E+03
        -0.37300E+03
        -0.37300E+03
        -0.37300E+03
        -0.37300E+03
        -0.37300E+03
        -0.37300E+03
        -0.37300E+03
        -0.37300E+03
        -0.37300E+03
        -0.37300E+03
        -0.37300E+03
        -0.37300E+03
        -0.37300E+03
        -0.37300E+03
        -0.37300E+03
        -0.37300E+03
        -0.37300E+03
        -0.37300E+03
        -0.37300E+03
        -0.37300E+03
        -0.37300E+03
        -0.37300E+03
        -0.37300E+03
        -0.37300E+03
        -0.37300E+03
        -0.37300E+03
        -0.37300E+03
        -0.37300E+03
        -0.37300E+03
        -0.37300E+03
        -0.37300E+03
        -0.37300E+03
        -0.37300E+03
        -0.37300E+03
        -0.37300E+03
        -0.37300E+03
        -0.37300E+03
        -0.37300E+03
        -0.37300E+03
        -0.37300E+03
        -0.37300E+03
        -0.37300E+03
        -0.37300E+03
        -0.37300E+03
        -0.37300E+03
        -0.37300E+03
        -0.37300E+03
        -0.37300E+03
        -0.37300E+03
        -0.37300E+03
        -0.37300E+03
        -0.37300E+03
        -0.37300E+03
        -0.37300E+03
        -0.37300E+03
        -0.37300E+03
        -0.37300E+03
        -0.37300E+03
        -0.37300E+03
        -0.37300E+03
        -0.37300E+03
        -0.37300E+03
        -0.37300E+03
        -0.37300E+03
        -0.37300E+03
        -0.37300E+03
        -0.37300E+03
        -0.37300E+03
        -0.37300E+03
        -0.37300E+03
        -0.37300E+03
        -0.37300E+03
        -0.37300E+03
        -0.37300E+03
        -0.37300E+03
        -0.37300E+03
        -0.37300E+03
        -0.37300E+03
        -0.37300E+03
        -0.37300E+03
        -0.37300E+03
        -0.37300E+03
        -0.37300E+03
        -0.37300E+03
        -0.37300E+03
        -0.37300E+03
        -0.37300E+03
        -0.37300E+03
        -0.37300E+03
        -0.37300E+03
        -0.37300E+03
        -0.37300E+03
        -0.37300E+03
        -0.37300E+03
        -0.37300E+03
        -0.37300E+03
        -0.37300E+03
        -0.37300E+03
        -0.37300E+03
        -0.37300E+03
        -0.37300E+03
        -0.37300E+03
        -0.37300E+03
        -0.37300E+03
        -0.37300E+03
        -0.37300E+03
        -0.37300E+03
        -0.37300E+03
        -0.37300E+03
        -0.37300E+03
        -0.37300E+03
        -0.37300E+03
        -0.37300E+03
        -0.37300E+03
        -0.37300E+03
        -0.37300E+03
        -0.37300E+03
        -0.37300E+03
        -0.37300E+03
        -0.37300E+03
        -0.37300E+03
        -0.37300E+03
        -0.37300E+03
        -0.37300E+03
        -0.37300E+03
        -0.37300E+03
        -0.37300E+03
        -0.37300E+03
        -0.37300E+03
        -0.37300E+03
        -0.37300E+03
        -0.37300E+03
        -0.37300E+03
        -0.37300E+03
        -0.37300E+03
        -0.37300E+03
        -0.37300E+03
        -0.37300E+03
        -0.37300E+03
        -0.37300E+03
        -0.37300E+03
        -0.37300E+03
        -0.37300E+03
        -0.37300E+03
        -0.37300E+03
        -0.37300E+03
        -0.37300E+03
        -0.37300E+03
        -0.37300E+03
        -0.37300E+03
        -0.37300E+03
        -0.37300E+03
        -0.37300E+03
        -0.37300E+03
        -0.37300E+03
        -0.37300E+03
        -0.37300E+03
        -0.37300E+03
        -0.37300E+03
        -0.37300E+03
        -0.37300E+03
        -0.37300E+03
        -0.37300E+03
        -0.37300E+03
        -0.37300E+03
        -0.37300E+03
        -0.37300E+03
        -0.37300E+03
        -0.37300E+03
        -0.37300E+03
        -0.37300E+03
        -0.37300E+03
        -0.37300E+03
        -0.37300E+03
        -0.37300E+03
        -0.37300E+03
        -0.37300E+03
        -0.37300E+03
        -0.37300E+03
        -0.37300E+03
        -0.37300E+03
        -0.37300E+03
        -0.37300E+03
        -0.37300E+03
        -0.37300E+03
        -0.37300E+03
        -0.37300E+03
        -0.37300E+03
        -0.37300E+03
        -0.37300E+03
        -0.37300E+03
        -0.37300E+03
        -0.37300E+03
        -0.37300E+03
        -0.37300E+03
        -0.37300E+03
        -0.37300E+03
        -0.37300E+03
        -0.37300E+03
        -0.37300E+03
        -0.37300E+03
        -0.37300E+03
        -0.37300E+03
        -0.37300E+03
        -0.37300E+03
        -0.37300E+03
        -0.37300E+03
        -0.37300E+03
        -0.37300E+03
        -0.37300E+03
        -0.37300E+03
        -0.37300E+03
        -0.37300E+03
        -0.37300E+03
        -0.37300E+03
        -0.37300E+03
        -0.37300E+03
        -0.37300E+03
        -0.37300E+03
        -0.37300E+03
        -0.37300E+03
        -0.37300E+03
        -0.37300E+03
        -0.37300E+03
        -0.37300E+03
        -0.37300E+03
        -0.37300E+03
        -0.37300E+03
        -0.37300E+03
        -0.37300E+03
        -0.37300E+03
        -0.37300E+03
        -0.37300E+03
        -0.37300E+03
        -0.37300E+03
        -0.37300E+03
        -0.37300E+03
        -0.37300E+03
        -0.37300E+03
        -0.37300E+03
        -0.37300E+03
        -0.37300E+03
        -0.37300E+03
        -0.37300E+03
        -0.37300E+03
        -0.37300E+03
        -0.37300E+03
        -0.37300E+03
        -0.37300E+03
        -0.37300E+03
        -0.37300E+03
        -0.37300E+03
        -0.37300E+03
        -0.37300E+03
        -0.37300E+03
        -0.37300E+03
        -0.37300E+03
        -0.37300E+03
        -0.37300E+03
        -0.37300E+03
        -0.37300E+03
        -0.37300E+03
        -0.37300E+03
        -0.37300E+03
        -0.37300E+03
        -0.37300E+03
        -0.37300E+03
        -0.37300E+03
        -0.37300E+03
        -0.37300E+03
        -0.37300E+03
        -0.37300E+03
        -0.37300E+03
        -0.37300E+03
        -0.37300E+03
        -0.37300E+03
        -0.37300E+03
        -0.37300E+03
        -0.37300E+03
        -0.37300E+03
        -0.37300E+03
        -0.37300E+03
        -0.37300E+03
        -0.37300E+03
        -0.37300E+03
        -0.37300E+03
        -0.37300E+03
        -0.37300E+03
        -0.37300E+03
        -0.37300E+03
        -0.37300E+03
        -0.37300E+03
        -0.37300E+03
        -0.37300E+03
        -0.37300E+03
        -0.37300E+03
        -0.37300E+03
        -0.37300E+03
        -0.37300E+03
        -0.37300E+03
        -0.37300E+03
        -0.37300E+03
        -0.37300E+03
        -0.37300E+03
        -0.37300E+03
        -0.37300E+03
        -0.37300E+03
        -0.37300E+03
        -0.37300E+03
        -0.37300E+03
        -0.37300E+03
        -0.37300E+03
        -0.37300E+03
        -0.37300E+03
        -0.37300E+03
        -0.37300E+03
        -0.37300E+03
        -0.37300E+03
        -0.37300E+03
        -0.37300E+03
        -0.37300E+03
        -0.37300E+03
        -0.37300E+03
        -0.37300E+03
        -0.37300E+03
        -0.37300E+03
        -0.37300E+03
        -0.37300E+03
        -0.37300E+03
        -0.37300E+03
        -0.37300E+03
        -0.37300E+03
        -0.37300E+03
        -0.37300E+03
        -0.37300E+03
        -0.37300E+03
        -0.37300E+03
        -0.37300E+03
        -0.37300E+03
        -0.37300E+03
        -0.37300E+03
        -0.37300E+03
        -0.37300E+03
        -0.37300E+03
        -0.37300E+03
        -0.37300E+03
        -0.37300E+03
        -0.37300E+03
        -0.37300E+03
        -0.37300E+03
        -0.37300E+03
        -0.37300E+03
        -0.37300E+03
        -0.37300E+03
        -0.37300E+03
        -0.37300E+03
        -0.37300E+03
        -0.37300E+03
        -0.37300E+03
        -0.37300E+03
        -0.37300E+03
        -0.37300E+03
        -0.37300E+03
        -0.37300E+03
        -0.37300E+03
        -0.37300E+03
        -0.37300E+03
        -0.37300E+03
        -0.37300E+03
        -0.37300E+03
        -0.37300E+03
        -0.37300E+03
        -0.37300E+03
        -0.37300E+03
        -0.37300E+03
        -0.37300E+03
        -0.37300E+03
        -0.37300E+03
        -0.37300E+03
        -0.37300E+03
        -0.37300E+03
        -0.37300E+03
        -0.37300E+03
        -0.37300E+03
        -0.37300E+03
        -0.37300E+03
        -0.37300E+03
        -0.37300E+03
        -0.37300E+03
        -0.37300E+03
        -0.37300E+03
        -0.37300E+03
        -0.37300E+03
        -0.37300E+03
        -0.37300E+03
        -0.37300E+03
        -0.37300E+03
        -0.37300E+03
        -0.37300E+03
        -0.37300E+03
        -0.37300E+03
        -0.37300E+03
        -0.37300E+03
        -0.37300E+03
        -0.37300E+03
        -0.37300E+03
        -0.37300E+03
        -0.37300E+03
        -0.37300E+03
        -0.37300E+03
        -0.37300E+03
        -0.37300E+03
        -0.37300E+03
        -0.37300E+03
        -0.37300E+03
        -0.37300E+03
        -0.37300E+03
        -0.37300E+03
        -0.37300E+03
        -0.37300E+03
        -0.37300E+03
        -0.37300E+03
        -0.37300E+03
        -0.37300E+03
        -0.37300E+03
        -0.37300E+03
        -0.37300E+03
        -0.37300E+03
        -0.37300E+03
        -0.37300E+03
        -0.37300E+03
        -0.37300E+03
        -0.37300E+03
        -0.37300E+03
        -0.37300E+03
        -0.37300E+03
        -0.37300E+03
        -0.37300E+03
        -0.37300E+03
        -0.37300E+03
        -0.37300E+03
        -0.37300E+03
        -0.37300E+03
        -0.37300E+03
        -0.37300E+03
        -0.37300E+03
        -0.37300E+03
        -0.37300E+03
        -0.37300E+03
        -0.37300E+03
        -0.37300E+03
        -0.37300E+03
        -0.37300E+03
        -0.37300E+03
        -0.37300E+03
        -0.37300E+03
        -0.37300E+03
        -0.37300E+03
        -0.37300E+03
        -0.37300E+03
        -0.37300E+03
        -0.37300E+03
        -0.37300E+03
        -0.37300E+03
        -0.37300E+03
        -0.37300E+03
        -0.37300E+03
        -0.37300E+03
        -0.37300E+03
        -0.37300E+03
        -0.37300E+03
        -0.37300E+03
        -0.37300E+03
        -0.37300E+03
        -0.37300E+03
        -0.37300E+03
        -0.37300E+03
        -0.37300E+03
        -0.37300E+03
        -0.37300E+03
        -0.37300E+03
        -0.37300E+03
        -0.37300E+03
        -0.37300E+03
        -0.37300E+03
        -0.37300E+03
        -0.37300E+03
        -0.37300E+03
        -0.37300E+03
        -0.37300E+03
        -0.37300E+03
        -0.37300E+03
        -0.37300E+03
        -0.37300E+03
        -0.37300E+03
        -0.37300E+03
        -0.37300E+03
        -0.37300E+03
        -0.37300E+03
        -0.37300E+03
        -0.37300E+03
        -0.37300E+03
        -0.37300E+03
        -0.37300E+03
        -0.37300E+03
        -0.37300E+03
        -0.37300E+03
        -0.37300E+03
        -0.37300E+03
        -0.37300E+03
        -0.37300E+03
        -0.37300E+03
        -0.37300E+03
        -0.37300E+03
        -0.37300E+03
        -0.37300E+03
        -0.37300E+03
        -0.37300E+03
        -0.37300E+03
        -0.37300E+03
        -0.37300E+03
        -0.37300E+03
        -0.37300E+03
        -0.37300E+03
        -0.37300E+03
        -0.37300E+03
        -0.37300E+03
        -0.37300E+03
        -0.37300E+03
        -0.37300E+03
        -0.37300E+03
        -0.37300E+03
        -0.37300E+03
        -0.37300E+03
        -0.37300E+03
        -0.37300E+03
        -0.37300E+03
        -0.37300E+03
        -0.37300E+03
        -0.37300E+03
        -0.37300E+03
        -0.37300E+03
        -0.37300E+03
        -0.37300E+03
        -0.37300E+03
        -0.37300E+03
        -0.37300E+03
        -0.37300E+03
        -0.37300E+03
        -0.37300E+03
        -0.37300E+03
        -0.37300E+03
        -0.37300E+03
        -0.37300E+03
        -0.37300E+03
        -0.37300E+03
        -0.37300E+03
        -0.37300E+03
        -0.37300E+03
        -0.37300E+03
        -0.37300E+03
        -0.37300E+03
        -0.37300E+03
        -0.37300E+03
        -0.37300E+03
        -0.37300E+03
        -0.37300E+03
        -0.37300E+03
        -0.37300E+03
        -0.37300E+03
        -0.37300E+03
        -0.37300E+03
        -0.37300E+03
        -0.37300E+03
        -0.37300E+03
        -0.37300E+03
        -0.37300E+03
        -0.37300E+03
        -0.37300E+03
        -0.37300E+03
        -0.37300E+03
        -0.37300E+03
        -0.37300E+03
        -0.37300E+03
        -0.37300E+03
        -0.37300E+03
        -0.37300E+03
        -0.37300E+03
        -0.37300E+03
        -0.37300E+03
        -0.37300E+03
        -0.37300E+03
        -0.37300E+03
        -0.37300E+03
        -0.37300E+03
        -0.37300E+03
        -0.37300E+03
        -0.37300E+03
        -0.37300E+03
        -0.37300E+03
        -0.37300E+03
        -0.37300E+03
        -0.37300E+03
        -0.37300E+03
        -0.37300E+03
        -0.37300E+03
        -0.37300E+03
        -0.37300E+03
        -0.37300E+03
        -0.37300E+03
        -0.37300E+03
        -0.37300E+03
        -0.37300E+03
        -0.37300E+03
        -0.37300E+03
        -0.37300E+03
        -0.37300E+03
        -0.37300E+03
        -0.37300E+03
        -0.37300E+03
        -0.37300E+03
        -0.37300E+03
        -0.37300E+03
        -0.37300E+03
        -0.37300E+03
        -0.37300E+03
        -0.37300E+03
        -0.37300E+03
        -0.37300E+03
        -0.37300E+03
        -0.37300E+03
        -0.37300E+03
        -0.37300E+03
        -0.37300E+03
        -0.37300E+03
        -0.37300E+03
        -0.37300E+03
        -0.37300E+03
        -0.37300E+03
        -0.37300E+03
        -0.37300E+03
        -0.37300E+03
        -0.37300E+03
        -0.37300E+03
        -0.37300E+03
        -0.37300E+03
        -0.37300E+03
        -0.37300E+03
        -0.37300E+03
        -0.37300E+03
        -0.37300E+03
        -0.37300E+03
        -0.37300E+03
        -0.37300E+03
        -0.37300E+03
        -0.37300E+03
        -0.37300E+03
        -0.37300E+03
        -0.37300E+03
        -0.37300E+03
        -0.37300E+03
        -0.37300E+03
        -0.37300E+03
        -0.37300E+03
        -0.37300E+03
        -0.37300E+03
        -0.37300E+03
        -0.37300E+03
        -0.37300E+03
        -0.37300E+03
        -0.37300E+03
        -0.37300E+03
        -0.37300E+03
        -0.37300E+03
        -0.37300E+03
        -0.37300E+03
        -0.37300E+03
        -0.37300E+03
        -0.37300E+03
        -0.37300E+03
        -0.37300E+03
        -0.37300E+03
        -0.37300E+03
        -0.37300E+03
        -0.37300E+03
        -0.37300E+03
        -0.37300E+03
        -0.37300E+03
        -0.37300E+03
        -0.37300E+03
        -0.37300E+03
        -0.37300E+03
        -0.37300E+03
        -0.37300E+03
        -0.37300E+03
        -0.37300E+03
        -0.37300E+03
        -0.37300E+03
        -0.37300E+03
        -0.37300E+03
        -0.37300E+03
        -0.37300E+03
        -0.37300E+03
        -0.37300E+03
        -0.37300E+03
        -0.37300E+03
        -0.37300E+03
        -0.37300E+03
        -0.37300E+03
        -0.37300E+03
        -0.37300E+03
        -0.37300E+03
        -0.37300E+03
        -0.37300E+03
        -0.37300E+03
        -0.37300E+03
        -0.37300E+03
        -0.37300E+03
        -0.37300E+03
        -0.37300E+03
        -0.37300E+03
        -0.37300E+03
        -0.37300E+03
        -0.37300E+03
        -0.37300E+03
        -0.37300E+03
        -0.37300E+03
        -0.37300E+03
        -0.37300E+03
        -0.37300E+03
        -0.37300E+03
        -0.37300E+03
        -0.37300E+03
        -0.37300E+03
        -0.37300E+03
        -0.37300E+03
        -0.37300E+03
        -0.37300E+03
        -0.37300E+03
        -0.37300E+03
        -0.37300E+03
        -0.37300E+03
        -0.37300E+03
        -0.37300E+03
        -0.37300E+03
        -0.37300E+03
        -0.37300E+03
        -0.37300E+03
        -0.37300E+03
        -0.37300E+03
        -0.37300E+03
        -0.37300E+03
        -0.37300E+03
        -0.37300E+03
        -0.37300E+03
        -0.37300E+03
        -0.37300E+03
        -0.37300E+03
        -0.37300E+03
        -0.37300E+03
        -0.37300E+03
        -0.37300E+03
        -0.37300E+03
        -0.37300E+03
        -0.37300E+03
        -0.37300E+03
        -0.37300E+03
        -0.37300E+03
        -0.37300E+03
        -0.37300E+03
        -0.37300E+03
        -0.37300E+03
        -0.37300E+03
        -0.37300E+03
        -0.37300E+03
        -0.37300E+03
        -0.37300E+03
        -0.37300E+03
        -0.37300E+03
        -0.37300E+03
        -0.37300E+03
        -0.37300E+03
        -0.37300E+03
        -0.37300E+03
        -0.37300E+03
        -0.37300E+03
        -0.37300E+03
        -0.37300E+03
        -0.37300E+03
        -0.37300E+03
        -0.37300E+03
        -0.37300E+03
        -0.37300E+03
        -0.37300E+03
        -0.37300E+03
        -0.37300E+03
        -0.37300E+03
        -0.37300E+03
        -0.37300E+03
        -0.37300E+03
        -0.37300E+03
        -0.37300E+03
        -0.37300E+03
        -0.37300E+03
        -0.37300E+03
        -0.37300E+03
        -0.37300E+03
        -0.37300E+03
        -0.37300E+03
        -0.37300E+03
        -0.37300E+03
        -0.37300E+03
        -0.37300E+03
        -0.37300E+03
        -0.37300E+03
        -0.37300E+03
        -0.37300E+03
        -0.37300E+03
        -0.37300E+03
        -0.37300E+03
        -0.37300E+03
        -0.37300E+03
        -0.37300E+03
        -0.37300E+03
        -0.37300E+03
        -0.37300E+03
        -0.37300E+03
        -0.37300E+03
        -0.37300E+03
        -0.37300E+03
        -0.37300E+03
        -0.37300E+03
        -0.37300E+03
        -0.37300E+03
        -0.37300E+03
        -0.37300E+03
        -0.37300E+03
        -0.37300E+03
        -0.37300E+03
        -0.37300E+03
        -0.37300E+03
        -0.37300E+03
        -0.37300E+03
        -0.37300E+03
        -0.37300E+03
        -0.37300E+03
        -0.37300E+03
        -0.37300E+03
        -0.37300E+03
        -0.37300E+03
        -0.37300E+03
        -0.37300E+03
        -0.37300E+03
        -0.37300E+03
        -0.37300E+03
        -0.37300E+03
        -0.37300E+03
        -0.37300E+03
        -0.37300E+03
        -0.37300E+03
        -0.37300E+03
        -0.37300E+03
        -0.37300E+03
        -0.37300E+03
        -0.37300E+03
        -0.37300E+03
        -0.37300E+03
        -0.37300E+03
        -0.37300E+03
        -0.37300E+03
        -0.37300E+03
        -0.37300E+03
        -0.37300E+03
        -0.37300E+03
        -0.37300E+03
        -0.37300E+03
        -0.37300E+03
        -0.37300E+03
        -0.37300E+03
        -0.37300E+03
        -0.37300E+03
        -0.37300E+03
        -0.37300E+03
        -0.37300E+03
        -0.37300E+03
        -0.37300E+03
        -0.37300E+03
        -0.37300E+03
        -0.37300E+03
        -0.37300E+03
        -0.37300E+03
        -0.37300E+03
        -0.37300E+03
        -0.37300E+03
        -0.37300E+03
        -0.37300E+03
        -0.37300E+03
        -0.37300E+03
        -0.37300E+03
        -0.37300E+03
        -0.37300E+03
        -0.37300E+03
        -0.37300E+03
        -0.37300E+03
        -0.37300E+03
        -0.37300E+03
        -0.37300E+03
        -0.37300E+03
        -0.37300E+03
        -0.37300E+03
        -0.37300E+03
        -0.37300E+03
        -0.37300E+03
        -0.37300E+03
        -0.37300E+03
        -0.37300E+03
        -0.37300E+03
        -0.37300E+03
        -0.37300E+03
        -0.37300E+03
        -0.37300E+03
        -0.37300E+03
        -0.37300E+03
        -0.37300E+03
        -0.37300E+03
        -0.37300E+03
        -0.37300E+03
        -0.37300E+03
        -0.37300E+03
        -0.37300E+03
        -0.37300E+03
        -0.37300E+03
        -0.37300E+03
        -0.37300E+03
        -0.37300E+03
        -0.37300E+03
        -0.37300E+03
        -0.37300E+03
        -0.37300E+03
        -0.37300E+03
        -0.37300E+03
        -0.37300E+03
        -0.37300E+03
        -0.37300E+03
        -0.37300E+03
        -0.37300E+03
        -0.37300E+03
        -0.37300E+03
        -0.37300E+03
        -0.37300E+03
        -0.37300E+03
        -0.37300E+03
        -0.37300E+03
        -0.37300E+03
        -0.37300E+03
        -0.37300E+03
        -0.37300E+03
        -0.37300E+03
        -0.37300E+03
        -0.37300E+03
        -0.37300E+03
        -0.37300E+03
        -0.37300E+03
        -0.37300E+03
        -0.37300E+03
        -0.37300E+03
        -0.37300E+03
        -0.37300E+03
        -0.37300E+03
        -0.37300E+03
        -0.37300E+03
        -0.37300E+03
        -0.37300E+03
        -0.37300E+03
        -0.37300E+03
        -0.37300E+03
        -0.37300E+03
        -0.37300E+03
        -0.37300E+03
        -0.37300E+03
        -0.37300E+03
        -0.37300E+03
        -0.37300E+03
        -0.37300E+03
        -0.37300E+03
        -0.37300E+03
        -0.37300E+03
        -0.37300E+03
        -0.37300E+03
        -0.37300E+03
        -0.37300E+03
        -0.37300E+03
        -0.37300E+03
        -0.37300E+03
        -0.37300E+03
        -0.37300E+03
        -0.37300E+03
        -0.37300E+03
        -0.37300E+03
        -0.37300E+03
        -0.37300E+03
        -0.37300E+03
        -0.37300E+03
        -0.37300E+03
        -0.37300E+03
        -0.37300E+03
        -0.37300E+03
        -0.37300E+03
        -0.37300E+03
        -0.37300E+03
        -0.37300E+03
        -0.37300E+03
        -0.37300E+03
        -0.37300E+03
        -0.37300E+03
        -0.37300E+03
        -0.37300E+03
        -0.37300E+03
        -0.37300E+03
        -0.37300E+03
        -0.37300E+03
        -0.37300E+03
        -0.37300E+03
        -0.37300E+03
        -0.37300E+03
        -0.37300E+03
        -0.37300E+03
        -0.37300E+03
        -0.37300E+03
        -0.37300E+03
        -0.37300E+03
        -0.37300E+03
        -0.37300E+03
        -0.37300E+03
        -0.37300E+03
        -0.37300E+03
        -0.37300E+03
        -0.37300E+03
        -0.37300E+03
        -0.37300E+03
        -0.37300E+03
        -0.37300E+03
        -0.37300E+03
        -0.37300E+03
        -0.37300E+03
        -0.37300E+03
        -0.37300E+03
        -0.37300E+03
        -0.37300E+03
        -0.37300E+03
        -0.37300E+03
        -0.37300E+03
        -0.37300E+03
        -0.37300E+03
        -0.37300E+03
        -0.37300E+03
        -0.37300E+03
        -0.37300E+03
        -0.37300E+03
        -0.37300E+03
        -0.37300E+03
        -0.37300E+03
        -0.37300E+03
        -0.37300E+03
        -0.37300E+03
        -0.37300E+03
        -0.37300E+03
        -0.37300E+03
        -0.37300E+03
        -0.37300E+03
        -0.37300E+03
        -0.37300E+03
        -0.37300E+03
        -0.37300E+03
        -0.37300E+03
        -0.37300E+03
        -0.37300E+03
        -0.37300E+03
        -0.37300E+03
        -0.37300E+03
        -0.37300E+03
        -0.37300E+03
        -0.37300E+03
        -0.37300E+03
        -0.37300E+03
        -0.37300E+03
        -0.37300E+03
        -0.37300E+03
        -0.37300E+03
        -0.37300E+03
        -0.37300E+03
        -0.37300E+03
        -0.37300E+03
        -0.37300E+03
        -0.37300E+03
        -0.37300E+03
        -0.37300E+03
        -0.37300E+03
        -0.37300E+03
        -0.37300E+03
        -0.37300E+03
        -0.37300E+03
        -0.37300E+03
        -0.37300E+03
        -0.37300E+03
        -0.37300E+03
        -0.37300E+03
        -0.37300E+03
        -0.37300E+03
        -0.37300E+03
        -0.37300E+03
        -0.37300E+03
        -0.37300E+03
        -0.37300E+03
        -0.37300E+03
        -0.37300E+03
        -0.37300E+03
        -0.37300E+03
        -0.37300E+03
        -0.37300E+03
        -0.37300E+03
        -0.37300E+03
        -0.37300E+03
        -0.37300E+03
        -0.37300E+03
        -0.37300E+03
        -0.37300E+03
        -0.37300E+03
        -0.37300E+03
        -0.37300E+03
        -0.37300E+03
        -0.37300E+03
        -0.37300E+03
        -0.37300E+03
        -0.37300E+03
        -0.37300E+03
        -0.37300E+03
        -0.37300E+03
        -0.37300E+03
        -0.37300E+03
        -0.37300E+03
        -0.37300E+03
        -0.37300E+03
        -0.37300E+03
        -0.37300E+03
        -0.37300E+03
        -0.37300E+03
        -0.37300E+03
        -0.37300E+03
        -0.37300E+03
        -0.37300E+03
        -0.37300E+03
        -0.37300E+03
        -0.37300E+03
        -0.37300E+03
        -0.37300E+03
        -0.37300E+03
        -0.37300E+03
        -0.37300E+03
        -0.37300E+03
        -0.37300E+03
        -0.37300E+03
        -0.37300E+03
        -0.37300E+03
        -0.37300E+03
        -0.37300E+03
        -0.37300E+03
        -0.37300E+03
        -0.37300E+03
        -0.37300E+03
        -0.37300E+03
        -0.37300E+03
        -0.37300E+03
        -0.37300E+03
        -0.37300E+03
        -0.37300E+03
        -0.37300E+03
        -0.37300E+03
        -0.37300E+03
        -0.37300E+03
        -0.37300E+03
        -0.37300E+03
        -0.37300E+03
        -0.37300E+03
        -0.37300E+03
        -0.37300E+03
        -0.37300E+03
        -0.37300E+03
        -0.37300E+03
        -0.37300E+03
        -0.37300E+03
        -0.37300E+03
        -0.37300E+03
        -0.37300E+03
        -0.37300E+03
        -0.37300E+03
        -0.37300E+03
        -0.37300E+03
        -0.37300E+03
        -0.37300E+03
        -0.37300E+03
        -0.37300E+03
        -0.37300E+03
        -0.37300E+03
        -0.37300E+03
        -0.37300E+03
        -0.37300E+03
        -0.37300E+03
        -0.37300E+03
        -0.37300E+03
        -0.37300E+03
        -0.37300E+03
        -0.37300E+03
        -0.37300E+03
        -0.37300E+03
        -0.37300E+03
        -0.37300E+03
        -0.37300E+03
        -0.37300E+03
        -0.37300E+03
        -0.37300E+03
        -0.37300E+03
        -0.37300E+03
        -0.37300E+03
        -0.37300E+03
        -0.37300E+03
        -0.37300E+03
        -0.37300E+03
        -0.37300E+03
        -0.37300E+03
        -0.37300E+03
        -0.37300E+03
        -0.37300E+03
        -0.37300E+03
        -0.37300E+03
        -0.37300E+03
        -0.37300E+03
        -0.37300E+03
        -0.37300E+03
        -0.37300E+03
        -0.37300E+03
        -0.37300E+03
        -0.37300E+03
        -0.37300E+03
        -0.37300E+03
        -0.37300E+03
        -0.37300E+03
        -0.37300E+03
        -0.37300E+03
        -0.37300E+03
        -0.37300E+03
        -0.37300E+03
        -0.37300E+03
        -0.37300E+03
        -0.37300E+03
        -0.37300E+03
        -0.37300E+03
        -0.37300E+03
        -0.37300E+03
        -0.37300E+03
        -0.37300E+03
        -0.37300E+03
        -0.37300E+03
        -0.37300E+03
        -0.37300E+03
        -0.37300E+03
        -0.37300E+03
        -0.37300E+03
        -0.37300E+03
        -0.37300E+03
        -0.37300E+03
        -0.37300E+03
        -0.37300E+03
        -0.37300E+03
        -0.37300E+03
        -0.37300E+03
        -0.37300E+03
        -0.37300E+03
        -0.37300E+03
        -0.37300E+03
        -0.37300E+03
        -0.37300E+03
        -0.37300E+03
        -0.37300E+03
        -0.37300E+03
        -0.37300E+03
        -0.37300E+03
        -0.37300E+03
        -0.37300E+03
        -0.37300E+03
        -0.37300E+03
        -0.37300E+03
        -0.37300E+03
        -0.37300E+03
        -0.37300E+03
        -0.37300E+03
        -0.37300E+03
        -0.37300E+03
        -0.37300E+03
        -0.37300E+03
        -0.37300E+03
        -0.37300E+03
        -0.37300E+03
        -0.37300E+03
        -0.37300E+03
        -0.37300E+03
        -0.37300E+03
        -0.37300E+03
        -0.37300E+03
        -0.37300E+03
        -0.37300E+03
        -0.37300E+03
        -0.37300E+03
        -0.37300E+03
        -0.37300E+03
        -0.37300E+03
        -0.37300E+03
        -0.37300E+03
        -0.37300E+03
        -0.37300E+03
        -0.37300E+03
        -0.37300E+03
        -0.37300E+03
        -0.37300E+03
        -0.37300E+03
        -0.37300E+03
        -0.37300E+03
        -0.37300E+03
        -0.37300E+03
        -0.37300E+03
        -0.37300E+03
        -0.37300E+03
        -0.37300E+03
        -0.37300E+03
        -0.37300E+03
        -0.37300E+03
        -0.37300E+03
        -0.37300E+03
        -0.37300E+03
        -0.37300E+03
        -0.37300E+03
        -0.37300E+03
        -0.37300E+03
        -0.37300E+03
        -0.37300E+03
        -0.37300E+03
        -0.37300E+03
        -0.37300E+03
        -0.37300E+03
        -0.37300E+03
        -0.37300E+03
        -0.37300E+03
        -0.37300E+03
        -0.37300E+03
        -0.37300E+03
        -0.37300E+03
        -0.37300E+03
        -0.37300E+03
        -0.37300E+03
        -0.37300E+03
        -0.37300E+03
        -0.37300E+03
        -0.37300E+03
        -0.37300E+03
        -0.37300E+03
        -0.37300E+03
        -0.37300E+03
        -0.37300E+03
        -0.37300E+03
        -0.37300E+03
        -0.37300E+03
        -0.37300E+03
        -0.37300E+03
        -0.37300E+03
        -0.37300E+03
        -0.37300E+03
        -0.37300E+03
        -0.37300E+03
        -0.37300E+03
        -0.37300E+03
        -0.37300E+03
        -0.37300E+03
        -0.37300E+03
        -0.37300E+03
        -0.37300E+03
        -0.37300E+03
        -0.37300E+03
        -0.37300E+03
        -0.37300E+03
        -0.37300E+03
        -0.37300E+03
        -0.37300E+03
        -0.37300E+03
        -0.37300E+03
        -0.37300E+03
        -0.37300E+03
        -0.37300E+03
        -0.37300E+03
        -0.37300E+03
        -0.37300E+03
        -0.37300E+03
        -0.37300E+03
        -0.37300E+03
        -0.37300E+03
        -0.37300E+03
        -0.37300E+03
        -0.37300E+03
        -0.37300E+03
        -0.37300E+03
        -0.37300E+03
        -0.37300E+03
        -0.37300E+03
        -0.37300E+03
        -0.37300E+03
        -0.37300E+03
        -0.37300E+03
        -0.37300E+03
        -0.37300E+03
        -0.37300E+03
        -0.37300E+03
        -0.37300E+03
        -0.37300E+03
        -0.37300E+03
        -0.37300E+03
        -0.37300E+03
        -0.37300E+03
        -0.37300E+03
        -0.37300E+03
        -0.37300E+03
        -0.37300E+03
        -0.37300E+03
        -0.37300E+03
        -0.37300E+03
        -0.37300E+03
        -0.37300E+03
        -0.37300E+03
        -0.37300E+03
        -0.37300E+03
        -0.37300E+03
        -0.37300E+03
        -0.37300E+03
        -0.37300E+03
        -0.37300E+03
        -0.37300E+03
        -0.37300E+03
        -0.37300E+03
        -0.37300E+03
        -0.37300E+03
        -0.37300E+03
        -0.37300E+03
        -0.37300E+03
        -0.37300E+03
        -0.37300E+03
        -0.37300E+03
        -0.37300E+03
        -0.37300E+03
        -0.37300E+03
        -0.37300E+03
        -0.37300E+03
        -0.37300E+03
        -0.37300E+03
        -0.37300E+03
        -0.37300E+03
        -0.37300E+03
        -0.37300E+03
        -0.37300E+03
        -0.37300E+03
        -0.37300E+03
        -0.37300E+03
        -0.37300E+03
        -0.37300E+03
        -0.37300E+03
        -0.37300E+03
        -0.37300E+03
        -0.37300E+03
        -0.37300E+03
        -0.37300E+03
        -0.37300E+03
        -0.37300E+03
        -0.37300E+03
        -0.37300E+03
        -0.37300E+03
        -0.37300E+03
        -0.37300E+03
        -0.37300E+03
        -0.37300E+03
        -0.37300E+03
        -0.37300E+03
        -0.37300E+03
        -0.37300E+03
        -0.37300E+03
        -0.37300E+03
        -0.37300E+03
        -0.37300E+03
        -0.37300E+03
        -0.37300E+03
        -0.37300E+03
        -0.37300E+03
        -0.37300E+03
        -0.37300E+03
        -0.37300E+03
        -0.37300E+03
        -0.37300E+03
        -0.37300E+03
        -0.37300E+03
        -0.37300E+03
        -0.37300E+03
        -0.37300E+03
        -0.37300E+03
        -0.37300E+03
        -0.37300E+03
        -0.37300E+03
        -0.37300E+03
        -0.37300E+03
        -0.37300E+03
        -0.37300E+03
        -0.37300E+03
        -0.37300E+03
        -0.37300E+03
        -0.37300E+03
        -0.37300E+03
        -0.37300E+03
        -0.37300E+03
        -0.37300E+03
        -0.37300E+03
        -0.37300E+03
        -0.37300E+03
        -0.37300E+03
        -0.37300E+03
        -0.37300E+03
        -0.37300E+03
        -0.37300E+03
        -0.37300E+03
        -0.37300E+03
        -0.37300E+03
        -0.37300E+03
        -0.37300E+03
        -0.37300E+03
        -0.37300E+03
        -0.37300E+03
        -0.37300E+03
        -0.37300E+03
        -0.37300E+03
        -0.37300E+03
        -0.37300E+03
        -0.37300E+03
        -0.37300E+03
        -0.37300E+03
        -0.37300E+03
        -0.37300E+03
        -0.37300E+03
        -0.37300E+03
        -0.37300E+03
        -0.37300E+03
        -0.37300E+03
        -0.37300E+03
        -0.37300E+03
        -0.37300E+03
        -0.37300E+03
        -0.37300E+03
        -0.37300E+03
        -0.37300E+03
        -0.37300E+03
        -0.37300E+03
        -0.37300E+03
        -0.37300E+03
        -0.37300E+03
        -0.37300E+03
        -0.37300E+03
        -0.37300E+03
        -0.37300E+03
        -0.37300E+03
        -0.37300E+03
        -0.37300E+03
        -0.37300E+03
        -0.37300E+03
        -0.37300E+03
        -0.37300E+03
        -0.37300E+03
        -0.37300E+03
        -0.37300E+03
        -0.37300E+03
        -0.37300E+03
        -0.37300E+03
        -0.37300E+03
        -0.37300E+03
        -0.37300E+03
        -0.37300E+03
        -0.37300E+03
        -0.37300E+03
        -0.37300E+03
        -0.37300E+03
        -0.37300E+03
  
SCALARS                 acceleration_x  double 1
LOOKUP_TABLE default
         0.00000E+00
         0.00000E+00
         0.00000E+00
         0.00000E+00
         0.00000E+00
         0.00000E+00
         0.00000E+00
         0.00000E+00
         0.00000E+00
         0.00000E+00
         0.00000E+00
         0.00000E+00
         0.00000E+00
         0.00000E+00
         0.00000E+00
         0.00000E+00
         0.00000E+00
         0.00000E+00
         0.00000E+00
         0.00000E+00
         0.00000E+00
         0.00000E+00
         0.00000E+00
         0.00000E+00
         0.00000E+00
         0.00000E+00
         0.00000E+00
         0.00000E+00
         0.00000E+00
         0.00000E+00
         0.00000E+00
         0.00000E+00
         0.00000E+00
         0.00000E+00
         0.00000E+00
         0.00000E+00
         0.00000E+00
         0.00000E+00
         0.00000E+00
         0.00000E+00
         0.00000E+00
         0.00000E+00
         0.00000E+00
         0.00000E+00
         0.00000E+00
         0.00000E+00
         0.00000E+00
         0.00000E+00
         0.00000E+00
         0.00000E+00
         0.00000E+00
         0.00000E+00
         0.00000E+00
         0.00000E+00
         0.00000E+00
         0.00000E+00
         0.00000E+00
         0.00000E+00
         0.00000E+00
         0.00000E+00
         0.00000E+00
         0.00000E+00
         0.00000E+00
         0.00000E+00
         0.00000E+00
         0.00000E+00
         0.00000E+00
         0.00000E+00
         0.00000E+00
         0.00000E+00
         0.00000E+00
         0.00000E+00
         0.00000E+00
         0.00000E+00
         0.00000E+00
         0.00000E+00
         0.00000E+00
         0.00000E+00
         0.00000E+00
         0.00000E+00
         0.00000E+00
         0.00000E+00
         0.00000E+00
         0.00000E+00
         0.00000E+00
         0.00000E+00
         0.00000E+00
         0.00000E+00
         0.00000E+00
         0.00000E+00
         0.00000E+00
         0.00000E+00
         0.00000E+00
         0.00000E+00
         0.00000E+00
         0.00000E+00
         0.00000E+00
         0.00000E+00
         0.00000E+00
         0.00000E+00
         0.00000E+00
         0.00000E+00
         0.00000E+00
         0.00000E+00
         0.00000E+00
         0.00000E+00
         0.00000E+00
         0.00000E+00
         0.00000E+00
         0.00000E+00
         0.00000E+00
         0.00000E+00
         0.00000E+00
         0.00000E+00
         0.00000E+00
         0.00000E+00
         0.00000E+00
         0.00000E+00
         0.00000E+00
         0.00000E+00
         0.00000E+00
         0.00000E+00
         0.00000E+00
         0.00000E+00
         0.00000E+00
         0.00000E+00
         0.00000E+00
         0.00000E+00
         0.00000E+00
         0.00000E+00
         0.00000E+00
         0.00000E+00
         0.00000E+00
         0.00000E+00
         0.00000E+00
         0.00000E+00
         0.00000E+00
         0.00000E+00
         0.00000E+00
         0.00000E+00
         0.00000E+00
         0.00000E+00
         0.00000E+00
         0.00000E+00
         0.00000E+00
         0.00000E+00
         0.00000E+00
         0.00000E+00
         0.00000E+00
         0.00000E+00
         0.00000E+00
         0.00000E+00
         0.00000E+00
         0.00000E+00
         0.00000E+00
         0.00000E+00
         0.00000E+00
         0.00000E+00
         0.00000E+00
         0.00000E+00
         0.00000E+00
         0.00000E+00
         0.00000E+00
         0.00000E+00
         0.00000E+00
         0.00000E+00
         0.00000E+00
         0.00000E+00
         0.00000E+00
         0.00000E+00
         0.00000E+00
         0.00000E+00
         0.00000E+00
         0.00000E+00
         0.00000E+00
         0.00000E+00
         0.00000E+00
         0.00000E+00
         0.00000E+00
         0.00000E+00
         0.00000E+00
         0.00000E+00
         0.00000E+00
         0.00000E+00
         0.00000E+00
         0.00000E+00
         0.00000E+00
         0.00000E+00
         0.00000E+00
         0.00000E+00
         0.00000E+00
         0.00000E+00
         0.00000E+00
         0.00000E+00
         0.00000E+00
         0.00000E+00
         0.00000E+00
         0.00000E+00
         0.00000E+00
         0.00000E+00
         0.00000E+00
         0.00000E+00
         0.00000E+00
         0.00000E+00
         0.00000E+00
         0.00000E+00
         0.00000E+00
         0.00000E+00
         0.00000E+00
         0.00000E+00
         0.00000E+00
         0.00000E+00
         0.00000E+00
         0.00000E+00
         0.00000E+00
         0.00000E+00
         0.00000E+00
         0.00000E+00
         0.00000E+00
         0.00000E+00
         0.00000E+00
         0.00000E+00
         0.00000E+00
         0.00000E+00
         0.00000E+00
         0.00000E+00
         0.00000E+00
         0.00000E+00
         0.00000E+00
         0.00000E+00
         0.00000E+00
         0.00000E+00
         0.00000E+00
         0.00000E+00
         0.00000E+00
         0.00000E+00
         0.00000E+00
         0.00000E+00
         0.00000E+00
         0.00000E+00
         0.00000E+00
         0.00000E+00
         0.00000E+00
         0.00000E+00
         0.00000E+00
         0.00000E+00
         0.00000E+00
         0.00000E+00
         0.00000E+00
         0.00000E+00
         0.00000E+00
         0.00000E+00
         0.00000E+00
         0.00000E+00
         0.00000E+00
         0.00000E+00
         0.00000E+00
         0.00000E+00
         0.00000E+00
         0.00000E+00
         0.00000E+00
         0.00000E+00
         0.00000E+00
         0.00000E+00
         0.00000E+00
         0.00000E+00
         0.00000E+00
         0.00000E+00
         0.00000E+00
         0.00000E+00
         0.00000E+00
         0.00000E+00
         0.00000E+00
         0.00000E+00
         0.00000E+00
         0.00000E+00
         0.00000E+00
         0.00000E+00
         0.00000E+00
         0.00000E+00
         0.00000E+00
         0.00000E+00
         0.00000E+00
         0.00000E+00
         0.00000E+00
         0.00000E+00
         0.00000E+00
         0.00000E+00
         0.00000E+00
         0.00000E+00
         0.00000E+00
         0.00000E+00
         0.00000E+00
         0.00000E+00
         0.00000E+00
         0.00000E+00
         0.00000E+00
         0.00000E+00
         0.00000E+00
         0.00000E+00
         0.00000E+00
         0.00000E+00
         0.00000E+00
         0.00000E+00
         0.00000E+00
         0.00000E+00
         0.00000E+00
         0.00000E+00
         0.00000E+00
         0.00000E+00
         0.00000E+00
         0.00000E+00
         0.00000E+00
         0.00000E+00
         0.00000E+00
         0.00000E+00
         0.00000E+00
         0.00000E+00
         0.00000E+00
         0.00000E+00
         0.00000E+00
         0.00000E+00
         0.00000E+00
         0.00000E+00
         0.00000E+00
         0.00000E+00
         0.00000E+00
         0.00000E+00
         0.00000E+00
         0.00000E+00
         0.00000E+00
         0.00000E+00
         0.00000E+00
         0.00000E+00
         0.00000E+00
         0.00000E+00
         0.00000E+00
         0.00000E+00
         0.00000E+00
         0.00000E+00
         0.00000E+00
         0.00000E+00
         0.00000E+00
         0.00000E+00
         0.00000E+00
         0.00000E+00
         0.00000E+00
         0.00000E+00
         0.00000E+00
         0.00000E+00
         0.00000E+00
         0.00000E+00
         0.00000E+00
         0.00000E+00
         0.00000E+00
         0.00000E+00
         0.00000E+00
         0.00000E+00
         0.00000E+00
         0.00000E+00
         0.00000E+00
         0.00000E+00
         0.00000E+00
         0.00000E+00
         0.00000E+00
         0.00000E+00
         0.00000E+00
         0.00000E+00
         0.00000E+00
         0.00000E+00
         0.00000E+00
         0.00000E+00
         0.00000E+00
         0.00000E+00
         0.00000E+00
         0.00000E+00
         0.00000E+00
         0.00000E+00
         0.00000E+00
         0.00000E+00
         0.00000E+00
         0.00000E+00
         0.00000E+00
         0.00000E+00
         0.00000E+00
         0.00000E+00
         0.00000E+00
         0.00000E+00
         0.00000E+00
         0.00000E+00
         0.00000E+00
         0.00000E+00
         0.00000E+00
         0.00000E+00
         0.00000E+00
         0.00000E+00
         0.00000E+00
         0.00000E+00
         0.00000E+00
         0.00000E+00
         0.00000E+00
         0.00000E+00
         0.00000E+00
         0.00000E+00
         0.00000E+00
         0.00000E+00
         0.00000E+00
         0.00000E+00
         0.00000E+00
         0.00000E+00
         0.00000E+00
         0.00000E+00
         0.00000E+00
         0.00000E+00
         0.00000E+00
         0.00000E+00
         0.00000E+00
         0.00000E+00
         0.00000E+00
         0.00000E+00
         0.00000E+00
         0.00000E+00
         0.00000E+00
         0.00000E+00
         0.00000E+00
         0.00000E+00
         0.00000E+00
         0.00000E+00
         0.00000E+00
         0.00000E+00
         0.00000E+00
         0.00000E+00
         0.00000E+00
         0.00000E+00
         0.00000E+00
         0.00000E+00
         0.00000E+00
         0.00000E+00
         0.00000E+00
         0.00000E+00
         0.00000E+00
         0.00000E+00
         0.00000E+00
         0.00000E+00
         0.00000E+00
         0.00000E+00
         0.00000E+00
         0.00000E+00
         0.00000E+00
         0.00000E+00
         0.00000E+00
         0.00000E+00
         0.00000E+00
         0.00000E+00
         0.00000E+00
         0.00000E+00
         0.00000E+00
         0.00000E+00
         0.00000E+00
         0.00000E+00
         0.00000E+00
         0.00000E+00
         0.00000E+00
         0.00000E+00
         0.00000E+00
         0.00000E+00
         0.00000E+00
         0.00000E+00
         0.00000E+00
         0.00000E+00
         0.00000E+00
         0.00000E+00
         0.00000E+00
         0.00000E+00
         0.00000E+00
         0.00000E+00
         0.00000E+00
         0.00000E+00
         0.00000E+00
         0.00000E+00
         0.00000E+00
         0.00000E+00
         0.00000E+00
         0.00000E+00
         0.00000E+00
         0.00000E+00
         0.00000E+00
         0.00000E+00
         0.00000E+00
         0.00000E+00
         0.00000E+00
         0.00000E+00
         0.00000E+00
         0.00000E+00
         0.00000E+00
         0.00000E+00
         0.00000E+00
         0.00000E+00
         0.00000E+00
         0.00000E+00
         0.00000E+00
         0.00000E+00
         0.00000E+00
         0.00000E+00
         0.00000E+00
         0.00000E+00
         0.00000E+00
         0.00000E+00
         0.00000E+00
         0.00000E+00
         0.00000E+00
         0.00000E+00
         0.00000E+00
         0.00000E+00
         0.00000E+00
         0.00000E+00
         0.00000E+00
         0.00000E+00
         0.00000E+00
         0.00000E+00
         0.00000E+00
         0.00000E+00
         0.00000E+00
         0.00000E+00
         0.00000E+00
         0.00000E+00
         0.00000E+00
         0.00000E+00
         0.00000E+00
         0.00000E+00
         0.00000E+00
         0.00000E+00
         0.00000E+00
         0.00000E+00
         0.00000E+00
         0.00000E+00
         0.00000E+00
         0.00000E+00
         0.00000E+00
         0.00000E+00
         0.00000E+00
         0.00000E+00
         0.00000E+00
         0.00000E+00
         0.00000E+00
         0.00000E+00
         0.00000E+00
         0.00000E+00
         0.00000E+00
         0.00000E+00
         0.00000E+00
         0.00000E+00
         0.00000E+00
         0.00000E+00
         0.00000E+00
         0.00000E+00
         0.00000E+00
         0.00000E+00
         0.00000E+00
         0.00000E+00
         0.00000E+00
         0.00000E+00
         0.00000E+00
         0.00000E+00
         0.00000E+00
         0.00000E+00
         0.00000E+00
         0.00000E+00
         0.00000E+00
         0.00000E+00
         0.00000E+00
         0.00000E+00
         0.00000E+00
         0.00000E+00
         0.00000E+00
         0.00000E+00
         0.00000E+00
         0.00000E+00
         0.00000E+00
         0.00000E+00
         0.00000E+00
         0.00000E+00
         0.00000E+00
         0.00000E+00
         0.00000E+00
         0.00000E+00
         0.00000E+00
         0.00000E+00
         0.00000E+00
         0.00000E+00
         0.00000E+00
         0.00000E+00
         0.00000E+00
         0.00000E+00
         0.00000E+00
         0.00000E+00
         0.00000E+00
         0.00000E+00
         0.00000E+00
         0.00000E+00
         0.00000E+00
         0.00000E+00
         0.00000E+00
         0.00000E+00
         0.00000E+00
         0.00000E+00
         0.00000E+00
         0.00000E+00
         0.00000E+00
         0.00000E+00
         0.00000E+00
         0.00000E+00
         0.00000E+00
         0.00000E+00
         0.00000E+00
         0.00000E+00
         0.00000E+00
         0.00000E+00
         0.00000E+00
         0.00000E+00
         0.00000E+00
         0.00000E+00
         0.00000E+00
         0.00000E+00
         0.00000E+00
         0.00000E+00
         0.00000E+00
         0.00000E+00
         0.00000E+00
         0.00000E+00
         0.00000E+00
         0.00000E+00
         0.00000E+00
         0.00000E+00
         0.00000E+00
         0.00000E+00
         0.00000E+00
         0.00000E+00
         0.00000E+00
         0.00000E+00
         0.00000E+00
         0.00000E+00
         0.00000E+00
         0.00000E+00
         0.00000E+00
         0.00000E+00
         0.00000E+00
         0.00000E+00
         0.00000E+00
         0.00000E+00
         0.00000E+00
         0.00000E+00
         0.00000E+00
         0.00000E+00
         0.00000E+00
         0.00000E+00
         0.00000E+00
         0.00000E+00
         0.00000E+00
         0.00000E+00
         0.00000E+00
         0.00000E+00
         0.00000E+00
         0.00000E+00
         0.00000E+00
         0.00000E+00
         0.00000E+00
         0.00000E+00
         0.00000E+00
         0.00000E+00
         0.00000E+00
         0.00000E+00
         0.00000E+00
         0.00000E+00
         0.00000E+00
         0.00000E+00
         0.00000E+00
         0.00000E+00
         0.00000E+00
         0.00000E+00
         0.00000E+00
         0.00000E+00
         0.00000E+00
         0.00000E+00
         0.00000E+00
         0.00000E+00
         0.00000E+00
         0.00000E+00
         0.00000E+00
         0.00000E+00
         0.00000E+00
         0.00000E+00
         0.00000E+00
         0.00000E+00
         0.00000E+00
         0.00000E+00
         0.00000E+00
         0.00000E+00
         0.00000E+00
         0.00000E+00
         0.00000E+00
         0.00000E+00
         0.00000E+00
         0.00000E+00
         0.00000E+00
         0.00000E+00
         0.00000E+00
         0.00000E+00
         0.00000E+00
         0.00000E+00
         0.00000E+00
         0.00000E+00
         0.00000E+00
         0.00000E+00
         0.00000E+00
         0.00000E+00
         0.00000E+00
         0.00000E+00
         0.00000E+00
         0.00000E+00
         0.00000E+00
         0.00000E+00
         0.00000E+00
         0.00000E+00
         0.00000E+00
         0.00000E+00
         0.00000E+00
         0.00000E+00
         0.00000E+00
         0.00000E+00
         0.00000E+00
         0.00000E+00
         0.00000E+00
         0.00000E+00
         0.00000E+00
         0.00000E+00
         0.00000E+00
         0.00000E+00
         0.00000E+00
         0.00000E+00
         0.00000E+00
         0.00000E+00
         0.00000E+00
         0.00000E+00
         0.00000E+00
         0.00000E+00
         0.00000E+00
         0.00000E+00
         0.00000E+00
         0.00000E+00
         0.00000E+00
         0.00000E+00
         0.00000E+00
         0.00000E+00
         0.00000E+00
         0.00000E+00
         0.00000E+00
         0.00000E+00
         0.00000E+00
         0.00000E+00
         0.00000E+00
         0.00000E+00
         0.00000E+00
         0.00000E+00
         0.00000E+00
         0.00000E+00
         0.00000E+00
         0.00000E+00
         0.00000E+00
         0.00000E+00
         0.00000E+00
         0.00000E+00
         0.00000E+00
         0.00000E+00
         0.00000E+00
         0.00000E+00
         0.00000E+00
         0.00000E+00
         0.00000E+00
         0.00000E+00
         0.00000E+00
         0.00000E+00
         0.00000E+00
         0.00000E+00
         0.00000E+00
         0.00000E+00
         0.00000E+00
         0.00000E+00
         0.00000E+00
         0.00000E+00
         0.00000E+00
         0.00000E+00
         0.00000E+00
         0.00000E+00
         0.00000E+00
         0.00000E+00
         0.00000E+00
         0.00000E+00
         0.00000E+00
         0.00000E+00
         0.00000E+00
         0.00000E+00
         0.00000E+00
         0.00000E+00
         0.00000E+00
         0.00000E+00
         0.00000E+00
         0.00000E+00
         0.00000E+00
         0.00000E+00
         0.00000E+00
         0.00000E+00
         0.00000E+00
         0.00000E+00
         0.00000E+00
         0.00000E+00
         0.00000E+00
         0.00000E+00
         0.00000E+00
         0.00000E+00
         0.00000E+00
         0.00000E+00
         0.00000E+00
         0.00000E+00
         0.00000E+00
         0.00000E+00
         0.00000E+00
         0.00000E+00
         0.00000E+00
         0.00000E+00
         0.00000E+00
         0.00000E+00
         0.00000E+00
         0.00000E+00
         0.00000E+00
         0.00000E+00
         0.00000E+00
         0.00000E+00
         0.00000E+00
         0.00000E+00
         0.00000E+00
         0.00000E+00
         0.00000E+00
         0.00000E+00
         0.00000E+00
         0.00000E+00
         0.00000E+00
         0.00000E+00
         0.00000E+00
         0.00000E+00
         0.00000E+00
         0.00000E+00
         0.00000E+00
         0.00000E+00
         0.00000E+00
         0.00000E+00
         0.00000E+00
         0.00000E+00
         0.00000E+00
         0.00000E+00
         0.00000E+00
         0.00000E+00
         0.00000E+00
         0.00000E+00
         0.00000E+00
         0.00000E+00
         0.00000E+00
         0.00000E+00
         0.00000E+00
         0.00000E+00
         0.00000E+00
         0.00000E+00
         0.00000E+00
         0.00000E+00
         0.00000E+00
         0.00000E+00
         0.00000E+00
         0.00000E+00
         0.00000E+00
         0.00000E+00
         0.00000E+00
         0.00000E+00
         0.00000E+00
         0.00000E+00
         0.00000E+00
         0.00000E+00
         0.00000E+00
         0.00000E+00
         0.00000E+00
         0.00000E+00
         0.00000E+00
         0.00000E+00
         0.00000E+00
         0.00000E+00
         0.00000E+00
         0.00000E+00
         0.00000E+00
         0.00000E+00
         0.00000E+00
         0.00000E+00
         0.00000E+00
         0.00000E+00
         0.00000E+00
         0.00000E+00
         0.00000E+00
         0.00000E+00
         0.00000E+00
         0.00000E+00
         0.00000E+00
         0.00000E+00
         0.00000E+00
         0.00000E+00
         0.00000E+00
         0.00000E+00
         0.00000E+00
         0.00000E+00
         0.00000E+00
         0.00000E+00
         0.00000E+00
         0.00000E+00
         0.00000E+00
         0.00000E+00
         0.00000E+00
         0.00000E+00
         0.00000E+00
         0.00000E+00
         0.00000E+00
         0.00000E+00
         0.00000E+00
         0.00000E+00
         0.00000E+00
         0.00000E+00
         0.00000E+00
         0.00000E+00
         0.00000E+00
         0.00000E+00
         0.00000E+00
         0.00000E+00
         0.00000E+00
         0.00000E+00
         0.00000E+00
         0.00000E+00
         0.00000E+00
         0.00000E+00
         0.00000E+00
         0.00000E+00
         0.00000E+00
         0.00000E+00
         0.00000E+00
         0.00000E+00
         0.00000E+00
         0.00000E+00
         0.00000E+00
         0.00000E+00
         0.00000E+00
         0.00000E+00
         0.00000E+00
         0.00000E+00
         0.00000E+00
         0.00000E+00
         0.00000E+00
         0.00000E+00
         0.00000E+00
         0.00000E+00
         0.00000E+00
         0.00000E+00
         0.00000E+00
         0.00000E+00
         0.00000E+00
         0.00000E+00
         0.00000E+00
         0.00000E+00
         0.00000E+00
         0.00000E+00
         0.00000E+00
         0.00000E+00
         0.00000E+00
         0.00000E+00
         0.00000E+00
         0.00000E+00
         0.00000E+00
         0.00000E+00
         0.00000E+00
         0.00000E+00
         0.00000E+00
         0.00000E+00
         0.00000E+00
         0.00000E+00
         0.00000E+00
         0.00000E+00
         0.00000E+00
         0.00000E+00
         0.00000E+00
         0.00000E+00
         0.00000E+00
         0.00000E+00
         0.00000E+00
         0.00000E+00
         0.00000E+00
         0.00000E+00
         0.00000E+00
         0.00000E+00
         0.00000E+00
         0.00000E+00
         0.00000E+00
         0.00000E+00
         0.00000E+00
         0.00000E+00
         0.00000E+00
         0.00000E+00
         0.00000E+00
         0.00000E+00
         0.00000E+00
         0.00000E+00
         0.00000E+00
         0.00000E+00
         0.00000E+00
         0.00000E+00
         0.00000E+00
         0.00000E+00
         0.00000E+00
         0.00000E+00
         0.00000E+00
         0.00000E+00
         0.00000E+00
         0.00000E+00
         0.00000E+00
         0.00000E+00
         0.00000E+00
         0.00000E+00
         0.00000E+00
         0.00000E+00
         0.00000E+00
         0.00000E+00
         0.00000E+00
         0.00000E+00
         0.00000E+00
         0.00000E+00
         0.00000E+00
         0.00000E+00
         0.00000E+00
         0.00000E+00
         0.00000E+00
         0.00000E+00
         0.00000E+00
         0.00000E+00
         0.00000E+00
         0.00000E+00
         0.00000E+00
         0.00000E+00
         0.00000E+00
         0.00000E+00
         0.00000E+00
         0.00000E+00
         0.00000E+00
         0.00000E+00
         0.00000E+00
         0.00000E+00
         0.00000E+00
         0.00000E+00
         0.00000E+00
         0.00000E+00
         0.00000E+00
         0.00000E+00
         0.00000E+00
         0.00000E+00
         0.00000E+00
         0.00000E+00
         0.00000E+00
         0.00000E+00
         0.00000E+00
         0.00000E+00
         0.00000E+00
         0.00000E+00
         0.00000E+00
         0.00000E+00
         0.00000E+00
         0.00000E+00
         0.00000E+00
         0.00000E+00
         0.00000E+00
         0.00000E+00
         0.00000E+00
         0.00000E+00
         0.00000E+00
         0.00000E+00
         0.00000E+00
         0.00000E+00
         0.00000E+00
         0.00000E+00
         0.00000E+00
         0.00000E+00
         0.00000E+00
         0.00000E+00
         0.00000E+00
         0.00000E+00
         0.00000E+00
         0.00000E+00
         0.00000E+00
         0.00000E+00
         0.00000E+00
         0.00000E+00
         0.00000E+00
         0.00000E+00
         0.00000E+00
         0.00000E+00
         0.00000E+00
         0.00000E+00
         0.00000E+00
         0.00000E+00
         0.00000E+00
         0.00000E+00
         0.00000E+00
         0.00000E+00
         0.00000E+00
         0.00000E+00
         0.00000E+00
         0.00000E+00
         0.00000E+00
         0.00000E+00
         0.00000E+00
         0.00000E+00
         0.00000E+00
         0.00000E+00
         0.00000E+00
         0.00000E+00
         0.00000E+00
         0.00000E+00
         0.00000E+00
         0.00000E+00
         0.00000E+00
         0.00000E+00
         0.00000E+00
         0.00000E+00
         0.00000E+00
         0.00000E+00
         0.00000E+00
         0.00000E+00
         0.00000E+00
         0.00000E+00
         0.00000E+00
         0.00000E+00
         0.00000E+00
         0.00000E+00
         0.00000E+00
         0.00000E+00
         0.00000E+00
         0.00000E+00
         0.00000E+00
         0.00000E+00
         0.00000E+00
         0.00000E+00
         0.00000E+00
         0.00000E+00
         0.00000E+00
         0.00000E+00
         0.00000E+00
         0.00000E+00
         0.00000E+00
         0.00000E+00
         0.00000E+00
         0.00000E+00
         0.00000E+00
         0.00000E+00
         0.00000E+00
         0.00000E+00
         0.00000E+00
         0.00000E+00
         0.00000E+00
         0.00000E+00
         0.00000E+00
         0.00000E+00
         0.00000E+00
         0.00000E+00
         0.00000E+00
         0.00000E+00
         0.00000E+00
         0.00000E+00
         0.00000E+00
         0.00000E+00
         0.00000E+00
         0.00000E+00
         0.00000E+00
         0.00000E+00
         0.00000E+00
         0.00000E+00
         0.00000E+00
         0.00000E+00
         0.00000E+00
         0.00000E+00
         0.00000E+00
         0.00000E+00
         0.00000E+00
         0.00000E+00
         0.00000E+00
         0.00000E+00
         0.00000E+00
         0.00000E+00
         0.00000E+00
         0.00000E+00
         0.00000E+00
         0.00000E+00
         0.00000E+00
         0.00000E+00
         0.00000E+00
         0.00000E+00
         0.00000E+00
         0.00000E+00
         0.00000E+00
         0.00000E+00
         0.00000E+00
         0.00000E+00
         0.00000E+00
         0.00000E+00
         0.00000E+00
         0.00000E+00
         0.00000E+00
         0.00000E+00
         0.00000E+00
         0.00000E+00
         0.00000E+00
         0.00000E+00
         0.00000E+00
         0.00000E+00
         0.00000E+00
         0.00000E+00
         0.00000E+00
         0.00000E+00
         0.00000E+00
         0.00000E+00
         0.00000E+00
         0.00000E+00
         0.00000E+00
         0.00000E+00
         0.00000E+00
         0.00000E+00
         0.00000E+00
         0.00000E+00
         0.00000E+00
         0.00000E+00
         0.00000E+00
         0.00000E+00
         0.00000E+00
         0.00000E+00
         0.00000E+00
         0.00000E+00
         0.00000E+00
         0.00000E+00
         0.00000E+00
         0.00000E+00
         0.00000E+00
         0.00000E+00
         0.00000E+00
         0.00000E+00
         0.00000E+00
         0.00000E+00
         0.00000E+00
         0.00000E+00
         0.00000E+00
         0.00000E+00
         0.00000E+00
         0.00000E+00
         0.00000E+00
         0.00000E+00
         0.00000E+00
         0.00000E+00
         0.00000E+00
         0.00000E+00
         0.00000E+00
         0.00000E+00
         0.00000E+00
         0.00000E+00
         0.00000E+00
         0.00000E+00
         0.00000E+00
         0.00000E+00
         0.00000E+00
         0.00000E+00
         0.00000E+00
         0.00000E+00
         0.00000E+00
         0.00000E+00
         0.00000E+00
         0.00000E+00
         0.00000E+00
         0.00000E+00
         0.00000E+00
         0.00000E+00
         0.00000E+00
         0.00000E+00
         0.00000E+00
         0.00000E+00
         0.00000E+00
         0.00000E+00
         0.00000E+00
         0.00000E+00
         0.00000E+00
         0.00000E+00
         0.00000E+00
         0.00000E+00
         0.00000E+00
         0.00000E+00
         0.00000E+00
         0.00000E+00
         0.00000E+00
         0.00000E+00
         0.00000E+00
         0.00000E+00
         0.00000E+00
         0.00000E+00
         0.00000E+00
         0.00000E+00
         0.00000E+00
         0.00000E+00
         0.00000E+00
         0.00000E+00
         0.00000E+00
         0.00000E+00
         0.00000E+00
         0.00000E+00
         0.00000E+00
         0.00000E+00
         0.00000E+00
         0.00000E+00
         0.00000E+00
         0.00000E+00
         0.00000E+00
         0.00000E+00
         0.00000E+00
         0.00000E+00
         0.00000E+00
         0.00000E+00
         0.00000E+00
         0.00000E+00
         0.00000E+00
         0.00000E+00
         0.00000E+00
         0.00000E+00
         0.00000E+00
         0.00000E+00
         0.00000E+00
         0.00000E+00
         0.00000E+00
         0.00000E+00
         0.00000E+00
         0.00000E+00
         0.00000E+00
         0.00000E+00
         0.00000E+00
         0.00000E+00
         0.00000E+00
         0.00000E+00
         0.00000E+00
         0.00000E+00
         0.00000E+00
         0.00000E+00
         0.00000E+00
         0.00000E+00
         0.00000E+00
         0.00000E+00
         0.00000E+00
         0.00000E+00
         0.00000E+00
         0.00000E+00
         0.00000E+00
         0.00000E+00
         0.00000E+00
         0.00000E+00
         0.00000E+00
         0.00000E+00
         0.00000E+00
         0.00000E+00
         0.00000E+00
         0.00000E+00
         0.00000E+00
         0.00000E+00
         0.00000E+00
         0.00000E+00
         0.00000E+00
         0.00000E+00
         0.00000E+00
         0.00000E+00
         0.00000E+00
         0.00000E+00
         0.00000E+00
         0.00000E+00
         0.00000E+00
         0.00000E+00
         0.00000E+00
         0.00000E+00
         0.00000E+00
         0.00000E+00
         0.00000E+00
         0.00000E+00
         0.00000E+00
         0.00000E+00
         0.00000E+00
         0.00000E+00
         0.00000E+00
         0.00000E+00
         0.00000E+00
         0.00000E+00
         0.00000E+00
         0.00000E+00
         0.00000E+00
         0.00000E+00
         0.00000E+00
         0.00000E+00
         0.00000E+00
         0.00000E+00
         0.00000E+00
         0.00000E+00
         0.00000E+00
         0.00000E+00
         0.00000E+00
         0.00000E+00
         0.00000E+00
         0.00000E+00
         0.00000E+00
         0.00000E+00
         0.00000E+00
         0.00000E+00
         0.00000E+00
         0.00000E+00
         0.00000E+00
         0.00000E+00
         0.00000E+00
         0.00000E+00
         0.00000E+00
         0.00000E+00
         0.00000E+00
         0.00000E+00
         0.00000E+00
         0.00000E+00
         0.00000E+00
         0.00000E+00
         0.00000E+00
         0.00000E+00
         0.00000E+00
         0.00000E+00
         0.00000E+00
         0.00000E+00
         0.00000E+00
         0.00000E+00
         0.00000E+00
         0.00000E+00
         0.00000E+00
         0.00000E+00
         0.00000E+00
         0.00000E+00
         0.00000E+00
         0.00000E+00
         0.00000E+00
         0.00000E+00
         0.00000E+00
         0.00000E+00
         0.00000E+00
         0.00000E+00
         0.00000E+00
         0.00000E+00
         0.00000E+00
         0.00000E+00
         0.00000E+00
         0.00000E+00
         0.00000E+00
         0.00000E+00
         0.00000E+00
         0.00000E+00
         0.00000E+00
         0.00000E+00
         0.00000E+00
         0.00000E+00
         0.00000E+00
         0.00000E+00
         0.00000E+00
         0.00000E+00
         0.00000E+00
         0.00000E+00
         0.00000E+00
         0.00000E+00
         0.00000E+00
         0.00000E+00
         0.00000E+00
         0.00000E+00
         0.00000E+00
         0.00000E+00
         0.00000E+00
         0.00000E+00
         0.00000E+00
         0.00000E+00
         0.00000E+00
         0.00000E+00
         0.00000E+00
         0.00000E+00
         0.00000E+00
         0.00000E+00
         0.00000E+00
         0.00000E+00
         0.00000E+00
         0.00000E+00
         0.00000E+00
         0.00000E+00
         0.00000E+00
         0.00000E+00
         0.00000E+00
         0.00000E+00
         0.00000E+00
         0.00000E+00
         0.00000E+00
         0.00000E+00
         0.00000E+00
         0.00000E+00
         0.00000E+00
         0.00000E+00
         0.00000E+00
         0.00000E+00
         0.00000E+00
         0.00000E+00
         0.00000E+00
         0.00000E+00
         0.00000E+00
         0.00000E+00
         0.00000E+00
         0.00000E+00
         0.00000E+00
         0.00000E+00
         0.00000E+00
         0.00000E+00
         0.00000E+00
         0.00000E+00
         0.00000E+00
         0.00000E+00
         0.00000E+00
         0.00000E+00
         0.00000E+00
         0.00000E+00
         0.00000E+00
         0.00000E+00
         0.00000E+00
         0.00000E+00
         0.00000E+00
         0.00000E+00
         0.00000E+00
         0.00000E+00
         0.00000E+00
         0.00000E+00
         0.00000E+00
         0.00000E+00
         0.00000E+00
         0.00000E+00
         0.00000E+00
         0.00000E+00
         0.00000E+00
         0.00000E+00
         0.00000E+00
         0.00000E+00
         0.00000E+00
         0.00000E+00
         0.00000E+00
         0.00000E+00
         0.00000E+00
         0.00000E+00
         0.00000E+00
         0.00000E+00
         0.00000E+00
         0.00000E+00
         0.00000E+00
         0.00000E+00
         0.00000E+00
         0.00000E+00
         0.00000E+00
         0.00000E+00
         0.00000E+00
         0.00000E+00
         0.00000E+00
         0.00000E+00
         0.00000E+00
         0.00000E+00
         0.00000E+00
         0.00000E+00
         0.00000E+00
         0.00000E+00
         0.00000E+00
         0.00000E+00
         0.00000E+00
         0.00000E+00
         0.00000E+00
         0.00000E+00
         0.00000E+00
         0.00000E+00
         0.00000E+00
         0.00000E+00
         0.00000E+00
         0.00000E+00
         0.00000E+00
         0.00000E+00
         0.00000E+00
         0.00000E+00
         0.00000E+00
         0.00000E+00
         0.00000E+00
         0.00000E+00
         0.00000E+00
         0.00000E+00
         0.00000E+00
         0.00000E+00
         0.00000E+00
         0.00000E+00
         0.00000E+00
         0.00000E+00
         0.00000E+00
         0.00000E+00
         0.00000E+00
         0.00000E+00
         0.00000E+00
         0.00000E+00
         0.00000E+00
         0.00000E+00
         0.00000E+00
         0.00000E+00
         0.00000E+00
         0.00000E+00
         0.00000E+00
         0.00000E+00
         0.00000E+00
         0.00000E+00
         0.00000E+00
         0.00000E+00
         0.00000E+00
         0.00000E+00
         0.00000E+00
         0.00000E+00
         0.00000E+00
         0.00000E+00
         0.00000E+00
         0.00000E+00
         0.00000E+00
         0.00000E+00
         0.00000E+00
         0.00000E+00
         0.00000E+00
         0.00000E+00
         0.00000E+00
         0.00000E+00
         0.00000E+00
         0.00000E+00
         0.00000E+00
         0.00000E+00
         0.00000E+00
         0.00000E+00
         0.00000E+00
         0.00000E+00
         0.00000E+00
         0.00000E+00
         0.00000E+00
         0.00000E+00
         0.00000E+00
         0.00000E+00
         0.00000E+00
         0.00000E+00
         0.00000E+00
         0.00000E+00
         0.00000E+00
         0.00000E+00
         0.00000E+00
         0.00000E+00
         0.00000E+00
         0.00000E+00
         0.00000E+00
         0.00000E+00
         0.00000E+00
         0.00000E+00
         0.00000E+00
         0.00000E+00
         0.00000E+00
         0.00000E+00
         0.00000E+00
         0.00000E+00
         0.00000E+00
         0.00000E+00
         0.00000E+00
         0.00000E+00
         0.00000E+00
         0.00000E+00
         0.00000E+00
         0.00000E+00
         0.00000E+00
         0.00000E+00
         0.00000E+00
         0.00000E+00
         0.00000E+00
         0.00000E+00
         0.00000E+00
         0.00000E+00
         0.00000E+00
         0.00000E+00
         0.00000E+00
         0.00000E+00
         0.00000E+00
         0.00000E+00
         0.00000E+00
         0.00000E+00
         0.00000E+00
         0.00000E+00
         0.00000E+00
         0.00000E+00
         0.00000E+00
         0.00000E+00
         0.00000E+00
         0.00000E+00
         0.00000E+00
         0.00000E+00
         0.00000E+00
         0.00000E+00
         0.00000E+00
         0.00000E+00
         0.00000E+00
         0.00000E+00
         0.00000E+00
         0.00000E+00
         0.00000E+00
         0.00000E+00
         0.00000E+00
         0.00000E+00
         0.00000E+00
         0.00000E+00
         0.00000E+00
         0.00000E+00
         0.00000E+00
         0.00000E+00
         0.00000E+00
         0.00000E+00
         0.00000E+00
         0.00000E+00
         0.00000E+00
         0.00000E+00
         0.00000E+00
         0.00000E+00
         0.00000E+00
         0.00000E+00
         0.00000E+00
         0.00000E+00
         0.00000E+00
         0.00000E+00
         0.00000E+00
         0.00000E+00
         0.00000E+00
         0.00000E+00
         0.00000E+00
         0.00000E+00
         0.00000E+00
         0.00000E+00
         0.00000E+00
         0.00000E+00
         0.00000E+00
         0.00000E+00
         0.00000E+00
         0.00000E+00
         0.00000E+00
         0.00000E+00
         0.00000E+00
         0.00000E+00
         0.00000E+00
         0.00000E+00
         0.00000E+00
         0.00000E+00
         0.00000E+00
         0.00000E+00
         0.00000E+00
         0.00000E+00
         0.00000E+00
         0.00000E+00
         0.00000E+00
         0.00000E+00
         0.00000E+00
         0.00000E+00
         0.00000E+00
         0.00000E+00
         0.00000E+00
         0.00000E+00
         0.00000E+00
         0.00000E+00
         0.00000E+00
         0.00000E+00
         0.00000E+00
         0.00000E+00
         0.00000E+00
         0.00000E+00
         0.00000E+00
         0.00000E+00
         0.00000E+00
         0.00000E+00
         0.00000E+00
         0.00000E+00
         0.00000E+00
         0.00000E+00
         0.00000E+00
         0.00000E+00
         0.00000E+00
         0.00000E+00
         0.00000E+00
         0.00000E+00
         0.00000E+00
         0.00000E+00
         0.00000E+00
         0.00000E+00
         0.00000E+00
         0.00000E+00
         0.00000E+00
         0.00000E+00
         0.00000E+00
         0.00000E+00
         0.00000E+00
         0.00000E+00
         0.00000E+00
         0.00000E+00
         0.00000E+00
         0.00000E+00
         0.00000E+00
         0.00000E+00
         0.00000E+00
         0.00000E+00
         0.00000E+00
         0.00000E+00
         0.00000E+00
         0.00000E+00
         0.00000E+00
         0.00000E+00
         0.00000E+00
         0.00000E+00
         0.00000E+00
         0.00000E+00
         0.00000E+00
         0.00000E+00
         0.00000E+00
         0.00000E+00
         0.00000E+00
         0.00000E+00
         0.00000E+00
         0.00000E+00
         0.00000E+00
         0.00000E+00
         0.00000E+00
         0.00000E+00
         0.00000E+00
         0.00000E+00
         0.00000E+00
         0.00000E+00
         0.00000E+00
         0.00000E+00
         0.00000E+00
         0.00000E+00
         0.00000E+00
         0.00000E+00
         0.00000E+00
         0.00000E+00
         0.00000E+00
         0.00000E+00
         0.00000E+00
         0.00000E+00
         0.00000E+00
         0.00000E+00
         0.00000E+00
         0.00000E+00
         0.00000E+00
         0.00000E+00
         0.00000E+00
         0.00000E+00
         0.00000E+00
         0.00000E+00
         0.00000E+00
         0.00000E+00
         0.00000E+00
         0.00000E+00
         0.00000E+00
         0.00000E+00
         0.00000E+00
         0.00000E+00
         0.00000E+00
         0.00000E+00
         0.00000E+00
         0.00000E+00
         0.00000E+00
         0.00000E+00
         0.00000E+00
         0.00000E+00
         0.00000E+00
         0.00000E+00
         0.00000E+00
         0.00000E+00
         0.00000E+00
         0.00000E+00
         0.00000E+00
         0.00000E+00
         0.00000E+00
         0.00000E+00
         0.00000E+00
         0.00000E+00
         0.00000E+00
         0.00000E+00
         0.00000E+00
         0.00000E+00
         0.00000E+00
         0.00000E+00
         0.00000E+00
         0.00000E+00
         0.00000E+00
         0.00000E+00
         0.00000E+00
         0.00000E+00
         0.00000E+00
         0.00000E+00
         0.00000E+00
         0.00000E+00
         0.00000E+00
         0.00000E+00
         0.00000E+00
         0.00000E+00
         0.00000E+00
         0.00000E+00
         0.00000E+00
         0.00000E+00
         0.00000E+00
         0.00000E+00
         0.00000E+00
         0.00000E+00
         0.00000E+00
         0.00000E+00
         0.00000E+00
         0.00000E+00
         0.00000E+00
         0.00000E+00
         0.00000E+00
         0.00000E+00
         0.00000E+00
         0.00000E+00
         0.00000E+00
         0.00000E+00
         0.00000E+00
         0.00000E+00
         0.00000E+00
         0.00000E+00
         0.00000E+00
         0.00000E+00
         0.00000E+00
         0.00000E+00
         0.00000E+00
         0.00000E+00
         0.00000E+00
         0.00000E+00
  
SCALARS                 acceleration_y  double 1
LOOKUP_TABLE default
         0.00000E+00
         0.00000E+00
         0.00000E+00
         0.00000E+00
         0.00000E+00
         0.00000E+00
         0.00000E+00
         0.00000E+00
         0.00000E+00
         0.00000E+00
         0.00000E+00
         0.00000E+00
         0.00000E+00
         0.00000E+00
         0.00000E+00
         0.00000E+00
         0.00000E+00
         0.00000E+00
         0.00000E+00
         0.00000E+00
         0.00000E+00
         0.00000E+00
         0.00000E+00
         0.00000E+00
         0.00000E+00
         0.00000E+00
         0.00000E+00
         0.00000E+00
         0.00000E+00
         0.00000E+00
         0.00000E+00
         0.00000E+00
         0.00000E+00
         0.00000E+00
         0.00000E+00
         0.00000E+00
         0.00000E+00
         0.00000E+00
         0.00000E+00
         0.00000E+00
         0.00000E+00
         0.00000E+00
         0.00000E+00
         0.00000E+00
         0.00000E+00
         0.00000E+00
         0.00000E+00
         0.00000E+00
         0.00000E+00
         0.00000E+00
         0.00000E+00
         0.00000E+00
         0.00000E+00
         0.00000E+00
         0.00000E+00
         0.00000E+00
         0.00000E+00
         0.00000E+00
         0.00000E+00
         0.00000E+00
         0.00000E+00
         0.00000E+00
         0.00000E+00
         0.00000E+00
         0.00000E+00
         0.00000E+00
         0.00000E+00
         0.00000E+00
         0.00000E+00
         0.00000E+00
         0.00000E+00
         0.00000E+00
         0.00000E+00
         0.00000E+00
         0.00000E+00
         0.00000E+00
         0.00000E+00
         0.00000E+00
         0.00000E+00
         0.00000E+00
         0.00000E+00
         0.00000E+00
         0.00000E+00
         0.00000E+00
         0.00000E+00
         0.00000E+00
         0.00000E+00
         0.00000E+00
         0.00000E+00
         0.00000E+00
         0.00000E+00
         0.00000E+00
         0.00000E+00
         0.00000E+00
         0.00000E+00
         0.00000E+00
         0.00000E+00
         0.00000E+00
         0.00000E+00
         0.00000E+00
         0.00000E+00
         0.00000E+00
         0.00000E+00
         0.00000E+00
         0.00000E+00
         0.00000E+00
         0.00000E+00
         0.00000E+00
         0.00000E+00
         0.00000E+00
         0.00000E+00
         0.00000E+00
         0.00000E+00
         0.00000E+00
         0.00000E+00
         0.00000E+00
         0.00000E+00
         0.00000E+00
         0.00000E+00
         0.00000E+00
         0.00000E+00
         0.00000E+00
         0.00000E+00
         0.00000E+00
         0.00000E+00
         0.00000E+00
         0.00000E+00
         0.00000E+00
         0.00000E+00
         0.00000E+00
         0.00000E+00
         0.00000E+00
         0.00000E+00
         0.00000E+00
         0.00000E+00
         0.00000E+00
         0.00000E+00
         0.00000E+00
         0.00000E+00
         0.00000E+00
         0.00000E+00
         0.00000E+00
         0.00000E+00
         0.00000E+00
         0.00000E+00
         0.00000E+00
         0.00000E+00
         0.00000E+00
         0.00000E+00
         0.00000E+00
         0.00000E+00
         0.00000E+00
         0.00000E+00
         0.00000E+00
         0.00000E+00
         0.00000E+00
         0.00000E+00
         0.00000E+00
         0.00000E+00
         0.00000E+00
         0.00000E+00
         0.00000E+00
         0.00000E+00
         0.00000E+00
         0.00000E+00
         0.00000E+00
         0.00000E+00
         0.00000E+00
         0.00000E+00
         0.00000E+00
         0.00000E+00
         0.00000E+00
         0.00000E+00
         0.00000E+00
         0.00000E+00
         0.00000E+00
         0.00000E+00
         0.00000E+00
         0.00000E+00
         0.00000E+00
         0.00000E+00
         0.00000E+00
         0.00000E+00
         0.00000E+00
         0.00000E+00
         0.00000E+00
         0.00000E+00
         0.00000E+00
         0.00000E+00
         0.00000E+00
         0.00000E+00
         0.00000E+00
         0.00000E+00
         0.00000E+00
         0.00000E+00
         0.00000E+00
         0.00000E+00
         0.00000E+00
         0.00000E+00
         0.00000E+00
         0.00000E+00
         0.00000E+00
         0.00000E+00
         0.00000E+00
         0.00000E+00
         0.00000E+00
         0.00000E+00
         0.00000E+00
         0.00000E+00
         0.00000E+00
         0.00000E+00
         0.00000E+00
         0.00000E+00
         0.00000E+00
         0.00000E+00
         0.00000E+00
         0.00000E+00
         0.00000E+00
         0.00000E+00
         0.00000E+00
         0.00000E+00
         0.00000E+00
         0.00000E+00
         0.00000E+00
         0.00000E+00
         0.00000E+00
         0.00000E+00
         0.00000E+00
         0.00000E+00
         0.00000E+00
         0.00000E+00
         0.00000E+00
         0.00000E+00
         0.00000E+00
         0.00000E+00
         0.00000E+00
         0.00000E+00
         0.00000E+00
         0.00000E+00
         0.00000E+00
         0.00000E+00
         0.00000E+00
         0.00000E+00
         0.00000E+00
         0.00000E+00
         0.00000E+00
         0.00000E+00
         0.00000E+00
         0.00000E+00
         0.00000E+00
         0.00000E+00
         0.00000E+00
         0.00000E+00
         0.00000E+00
         0.00000E+00
         0.00000E+00
         0.00000E+00
         0.00000E+00
         0.00000E+00
         0.00000E+00
         0.00000E+00
         0.00000E+00
         0.00000E+00
         0.00000E+00
         0.00000E+00
         0.00000E+00
         0.00000E+00
         0.00000E+00
         0.00000E+00
         0.00000E+00
         0.00000E+00
         0.00000E+00
         0.00000E+00
         0.00000E+00
         0.00000E+00
         0.00000E+00
         0.00000E+00
         0.00000E+00
         0.00000E+00
         0.00000E+00
         0.00000E+00
         0.00000E+00
         0.00000E+00
         0.00000E+00
         0.00000E+00
         0.00000E+00
         0.00000E+00
         0.00000E+00
         0.00000E+00
         0.00000E+00
         0.00000E+00
         0.00000E+00
         0.00000E+00
         0.00000E+00
         0.00000E+00
         0.00000E+00
         0.00000E+00
         0.00000E+00
         0.00000E+00
         0.00000E+00
         0.00000E+00
         0.00000E+00
         0.00000E+00
         0.00000E+00
         0.00000E+00
         0.00000E+00
         0.00000E+00
         0.00000E+00
         0.00000E+00
         0.00000E+00
         0.00000E+00
         0.00000E+00
         0.00000E+00
         0.00000E+00
         0.00000E+00
         0.00000E+00
         0.00000E+00
         0.00000E+00
         0.00000E+00
         0.00000E+00
         0.00000E+00
         0.00000E+00
         0.00000E+00
         0.00000E+00
         0.00000E+00
         0.00000E+00
         0.00000E+00
         0.00000E+00
         0.00000E+00
         0.00000E+00
         0.00000E+00
         0.00000E+00
         0.00000E+00
         0.00000E+00
         0.00000E+00
         0.00000E+00
         0.00000E+00
         0.00000E+00
         0.00000E+00
         0.00000E+00
         0.00000E+00
         0.00000E+00
         0.00000E+00
         0.00000E+00
         0.00000E+00
         0.00000E+00
         0.00000E+00
         0.00000E+00
         0.00000E+00
         0.00000E+00
         0.00000E+00
         0.00000E+00
         0.00000E+00
         0.00000E+00
         0.00000E+00
         0.00000E+00
         0.00000E+00
         0.00000E+00
         0.00000E+00
         0.00000E+00
         0.00000E+00
         0.00000E+00
         0.00000E+00
         0.00000E+00
         0.00000E+00
         0.00000E+00
         0.00000E+00
         0.00000E+00
         0.00000E+00
         0.00000E+00
         0.00000E+00
         0.00000E+00
         0.00000E+00
         0.00000E+00
         0.00000E+00
         0.00000E+00
         0.00000E+00
         0.00000E+00
         0.00000E+00
         0.00000E+00
         0.00000E+00
         0.00000E+00
         0.00000E+00
         0.00000E+00
         0.00000E+00
         0.00000E+00
         0.00000E+00
         0.00000E+00
         0.00000E+00
         0.00000E+00
         0.00000E+00
         0.00000E+00
         0.00000E+00
         0.00000E+00
         0.00000E+00
         0.00000E+00
         0.00000E+00
         0.00000E+00
         0.00000E+00
         0.00000E+00
         0.00000E+00
         0.00000E+00
         0.00000E+00
         0.00000E+00
         0.00000E+00
         0.00000E+00
         0.00000E+00
         0.00000E+00
         0.00000E+00
         0.00000E+00
         0.00000E+00
         0.00000E+00
         0.00000E+00
         0.00000E+00
         0.00000E+00
         0.00000E+00
         0.00000E+00
         0.00000E+00
         0.00000E+00
         0.00000E+00
         0.00000E+00
         0.00000E+00
         0.00000E+00
         0.00000E+00
         0.00000E+00
         0.00000E+00
         0.00000E+00
         0.00000E+00
         0.00000E+00
         0.00000E+00
         0.00000E+00
         0.00000E+00
         0.00000E+00
         0.00000E+00
         0.00000E+00
         0.00000E+00
         0.00000E+00
         0.00000E+00
         0.00000E+00
         0.00000E+00
         0.00000E+00
         0.00000E+00
         0.00000E+00
         0.00000E+00
         0.00000E+00
         0.00000E+00
         0.00000E+00
         0.00000E+00
         0.00000E+00
         0.00000E+00
         0.00000E+00
         0.00000E+00
         0.00000E+00
         0.00000E+00
         0.00000E+00
         0.00000E+00
         0.00000E+00
         0.00000E+00
         0.00000E+00
         0.00000E+00
         0.00000E+00
         0.00000E+00
         0.00000E+00
         0.00000E+00
         0.00000E+00
         0.00000E+00
         0.00000E+00
         0.00000E+00
         0.00000E+00
         0.00000E+00
         0.00000E+00
         0.00000E+00
         0.00000E+00
         0.00000E+00
         0.00000E+00
         0.00000E+00
         0.00000E+00
         0.00000E+00
         0.00000E+00
         0.00000E+00
         0.00000E+00
         0.00000E+00
         0.00000E+00
         0.00000E+00
         0.00000E+00
         0.00000E+00
         0.00000E+00
         0.00000E+00
         0.00000E+00
         0.00000E+00
         0.00000E+00
         0.00000E+00
         0.00000E+00
         0.00000E+00
         0.00000E+00
         0.00000E+00
         0.00000E+00
         0.00000E+00
         0.00000E+00
         0.00000E+00
         0.00000E+00
         0.00000E+00
         0.00000E+00
         0.00000E+00
         0.00000E+00
         0.00000E+00
         0.00000E+00
         0.00000E+00
         0.00000E+00
         0.00000E+00
         0.00000E+00
         0.00000E+00
         0.00000E+00
         0.00000E+00
         0.00000E+00
         0.00000E+00
         0.00000E+00
         0.00000E+00
         0.00000E+00
         0.00000E+00
         0.00000E+00
         0.00000E+00
         0.00000E+00
         0.00000E+00
         0.00000E+00
         0.00000E+00
         0.00000E+00
         0.00000E+00
         0.00000E+00
         0.00000E+00
         0.00000E+00
         0.00000E+00
         0.00000E+00
         0.00000E+00
         0.00000E+00
         0.00000E+00
         0.00000E+00
         0.00000E+00
         0.00000E+00
         0.00000E+00
         0.00000E+00
         0.00000E+00
         0.00000E+00
         0.00000E+00
         0.00000E+00
         0.00000E+00
         0.00000E+00
         0.00000E+00
         0.00000E+00
         0.00000E+00
         0.00000E+00
         0.00000E+00
         0.00000E+00
         0.00000E+00
         0.00000E+00
         0.00000E+00
         0.00000E+00
         0.00000E+00
         0.00000E+00
         0.00000E+00
         0.00000E+00
         0.00000E+00
         0.00000E+00
         0.00000E+00
         0.00000E+00
         0.00000E+00
         0.00000E+00
         0.00000E+00
         0.00000E+00
         0.00000E+00
         0.00000E+00
         0.00000E+00
         0.00000E+00
         0.00000E+00
         0.00000E+00
         0.00000E+00
         0.00000E+00
         0.00000E+00
         0.00000E+00
         0.00000E+00
         0.00000E+00
         0.00000E+00
         0.00000E+00
         0.00000E+00
         0.00000E+00
         0.00000E+00
         0.00000E+00
         0.00000E+00
         0.00000E+00
         0.00000E+00
         0.00000E+00
         0.00000E+00
         0.00000E+00
         0.00000E+00
         0.00000E+00
         0.00000E+00
         0.00000E+00
         0.00000E+00
         0.00000E+00
         0.00000E+00
         0.00000E+00
         0.00000E+00
         0.00000E+00
         0.00000E+00
         0.00000E+00
         0.00000E+00
         0.00000E+00
         0.00000E+00
         0.00000E+00
         0.00000E+00
         0.00000E+00
         0.00000E+00
         0.00000E+00
         0.00000E+00
         0.00000E+00
         0.00000E+00
         0.00000E+00
         0.00000E+00
         0.00000E+00
         0.00000E+00
         0.00000E+00
         0.00000E+00
         0.00000E+00
         0.00000E+00
         0.00000E+00
         0.00000E+00
         0.00000E+00
         0.00000E+00
         0.00000E+00
         0.00000E+00
         0.00000E+00
         0.00000E+00
         0.00000E+00
         0.00000E+00
         0.00000E+00
         0.00000E+00
         0.00000E+00
         0.00000E+00
         0.00000E+00
         0.00000E+00
         0.00000E+00
         0.00000E+00
         0.00000E+00
         0.00000E+00
         0.00000E+00
         0.00000E+00
         0.00000E+00
         0.00000E+00
         0.00000E+00
         0.00000E+00
         0.00000E+00
         0.00000E+00
         0.00000E+00
         0.00000E+00
         0.00000E+00
         0.00000E+00
         0.00000E+00
         0.00000E+00
         0.00000E+00
         0.00000E+00
         0.00000E+00
         0.00000E+00
         0.00000E+00
         0.00000E+00
         0.00000E+00
         0.00000E+00
         0.00000E+00
         0.00000E+00
         0.00000E+00
         0.00000E+00
         0.00000E+00
         0.00000E+00
         0.00000E+00
         0.00000E+00
         0.00000E+00
         0.00000E+00
         0.00000E+00
         0.00000E+00
         0.00000E+00
         0.00000E+00
         0.00000E+00
         0.00000E+00
         0.00000E+00
         0.00000E+00
         0.00000E+00
         0.00000E+00
         0.00000E+00
         0.00000E+00
         0.00000E+00
         0.00000E+00
         0.00000E+00
         0.00000E+00
         0.00000E+00
         0.00000E+00
         0.00000E+00
         0.00000E+00
         0.00000E+00
         0.00000E+00
         0.00000E+00
         0.00000E+00
         0.00000E+00
         0.00000E+00
         0.00000E+00
         0.00000E+00
         0.00000E+00
         0.00000E+00
         0.00000E+00
         0.00000E+00
         0.00000E+00
         0.00000E+00
         0.00000E+00
         0.00000E+00
         0.00000E+00
         0.00000E+00
         0.00000E+00
         0.00000E+00
         0.00000E+00
         0.00000E+00
         0.00000E+00
         0.00000E+00
         0.00000E+00
         0.00000E+00
         0.00000E+00
         0.00000E+00
         0.00000E+00
         0.00000E+00
         0.00000E+00
         0.00000E+00
         0.00000E+00
         0.00000E+00
         0.00000E+00
         0.00000E+00
         0.00000E+00
         0.00000E+00
         0.00000E+00
         0.00000E+00
         0.00000E+00
         0.00000E+00
         0.00000E+00
         0.00000E+00
         0.00000E+00
         0.00000E+00
         0.00000E+00
         0.00000E+00
         0.00000E+00
         0.00000E+00
         0.00000E+00
         0.00000E+00
         0.00000E+00
         0.00000E+00
         0.00000E+00
         0.00000E+00
         0.00000E+00
         0.00000E+00
         0.00000E+00
         0.00000E+00
         0.00000E+00
         0.00000E+00
         0.00000E+00
         0.00000E+00
         0.00000E+00
         0.00000E+00
         0.00000E+00
         0.00000E+00
         0.00000E+00
         0.00000E+00
         0.00000E+00
         0.00000E+00
         0.00000E+00
         0.00000E+00
         0.00000E+00
         0.00000E+00
         0.00000E+00
         0.00000E+00
         0.00000E+00
         0.00000E+00
         0.00000E+00
         0.00000E+00
         0.00000E+00
         0.00000E+00
         0.00000E+00
         0.00000E+00
         0.00000E+00
         0.00000E+00
         0.00000E+00
         0.00000E+00
         0.00000E+00
         0.00000E+00
         0.00000E+00
         0.00000E+00
         0.00000E+00
         0.00000E+00
         0.00000E+00
         0.00000E+00
         0.00000E+00
         0.00000E+00
         0.00000E+00
         0.00000E+00
         0.00000E+00
         0.00000E+00
         0.00000E+00
         0.00000E+00
         0.00000E+00
         0.00000E+00
         0.00000E+00
         0.00000E+00
         0.00000E+00
         0.00000E+00
         0.00000E+00
         0.00000E+00
         0.00000E+00
         0.00000E+00
         0.00000E+00
         0.00000E+00
         0.00000E+00
         0.00000E+00
         0.00000E+00
         0.00000E+00
         0.00000E+00
         0.00000E+00
         0.00000E+00
         0.00000E+00
         0.00000E+00
         0.00000E+00
         0.00000E+00
         0.00000E+00
         0.00000E+00
         0.00000E+00
         0.00000E+00
         0.00000E+00
         0.00000E+00
         0.00000E+00
         0.00000E+00
         0.00000E+00
         0.00000E+00
         0.00000E+00
         0.00000E+00
         0.00000E+00
         0.00000E+00
         0.00000E+00
         0.00000E+00
         0.00000E+00
         0.00000E+00
         0.00000E+00
         0.00000E+00
         0.00000E+00
         0.00000E+00
         0.00000E+00
         0.00000E+00
         0.00000E+00
         0.00000E+00
         0.00000E+00
         0.00000E+00
         0.00000E+00
         0.00000E+00
         0.00000E+00
         0.00000E+00
         0.00000E+00
         0.00000E+00
         0.00000E+00
         0.00000E+00
         0.00000E+00
         0.00000E+00
         0.00000E+00
         0.00000E+00
         0.00000E+00
         0.00000E+00
         0.00000E+00
         0.00000E+00
         0.00000E+00
         0.00000E+00
         0.00000E+00
         0.00000E+00
         0.00000E+00
         0.00000E+00
         0.00000E+00
         0.00000E+00
         0.00000E+00
         0.00000E+00
         0.00000E+00
         0.00000E+00
         0.00000E+00
         0.00000E+00
         0.00000E+00
         0.00000E+00
         0.00000E+00
         0.00000E+00
         0.00000E+00
         0.00000E+00
         0.00000E+00
         0.00000E+00
         0.00000E+00
         0.00000E+00
         0.00000E+00
         0.00000E+00
         0.00000E+00
         0.00000E+00
         0.00000E+00
         0.00000E+00
         0.00000E+00
         0.00000E+00
         0.00000E+00
         0.00000E+00
         0.00000E+00
         0.00000E+00
         0.00000E+00
         0.00000E+00
         0.00000E+00
         0.00000E+00
         0.00000E+00
         0.00000E+00
         0.00000E+00
         0.00000E+00
         0.00000E+00
         0.00000E+00
         0.00000E+00
         0.00000E+00
         0.00000E+00
         0.00000E+00
         0.00000E+00
         0.00000E+00
         0.00000E+00
         0.00000E+00
         0.00000E+00
         0.00000E+00
         0.00000E+00
         0.00000E+00
         0.00000E+00
         0.00000E+00
         0.00000E+00
         0.00000E+00
         0.00000E+00
         0.00000E+00
         0.00000E+00
         0.00000E+00
         0.00000E+00
         0.00000E+00
         0.00000E+00
         0.00000E+00
         0.00000E+00
         0.00000E+00
         0.00000E+00
         0.00000E+00
         0.00000E+00
         0.00000E+00
         0.00000E+00
         0.00000E+00
         0.00000E+00
         0.00000E+00
         0.00000E+00
         0.00000E+00
         0.00000E+00
         0.00000E+00
         0.00000E+00
         0.00000E+00
         0.00000E+00
         0.00000E+00
         0.00000E+00
         0.00000E+00
         0.00000E+00
         0.00000E+00
         0.00000E+00
         0.00000E+00
         0.00000E+00
         0.00000E+00
         0.00000E+00
         0.00000E+00
         0.00000E+00
         0.00000E+00
         0.00000E+00
         0.00000E+00
         0.00000E+00
         0.00000E+00
         0.00000E+00
         0.00000E+00
         0.00000E+00
         0.00000E+00
         0.00000E+00
         0.00000E+00
         0.00000E+00
         0.00000E+00
         0.00000E+00
         0.00000E+00
         0.00000E+00
         0.00000E+00
         0.00000E+00
         0.00000E+00
         0.00000E+00
         0.00000E+00
         0.00000E+00
         0.00000E+00
         0.00000E+00
         0.00000E+00
         0.00000E+00
         0.00000E+00
         0.00000E+00
         0.00000E+00
         0.00000E+00
         0.00000E+00
         0.00000E+00
         0.00000E+00
         0.00000E+00
         0.00000E+00
         0.00000E+00
         0.00000E+00
         0.00000E+00
         0.00000E+00
         0.00000E+00
         0.00000E+00
         0.00000E+00
         0.00000E+00
         0.00000E+00
         0.00000E+00
         0.00000E+00
         0.00000E+00
         0.00000E+00
         0.00000E+00
         0.00000E+00
         0.00000E+00
         0.00000E+00
         0.00000E+00
         0.00000E+00
         0.00000E+00
         0.00000E+00
         0.00000E+00
         0.00000E+00
         0.00000E+00
         0.00000E+00
         0.00000E+00
         0.00000E+00
         0.00000E+00
         0.00000E+00
         0.00000E+00
         0.00000E+00
         0.00000E+00
         0.00000E+00
         0.00000E+00
         0.00000E+00
         0.00000E+00
         0.00000E+00
         0.00000E+00
         0.00000E+00
         0.00000E+00
         0.00000E+00
         0.00000E+00
         0.00000E+00
         0.00000E+00
         0.00000E+00
         0.00000E+00
         0.00000E+00
         0.00000E+00
         0.00000E+00
         0.00000E+00
         0.00000E+00
         0.00000E+00
         0.00000E+00
         0.00000E+00
         0.00000E+00
         0.00000E+00
         0.00000E+00
         0.00000E+00
         0.00000E+00
         0.00000E+00
         0.00000E+00
         0.00000E+00
         0.00000E+00
         0.00000E+00
         0.00000E+00
         0.00000E+00
         0.00000E+00
         0.00000E+00
         0.00000E+00
         0.00000E+00
         0.00000E+00
         0.00000E+00
         0.00000E+00
         0.00000E+00
         0.00000E+00
         0.00000E+00
         0.00000E+00
         0.00000E+00
         0.00000E+00
         0.00000E+00
         0.00000E+00
         0.00000E+00
         0.00000E+00
         0.00000E+00
         0.00000E+00
         0.00000E+00
         0.00000E+00
         0.00000E+00
         0.00000E+00
         0.00000E+00
         0.00000E+00
         0.00000E+00
         0.00000E+00
         0.00000E+00
         0.00000E+00
         0.00000E+00
         0.00000E+00
         0.00000E+00
         0.00000E+00
         0.00000E+00
         0.00000E+00
         0.00000E+00
         0.00000E+00
         0.00000E+00
         0.00000E+00
         0.00000E+00
         0.00000E+00
         0.00000E+00
         0.00000E+00
         0.00000E+00
         0.00000E+00
         0.00000E+00
         0.00000E+00
         0.00000E+00
         0.00000E+00
         0.00000E+00
         0.00000E+00
         0.00000E+00
         0.00000E+00
         0.00000E+00
         0.00000E+00
         0.00000E+00
         0.00000E+00
         0.00000E+00
         0.00000E+00
         0.00000E+00
         0.00000E+00
         0.00000E+00
         0.00000E+00
         0.00000E+00
         0.00000E+00
         0.00000E+00
         0.00000E+00
         0.00000E+00
         0.00000E+00
         0.00000E+00
         0.00000E+00
         0.00000E+00
         0.00000E+00
         0.00000E+00
         0.00000E+00
         0.00000E+00
         0.00000E+00
         0.00000E+00
         0.00000E+00
         0.00000E+00
         0.00000E+00
         0.00000E+00
         0.00000E+00
         0.00000E+00
         0.00000E+00
         0.00000E+00
         0.00000E+00
         0.00000E+00
         0.00000E+00
         0.00000E+00
         0.00000E+00
         0.00000E+00
         0.00000E+00
         0.00000E+00
         0.00000E+00
         0.00000E+00
         0.00000E+00
         0.00000E+00
         0.00000E+00
         0.00000E+00
         0.00000E+00
         0.00000E+00
         0.00000E+00
         0.00000E+00
         0.00000E+00
         0.00000E+00
         0.00000E+00
         0.00000E+00
         0.00000E+00
         0.00000E+00
         0.00000E+00
         0.00000E+00
         0.00000E+00
         0.00000E+00
         0.00000E+00
         0.00000E+00
         0.00000E+00
         0.00000E+00
         0.00000E+00
         0.00000E+00
         0.00000E+00
         0.00000E+00
         0.00000E+00
         0.00000E+00
         0.00000E+00
         0.00000E+00
         0.00000E+00
         0.00000E+00
         0.00000E+00
         0.00000E+00
         0.00000E+00
         0.00000E+00
         0.00000E+00
         0.00000E+00
         0.00000E+00
         0.00000E+00
         0.00000E+00
         0.00000E+00
         0.00000E+00
         0.00000E+00
         0.00000E+00
         0.00000E+00
         0.00000E+00
         0.00000E+00
         0.00000E+00
         0.00000E+00
         0.00000E+00
         0.00000E+00
         0.00000E+00
         0.00000E+00
         0.00000E+00
         0.00000E+00
         0.00000E+00
         0.00000E+00
         0.00000E+00
         0.00000E+00
         0.00000E+00
         0.00000E+00
         0.00000E+00
         0.00000E+00
         0.00000E+00
         0.00000E+00
         0.00000E+00
         0.00000E+00
         0.00000E+00
         0.00000E+00
         0.00000E+00
         0.00000E+00
         0.00000E+00
         0.00000E+00
         0.00000E+00
         0.00000E+00
         0.00000E+00
         0.00000E+00
         0.00000E+00
         0.00000E+00
         0.00000E+00
         0.00000E+00
         0.00000E+00
         0.00000E+00
         0.00000E+00
         0.00000E+00
         0.00000E+00
         0.00000E+00
         0.00000E+00
         0.00000E+00
         0.00000E+00
         0.00000E+00
         0.00000E+00
         0.00000E+00
         0.00000E+00
         0.00000E+00
         0.00000E+00
         0.00000E+00
         0.00000E+00
         0.00000E+00
         0.00000E+00
         0.00000E+00
         0.00000E+00
         0.00000E+00
         0.00000E+00
         0.00000E+00
         0.00000E+00
         0.00000E+00
         0.00000E+00
         0.00000E+00
         0.00000E+00
         0.00000E+00
         0.00000E+00
         0.00000E+00
         0.00000E+00
         0.00000E+00
         0.00000E+00
         0.00000E+00
         0.00000E+00
         0.00000E+00
         0.00000E+00
         0.00000E+00
         0.00000E+00
         0.00000E+00
         0.00000E+00
         0.00000E+00
         0.00000E+00
         0.00000E+00
         0.00000E+00
         0.00000E+00
         0.00000E+00
         0.00000E+00
         0.00000E+00
         0.00000E+00
         0.00000E+00
         0.00000E+00
         0.00000E+00
         0.00000E+00
         0.00000E+00
         0.00000E+00
         0.00000E+00
         0.00000E+00
         0.00000E+00
         0.00000E+00
         0.00000E+00
         0.00000E+00
         0.00000E+00
         0.00000E+00
         0.00000E+00
         0.00000E+00
         0.00000E+00
         0.00000E+00
         0.00000E+00
         0.00000E+00
         0.00000E+00
         0.00000E+00
         0.00000E+00
         0.00000E+00
         0.00000E+00
         0.00000E+00
         0.00000E+00
         0.00000E+00
         0.00000E+00
         0.00000E+00
         0.00000E+00
         0.00000E+00
         0.00000E+00
         0.00000E+00
         0.00000E+00
         0.00000E+00
         0.00000E+00
         0.00000E+00
         0.00000E+00
         0.00000E+00
         0.00000E+00
         0.00000E+00
         0.00000E+00
         0.00000E+00
         0.00000E+00
         0.00000E+00
         0.00000E+00
         0.00000E+00
         0.00000E+00
         0.00000E+00
         0.00000E+00
         0.00000E+00
         0.00000E+00
         0.00000E+00
         0.00000E+00
         0.00000E+00
         0.00000E+00
         0.00000E+00
         0.00000E+00
         0.00000E+00
         0.00000E+00
         0.00000E+00
         0.00000E+00
         0.00000E+00
         0.00000E+00
         0.00000E+00
         0.00000E+00
         0.00000E+00
         0.00000E+00
         0.00000E+00
         0.00000E+00
         0.00000E+00
         0.00000E+00
         0.00000E+00
         0.00000E+00
         0.00000E+00
         0.00000E+00
         0.00000E+00
         0.00000E+00
         0.00000E+00
         0.00000E+00
         0.00000E+00
         0.00000E+00
         0.00000E+00
         0.00000E+00
         0.00000E+00
         0.00000E+00
         0.00000E+00
         0.00000E+00
         0.00000E+00
         0.00000E+00
         0.00000E+00
         0.00000E+00
         0.00000E+00
         0.00000E+00
         0.00000E+00
         0.00000E+00
         0.00000E+00
         0.00000E+00
         0.00000E+00
         0.00000E+00
         0.00000E+00
         0.00000E+00
         0.00000E+00
         0.00000E+00
         0.00000E+00
         0.00000E+00
         0.00000E+00
         0.00000E+00
         0.00000E+00
         0.00000E+00
         0.00000E+00
         0.00000E+00
         0.00000E+00
         0.00000E+00
         0.00000E+00
         0.00000E+00
         0.00000E+00
         0.00000E+00
         0.00000E+00
         0.00000E+00
         0.00000E+00
         0.00000E+00
         0.00000E+00
         0.00000E+00
         0.00000E+00
         0.00000E+00
         0.00000E+00
         0.00000E+00
         0.00000E+00
         0.00000E+00
         0.00000E+00
         0.00000E+00
         0.00000E+00
         0.00000E+00
         0.00000E+00
         0.00000E+00
         0.00000E+00
         0.00000E+00
         0.00000E+00
         0.00000E+00
         0.00000E+00
         0.00000E+00
         0.00000E+00
         0.00000E+00
         0.00000E+00
         0.00000E+00
         0.00000E+00
         0.00000E+00
         0.00000E+00
         0.00000E+00
         0.00000E+00
         0.00000E+00
         0.00000E+00
         0.00000E+00
         0.00000E+00
         0.00000E+00
         0.00000E+00
         0.00000E+00
         0.00000E+00
         0.00000E+00
         0.00000E+00
         0.00000E+00
         0.00000E+00
         0.00000E+00
         0.00000E+00
         0.00000E+00
         0.00000E+00
         0.00000E+00
         0.00000E+00
         0.00000E+00
         0.00000E+00
         0.00000E+00
         0.00000E+00
         0.00000E+00
         0.00000E+00
         0.00000E+00
         0.00000E+00
         0.00000E+00
         0.00000E+00
         0.00000E+00
         0.00000E+00
         0.00000E+00
         0.00000E+00
         0.00000E+00
         0.00000E+00
         0.00000E+00
         0.00000E+00
         0.00000E+00
         0.00000E+00
         0.00000E+00
         0.00000E+00
         0.00000E+00
         0.00000E+00
         0.00000E+00
         0.00000E+00
         0.00000E+00
         0.00000E+00
         0.00000E+00
         0.00000E+00
         0.00000E+00
         0.00000E+00
         0.00000E+00
         0.00000E+00
         0.00000E+00
         0.00000E+00
         0.00000E+00
         0.00000E+00
         0.00000E+00
         0.00000E+00
         0.00000E+00
         0.00000E+00
         0.00000E+00
         0.00000E+00
         0.00000E+00
         0.00000E+00
         0.00000E+00
         0.00000E+00
         0.00000E+00
         0.00000E+00
         0.00000E+00
         0.00000E+00
         0.00000E+00
         0.00000E+00
         0.00000E+00
         0.00000E+00
         0.00000E+00
         0.00000E+00
         0.00000E+00
         0.00000E+00
         0.00000E+00
         0.00000E+00
         0.00000E+00
         0.00000E+00
         0.00000E+00
         0.00000E+00
         0.00000E+00
         0.00000E+00
         0.00000E+00
         0.00000E+00
         0.00000E+00
         0.00000E+00
         0.00000E+00
         0.00000E+00
         0.00000E+00
         0.00000E+00
         0.00000E+00
         0.00000E+00
         0.00000E+00
         0.00000E+00
         0.00000E+00
         0.00000E+00
         0.00000E+00
         0.00000E+00
         0.00000E+00
         0.00000E+00
         0.00000E+00
         0.00000E+00
         0.00000E+00
         0.00000E+00
         0.00000E+00
         0.00000E+00
         0.00000E+00
         0.00000E+00
         0.00000E+00
         0.00000E+00
         0.00000E+00
         0.00000E+00
         0.00000E+00
         0.00000E+00
         0.00000E+00
         0.00000E+00
         0.00000E+00
         0.00000E+00
         0.00000E+00
         0.00000E+00
         0.00000E+00
         0.00000E+00
         0.00000E+00
         0.00000E+00
         0.00000E+00
         0.00000E+00
         0.00000E+00
         0.00000E+00
         0.00000E+00
         0.00000E+00
         0.00000E+00
         0.00000E+00
         0.00000E+00
         0.00000E+00
         0.00000E+00
         0.00000E+00
         0.00000E+00
         0.00000E+00
         0.00000E+00
         0.00000E+00
         0.00000E+00
         0.00000E+00
         0.00000E+00
         0.00000E+00
         0.00000E+00
         0.00000E+00
         0.00000E+00
         0.00000E+00
         0.00000E+00
         0.00000E+00
         0.00000E+00
         0.00000E+00
         0.00000E+00
         0.00000E+00
         0.00000E+00
         0.00000E+00
         0.00000E+00
         0.00000E+00
         0.00000E+00
         0.00000E+00
         0.00000E+00
         0.00000E+00
         0.00000E+00
         0.00000E+00
         0.00000E+00
         0.00000E+00
         0.00000E+00
         0.00000E+00
         0.00000E+00
         0.00000E+00
         0.00000E+00
         0.00000E+00
         0.00000E+00
         0.00000E+00
         0.00000E+00
         0.00000E+00
         0.00000E+00
         0.00000E+00
         0.00000E+00
         0.00000E+00
         0.00000E+00
         0.00000E+00
         0.00000E+00
         0.00000E+00
         0.00000E+00
         0.00000E+00
         0.00000E+00
         0.00000E+00
         0.00000E+00
         0.00000E+00
         0.00000E+00
         0.00000E+00
         0.00000E+00
         0.00000E+00
         0.00000E+00
         0.00000E+00
         0.00000E+00
         0.00000E+00
         0.00000E+00
         0.00000E+00
         0.00000E+00
         0.00000E+00
         0.00000E+00
         0.00000E+00
         0.00000E+00
         0.00000E+00
         0.00000E+00
         0.00000E+00
         0.00000E+00
         0.00000E+00
         0.00000E+00
         0.00000E+00
         0.00000E+00
         0.00000E+00
         0.00000E+00
         0.00000E+00
         0.00000E+00
         0.00000E+00
         0.00000E+00
         0.00000E+00
         0.00000E+00
         0.00000E+00
         0.00000E+00
         0.00000E+00
         0.00000E+00
         0.00000E+00
         0.00000E+00
         0.00000E+00
         0.00000E+00
         0.00000E+00
         0.00000E+00
         0.00000E+00
         0.00000E+00
         0.00000E+00
         0.00000E+00
         0.00000E+00
         0.00000E+00
         0.00000E+00
         0.00000E+00
         0.00000E+00
         0.00000E+00
         0.00000E+00
         0.00000E+00
         0.00000E+00
         0.00000E+00
         0.00000E+00
         0.00000E+00
         0.00000E+00
         0.00000E+00
         0.00000E+00
         0.00000E+00
         0.00000E+00
         0.00000E+00
         0.00000E+00
         0.00000E+00
         0.00000E+00
         0.00000E+00
         0.00000E+00
         0.00000E+00
         0.00000E+00
         0.00000E+00
         0.00000E+00
         0.00000E+00
         0.00000E+00
         0.00000E+00
         0.00000E+00
         0.00000E+00
         0.00000E+00
         0.00000E+00
         0.00000E+00
         0.00000E+00
         0.00000E+00
         0.00000E+00
         0.00000E+00
         0.00000E+00
         0.00000E+00
         0.00000E+00
         0.00000E+00
         0.00000E+00
         0.00000E+00
         0.00000E+00
         0.00000E+00
         0.00000E+00
         0.00000E+00
         0.00000E+00
         0.00000E+00
         0.00000E+00
         0.00000E+00
         0.00000E+00
         0.00000E+00
         0.00000E+00
         0.00000E+00
         0.00000E+00
         0.00000E+00
         0.00000E+00
         0.00000E+00
         0.00000E+00
         0.00000E+00
         0.00000E+00
         0.00000E+00
         0.00000E+00
         0.00000E+00
         0.00000E+00
         0.00000E+00
         0.00000E+00
         0.00000E+00
         0.00000E+00
         0.00000E+00
         0.00000E+00
         0.00000E+00
         0.00000E+00
         0.00000E+00
         0.00000E+00
         0.00000E+00
         0.00000E+00
         0.00000E+00
         0.00000E+00
         0.00000E+00
         0.00000E+00
         0.00000E+00
         0.00000E+00
         0.00000E+00
         0.00000E+00
         0.00000E+00
         0.00000E+00
         0.00000E+00
         0.00000E+00
         0.00000E+00
         0.00000E+00
         0.00000E+00
         0.00000E+00
         0.00000E+00
         0.00000E+00
         0.00000E+00
         0.00000E+00
         0.00000E+00
         0.00000E+00
         0.00000E+00
         0.00000E+00
         0.00000E+00
         0.00000E+00
         0.00000E+00
         0.00000E+00
         0.00000E+00
         0.00000E+00
         0.00000E+00
         0.00000E+00
         0.00000E+00
         0.00000E+00
         0.00000E+00
         0.00000E+00
         0.00000E+00
         0.00000E+00
         0.00000E+00
         0.00000E+00
         0.00000E+00
         0.00000E+00
         0.00000E+00
         0.00000E+00
         0.00000E+00
         0.00000E+00
         0.00000E+00
         0.00000E+00
         0.00000E+00
         0.00000E+00
         0.00000E+00
         0.00000E+00
         0.00000E+00
         0.00000E+00
         0.00000E+00
         0.00000E+00
         0.00000E+00
         0.00000E+00
         0.00000E+00
         0.00000E+00
         0.00000E+00
         0.00000E+00
         0.00000E+00
         0.00000E+00
         0.00000E+00
         0.00000E+00
         0.00000E+00
         0.00000E+00
         0.00000E+00
         0.00000E+00
         0.00000E+00
         0.00000E+00
         0.00000E+00
         0.00000E+00
         0.00000E+00
         0.00000E+00
         0.00000E+00
         0.00000E+00
         0.00000E+00
         0.00000E+00
         0.00000E+00
         0.00000E+00
         0.00000E+00
         0.00000E+00
         0.00000E+00
         0.00000E+00
         0.00000E+00
         0.00000E+00
         0.00000E+00
         0.00000E+00
         0.00000E+00
         0.00000E+00
         0.00000E+00
         0.00000E+00
         0.00000E+00
         0.00000E+00
         0.00000E+00
         0.00000E+00
         0.00000E+00
         0.00000E+00
         0.00000E+00
         0.00000E+00
         0.00000E+00
         0.00000E+00
         0.00000E+00
         0.00000E+00
         0.00000E+00
         0.00000E+00
         0.00000E+00
         0.00000E+00
         0.00000E+00
         0.00000E+00
         0.00000E+00
         0.00000E+00
         0.00000E+00
         0.00000E+00
         0.00000E+00
         0.00000E+00
         0.00000E+00
         0.00000E+00
         0.00000E+00
         0.00000E+00
         0.00000E+00
         0.00000E+00
         0.00000E+00
         0.00000E+00
         0.00000E+00
         0.00000E+00
         0.00000E+00
         0.00000E+00
         0.00000E+00
         0.00000E+00
         0.00000E+00
         0.00000E+00
         0.00000E+00
         0.00000E+00
         0.00000E+00
         0.00000E+00
         0.00000E+00
         0.00000E+00
         0.00000E+00
         0.00000E+00
         0.00000E+00
         0.00000E+00
         0.00000E+00
         0.00000E+00
         0.00000E+00
         0.00000E+00
         0.00000E+00
         0.00000E+00
         0.00000E+00
         0.00000E+00
         0.00000E+00
         0.00000E+00
         0.00000E+00
         0.00000E+00
         0.00000E+00
         0.00000E+00
         0.00000E+00
         0.00000E+00
         0.00000E+00
         0.00000E+00
         0.00000E+00
         0.00000E+00
         0.00000E+00
         0.00000E+00
         0.00000E+00
         0.00000E+00
         0.00000E+00
         0.00000E+00
         0.00000E+00
         0.00000E+00
         0.00000E+00
         0.00000E+00
         0.00000E+00
         0.00000E+00
         0.00000E+00
         0.00000E+00
         0.00000E+00
         0.00000E+00
  
SCALARS                 acceleration_z  double 1
LOOKUP_TABLE default
         0.00000E+00
         0.00000E+00
         0.00000E+00
         0.00000E+00
         0.00000E+00
         0.00000E+00
         0.00000E+00
         0.00000E+00
         0.00000E+00
         0.00000E+00
         0.00000E+00
         0.00000E+00
         0.00000E+00
         0.00000E+00
         0.00000E+00
         0.00000E+00
         0.00000E+00
         0.00000E+00
         0.00000E+00
         0.00000E+00
         0.00000E+00
         0.00000E+00
         0.00000E+00
         0.00000E+00
         0.00000E+00
         0.00000E+00
         0.00000E+00
         0.00000E+00
         0.00000E+00
         0.00000E+00
         0.00000E+00
         0.00000E+00
         0.00000E+00
         0.00000E+00
         0.00000E+00
         0.00000E+00
         0.00000E+00
         0.00000E+00
         0.00000E+00
         0.00000E+00
         0.00000E+00
         0.00000E+00
         0.00000E+00
         0.00000E+00
         0.00000E+00
         0.00000E+00
         0.00000E+00
         0.00000E+00
         0.00000E+00
         0.00000E+00
         0.00000E+00
         0.00000E+00
         0.00000E+00
         0.00000E+00
         0.00000E+00
         0.00000E+00
         0.00000E+00
         0.00000E+00
         0.00000E+00
         0.00000E+00
         0.00000E+00
         0.00000E+00
         0.00000E+00
         0.00000E+00
         0.00000E+00
         0.00000E+00
         0.00000E+00
         0.00000E+00
         0.00000E+00
         0.00000E+00
         0.00000E+00
         0.00000E+00
         0.00000E+00
         0.00000E+00
         0.00000E+00
         0.00000E+00
         0.00000E+00
         0.00000E+00
         0.00000E+00
         0.00000E+00
         0.00000E+00
         0.00000E+00
         0.00000E+00
         0.00000E+00
         0.00000E+00
         0.00000E+00
         0.00000E+00
         0.00000E+00
         0.00000E+00
         0.00000E+00
         0.00000E+00
         0.00000E+00
         0.00000E+00
         0.00000E+00
         0.00000E+00
         0.00000E+00
         0.00000E+00
         0.00000E+00
         0.00000E+00
         0.00000E+00
         0.00000E+00
         0.00000E+00
         0.00000E+00
         0.00000E+00
         0.00000E+00
         0.00000E+00
         0.00000E+00
         0.00000E+00
         0.00000E+00
         0.00000E+00
         0.00000E+00
         0.00000E+00
         0.00000E+00
         0.00000E+00
         0.00000E+00
         0.00000E+00
         0.00000E+00
         0.00000E+00
         0.00000E+00
         0.00000E+00
         0.00000E+00
         0.00000E+00
         0.00000E+00
         0.00000E+00
         0.00000E+00
         0.00000E+00
         0.00000E+00
         0.00000E+00
         0.00000E+00
         0.00000E+00
         0.00000E+00
         0.00000E+00
         0.00000E+00
         0.00000E+00
         0.00000E+00
         0.00000E+00
         0.00000E+00
         0.00000E+00
         0.00000E+00
         0.00000E+00
         0.00000E+00
         0.00000E+00
         0.00000E+00
         0.00000E+00
         0.00000E+00
         0.00000E+00
         0.00000E+00
         0.00000E+00
         0.00000E+00
         0.00000E+00
         0.00000E+00
         0.00000E+00
         0.00000E+00
         0.00000E+00
         0.00000E+00
         0.00000E+00
         0.00000E+00
         0.00000E+00
         0.00000E+00
         0.00000E+00
         0.00000E+00
         0.00000E+00
         0.00000E+00
         0.00000E+00
         0.00000E+00
         0.00000E+00
         0.00000E+00
         0.00000E+00
         0.00000E+00
         0.00000E+00
         0.00000E+00
         0.00000E+00
         0.00000E+00
         0.00000E+00
         0.00000E+00
         0.00000E+00
         0.00000E+00
         0.00000E+00
         0.00000E+00
         0.00000E+00
         0.00000E+00
         0.00000E+00
         0.00000E+00
         0.00000E+00
         0.00000E+00
         0.00000E+00
         0.00000E+00
         0.00000E+00
         0.00000E+00
         0.00000E+00
         0.00000E+00
         0.00000E+00
         0.00000E+00
         0.00000E+00
         0.00000E+00
         0.00000E+00
         0.00000E+00
         0.00000E+00
         0.00000E+00
         0.00000E+00
         0.00000E+00
         0.00000E+00
         0.00000E+00
         0.00000E+00
         0.00000E+00
         0.00000E+00
         0.00000E+00
         0.00000E+00
         0.00000E+00
         0.00000E+00
         0.00000E+00
         0.00000E+00
         0.00000E+00
         0.00000E+00
         0.00000E+00
         0.00000E+00
         0.00000E+00
         0.00000E+00
         0.00000E+00
         0.00000E+00
         0.00000E+00
         0.00000E+00
         0.00000E+00
         0.00000E+00
         0.00000E+00
         0.00000E+00
         0.00000E+00
         0.00000E+00
         0.00000E+00
         0.00000E+00
         0.00000E+00
         0.00000E+00
         0.00000E+00
         0.00000E+00
         0.00000E+00
         0.00000E+00
         0.00000E+00
         0.00000E+00
         0.00000E+00
         0.00000E+00
         0.00000E+00
         0.00000E+00
         0.00000E+00
         0.00000E+00
         0.00000E+00
         0.00000E+00
         0.00000E+00
         0.00000E+00
         0.00000E+00
         0.00000E+00
         0.00000E+00
         0.00000E+00
         0.00000E+00
         0.00000E+00
         0.00000E+00
         0.00000E+00
         0.00000E+00
         0.00000E+00
         0.00000E+00
         0.00000E+00
         0.00000E+00
         0.00000E+00
         0.00000E+00
         0.00000E+00
         0.00000E+00
         0.00000E+00
         0.00000E+00
         0.00000E+00
         0.00000E+00
         0.00000E+00
         0.00000E+00
         0.00000E+00
         0.00000E+00
         0.00000E+00
         0.00000E+00
         0.00000E+00
         0.00000E+00
         0.00000E+00
         0.00000E+00
         0.00000E+00
         0.00000E+00
         0.00000E+00
         0.00000E+00
         0.00000E+00
         0.00000E+00
         0.00000E+00
         0.00000E+00
         0.00000E+00
         0.00000E+00
         0.00000E+00
         0.00000E+00
         0.00000E+00
         0.00000E+00
         0.00000E+00
         0.00000E+00
         0.00000E+00
         0.00000E+00
         0.00000E+00
         0.00000E+00
         0.00000E+00
         0.00000E+00
         0.00000E+00
         0.00000E+00
         0.00000E+00
         0.00000E+00
         0.00000E+00
         0.00000E+00
         0.00000E+00
         0.00000E+00
         0.00000E+00
         0.00000E+00
         0.00000E+00
         0.00000E+00
         0.00000E+00
         0.00000E+00
         0.00000E+00
         0.00000E+00
         0.00000E+00
         0.00000E+00
         0.00000E+00
         0.00000E+00
         0.00000E+00
         0.00000E+00
         0.00000E+00
         0.00000E+00
         0.00000E+00
         0.00000E+00
         0.00000E+00
         0.00000E+00
         0.00000E+00
         0.00000E+00
         0.00000E+00
         0.00000E+00
         0.00000E+00
         0.00000E+00
         0.00000E+00
         0.00000E+00
         0.00000E+00
         0.00000E+00
         0.00000E+00
         0.00000E+00
         0.00000E+00
         0.00000E+00
         0.00000E+00
         0.00000E+00
         0.00000E+00
         0.00000E+00
         0.00000E+00
         0.00000E+00
         0.00000E+00
         0.00000E+00
         0.00000E+00
         0.00000E+00
         0.00000E+00
         0.00000E+00
         0.00000E+00
         0.00000E+00
         0.00000E+00
         0.00000E+00
         0.00000E+00
         0.00000E+00
         0.00000E+00
         0.00000E+00
         0.00000E+00
         0.00000E+00
         0.00000E+00
         0.00000E+00
         0.00000E+00
         0.00000E+00
         0.00000E+00
         0.00000E+00
         0.00000E+00
         0.00000E+00
         0.00000E+00
         0.00000E+00
         0.00000E+00
         0.00000E+00
         0.00000E+00
         0.00000E+00
         0.00000E+00
         0.00000E+00
         0.00000E+00
         0.00000E+00
         0.00000E+00
         0.00000E+00
         0.00000E+00
         0.00000E+00
         0.00000E+00
         0.00000E+00
         0.00000E+00
         0.00000E+00
         0.00000E+00
         0.00000E+00
         0.00000E+00
         0.00000E+00
         0.00000E+00
         0.00000E+00
         0.00000E+00
         0.00000E+00
         0.00000E+00
         0.00000E+00
         0.00000E+00
         0.00000E+00
         0.00000E+00
         0.00000E+00
         0.00000E+00
         0.00000E+00
         0.00000E+00
         0.00000E+00
         0.00000E+00
         0.00000E+00
         0.00000E+00
         0.00000E+00
         0.00000E+00
         0.00000E+00
         0.00000E+00
         0.00000E+00
         0.00000E+00
         0.00000E+00
         0.00000E+00
         0.00000E+00
         0.00000E+00
         0.00000E+00
         0.00000E+00
         0.00000E+00
         0.00000E+00
         0.00000E+00
         0.00000E+00
         0.00000E+00
         0.00000E+00
         0.00000E+00
         0.00000E+00
         0.00000E+00
         0.00000E+00
         0.00000E+00
         0.00000E+00
         0.00000E+00
         0.00000E+00
         0.00000E+00
         0.00000E+00
         0.00000E+00
         0.00000E+00
         0.00000E+00
         0.00000E+00
         0.00000E+00
         0.00000E+00
         0.00000E+00
         0.00000E+00
         0.00000E+00
         0.00000E+00
         0.00000E+00
         0.00000E+00
         0.00000E+00
         0.00000E+00
         0.00000E+00
         0.00000E+00
         0.00000E+00
         0.00000E+00
         0.00000E+00
         0.00000E+00
         0.00000E+00
         0.00000E+00
         0.00000E+00
         0.00000E+00
         0.00000E+00
         0.00000E+00
         0.00000E+00
         0.00000E+00
         0.00000E+00
         0.00000E+00
         0.00000E+00
         0.00000E+00
         0.00000E+00
         0.00000E+00
         0.00000E+00
         0.00000E+00
         0.00000E+00
         0.00000E+00
         0.00000E+00
         0.00000E+00
         0.00000E+00
         0.00000E+00
         0.00000E+00
         0.00000E+00
         0.00000E+00
         0.00000E+00
         0.00000E+00
         0.00000E+00
         0.00000E+00
         0.00000E+00
         0.00000E+00
         0.00000E+00
         0.00000E+00
         0.00000E+00
         0.00000E+00
         0.00000E+00
         0.00000E+00
         0.00000E+00
         0.00000E+00
         0.00000E+00
         0.00000E+00
         0.00000E+00
         0.00000E+00
         0.00000E+00
         0.00000E+00
         0.00000E+00
         0.00000E+00
         0.00000E+00
         0.00000E+00
         0.00000E+00
         0.00000E+00
         0.00000E+00
         0.00000E+00
         0.00000E+00
         0.00000E+00
         0.00000E+00
         0.00000E+00
         0.00000E+00
         0.00000E+00
         0.00000E+00
         0.00000E+00
         0.00000E+00
         0.00000E+00
         0.00000E+00
         0.00000E+00
         0.00000E+00
         0.00000E+00
         0.00000E+00
         0.00000E+00
         0.00000E+00
         0.00000E+00
         0.00000E+00
         0.00000E+00
         0.00000E+00
         0.00000E+00
         0.00000E+00
         0.00000E+00
         0.00000E+00
         0.00000E+00
         0.00000E+00
         0.00000E+00
         0.00000E+00
         0.00000E+00
         0.00000E+00
         0.00000E+00
         0.00000E+00
         0.00000E+00
         0.00000E+00
         0.00000E+00
         0.00000E+00
         0.00000E+00
         0.00000E+00
         0.00000E+00
         0.00000E+00
         0.00000E+00
         0.00000E+00
         0.00000E+00
         0.00000E+00
         0.00000E+00
         0.00000E+00
         0.00000E+00
         0.00000E+00
         0.00000E+00
         0.00000E+00
         0.00000E+00
         0.00000E+00
         0.00000E+00
         0.00000E+00
         0.00000E+00
         0.00000E+00
         0.00000E+00
         0.00000E+00
         0.00000E+00
         0.00000E+00
         0.00000E+00
         0.00000E+00
         0.00000E+00
         0.00000E+00
         0.00000E+00
         0.00000E+00
         0.00000E+00
         0.00000E+00
         0.00000E+00
         0.00000E+00
         0.00000E+00
         0.00000E+00
         0.00000E+00
         0.00000E+00
         0.00000E+00
         0.00000E+00
         0.00000E+00
         0.00000E+00
         0.00000E+00
         0.00000E+00
         0.00000E+00
         0.00000E+00
         0.00000E+00
         0.00000E+00
         0.00000E+00
         0.00000E+00
         0.00000E+00
         0.00000E+00
         0.00000E+00
         0.00000E+00
         0.00000E+00
         0.00000E+00
         0.00000E+00
         0.00000E+00
         0.00000E+00
         0.00000E+00
         0.00000E+00
         0.00000E+00
         0.00000E+00
         0.00000E+00
         0.00000E+00
         0.00000E+00
         0.00000E+00
         0.00000E+00
         0.00000E+00
         0.00000E+00
         0.00000E+00
         0.00000E+00
         0.00000E+00
         0.00000E+00
         0.00000E+00
         0.00000E+00
         0.00000E+00
         0.00000E+00
         0.00000E+00
         0.00000E+00
         0.00000E+00
         0.00000E+00
         0.00000E+00
         0.00000E+00
         0.00000E+00
         0.00000E+00
         0.00000E+00
         0.00000E+00
         0.00000E+00
         0.00000E+00
         0.00000E+00
         0.00000E+00
         0.00000E+00
         0.00000E+00
         0.00000E+00
         0.00000E+00
         0.00000E+00
         0.00000E+00
         0.00000E+00
         0.00000E+00
         0.00000E+00
         0.00000E+00
         0.00000E+00
         0.00000E+00
         0.00000E+00
         0.00000E+00
         0.00000E+00
         0.00000E+00
         0.00000E+00
         0.00000E+00
         0.00000E+00
         0.00000E+00
         0.00000E+00
         0.00000E+00
         0.00000E+00
         0.00000E+00
         0.00000E+00
         0.00000E+00
         0.00000E+00
         0.00000E+00
         0.00000E+00
         0.00000E+00
         0.00000E+00
         0.00000E+00
         0.00000E+00
         0.00000E+00
         0.00000E+00
         0.00000E+00
         0.00000E+00
         0.00000E+00
         0.00000E+00
         0.00000E+00
         0.00000E+00
         0.00000E+00
         0.00000E+00
         0.00000E+00
         0.00000E+00
         0.00000E+00
         0.00000E+00
         0.00000E+00
         0.00000E+00
         0.00000E+00
         0.00000E+00
         0.00000E+00
         0.00000E+00
         0.00000E+00
         0.00000E+00
         0.00000E+00
         0.00000E+00
         0.00000E+00
         0.00000E+00
         0.00000E+00
         0.00000E+00
         0.00000E+00
         0.00000E+00
         0.00000E+00
         0.00000E+00
         0.00000E+00
         0.00000E+00
         0.00000E+00
         0.00000E+00
         0.00000E+00
         0.00000E+00
         0.00000E+00
         0.00000E+00
         0.00000E+00
         0.00000E+00
         0.00000E+00
         0.00000E+00
         0.00000E+00
         0.00000E+00
         0.00000E+00
         0.00000E+00
         0.00000E+00
         0.00000E+00
         0.00000E+00
         0.00000E+00
         0.00000E+00
         0.00000E+00
         0.00000E+00
         0.00000E+00
         0.00000E+00
         0.00000E+00
         0.00000E+00
         0.00000E+00
         0.00000E+00
         0.00000E+00
         0.00000E+00
         0.00000E+00
         0.00000E+00
         0.00000E+00
         0.00000E+00
         0.00000E+00
         0.00000E+00
         0.00000E+00
         0.00000E+00
         0.00000E+00
         0.00000E+00
         0.00000E+00
         0.00000E+00
         0.00000E+00
         0.00000E+00
         0.00000E+00
         0.00000E+00
         0.00000E+00
         0.00000E+00
         0.00000E+00
         0.00000E+00
         0.00000E+00
         0.00000E+00
         0.00000E+00
         0.00000E+00
         0.00000E+00
         0.00000E+00
         0.00000E+00
         0.00000E+00
         0.00000E+00
         0.00000E+00
         0.00000E+00
         0.00000E+00
         0.00000E+00
         0.00000E+00
         0.00000E+00
         0.00000E+00
         0.00000E+00
         0.00000E+00
         0.00000E+00
         0.00000E+00
         0.00000E+00
         0.00000E+00
         0.00000E+00
         0.00000E+00
         0.00000E+00
         0.00000E+00
         0.00000E+00
         0.00000E+00
         0.00000E+00
         0.00000E+00
         0.00000E+00
         0.00000E+00
         0.00000E+00
         0.00000E+00
         0.00000E+00
         0.00000E+00
         0.00000E+00
         0.00000E+00
         0.00000E+00
         0.00000E+00
         0.00000E+00
         0.00000E+00
         0.00000E+00
         0.00000E+00
         0.00000E+00
         0.00000E+00
         0.00000E+00
         0.00000E+00
         0.00000E+00
         0.00000E+00
         0.00000E+00
         0.00000E+00
         0.00000E+00
         0.00000E+00
         0.00000E+00
         0.00000E+00
         0.00000E+00
         0.00000E+00
         0.00000E+00
         0.00000E+00
         0.00000E+00
         0.00000E+00
         0.00000E+00
         0.00000E+00
         0.00000E+00
         0.00000E+00
         0.00000E+00
         0.00000E+00
         0.00000E+00
         0.00000E+00
         0.00000E+00
         0.00000E+00
         0.00000E+00
         0.00000E+00
         0.00000E+00
         0.00000E+00
         0.00000E+00
         0.00000E+00
         0.00000E+00
         0.00000E+00
         0.00000E+00
         0.00000E+00
         0.00000E+00
         0.00000E+00
         0.00000E+00
         0.00000E+00
         0.00000E+00
         0.00000E+00
         0.00000E+00
         0.00000E+00
         0.00000E+00
         0.00000E+00
         0.00000E+00
         0.00000E+00
         0.00000E+00
         0.00000E+00
         0.00000E+00
         0.00000E+00
         0.00000E+00
         0.00000E+00
         0.00000E+00
         0.00000E+00
         0.00000E+00
         0.00000E+00
         0.00000E+00
         0.00000E+00
         0.00000E+00
         0.00000E+00
         0.00000E+00
         0.00000E+00
         0.00000E+00
         0.00000E+00
         0.00000E+00
         0.00000E+00
         0.00000E+00
         0.00000E+00
         0.00000E+00
         0.00000E+00
         0.00000E+00
         0.00000E+00
         0.00000E+00
         0.00000E+00
         0.00000E+00
         0.00000E+00
         0.00000E+00
         0.00000E+00
         0.00000E+00
         0.00000E+00
         0.00000E+00
         0.00000E+00
         0.00000E+00
         0.00000E+00
         0.00000E+00
         0.00000E+00
         0.00000E+00
         0.00000E+00
         0.00000E+00
         0.00000E+00
         0.00000E+00
         0.00000E+00
         0.00000E+00
         0.00000E+00
         0.00000E+00
         0.00000E+00
         0.00000E+00
         0.00000E+00
         0.00000E+00
         0.00000E+00
         0.00000E+00
         0.00000E+00
         0.00000E+00
         0.00000E+00
         0.00000E+00
         0.00000E+00
         0.00000E+00
         0.00000E+00
         0.00000E+00
         0.00000E+00
         0.00000E+00
         0.00000E+00
         0.00000E+00
         0.00000E+00
         0.00000E+00
         0.00000E+00
         0.00000E+00
         0.00000E+00
         0.00000E+00
         0.00000E+00
         0.00000E+00
         0.00000E+00
         0.00000E+00
         0.00000E+00
         0.00000E+00
         0.00000E+00
         0.00000E+00
         0.00000E+00
         0.00000E+00
         0.00000E+00
         0.00000E+00
         0.00000E+00
         0.00000E+00
         0.00000E+00
         0.00000E+00
         0.00000E+00
         0.00000E+00
         0.00000E+00
         0.00000E+00
         0.00000E+00
         0.00000E+00
         0.00000E+00
         0.00000E+00
         0.00000E+00
         0.00000E+00
         0.00000E+00
         0.00000E+00
         0.00000E+00
         0.00000E+00
         0.00000E+00
         0.00000E+00
         0.00000E+00
         0.00000E+00
         0.00000E+00
         0.00000E+00
         0.00000E+00
         0.00000E+00
         0.00000E+00
         0.00000E+00
         0.00000E+00
         0.00000E+00
         0.00000E+00
         0.00000E+00
         0.00000E+00
         0.00000E+00
         0.00000E+00
         0.00000E+00
         0.00000E+00
         0.00000E+00
         0.00000E+00
         0.00000E+00
         0.00000E+00
         0.00000E+00
         0.00000E+00
         0.00000E+00
         0.00000E+00
         0.00000E+00
         0.00000E+00
         0.00000E+00
         0.00000E+00
         0.00000E+00
         0.00000E+00
         0.00000E+00
         0.00000E+00
         0.00000E+00
         0.00000E+00
         0.00000E+00
         0.00000E+00
         0.00000E+00
         0.00000E+00
         0.00000E+00
         0.00000E+00
         0.00000E+00
         0.00000E+00
         0.00000E+00
         0.00000E+00
         0.00000E+00
         0.00000E+00
         0.00000E+00
         0.00000E+00
         0.00000E+00
         0.00000E+00
         0.00000E+00
         0.00000E+00
         0.00000E+00
         0.00000E+00
         0.00000E+00
         0.00000E+00
         0.00000E+00
         0.00000E+00
         0.00000E+00
         0.00000E+00
         0.00000E+00
         0.00000E+00
         0.00000E+00
         0.00000E+00
         0.00000E+00
         0.00000E+00
         0.00000E+00
         0.00000E+00
         0.00000E+00
         0.00000E+00
         0.00000E+00
         0.00000E+00
         0.00000E+00
         0.00000E+00
         0.00000E+00
         0.00000E+00
         0.00000E+00
         0.00000E+00
         0.00000E+00
         0.00000E+00
         0.00000E+00
         0.00000E+00
         0.00000E+00
         0.00000E+00
         0.00000E+00
         0.00000E+00
         0.00000E+00
         0.00000E+00
         0.00000E+00
         0.00000E+00
         0.00000E+00
         0.00000E+00
         0.00000E+00
         0.00000E+00
         0.00000E+00
         0.00000E+00
         0.00000E+00
         0.00000E+00
         0.00000E+00
         0.00000E+00
         0.00000E+00
         0.00000E+00
         0.00000E+00
         0.00000E+00
         0.00000E+00
         0.00000E+00
         0.00000E+00
         0.00000E+00
         0.00000E+00
         0.00000E+00
         0.00000E+00
         0.00000E+00
         0.00000E+00
         0.00000E+00
         0.00000E+00
         0.00000E+00
         0.00000E+00
         0.00000E+00
         0.00000E+00
         0.00000E+00
         0.00000E+00
         0.00000E+00
         0.00000E+00
         0.00000E+00
         0.00000E+00
         0.00000E+00
         0.00000E+00
         0.00000E+00
         0.00000E+00
         0.00000E+00
         0.00000E+00
         0.00000E+00
         0.00000E+00
         0.00000E+00
         0.00000E+00
         0.00000E+00
         0.00000E+00
         0.00000E+00
         0.00000E+00
         0.00000E+00
         0.00000E+00
         0.00000E+00
         0.00000E+00
         0.00000E+00
         0.00000E+00
         0.00000E+00
         0.00000E+00
         0.00000E+00
         0.00000E+00
         0.00000E+00
         0.00000E+00
         0.00000E+00
         0.00000E+00
         0.00000E+00
         0.00000E+00
         0.00000E+00
         0.00000E+00
         0.00000E+00
         0.00000E+00
         0.00000E+00
         0.00000E+00
         0.00000E+00
         0.00000E+00
         0.00000E+00
         0.00000E+00
         0.00000E+00
         0.00000E+00
         0.00000E+00
         0.00000E+00
         0.00000E+00
         0.00000E+00
         0.00000E+00
         0.00000E+00
         0.00000E+00
         0.00000E+00
         0.00000E+00
         0.00000E+00
         0.00000E+00
         0.00000E+00
         0.00000E+00
         0.00000E+00
         0.00000E+00
         0.00000E+00
         0.00000E+00
         0.00000E+00
         0.00000E+00
         0.00000E+00
         0.00000E+00
         0.00000E+00
         0.00000E+00
         0.00000E+00
         0.00000E+00
         0.00000E+00
         0.00000E+00
         0.00000E+00
         0.00000E+00
         0.00000E+00
         0.00000E+00
         0.00000E+00
         0.00000E+00
         0.00000E+00
         0.00000E+00
         0.00000E+00
         0.00000E+00
         0.00000E+00
         0.00000E+00
         0.00000E+00
         0.00000E+00
         0.00000E+00
         0.00000E+00
         0.00000E+00
         0.00000E+00
         0.00000E+00
         0.00000E+00
         0.00000E+00
         0.00000E+00
         0.00000E+00
         0.00000E+00
         0.00000E+00
         0.00000E+00
         0.00000E+00
         0.00000E+00
         0.00000E+00
         0.00000E+00
         0.00000E+00
         0.00000E+00
         0.00000E+00
         0.00000E+00
         0.00000E+00
         0.00000E+00
         0.00000E+00
         0.00000E+00
         0.00000E+00
         0.00000E+00
         0.00000E+00
         0.00000E+00
         0.00000E+00
         0.00000E+00
         0.00000E+00
         0.00000E+00
         0.00000E+00
         0.00000E+00
         0.00000E+00
         0.00000E+00
         0.00000E+00
         0.00000E+00
         0.00000E+00
         0.00000E+00
         0.00000E+00
         0.00000E+00
         0.00000E+00
         0.00000E+00
         0.00000E+00
         0.00000E+00
         0.00000E+00
         0.00000E+00
         0.00000E+00
         0.00000E+00
         0.00000E+00
         0.00000E+00
         0.00000E+00
         0.00000E+00
         0.00000E+00
         0.00000E+00
         0.00000E+00
         0.00000E+00
         0.00000E+00
         0.00000E+00
         0.00000E+00
         0.00000E+00
         0.00000E+00
         0.00000E+00
         0.00000E+00
         0.00000E+00
         0.00000E+00
         0.00000E+00
         0.00000E+00
         0.00000E+00
         0.00000E+00
         0.00000E+00
         0.00000E+00
         0.00000E+00
         0.00000E+00
         0.00000E+00
         0.00000E+00
         0.00000E+00
         0.00000E+00
         0.00000E+00
         0.00000E+00
         0.00000E+00
         0.00000E+00
         0.00000E+00
         0.00000E+00
         0.00000E+00
         0.00000E+00
         0.00000E+00
         0.00000E+00
         0.00000E+00
         0.00000E+00
         0.00000E+00
         0.00000E+00
         0.00000E+00
         0.00000E+00
         0.00000E+00
         0.00000E+00
         0.00000E+00
         0.00000E+00
         0.00000E+00
         0.00000E+00
         0.00000E+00
         0.00000E+00
         0.00000E+00
         0.00000E+00
         0.00000E+00
         0.00000E+00
         0.00000E+00
         0.00000E+00
         0.00000E+00
         0.00000E+00
         0.00000E+00
         0.00000E+00
         0.00000E+00
         0.00000E+00
         0.00000E+00
         0.00000E+00
         0.00000E+00
         0.00000E+00
         0.00000E+00
         0.00000E+00
         0.00000E+00
         0.00000E+00
         0.00000E+00
         0.00000E+00
         0.00000E+00
         0.00000E+00
         0.00000E+00
         0.00000E+00
         0.00000E+00
         0.00000E+00
         0.00000E+00
         0.00000E+00
         0.00000E+00
         0.00000E+00
         0.00000E+00
         0.00000E+00
         0.00000E+00
         0.00000E+00
         0.00000E+00
         0.00000E+00
         0.00000E+00
         0.00000E+00
         0.00000E+00
         0.00000E+00
         0.00000E+00
         0.00000E+00
         0.00000E+00
         0.00000E+00
         0.00000E+00
         0.00000E+00
         0.00000E+00
         0.00000E+00
         0.00000E+00
         0.00000E+00
         0.00000E+00
         0.00000E+00
         0.00000E+00
         0.00000E+00
         0.00000E+00
         0.00000E+00
         0.00000E+00
         0.00000E+00
         0.00000E+00
         0.00000E+00
         0.00000E+00
         0.00000E+00
         0.00000E+00
         0.00000E+00
         0.00000E+00
         0.00000E+00
         0.00000E+00
         0.00000E+00
         0.00000E+00
         0.00000E+00
         0.00000E+00
         0.00000E+00
         0.00000E+00
         0.00000E+00
         0.00000E+00
         0.00000E+00
         0.00000E+00
         0.00000E+00
         0.00000E+00
         0.00000E+00
         0.00000E+00
         0.00000E+00
         0.00000E+00
         0.00000E+00
         0.00000E+00
         0.00000E+00
         0.00000E+00
         0.00000E+00
         0.00000E+00
         0.00000E+00
         0.00000E+00
         0.00000E+00
         0.00000E+00
         0.00000E+00
         0.00000E+00
         0.00000E+00
         0.00000E+00
         0.00000E+00
         0.00000E+00
         0.00000E+00
         0.00000E+00
         0.00000E+00
         0.00000E+00
         0.00000E+00
         0.00000E+00
         0.00000E+00
         0.00000E+00
         0.00000E+00
         0.00000E+00
         0.00000E+00
         0.00000E+00
         0.00000E+00
         0.00000E+00
         0.00000E+00
         0.00000E+00
         0.00000E+00
         0.00000E+00
         0.00000E+00
         0.00000E+00
         0.00000E+00
         0.00000E+00
         0.00000E+00
         0.00000E+00
         0.00000E+00
         0.00000E+00
         0.00000E+00
         0.00000E+00
         0.00000E+00
         0.00000E+00
         0.00000E+00
         0.00000E+00
         0.00000E+00
         0.00000E+00
         0.00000E+00
         0.00000E+00
         0.00000E+00
         0.00000E+00
         0.00000E+00
         0.00000E+00
         0.00000E+00
         0.00000E+00
         0.00000E+00
         0.00000E+00
         0.00000E+00
         0.00000E+00
         0.00000E+00
         0.00000E+00
         0.00000E+00
         0.00000E+00
         0.00000E+00
         0.00000E+00
         0.00000E+00
         0.00000E+00
         0.00000E+00
         0.00000E+00
         0.00000E+00
         0.00000E+00
         0.00000E+00
         0.00000E+00
         0.00000E+00
         0.00000E+00
         0.00000E+00
         0.00000E+00
         0.00000E+00
         0.00000E+00
         0.00000E+00
         0.00000E+00
         0.00000E+00
         0.00000E+00
         0.00000E+00
         0.00000E+00
         0.00000E+00
         0.00000E+00
         0.00000E+00
         0.00000E+00
         0.00000E+00
         0.00000E+00
         0.00000E+00
         0.00000E+00
         0.00000E+00
         0.00000E+00
         0.00000E+00
         0.00000E+00
         0.00000E+00
         0.00000E+00
         0.00000E+00
         0.00000E+00
         0.00000E+00
         0.00000E+00
         0.00000E+00
         0.00000E+00
         0.00000E+00
         0.00000E+00
         0.00000E+00
         0.00000E+00
         0.00000E+00
         0.00000E+00
         0.00000E+00
         0.00000E+00
         0.00000E+00
         0.00000E+00
         0.00000E+00
         0.00000E+00
         0.00000E+00
         0.00000E+00
         0.00000E+00
         0.00000E+00
         0.00000E+00
         0.00000E+00
         0.00000E+00
         0.00000E+00
         0.00000E+00
         0.00000E+00
         0.00000E+00
         0.00000E+00
         0.00000E+00
         0.00000E+00
         0.00000E+00
         0.00000E+00
         0.00000E+00
         0.00000E+00
         0.00000E+00
         0.00000E+00
         0.00000E+00
         0.00000E+00
         0.00000E+00
         0.00000E+00
         0.00000E+00
         0.00000E+00
         0.00000E+00
         0.00000E+00
         0.00000E+00
         0.00000E+00
         0.00000E+00
         0.00000E+00
         0.00000E+00
         0.00000E+00
         0.00000E+00
         0.00000E+00
         0.00000E+00
         0.00000E+00
         0.00000E+00
         0.00000E+00
         0.00000E+00
         0.00000E+00
         0.00000E+00
         0.00000E+00
         0.00000E+00
         0.00000E+00
         0.00000E+00
         0.00000E+00
         0.00000E+00
         0.00000E+00
         0.00000E+00
         0.00000E+00
         0.00000E+00
         0.00000E+00
         0.00000E+00
         0.00000E+00
         0.00000E+00
         0.00000E+00
         0.00000E+00
         0.00000E+00
         0.00000E+00
         0.00000E+00
         0.00000E+00
         0.00000E+00
         0.00000E+00
         0.00000E+00
         0.00000E+00
         0.00000E+00
         0.00000E+00
         0.00000E+00
         0.00000E+00
         0.00000E+00
         0.00000E+00
         0.00000E+00
         0.00000E+00
         0.00000E+00
         0.00000E+00
         0.00000E+00
         0.00000E+00
         0.00000E+00
         0.00000E+00
         0.00000E+00
         0.00000E+00
         0.00000E+00
         0.00000E+00
         0.00000E+00
         0.00000E+00
         0.00000E+00
         0.00000E+00
         0.00000E+00
         0.00000E+00
         0.00000E+00
         0.00000E+00
         0.00000E+00
         0.00000E+00
         0.00000E+00
         0.00000E+00
         0.00000E+00
         0.00000E+00
         0.00000E+00
         0.00000E+00
         0.00000E+00
         0.00000E+00
         0.00000E+00
         0.00000E+00
         0.00000E+00
         0.00000E+00
         0.00000E+00
         0.00000E+00
         0.00000E+00
         0.00000E+00
         0.00000E+00
         0.00000E+00
         0.00000E+00
         0.00000E+00
         0.00000E+00
         0.00000E+00
         0.00000E+00
         0.00000E+00
         0.00000E+00
         0.00000E+00
         0.00000E+00
         0.00000E+00
         0.00000E+00
         0.00000E+00
         0.00000E+00
         0.00000E+00
         0.00000E+00
         0.00000E+00
         0.00000E+00
         0.00000E+00
         0.00000E+00
         0.00000E+00
         0.00000E+00
         0.00000E+00
         0.00000E+00
         0.00000E+00
         0.00000E+00
         0.00000E+00
         0.00000E+00
         0.00000E+00
         0.00000E+00
         0.00000E+00
         0.00000E+00
         0.00000E+00
         0.00000E+00
         0.00000E+00
         0.00000E+00
         0.00000E+00
         0.00000E+00
         0.00000E+00
         0.00000E+00
         0.00000E+00
         0.00000E+00
         0.00000E+00
         0.00000E+00
         0.00000E+00
         0.00000E+00
         0.00000E+00
         0.00000E+00
         0.00000E+00
         0.00000E+00
         0.00000E+00
         0.00000E+00
         0.00000E+00
         0.00000E+00
         0.00000E+00
         0.00000E+00
         0.00000E+00
         0.00000E+00
         0.00000E+00
         0.00000E+00
         0.00000E+00
         0.00000E+00
         0.00000E+00
         0.00000E+00
         0.00000E+00
         0.00000E+00
         0.00000E+00
         0.00000E+00
         0.00000E+00
         0.00000E+00
         0.00000E+00
         0.00000E+00
         0.00000E+00
         0.00000E+00
         0.00000E+00
         0.00000E+00
         0.00000E+00
         0.00000E+00
         0.00000E+00
         0.00000E+00
         0.00000E+00
         0.00000E+00
         0.00000E+00
         0.00000E+00
         0.00000E+00
         0.00000E+00
         0.00000E+00
         0.00000E+00
         0.00000E+00
         0.00000E+00
         0.00000E+00
         0.00000E+00
         0.00000E+00
         0.00000E+00
         0.00000E+00
         0.00000E+00
         0.00000E+00
         0.00000E+00
         0.00000E+00
         0.00000E+00
         0.00000E+00
         0.00000E+00
         0.00000E+00
         0.00000E+00
         0.00000E+00
         0.00000E+00
         0.00000E+00
         0.00000E+00
         0.00000E+00
         0.00000E+00
         0.00000E+00
         0.00000E+00
         0.00000E+00
         0.00000E+00
         0.00000E+00
         0.00000E+00
         0.00000E+00
         0.00000E+00
         0.00000E+00
         0.00000E+00
         0.00000E+00
         0.00000E+00
         0.00000E+00
         0.00000E+00
         0.00000E+00
         0.00000E+00
         0.00000E+00
         0.00000E+00
         0.00000E+00
         0.00000E+00
         0.00000E+00
         0.00000E+00
         0.00000E+00
         0.00000E+00
         0.00000E+00
         0.00000E+00
         0.00000E+00
         0.00000E+00
         0.00000E+00
         0.00000E+00
         0.00000E+00
         0.00000E+00
         0.00000E+00
         0.00000E+00
         0.00000E+00
         0.00000E+00
         0.00000E+00
         0.00000E+00
         0.00000E+00
         0.00000E+00
         0.00000E+00
         0.00000E+00
         0.00000E+00
         0.00000E+00
         0.00000E+00
         0.00000E+00
         0.00000E+00
         0.00000E+00
         0.00000E+00
         0.00000E+00
         0.00000E+00
         0.00000E+00
         0.00000E+00
         0.00000E+00
         0.00000E+00
         0.00000E+00
         0.00000E+00
         0.00000E+00
         0.00000E+00
         0.00000E+00
         0.00000E+00
         0.00000E+00
         0.00000E+00
         0.00000E+00
         0.00000E+00
         0.00000E+00
         0.00000E+00
         0.00000E+00
         0.00000E+00
         0.00000E+00
         0.00000E+00
         0.00000E+00
         0.00000E+00
         0.00000E+00
         0.00000E+00
         0.00000E+00
         0.00000E+00
         0.00000E+00
         0.00000E+00
         0.00000E+00
         0.00000E+00
         0.00000E+00
         0.00000E+00
         0.00000E+00
         0.00000E+00
         0.00000E+00
         0.00000E+00
         0.00000E+00
         0.00000E+00
         0.00000E+00
         0.00000E+00
         0.00000E+00
         0.00000E+00
         0.00000E+00
         0.00000E+00
         0.00000E+00
         0.00000E+00
         0.00000E+00
         0.00000E+00
         0.00000E+00
         0.00000E+00
         0.00000E+00
         0.00000E+00
         0.00000E+00
         0.00000E+00
         0.00000E+00
         0.00000E+00
         0.00000E+00
         0.00000E+00
         0.00000E+00
         0.00000E+00
         0.00000E+00
         0.00000E+00
         0.00000E+00
         0.00000E+00
         0.00000E+00
         0.00000E+00
         0.00000E+00
         0.00000E+00
         0.00000E+00
         0.00000E+00
         0.00000E+00
         0.00000E+00
         0.00000E+00
         0.00000E+00
         0.00000E+00
         0.00000E+00
         0.00000E+00
         0.00000E+00
         0.00000E+00
         0.00000E+00
         0.00000E+00
         0.00000E+00
         0.00000E+00
         0.00000E+00
         0.00000E+00
         0.00000E+00
         0.00000E+00
         0.00000E+00
         0.00000E+00
         0.00000E+00
         0.00000E+00
         0.00000E+00
         0.00000E+00
         0.00000E+00
         0.00000E+00
         0.00000E+00
         0.00000E+00
         0.00000E+00
         0.00000E+00
         0.00000E+00
         0.00000E+00
         0.00000E+00
         0.00000E+00
         0.00000E+00
         0.00000E+00
         0.00000E+00
         0.00000E+00
         0.00000E+00
         0.00000E+00
         0.00000E+00
         0.00000E+00
         0.00000E+00
         0.00000E+00
         0.00000E+00
         0.00000E+00
         0.00000E+00
         0.00000E+00
         0.00000E+00
         0.00000E+00
         0.00000E+00
         0.00000E+00
         0.00000E+00
         0.00000E+00
         0.00000E+00
         0.00000E+00
         0.00000E+00
         0.00000E+00
         0.00000E+00
         0.00000E+00
         0.00000E+00
         0.00000E+00
         0.00000E+00
         0.00000E+00
         0.00000E+00
         0.00000E+00
         0.00000E+00
         0.00000E+00
         0.00000E+00
         0.00000E+00
         0.00000E+00
         0.00000E+00
         0.00000E+00
         0.00000E+00
         0.00000E+00
         0.00000E+00
         0.00000E+00
         0.00000E+00
         0.00000E+00
         0.00000E+00
         0.00000E+00
         0.00000E+00
         0.00000E+00
         0.00000E+00
         0.00000E+00
         0.00000E+00
         0.00000E+00
         0.00000E+00
         0.00000E+00
         0.00000E+00
         0.00000E+00
         0.00000E+00
         0.00000E+00
         0.00000E+00
         0.00000E+00
         0.00000E+00
         0.00000E+00
         0.00000E+00
         0.00000E+00
         0.00000E+00
         0.00000E+00
         0.00000E+00
         0.00000E+00
         0.00000E+00
         0.00000E+00
         0.00000E+00
         0.00000E+00
         0.00000E+00
         0.00000E+00
         0.00000E+00
         0.00000E+00
         0.00000E+00
         0.00000E+00
         0.00000E+00
         0.00000E+00
         0.00000E+00
         0.00000E+00
         0.00000E+00
         0.00000E+00
         0.00000E+00
         0.00000E+00
         0.00000E+00
         0.00000E+00
         0.00000E+00
         0.00000E+00
         0.00000E+00
         0.00000E+00
         0.00000E+00
         0.00000E+00
         0.00000E+00
         0.00000E+00
         0.00000E+00
         0.00000E+00
         0.00000E+00
  
SCALARS                         fint_x  double 1
LOOKUP_TABLE default
         0.00000E+00
         0.00000E+00
         0.00000E+00
         0.00000E+00
         0.00000E+00
         0.00000E+00
         0.00000E+00
         0.00000E+00
         0.00000E+00
         0.00000E+00
         0.00000E+00
         0.00000E+00
         0.00000E+00
         0.00000E+00
         0.00000E+00
         0.00000E+00
         0.00000E+00
         0.00000E+00
         0.00000E+00
         0.00000E+00
         0.00000E+00
         0.00000E+00
         0.00000E+00
         0.00000E+00
         0.00000E+00
         0.00000E+00
         0.00000E+00
         0.00000E+00
         0.00000E+00
         0.00000E+00
         0.00000E+00
         0.00000E+00
         0.00000E+00
         0.00000E+00
         0.00000E+00
         0.00000E+00
         0.00000E+00
         0.00000E+00
         0.00000E+00
         0.00000E+00
         0.00000E+00
         0.00000E+00
         0.00000E+00
         0.00000E+00
         0.00000E+00
         0.00000E+00
         0.00000E+00
         0.00000E+00
         0.00000E+00
         0.00000E+00
         0.00000E+00
         0.00000E+00
         0.00000E+00
         0.00000E+00
         0.00000E+00
         0.00000E+00
         0.00000E+00
         0.00000E+00
         0.00000E+00
         0.00000E+00
         0.00000E+00
         0.00000E+00
         0.00000E+00
         0.00000E+00
         0.00000E+00
         0.00000E+00
         0.00000E+00
         0.00000E+00
         0.00000E+00
         0.00000E+00
         0.00000E+00
         0.00000E+00
         0.00000E+00
         0.00000E+00
         0.00000E+00
         0.00000E+00
         0.00000E+00
         0.00000E+00
         0.00000E+00
         0.00000E+00
         0.00000E+00
         0.00000E+00
         0.00000E+00
         0.00000E+00
         0.00000E+00
         0.00000E+00
         0.00000E+00
         0.00000E+00
         0.00000E+00
         0.00000E+00
         0.00000E+00
         0.00000E+00
         0.00000E+00
         0.00000E+00
         0.00000E+00
         0.00000E+00
         0.00000E+00
         0.00000E+00
         0.00000E+00
         0.00000E+00
         0.00000E+00
         0.00000E+00
         0.00000E+00
         0.00000E+00
         0.00000E+00
         0.00000E+00
         0.00000E+00
         0.00000E+00
         0.00000E+00
         0.00000E+00
         0.00000E+00
         0.00000E+00
         0.00000E+00
         0.00000E+00
         0.00000E+00
         0.00000E+00
         0.00000E+00
         0.00000E+00
         0.00000E+00
         0.00000E+00
         0.00000E+00
         0.00000E+00
         0.00000E+00
         0.00000E+00
         0.00000E+00
         0.00000E+00
         0.00000E+00
         0.00000E+00
         0.00000E+00
         0.00000E+00
         0.00000E+00
         0.00000E+00
         0.00000E+00
         0.00000E+00
         0.00000E+00
         0.00000E+00
         0.00000E+00
         0.00000E+00
         0.00000E+00
         0.00000E+00
         0.00000E+00
         0.00000E+00
         0.00000E+00
         0.00000E+00
         0.00000E+00
         0.00000E+00
         0.00000E+00
         0.00000E+00
         0.00000E+00
         0.00000E+00
         0.00000E+00
         0.00000E+00
         0.00000E+00
         0.00000E+00
         0.00000E+00
         0.00000E+00
         0.00000E+00
         0.00000E+00
         0.00000E+00
         0.00000E+00
         0.00000E+00
         0.00000E+00
         0.00000E+00
         0.00000E+00
         0.00000E+00
         0.00000E+00
         0.00000E+00
         0.00000E+00
         0.00000E+00
         0.00000E+00
         0.00000E+00
         0.00000E+00
         0.00000E+00
         0.00000E+00
         0.00000E+00
         0.00000E+00
         0.00000E+00
         0.00000E+00
         0.00000E+00
         0.00000E+00
         0.00000E+00
         0.00000E+00
         0.00000E+00
         0.00000E+00
         0.00000E+00
         0.00000E+00
         0.00000E+00
         0.00000E+00
         0.00000E+00
         0.00000E+00
         0.00000E+00
         0.00000E+00
         0.00000E+00
         0.00000E+00
         0.00000E+00
         0.00000E+00
         0.00000E+00
         0.00000E+00
         0.00000E+00
         0.00000E+00
         0.00000E+00
         0.00000E+00
         0.00000E+00
         0.00000E+00
         0.00000E+00
         0.00000E+00
         0.00000E+00
         0.00000E+00
         0.00000E+00
         0.00000E+00
         0.00000E+00
         0.00000E+00
         0.00000E+00
         0.00000E+00
         0.00000E+00
         0.00000E+00
         0.00000E+00
         0.00000E+00
         0.00000E+00
         0.00000E+00
         0.00000E+00
         0.00000E+00
         0.00000E+00
         0.00000E+00
         0.00000E+00
         0.00000E+00
         0.00000E+00
         0.00000E+00
         0.00000E+00
         0.00000E+00
         0.00000E+00
         0.00000E+00
         0.00000E+00
         0.00000E+00
         0.00000E+00
         0.00000E+00
         0.00000E+00
         0.00000E+00
         0.00000E+00
         0.00000E+00
         0.00000E+00
         0.00000E+00
         0.00000E+00
         0.00000E+00
         0.00000E+00
         0.00000E+00
         0.00000E+00
         0.00000E+00
         0.00000E+00
         0.00000E+00
         0.00000E+00
         0.00000E+00
         0.00000E+00
         0.00000E+00
         0.00000E+00
         0.00000E+00
         0.00000E+00
         0.00000E+00
         0.00000E+00
         0.00000E+00
         0.00000E+00
         0.00000E+00
         0.00000E+00
         0.00000E+00
         0.00000E+00
         0.00000E+00
         0.00000E+00
         0.00000E+00
         0.00000E+00
         0.00000E+00
         0.00000E+00
         0.00000E+00
         0.00000E+00
         0.00000E+00
         0.00000E+00
         0.00000E+00
         0.00000E+00
         0.00000E+00
         0.00000E+00
         0.00000E+00
         0.00000E+00
         0.00000E+00
         0.00000E+00
         0.00000E+00
         0.00000E+00
         0.00000E+00
         0.00000E+00
         0.00000E+00
         0.00000E+00
         0.00000E+00
         0.00000E+00
         0.00000E+00
         0.00000E+00
         0.00000E+00
         0.00000E+00
         0.00000E+00
         0.00000E+00
         0.00000E+00
         0.00000E+00
         0.00000E+00
         0.00000E+00
         0.00000E+00
         0.00000E+00
         0.00000E+00
         0.00000E+00
         0.00000E+00
         0.00000E+00
         0.00000E+00
         0.00000E+00
         0.00000E+00
         0.00000E+00
         0.00000E+00
         0.00000E+00
         0.00000E+00
         0.00000E+00
         0.00000E+00
         0.00000E+00
         0.00000E+00
         0.00000E+00
         0.00000E+00
         0.00000E+00
         0.00000E+00
         0.00000E+00
         0.00000E+00
         0.00000E+00
         0.00000E+00
         0.00000E+00
         0.00000E+00
         0.00000E+00
         0.00000E+00
         0.00000E+00
         0.00000E+00
         0.00000E+00
         0.00000E+00
         0.00000E+00
         0.00000E+00
         0.00000E+00
         0.00000E+00
         0.00000E+00
         0.00000E+00
         0.00000E+00
         0.00000E+00
         0.00000E+00
         0.00000E+00
         0.00000E+00
         0.00000E+00
         0.00000E+00
         0.00000E+00
         0.00000E+00
         0.00000E+00
         0.00000E+00
         0.00000E+00
         0.00000E+00
         0.00000E+00
         0.00000E+00
         0.00000E+00
         0.00000E+00
         0.00000E+00
         0.00000E+00
         0.00000E+00
         0.00000E+00
         0.00000E+00
         0.00000E+00
         0.00000E+00
         0.00000E+00
         0.00000E+00
         0.00000E+00
         0.00000E+00
         0.00000E+00
         0.00000E+00
         0.00000E+00
         0.00000E+00
         0.00000E+00
         0.00000E+00
         0.00000E+00
         0.00000E+00
         0.00000E+00
         0.00000E+00
         0.00000E+00
         0.00000E+00
         0.00000E+00
         0.00000E+00
         0.00000E+00
         0.00000E+00
         0.00000E+00
         0.00000E+00
         0.00000E+00
         0.00000E+00
         0.00000E+00
         0.00000E+00
         0.00000E+00
         0.00000E+00
         0.00000E+00
         0.00000E+00
         0.00000E+00
         0.00000E+00
         0.00000E+00
         0.00000E+00
         0.00000E+00
         0.00000E+00
         0.00000E+00
         0.00000E+00
         0.00000E+00
         0.00000E+00
         0.00000E+00
         0.00000E+00
         0.00000E+00
         0.00000E+00
         0.00000E+00
         0.00000E+00
         0.00000E+00
         0.00000E+00
         0.00000E+00
         0.00000E+00
         0.00000E+00
         0.00000E+00
         0.00000E+00
         0.00000E+00
         0.00000E+00
         0.00000E+00
         0.00000E+00
         0.00000E+00
         0.00000E+00
         0.00000E+00
         0.00000E+00
         0.00000E+00
         0.00000E+00
         0.00000E+00
         0.00000E+00
         0.00000E+00
         0.00000E+00
         0.00000E+00
         0.00000E+00
         0.00000E+00
         0.00000E+00
         0.00000E+00
         0.00000E+00
         0.00000E+00
         0.00000E+00
         0.00000E+00
         0.00000E+00
         0.00000E+00
         0.00000E+00
         0.00000E+00
         0.00000E+00
         0.00000E+00
         0.00000E+00
         0.00000E+00
         0.00000E+00
         0.00000E+00
         0.00000E+00
         0.00000E+00
         0.00000E+00
         0.00000E+00
         0.00000E+00
         0.00000E+00
         0.00000E+00
         0.00000E+00
         0.00000E+00
         0.00000E+00
         0.00000E+00
         0.00000E+00
         0.00000E+00
         0.00000E+00
         0.00000E+00
         0.00000E+00
         0.00000E+00
         0.00000E+00
         0.00000E+00
         0.00000E+00
         0.00000E+00
         0.00000E+00
         0.00000E+00
         0.00000E+00
         0.00000E+00
         0.00000E+00
         0.00000E+00
         0.00000E+00
         0.00000E+00
         0.00000E+00
         0.00000E+00
         0.00000E+00
         0.00000E+00
         0.00000E+00
         0.00000E+00
         0.00000E+00
         0.00000E+00
         0.00000E+00
         0.00000E+00
         0.00000E+00
         0.00000E+00
         0.00000E+00
         0.00000E+00
         0.00000E+00
         0.00000E+00
         0.00000E+00
         0.00000E+00
         0.00000E+00
         0.00000E+00
         0.00000E+00
         0.00000E+00
         0.00000E+00
         0.00000E+00
         0.00000E+00
         0.00000E+00
         0.00000E+00
         0.00000E+00
         0.00000E+00
         0.00000E+00
         0.00000E+00
         0.00000E+00
         0.00000E+00
         0.00000E+00
         0.00000E+00
         0.00000E+00
         0.00000E+00
         0.00000E+00
         0.00000E+00
         0.00000E+00
         0.00000E+00
         0.00000E+00
         0.00000E+00
         0.00000E+00
         0.00000E+00
         0.00000E+00
         0.00000E+00
         0.00000E+00
         0.00000E+00
         0.00000E+00
         0.00000E+00
         0.00000E+00
         0.00000E+00
         0.00000E+00
         0.00000E+00
         0.00000E+00
         0.00000E+00
         0.00000E+00
         0.00000E+00
         0.00000E+00
         0.00000E+00
         0.00000E+00
         0.00000E+00
         0.00000E+00
         0.00000E+00
         0.00000E+00
         0.00000E+00
         0.00000E+00
         0.00000E+00
         0.00000E+00
         0.00000E+00
         0.00000E+00
         0.00000E+00
         0.00000E+00
         0.00000E+00
         0.00000E+00
         0.00000E+00
         0.00000E+00
         0.00000E+00
         0.00000E+00
         0.00000E+00
         0.00000E+00
         0.00000E+00
         0.00000E+00
         0.00000E+00
         0.00000E+00
         0.00000E+00
         0.00000E+00
         0.00000E+00
         0.00000E+00
         0.00000E+00
         0.00000E+00
         0.00000E+00
         0.00000E+00
         0.00000E+00
         0.00000E+00
         0.00000E+00
         0.00000E+00
         0.00000E+00
         0.00000E+00
         0.00000E+00
         0.00000E+00
         0.00000E+00
         0.00000E+00
         0.00000E+00
         0.00000E+00
         0.00000E+00
         0.00000E+00
         0.00000E+00
         0.00000E+00
         0.00000E+00
         0.00000E+00
         0.00000E+00
         0.00000E+00
         0.00000E+00
         0.00000E+00
         0.00000E+00
         0.00000E+00
         0.00000E+00
         0.00000E+00
         0.00000E+00
         0.00000E+00
         0.00000E+00
         0.00000E+00
         0.00000E+00
         0.00000E+00
         0.00000E+00
         0.00000E+00
         0.00000E+00
         0.00000E+00
         0.00000E+00
         0.00000E+00
         0.00000E+00
         0.00000E+00
         0.00000E+00
         0.00000E+00
         0.00000E+00
         0.00000E+00
         0.00000E+00
         0.00000E+00
         0.00000E+00
         0.00000E+00
         0.00000E+00
         0.00000E+00
         0.00000E+00
         0.00000E+00
         0.00000E+00
         0.00000E+00
         0.00000E+00
         0.00000E+00
         0.00000E+00
         0.00000E+00
         0.00000E+00
         0.00000E+00
         0.00000E+00
         0.00000E+00
         0.00000E+00
         0.00000E+00
         0.00000E+00
         0.00000E+00
         0.00000E+00
         0.00000E+00
         0.00000E+00
         0.00000E+00
         0.00000E+00
         0.00000E+00
         0.00000E+00
         0.00000E+00
         0.00000E+00
         0.00000E+00
         0.00000E+00
         0.00000E+00
         0.00000E+00
         0.00000E+00
         0.00000E+00
         0.00000E+00
         0.00000E+00
         0.00000E+00
         0.00000E+00
         0.00000E+00
         0.00000E+00
         0.00000E+00
         0.00000E+00
         0.00000E+00
         0.00000E+00
         0.00000E+00
         0.00000E+00
         0.00000E+00
         0.00000E+00
         0.00000E+00
         0.00000E+00
         0.00000E+00
         0.00000E+00
         0.00000E+00
         0.00000E+00
         0.00000E+00
         0.00000E+00
         0.00000E+00
         0.00000E+00
         0.00000E+00
         0.00000E+00
         0.00000E+00
         0.00000E+00
         0.00000E+00
         0.00000E+00
         0.00000E+00
         0.00000E+00
         0.00000E+00
         0.00000E+00
         0.00000E+00
         0.00000E+00
         0.00000E+00
         0.00000E+00
         0.00000E+00
         0.00000E+00
         0.00000E+00
         0.00000E+00
         0.00000E+00
         0.00000E+00
         0.00000E+00
         0.00000E+00
         0.00000E+00
         0.00000E+00
         0.00000E+00
         0.00000E+00
         0.00000E+00
         0.00000E+00
         0.00000E+00
         0.00000E+00
         0.00000E+00
         0.00000E+00
         0.00000E+00
         0.00000E+00
         0.00000E+00
         0.00000E+00
         0.00000E+00
         0.00000E+00
         0.00000E+00
         0.00000E+00
         0.00000E+00
         0.00000E+00
         0.00000E+00
         0.00000E+00
         0.00000E+00
         0.00000E+00
         0.00000E+00
         0.00000E+00
         0.00000E+00
         0.00000E+00
         0.00000E+00
         0.00000E+00
         0.00000E+00
         0.00000E+00
         0.00000E+00
         0.00000E+00
         0.00000E+00
         0.00000E+00
         0.00000E+00
         0.00000E+00
         0.00000E+00
         0.00000E+00
         0.00000E+00
         0.00000E+00
         0.00000E+00
         0.00000E+00
         0.00000E+00
         0.00000E+00
         0.00000E+00
         0.00000E+00
         0.00000E+00
         0.00000E+00
         0.00000E+00
         0.00000E+00
         0.00000E+00
         0.00000E+00
         0.00000E+00
         0.00000E+00
         0.00000E+00
         0.00000E+00
         0.00000E+00
         0.00000E+00
         0.00000E+00
         0.00000E+00
         0.00000E+00
         0.00000E+00
         0.00000E+00
         0.00000E+00
         0.00000E+00
         0.00000E+00
         0.00000E+00
         0.00000E+00
         0.00000E+00
         0.00000E+00
         0.00000E+00
         0.00000E+00
         0.00000E+00
         0.00000E+00
         0.00000E+00
         0.00000E+00
         0.00000E+00
         0.00000E+00
         0.00000E+00
         0.00000E+00
         0.00000E+00
         0.00000E+00
         0.00000E+00
         0.00000E+00
         0.00000E+00
         0.00000E+00
         0.00000E+00
         0.00000E+00
         0.00000E+00
         0.00000E+00
         0.00000E+00
         0.00000E+00
         0.00000E+00
         0.00000E+00
         0.00000E+00
         0.00000E+00
         0.00000E+00
         0.00000E+00
         0.00000E+00
         0.00000E+00
         0.00000E+00
         0.00000E+00
         0.00000E+00
         0.00000E+00
         0.00000E+00
         0.00000E+00
         0.00000E+00
         0.00000E+00
         0.00000E+00
         0.00000E+00
         0.00000E+00
         0.00000E+00
         0.00000E+00
         0.00000E+00
         0.00000E+00
         0.00000E+00
         0.00000E+00
         0.00000E+00
         0.00000E+00
         0.00000E+00
         0.00000E+00
         0.00000E+00
         0.00000E+00
         0.00000E+00
         0.00000E+00
         0.00000E+00
         0.00000E+00
         0.00000E+00
         0.00000E+00
         0.00000E+00
         0.00000E+00
         0.00000E+00
         0.00000E+00
         0.00000E+00
         0.00000E+00
         0.00000E+00
         0.00000E+00
         0.00000E+00
         0.00000E+00
         0.00000E+00
         0.00000E+00
         0.00000E+00
         0.00000E+00
         0.00000E+00
         0.00000E+00
         0.00000E+00
         0.00000E+00
         0.00000E+00
         0.00000E+00
         0.00000E+00
         0.00000E+00
         0.00000E+00
         0.00000E+00
         0.00000E+00
         0.00000E+00
         0.00000E+00
         0.00000E+00
         0.00000E+00
         0.00000E+00
         0.00000E+00
         0.00000E+00
         0.00000E+00
         0.00000E+00
         0.00000E+00
         0.00000E+00
         0.00000E+00
         0.00000E+00
         0.00000E+00
         0.00000E+00
         0.00000E+00
         0.00000E+00
         0.00000E+00
         0.00000E+00
         0.00000E+00
         0.00000E+00
         0.00000E+00
         0.00000E+00
         0.00000E+00
         0.00000E+00
         0.00000E+00
         0.00000E+00
         0.00000E+00
         0.00000E+00
         0.00000E+00
         0.00000E+00
         0.00000E+00
         0.00000E+00
         0.00000E+00
         0.00000E+00
         0.00000E+00
         0.00000E+00
         0.00000E+00
         0.00000E+00
         0.00000E+00
         0.00000E+00
         0.00000E+00
         0.00000E+00
         0.00000E+00
         0.00000E+00
         0.00000E+00
         0.00000E+00
         0.00000E+00
         0.00000E+00
         0.00000E+00
         0.00000E+00
         0.00000E+00
         0.00000E+00
         0.00000E+00
         0.00000E+00
         0.00000E+00
         0.00000E+00
         0.00000E+00
         0.00000E+00
         0.00000E+00
         0.00000E+00
         0.00000E+00
         0.00000E+00
         0.00000E+00
         0.00000E+00
         0.00000E+00
         0.00000E+00
         0.00000E+00
         0.00000E+00
         0.00000E+00
         0.00000E+00
         0.00000E+00
         0.00000E+00
         0.00000E+00
         0.00000E+00
         0.00000E+00
         0.00000E+00
         0.00000E+00
         0.00000E+00
         0.00000E+00
         0.00000E+00
         0.00000E+00
         0.00000E+00
         0.00000E+00
         0.00000E+00
         0.00000E+00
         0.00000E+00
         0.00000E+00
         0.00000E+00
         0.00000E+00
         0.00000E+00
         0.00000E+00
         0.00000E+00
         0.00000E+00
         0.00000E+00
         0.00000E+00
         0.00000E+00
         0.00000E+00
         0.00000E+00
         0.00000E+00
         0.00000E+00
         0.00000E+00
         0.00000E+00
         0.00000E+00
         0.00000E+00
         0.00000E+00
         0.00000E+00
         0.00000E+00
         0.00000E+00
         0.00000E+00
         0.00000E+00
         0.00000E+00
         0.00000E+00
         0.00000E+00
         0.00000E+00
         0.00000E+00
         0.00000E+00
         0.00000E+00
         0.00000E+00
         0.00000E+00
         0.00000E+00
         0.00000E+00
         0.00000E+00
         0.00000E+00
         0.00000E+00
         0.00000E+00
         0.00000E+00
         0.00000E+00
         0.00000E+00
         0.00000E+00
         0.00000E+00
         0.00000E+00
         0.00000E+00
         0.00000E+00
         0.00000E+00
         0.00000E+00
         0.00000E+00
         0.00000E+00
         0.00000E+00
         0.00000E+00
         0.00000E+00
         0.00000E+00
         0.00000E+00
         0.00000E+00
         0.00000E+00
         0.00000E+00
         0.00000E+00
         0.00000E+00
         0.00000E+00
         0.00000E+00
         0.00000E+00
         0.00000E+00
         0.00000E+00
         0.00000E+00
         0.00000E+00
         0.00000E+00
         0.00000E+00
         0.00000E+00
         0.00000E+00
         0.00000E+00
         0.00000E+00
         0.00000E+00
         0.00000E+00
         0.00000E+00
         0.00000E+00
         0.00000E+00
         0.00000E+00
         0.00000E+00
         0.00000E+00
         0.00000E+00
         0.00000E+00
         0.00000E+00
         0.00000E+00
         0.00000E+00
         0.00000E+00
         0.00000E+00
         0.00000E+00
         0.00000E+00
         0.00000E+00
         0.00000E+00
         0.00000E+00
         0.00000E+00
         0.00000E+00
         0.00000E+00
         0.00000E+00
         0.00000E+00
         0.00000E+00
         0.00000E+00
         0.00000E+00
         0.00000E+00
         0.00000E+00
         0.00000E+00
         0.00000E+00
         0.00000E+00
         0.00000E+00
         0.00000E+00
         0.00000E+00
         0.00000E+00
         0.00000E+00
         0.00000E+00
         0.00000E+00
         0.00000E+00
         0.00000E+00
         0.00000E+00
         0.00000E+00
         0.00000E+00
         0.00000E+00
         0.00000E+00
         0.00000E+00
         0.00000E+00
         0.00000E+00
         0.00000E+00
         0.00000E+00
         0.00000E+00
         0.00000E+00
         0.00000E+00
         0.00000E+00
         0.00000E+00
         0.00000E+00
         0.00000E+00
         0.00000E+00
         0.00000E+00
         0.00000E+00
         0.00000E+00
         0.00000E+00
         0.00000E+00
         0.00000E+00
         0.00000E+00
         0.00000E+00
         0.00000E+00
         0.00000E+00
         0.00000E+00
         0.00000E+00
         0.00000E+00
         0.00000E+00
         0.00000E+00
         0.00000E+00
         0.00000E+00
         0.00000E+00
         0.00000E+00
         0.00000E+00
         0.00000E+00
         0.00000E+00
         0.00000E+00
         0.00000E+00
         0.00000E+00
         0.00000E+00
         0.00000E+00
         0.00000E+00
         0.00000E+00
         0.00000E+00
         0.00000E+00
         0.00000E+00
         0.00000E+00
         0.00000E+00
         0.00000E+00
         0.00000E+00
         0.00000E+00
         0.00000E+00
         0.00000E+00
         0.00000E+00
         0.00000E+00
         0.00000E+00
         0.00000E+00
         0.00000E+00
         0.00000E+00
         0.00000E+00
         0.00000E+00
         0.00000E+00
         0.00000E+00
         0.00000E+00
         0.00000E+00
         0.00000E+00
         0.00000E+00
         0.00000E+00
         0.00000E+00
         0.00000E+00
         0.00000E+00
         0.00000E+00
         0.00000E+00
         0.00000E+00
         0.00000E+00
         0.00000E+00
         0.00000E+00
         0.00000E+00
         0.00000E+00
         0.00000E+00
         0.00000E+00
         0.00000E+00
         0.00000E+00
         0.00000E+00
         0.00000E+00
         0.00000E+00
         0.00000E+00
         0.00000E+00
         0.00000E+00
         0.00000E+00
         0.00000E+00
         0.00000E+00
         0.00000E+00
         0.00000E+00
         0.00000E+00
         0.00000E+00
         0.00000E+00
         0.00000E+00
         0.00000E+00
         0.00000E+00
         0.00000E+00
         0.00000E+00
         0.00000E+00
         0.00000E+00
         0.00000E+00
         0.00000E+00
         0.00000E+00
         0.00000E+00
         0.00000E+00
         0.00000E+00
         0.00000E+00
         0.00000E+00
         0.00000E+00
         0.00000E+00
         0.00000E+00
         0.00000E+00
         0.00000E+00
         0.00000E+00
         0.00000E+00
         0.00000E+00
         0.00000E+00
         0.00000E+00
         0.00000E+00
         0.00000E+00
         0.00000E+00
         0.00000E+00
         0.00000E+00
         0.00000E+00
         0.00000E+00
         0.00000E+00
         0.00000E+00
         0.00000E+00
         0.00000E+00
         0.00000E+00
         0.00000E+00
         0.00000E+00
         0.00000E+00
         0.00000E+00
         0.00000E+00
         0.00000E+00
         0.00000E+00
         0.00000E+00
         0.00000E+00
         0.00000E+00
         0.00000E+00
         0.00000E+00
         0.00000E+00
         0.00000E+00
         0.00000E+00
         0.00000E+00
         0.00000E+00
         0.00000E+00
         0.00000E+00
         0.00000E+00
         0.00000E+00
         0.00000E+00
         0.00000E+00
         0.00000E+00
         0.00000E+00
         0.00000E+00
         0.00000E+00
         0.00000E+00
         0.00000E+00
         0.00000E+00
         0.00000E+00
         0.00000E+00
         0.00000E+00
         0.00000E+00
         0.00000E+00
         0.00000E+00
         0.00000E+00
         0.00000E+00
         0.00000E+00
         0.00000E+00
         0.00000E+00
         0.00000E+00
         0.00000E+00
         0.00000E+00
         0.00000E+00
         0.00000E+00
         0.00000E+00
         0.00000E+00
         0.00000E+00
         0.00000E+00
         0.00000E+00
         0.00000E+00
         0.00000E+00
         0.00000E+00
         0.00000E+00
         0.00000E+00
         0.00000E+00
         0.00000E+00
         0.00000E+00
         0.00000E+00
         0.00000E+00
         0.00000E+00
         0.00000E+00
         0.00000E+00
         0.00000E+00
         0.00000E+00
         0.00000E+00
         0.00000E+00
         0.00000E+00
         0.00000E+00
         0.00000E+00
         0.00000E+00
         0.00000E+00
         0.00000E+00
         0.00000E+00
         0.00000E+00
         0.00000E+00
         0.00000E+00
         0.00000E+00
         0.00000E+00
         0.00000E+00
         0.00000E+00
         0.00000E+00
         0.00000E+00
         0.00000E+00
         0.00000E+00
         0.00000E+00
         0.00000E+00
         0.00000E+00
         0.00000E+00
         0.00000E+00
         0.00000E+00
         0.00000E+00
         0.00000E+00
         0.00000E+00
         0.00000E+00
         0.00000E+00
         0.00000E+00
         0.00000E+00
         0.00000E+00
         0.00000E+00
         0.00000E+00
         0.00000E+00
         0.00000E+00
         0.00000E+00
         0.00000E+00
         0.00000E+00
         0.00000E+00
         0.00000E+00
         0.00000E+00
         0.00000E+00
         0.00000E+00
         0.00000E+00
         0.00000E+00
         0.00000E+00
         0.00000E+00
         0.00000E+00
         0.00000E+00
         0.00000E+00
         0.00000E+00
         0.00000E+00
         0.00000E+00
         0.00000E+00
         0.00000E+00
         0.00000E+00
         0.00000E+00
         0.00000E+00
         0.00000E+00
         0.00000E+00
         0.00000E+00
         0.00000E+00
         0.00000E+00
         0.00000E+00
         0.00000E+00
         0.00000E+00
         0.00000E+00
         0.00000E+00
         0.00000E+00
         0.00000E+00
         0.00000E+00
         0.00000E+00
         0.00000E+00
         0.00000E+00
         0.00000E+00
         0.00000E+00
         0.00000E+00
         0.00000E+00
         0.00000E+00
         0.00000E+00
         0.00000E+00
         0.00000E+00
         0.00000E+00
         0.00000E+00
         0.00000E+00
         0.00000E+00
         0.00000E+00
         0.00000E+00
         0.00000E+00
         0.00000E+00
         0.00000E+00
         0.00000E+00
         0.00000E+00
         0.00000E+00
         0.00000E+00
         0.00000E+00
         0.00000E+00
         0.00000E+00
         0.00000E+00
         0.00000E+00
         0.00000E+00
         0.00000E+00
         0.00000E+00
         0.00000E+00
         0.00000E+00
         0.00000E+00
         0.00000E+00
         0.00000E+00
         0.00000E+00
         0.00000E+00
         0.00000E+00
         0.00000E+00
         0.00000E+00
         0.00000E+00
         0.00000E+00
         0.00000E+00
         0.00000E+00
         0.00000E+00
         0.00000E+00
         0.00000E+00
         0.00000E+00
         0.00000E+00
         0.00000E+00
         0.00000E+00
         0.00000E+00
         0.00000E+00
         0.00000E+00
         0.00000E+00
         0.00000E+00
         0.00000E+00
         0.00000E+00
         0.00000E+00
         0.00000E+00
         0.00000E+00
         0.00000E+00
         0.00000E+00
         0.00000E+00
         0.00000E+00
         0.00000E+00
         0.00000E+00
         0.00000E+00
         0.00000E+00
         0.00000E+00
         0.00000E+00
         0.00000E+00
         0.00000E+00
         0.00000E+00
         0.00000E+00
         0.00000E+00
         0.00000E+00
         0.00000E+00
         0.00000E+00
         0.00000E+00
         0.00000E+00
         0.00000E+00
         0.00000E+00
         0.00000E+00
         0.00000E+00
         0.00000E+00
         0.00000E+00
         0.00000E+00
         0.00000E+00
         0.00000E+00
         0.00000E+00
         0.00000E+00
         0.00000E+00
         0.00000E+00
         0.00000E+00
         0.00000E+00
         0.00000E+00
         0.00000E+00
         0.00000E+00
         0.00000E+00
         0.00000E+00
         0.00000E+00
         0.00000E+00
         0.00000E+00
         0.00000E+00
         0.00000E+00
         0.00000E+00
         0.00000E+00
         0.00000E+00
         0.00000E+00
         0.00000E+00
         0.00000E+00
         0.00000E+00
         0.00000E+00
         0.00000E+00
         0.00000E+00
         0.00000E+00
         0.00000E+00
         0.00000E+00
         0.00000E+00
         0.00000E+00
         0.00000E+00
         0.00000E+00
         0.00000E+00
         0.00000E+00
         0.00000E+00
         0.00000E+00
         0.00000E+00
         0.00000E+00
         0.00000E+00
         0.00000E+00
         0.00000E+00
         0.00000E+00
         0.00000E+00
         0.00000E+00
         0.00000E+00
         0.00000E+00
         0.00000E+00
         0.00000E+00
         0.00000E+00
         0.00000E+00
         0.00000E+00
         0.00000E+00
         0.00000E+00
         0.00000E+00
         0.00000E+00
         0.00000E+00
         0.00000E+00
         0.00000E+00
         0.00000E+00
         0.00000E+00
         0.00000E+00
         0.00000E+00
         0.00000E+00
         0.00000E+00
         0.00000E+00
         0.00000E+00
         0.00000E+00
         0.00000E+00
         0.00000E+00
         0.00000E+00
         0.00000E+00
         0.00000E+00
         0.00000E+00
         0.00000E+00
         0.00000E+00
         0.00000E+00
         0.00000E+00
         0.00000E+00
         0.00000E+00
         0.00000E+00
         0.00000E+00
         0.00000E+00
         0.00000E+00
         0.00000E+00
         0.00000E+00
         0.00000E+00
         0.00000E+00
         0.00000E+00
         0.00000E+00
         0.00000E+00
         0.00000E+00
         0.00000E+00
         0.00000E+00
         0.00000E+00
         0.00000E+00
         0.00000E+00
         0.00000E+00
         0.00000E+00
         0.00000E+00
         0.00000E+00
         0.00000E+00
         0.00000E+00
         0.00000E+00
         0.00000E+00
         0.00000E+00
         0.00000E+00
         0.00000E+00
         0.00000E+00
         0.00000E+00
         0.00000E+00
         0.00000E+00
         0.00000E+00
         0.00000E+00
         0.00000E+00
         0.00000E+00
         0.00000E+00
         0.00000E+00
         0.00000E+00
         0.00000E+00
         0.00000E+00
         0.00000E+00
         0.00000E+00
         0.00000E+00
         0.00000E+00
         0.00000E+00
         0.00000E+00
         0.00000E+00
         0.00000E+00
         0.00000E+00
         0.00000E+00
         0.00000E+00
         0.00000E+00
         0.00000E+00
         0.00000E+00
         0.00000E+00
         0.00000E+00
         0.00000E+00
         0.00000E+00
         0.00000E+00
         0.00000E+00
         0.00000E+00
         0.00000E+00
         0.00000E+00
         0.00000E+00
         0.00000E+00
         0.00000E+00
         0.00000E+00
         0.00000E+00
         0.00000E+00
         0.00000E+00
         0.00000E+00
         0.00000E+00
         0.00000E+00
         0.00000E+00
         0.00000E+00
         0.00000E+00
         0.00000E+00
         0.00000E+00
         0.00000E+00
         0.00000E+00
         0.00000E+00
         0.00000E+00
         0.00000E+00
         0.00000E+00
         0.00000E+00
         0.00000E+00
         0.00000E+00
         0.00000E+00
         0.00000E+00
         0.00000E+00
         0.00000E+00
         0.00000E+00
         0.00000E+00
         0.00000E+00
         0.00000E+00
         0.00000E+00
         0.00000E+00
         0.00000E+00
         0.00000E+00
         0.00000E+00
         0.00000E+00
         0.00000E+00
         0.00000E+00
         0.00000E+00
         0.00000E+00
         0.00000E+00
         0.00000E+00
         0.00000E+00
         0.00000E+00
         0.00000E+00
         0.00000E+00
         0.00000E+00
         0.00000E+00
         0.00000E+00
         0.00000E+00
         0.00000E+00
         0.00000E+00
         0.00000E+00
         0.00000E+00
         0.00000E+00
         0.00000E+00
         0.00000E+00
         0.00000E+00
         0.00000E+00
         0.00000E+00
         0.00000E+00
         0.00000E+00
         0.00000E+00
         0.00000E+00
         0.00000E+00
         0.00000E+00
         0.00000E+00
         0.00000E+00
         0.00000E+00
         0.00000E+00
         0.00000E+00
         0.00000E+00
         0.00000E+00
         0.00000E+00
         0.00000E+00
         0.00000E+00
         0.00000E+00
         0.00000E+00
         0.00000E+00
         0.00000E+00
         0.00000E+00
         0.00000E+00
         0.00000E+00
         0.00000E+00
         0.00000E+00
         0.00000E+00
         0.00000E+00
         0.00000E+00
         0.00000E+00
         0.00000E+00
         0.00000E+00
         0.00000E+00
         0.00000E+00
         0.00000E+00
         0.00000E+00
         0.00000E+00
         0.00000E+00
         0.00000E+00
         0.00000E+00
         0.00000E+00
         0.00000E+00
         0.00000E+00
         0.00000E+00
         0.00000E+00
         0.00000E+00
         0.00000E+00
         0.00000E+00
         0.00000E+00
         0.00000E+00
         0.00000E+00
         0.00000E+00
         0.00000E+00
         0.00000E+00
         0.00000E+00
         0.00000E+00
         0.00000E+00
         0.00000E+00
         0.00000E+00
         0.00000E+00
         0.00000E+00
         0.00000E+00
         0.00000E+00
         0.00000E+00
         0.00000E+00
         0.00000E+00
         0.00000E+00
         0.00000E+00
         0.00000E+00
         0.00000E+00
         0.00000E+00
         0.00000E+00
         0.00000E+00
         0.00000E+00
         0.00000E+00
         0.00000E+00
         0.00000E+00
         0.00000E+00
         0.00000E+00
         0.00000E+00
         0.00000E+00
         0.00000E+00
         0.00000E+00
         0.00000E+00
         0.00000E+00
         0.00000E+00
         0.00000E+00
         0.00000E+00
         0.00000E+00
         0.00000E+00
         0.00000E+00
         0.00000E+00
         0.00000E+00
         0.00000E+00
         0.00000E+00
         0.00000E+00
         0.00000E+00
         0.00000E+00
         0.00000E+00
         0.00000E+00
         0.00000E+00
         0.00000E+00
         0.00000E+00
         0.00000E+00
         0.00000E+00
         0.00000E+00
         0.00000E+00
         0.00000E+00
         0.00000E+00
         0.00000E+00
         0.00000E+00
         0.00000E+00
         0.00000E+00
         0.00000E+00
         0.00000E+00
         0.00000E+00
         0.00000E+00
         0.00000E+00
         0.00000E+00
         0.00000E+00
         0.00000E+00
         0.00000E+00
         0.00000E+00
         0.00000E+00
         0.00000E+00
         0.00000E+00
         0.00000E+00
         0.00000E+00
         0.00000E+00
         0.00000E+00
         0.00000E+00
         0.00000E+00
         0.00000E+00
         0.00000E+00
         0.00000E+00
         0.00000E+00
         0.00000E+00
         0.00000E+00
         0.00000E+00
         0.00000E+00
         0.00000E+00
         0.00000E+00
         0.00000E+00
         0.00000E+00
         0.00000E+00
         0.00000E+00
         0.00000E+00
         0.00000E+00
         0.00000E+00
         0.00000E+00
         0.00000E+00
         0.00000E+00
         0.00000E+00
         0.00000E+00
         0.00000E+00
         0.00000E+00
         0.00000E+00
         0.00000E+00
         0.00000E+00
         0.00000E+00
         0.00000E+00
         0.00000E+00
         0.00000E+00
         0.00000E+00
         0.00000E+00
         0.00000E+00
         0.00000E+00
         0.00000E+00
         0.00000E+00
         0.00000E+00
         0.00000E+00
         0.00000E+00
         0.00000E+00
         0.00000E+00
         0.00000E+00
         0.00000E+00
         0.00000E+00
         0.00000E+00
         0.00000E+00
         0.00000E+00
         0.00000E+00
         0.00000E+00
         0.00000E+00
         0.00000E+00
         0.00000E+00
         0.00000E+00
         0.00000E+00
         0.00000E+00
         0.00000E+00
         0.00000E+00
         0.00000E+00
         0.00000E+00
         0.00000E+00
         0.00000E+00
         0.00000E+00
         0.00000E+00
         0.00000E+00
         0.00000E+00
         0.00000E+00
         0.00000E+00
         0.00000E+00
         0.00000E+00
         0.00000E+00
         0.00000E+00
         0.00000E+00
         0.00000E+00
         0.00000E+00
         0.00000E+00
         0.00000E+00
         0.00000E+00
         0.00000E+00
         0.00000E+00
         0.00000E+00
         0.00000E+00
         0.00000E+00
         0.00000E+00
         0.00000E+00
         0.00000E+00
         0.00000E+00
         0.00000E+00
         0.00000E+00
         0.00000E+00
         0.00000E+00
         0.00000E+00
         0.00000E+00
         0.00000E+00
         0.00000E+00
         0.00000E+00
         0.00000E+00
         0.00000E+00
         0.00000E+00
         0.00000E+00
         0.00000E+00
         0.00000E+00
         0.00000E+00
         0.00000E+00
         0.00000E+00
         0.00000E+00
         0.00000E+00
         0.00000E+00
         0.00000E+00
         0.00000E+00
         0.00000E+00
         0.00000E+00
         0.00000E+00
         0.00000E+00
         0.00000E+00
         0.00000E+00
         0.00000E+00
         0.00000E+00
         0.00000E+00
         0.00000E+00
         0.00000E+00
         0.00000E+00
         0.00000E+00
         0.00000E+00
         0.00000E+00
         0.00000E+00
         0.00000E+00
         0.00000E+00
         0.00000E+00
         0.00000E+00
         0.00000E+00
         0.00000E+00
         0.00000E+00
         0.00000E+00
         0.00000E+00
         0.00000E+00
         0.00000E+00
         0.00000E+00
         0.00000E+00
         0.00000E+00
         0.00000E+00
         0.00000E+00
         0.00000E+00
         0.00000E+00
         0.00000E+00
         0.00000E+00
         0.00000E+00
         0.00000E+00
         0.00000E+00
         0.00000E+00
         0.00000E+00
         0.00000E+00
         0.00000E+00
         0.00000E+00
         0.00000E+00
         0.00000E+00
         0.00000E+00
         0.00000E+00
         0.00000E+00
         0.00000E+00
         0.00000E+00
         0.00000E+00
         0.00000E+00
         0.00000E+00
         0.00000E+00
         0.00000E+00
         0.00000E+00
         0.00000E+00
         0.00000E+00
         0.00000E+00
         0.00000E+00
         0.00000E+00
         0.00000E+00
         0.00000E+00
         0.00000E+00
         0.00000E+00
         0.00000E+00
         0.00000E+00
         0.00000E+00
         0.00000E+00
         0.00000E+00
         0.00000E+00
         0.00000E+00
         0.00000E+00
  
SCALARS                         fint_y  double 1
LOOKUP_TABLE default
         0.00000E+00
         0.00000E+00
         0.00000E+00
         0.00000E+00
         0.00000E+00
         0.00000E+00
         0.00000E+00
         0.00000E+00
         0.00000E+00
         0.00000E+00
         0.00000E+00
         0.00000E+00
         0.00000E+00
         0.00000E+00
         0.00000E+00
         0.00000E+00
         0.00000E+00
         0.00000E+00
         0.00000E+00
         0.00000E+00
         0.00000E+00
         0.00000E+00
         0.00000E+00
         0.00000E+00
         0.00000E+00
         0.00000E+00
         0.00000E+00
         0.00000E+00
         0.00000E+00
         0.00000E+00
         0.00000E+00
         0.00000E+00
         0.00000E+00
         0.00000E+00
         0.00000E+00
         0.00000E+00
         0.00000E+00
         0.00000E+00
         0.00000E+00
         0.00000E+00
         0.00000E+00
         0.00000E+00
         0.00000E+00
         0.00000E+00
         0.00000E+00
         0.00000E+00
         0.00000E+00
         0.00000E+00
         0.00000E+00
         0.00000E+00
         0.00000E+00
         0.00000E+00
         0.00000E+00
         0.00000E+00
         0.00000E+00
         0.00000E+00
         0.00000E+00
         0.00000E+00
         0.00000E+00
         0.00000E+00
         0.00000E+00
         0.00000E+00
         0.00000E+00
         0.00000E+00
         0.00000E+00
         0.00000E+00
         0.00000E+00
         0.00000E+00
         0.00000E+00
         0.00000E+00
         0.00000E+00
         0.00000E+00
         0.00000E+00
         0.00000E+00
         0.00000E+00
         0.00000E+00
         0.00000E+00
         0.00000E+00
         0.00000E+00
         0.00000E+00
         0.00000E+00
         0.00000E+00
         0.00000E+00
         0.00000E+00
         0.00000E+00
         0.00000E+00
         0.00000E+00
         0.00000E+00
         0.00000E+00
         0.00000E+00
         0.00000E+00
         0.00000E+00
         0.00000E+00
         0.00000E+00
         0.00000E+00
         0.00000E+00
         0.00000E+00
         0.00000E+00
         0.00000E+00
         0.00000E+00
         0.00000E+00
         0.00000E+00
         0.00000E+00
         0.00000E+00
         0.00000E+00
         0.00000E+00
         0.00000E+00
         0.00000E+00
         0.00000E+00
         0.00000E+00
         0.00000E+00
         0.00000E+00
         0.00000E+00
         0.00000E+00
         0.00000E+00
         0.00000E+00
         0.00000E+00
         0.00000E+00
         0.00000E+00
         0.00000E+00
         0.00000E+00
         0.00000E+00
         0.00000E+00
         0.00000E+00
         0.00000E+00
         0.00000E+00
         0.00000E+00
         0.00000E+00
         0.00000E+00
         0.00000E+00
         0.00000E+00
         0.00000E+00
         0.00000E+00
         0.00000E+00
         0.00000E+00
         0.00000E+00
         0.00000E+00
         0.00000E+00
         0.00000E+00
         0.00000E+00
         0.00000E+00
         0.00000E+00
         0.00000E+00
         0.00000E+00
         0.00000E+00
         0.00000E+00
         0.00000E+00
         0.00000E+00
         0.00000E+00
         0.00000E+00
         0.00000E+00
         0.00000E+00
         0.00000E+00
         0.00000E+00
         0.00000E+00
         0.00000E+00
         0.00000E+00
         0.00000E+00
         0.00000E+00
         0.00000E+00
         0.00000E+00
         0.00000E+00
         0.00000E+00
         0.00000E+00
         0.00000E+00
         0.00000E+00
         0.00000E+00
         0.00000E+00
         0.00000E+00
         0.00000E+00
         0.00000E+00
         0.00000E+00
         0.00000E+00
         0.00000E+00
         0.00000E+00
         0.00000E+00
         0.00000E+00
         0.00000E+00
         0.00000E+00
         0.00000E+00
         0.00000E+00
         0.00000E+00
         0.00000E+00
         0.00000E+00
         0.00000E+00
         0.00000E+00
         0.00000E+00
         0.00000E+00
         0.00000E+00
         0.00000E+00
         0.00000E+00
         0.00000E+00
         0.00000E+00
         0.00000E+00
         0.00000E+00
         0.00000E+00
         0.00000E+00
         0.00000E+00
         0.00000E+00
         0.00000E+00
         0.00000E+00
         0.00000E+00
         0.00000E+00
         0.00000E+00
         0.00000E+00
         0.00000E+00
         0.00000E+00
         0.00000E+00
         0.00000E+00
         0.00000E+00
         0.00000E+00
         0.00000E+00
         0.00000E+00
         0.00000E+00
         0.00000E+00
         0.00000E+00
         0.00000E+00
         0.00000E+00
         0.00000E+00
         0.00000E+00
         0.00000E+00
         0.00000E+00
         0.00000E+00
         0.00000E+00
         0.00000E+00
         0.00000E+00
         0.00000E+00
         0.00000E+00
         0.00000E+00
         0.00000E+00
         0.00000E+00
         0.00000E+00
         0.00000E+00
         0.00000E+00
         0.00000E+00
         0.00000E+00
         0.00000E+00
         0.00000E+00
         0.00000E+00
         0.00000E+00
         0.00000E+00
         0.00000E+00
         0.00000E+00
         0.00000E+00
         0.00000E+00
         0.00000E+00
         0.00000E+00
         0.00000E+00
         0.00000E+00
         0.00000E+00
         0.00000E+00
         0.00000E+00
         0.00000E+00
         0.00000E+00
         0.00000E+00
         0.00000E+00
         0.00000E+00
         0.00000E+00
         0.00000E+00
         0.00000E+00
         0.00000E+00
         0.00000E+00
         0.00000E+00
         0.00000E+00
         0.00000E+00
         0.00000E+00
         0.00000E+00
         0.00000E+00
         0.00000E+00
         0.00000E+00
         0.00000E+00
         0.00000E+00
         0.00000E+00
         0.00000E+00
         0.00000E+00
         0.00000E+00
         0.00000E+00
         0.00000E+00
         0.00000E+00
         0.00000E+00
         0.00000E+00
         0.00000E+00
         0.00000E+00
         0.00000E+00
         0.00000E+00
         0.00000E+00
         0.00000E+00
         0.00000E+00
         0.00000E+00
         0.00000E+00
         0.00000E+00
         0.00000E+00
         0.00000E+00
         0.00000E+00
         0.00000E+00
         0.00000E+00
         0.00000E+00
         0.00000E+00
         0.00000E+00
         0.00000E+00
         0.00000E+00
         0.00000E+00
         0.00000E+00
         0.00000E+00
         0.00000E+00
         0.00000E+00
         0.00000E+00
         0.00000E+00
         0.00000E+00
         0.00000E+00
         0.00000E+00
         0.00000E+00
         0.00000E+00
         0.00000E+00
         0.00000E+00
         0.00000E+00
         0.00000E+00
         0.00000E+00
         0.00000E+00
         0.00000E+00
         0.00000E+00
         0.00000E+00
         0.00000E+00
         0.00000E+00
         0.00000E+00
         0.00000E+00
         0.00000E+00
         0.00000E+00
         0.00000E+00
         0.00000E+00
         0.00000E+00
         0.00000E+00
         0.00000E+00
         0.00000E+00
         0.00000E+00
         0.00000E+00
         0.00000E+00
         0.00000E+00
         0.00000E+00
         0.00000E+00
         0.00000E+00
         0.00000E+00
         0.00000E+00
         0.00000E+00
         0.00000E+00
         0.00000E+00
         0.00000E+00
         0.00000E+00
         0.00000E+00
         0.00000E+00
         0.00000E+00
         0.00000E+00
         0.00000E+00
         0.00000E+00
         0.00000E+00
         0.00000E+00
         0.00000E+00
         0.00000E+00
         0.00000E+00
         0.00000E+00
         0.00000E+00
         0.00000E+00
         0.00000E+00
         0.00000E+00
         0.00000E+00
         0.00000E+00
         0.00000E+00
         0.00000E+00
         0.00000E+00
         0.00000E+00
         0.00000E+00
         0.00000E+00
         0.00000E+00
         0.00000E+00
         0.00000E+00
         0.00000E+00
         0.00000E+00
         0.00000E+00
         0.00000E+00
         0.00000E+00
         0.00000E+00
         0.00000E+00
         0.00000E+00
         0.00000E+00
         0.00000E+00
         0.00000E+00
         0.00000E+00
         0.00000E+00
         0.00000E+00
         0.00000E+00
         0.00000E+00
         0.00000E+00
         0.00000E+00
         0.00000E+00
         0.00000E+00
         0.00000E+00
         0.00000E+00
         0.00000E+00
         0.00000E+00
         0.00000E+00
         0.00000E+00
         0.00000E+00
         0.00000E+00
         0.00000E+00
         0.00000E+00
         0.00000E+00
         0.00000E+00
         0.00000E+00
         0.00000E+00
         0.00000E+00
         0.00000E+00
         0.00000E+00
         0.00000E+00
         0.00000E+00
         0.00000E+00
         0.00000E+00
         0.00000E+00
         0.00000E+00
         0.00000E+00
         0.00000E+00
         0.00000E+00
         0.00000E+00
         0.00000E+00
         0.00000E+00
         0.00000E+00
         0.00000E+00
         0.00000E+00
         0.00000E+00
         0.00000E+00
         0.00000E+00
         0.00000E+00
         0.00000E+00
         0.00000E+00
         0.00000E+00
         0.00000E+00
         0.00000E+00
         0.00000E+00
         0.00000E+00
         0.00000E+00
         0.00000E+00
         0.00000E+00
         0.00000E+00
         0.00000E+00
         0.00000E+00
         0.00000E+00
         0.00000E+00
         0.00000E+00
         0.00000E+00
         0.00000E+00
         0.00000E+00
         0.00000E+00
         0.00000E+00
         0.00000E+00
         0.00000E+00
         0.00000E+00
         0.00000E+00
         0.00000E+00
         0.00000E+00
         0.00000E+00
         0.00000E+00
         0.00000E+00
         0.00000E+00
         0.00000E+00
         0.00000E+00
         0.00000E+00
         0.00000E+00
         0.00000E+00
         0.00000E+00
         0.00000E+00
         0.00000E+00
         0.00000E+00
         0.00000E+00
         0.00000E+00
         0.00000E+00
         0.00000E+00
         0.00000E+00
         0.00000E+00
         0.00000E+00
         0.00000E+00
         0.00000E+00
         0.00000E+00
         0.00000E+00
         0.00000E+00
         0.00000E+00
         0.00000E+00
         0.00000E+00
         0.00000E+00
         0.00000E+00
         0.00000E+00
         0.00000E+00
         0.00000E+00
         0.00000E+00
         0.00000E+00
         0.00000E+00
         0.00000E+00
         0.00000E+00
         0.00000E+00
         0.00000E+00
         0.00000E+00
         0.00000E+00
         0.00000E+00
         0.00000E+00
         0.00000E+00
         0.00000E+00
         0.00000E+00
         0.00000E+00
         0.00000E+00
         0.00000E+00
         0.00000E+00
         0.00000E+00
         0.00000E+00
         0.00000E+00
         0.00000E+00
         0.00000E+00
         0.00000E+00
         0.00000E+00
         0.00000E+00
         0.00000E+00
         0.00000E+00
         0.00000E+00
         0.00000E+00
         0.00000E+00
         0.00000E+00
         0.00000E+00
         0.00000E+00
         0.00000E+00
         0.00000E+00
         0.00000E+00
         0.00000E+00
         0.00000E+00
         0.00000E+00
         0.00000E+00
         0.00000E+00
         0.00000E+00
         0.00000E+00
         0.00000E+00
         0.00000E+00
         0.00000E+00
         0.00000E+00
         0.00000E+00
         0.00000E+00
         0.00000E+00
         0.00000E+00
         0.00000E+00
         0.00000E+00
         0.00000E+00
         0.00000E+00
         0.00000E+00
         0.00000E+00
         0.00000E+00
         0.00000E+00
         0.00000E+00
         0.00000E+00
         0.00000E+00
         0.00000E+00
         0.00000E+00
         0.00000E+00
         0.00000E+00
         0.00000E+00
         0.00000E+00
         0.00000E+00
         0.00000E+00
         0.00000E+00
         0.00000E+00
         0.00000E+00
         0.00000E+00
         0.00000E+00
         0.00000E+00
         0.00000E+00
         0.00000E+00
         0.00000E+00
         0.00000E+00
         0.00000E+00
         0.00000E+00
         0.00000E+00
         0.00000E+00
         0.00000E+00
         0.00000E+00
         0.00000E+00
         0.00000E+00
         0.00000E+00
         0.00000E+00
         0.00000E+00
         0.00000E+00
         0.00000E+00
         0.00000E+00
         0.00000E+00
         0.00000E+00
         0.00000E+00
         0.00000E+00
         0.00000E+00
         0.00000E+00
         0.00000E+00
         0.00000E+00
         0.00000E+00
         0.00000E+00
         0.00000E+00
         0.00000E+00
         0.00000E+00
         0.00000E+00
         0.00000E+00
         0.00000E+00
         0.00000E+00
         0.00000E+00
         0.00000E+00
         0.00000E+00
         0.00000E+00
         0.00000E+00
         0.00000E+00
         0.00000E+00
         0.00000E+00
         0.00000E+00
         0.00000E+00
         0.00000E+00
         0.00000E+00
         0.00000E+00
         0.00000E+00
         0.00000E+00
         0.00000E+00
         0.00000E+00
         0.00000E+00
         0.00000E+00
         0.00000E+00
         0.00000E+00
         0.00000E+00
         0.00000E+00
         0.00000E+00
         0.00000E+00
         0.00000E+00
         0.00000E+00
         0.00000E+00
         0.00000E+00
         0.00000E+00
         0.00000E+00
         0.00000E+00
         0.00000E+00
         0.00000E+00
         0.00000E+00
         0.00000E+00
         0.00000E+00
         0.00000E+00
         0.00000E+00
         0.00000E+00
         0.00000E+00
         0.00000E+00
         0.00000E+00
         0.00000E+00
         0.00000E+00
         0.00000E+00
         0.00000E+00
         0.00000E+00
         0.00000E+00
         0.00000E+00
         0.00000E+00
         0.00000E+00
         0.00000E+00
         0.00000E+00
         0.00000E+00
         0.00000E+00
         0.00000E+00
         0.00000E+00
         0.00000E+00
         0.00000E+00
         0.00000E+00
         0.00000E+00
         0.00000E+00
         0.00000E+00
         0.00000E+00
         0.00000E+00
         0.00000E+00
         0.00000E+00
         0.00000E+00
         0.00000E+00
         0.00000E+00
         0.00000E+00
         0.00000E+00
         0.00000E+00
         0.00000E+00
         0.00000E+00
         0.00000E+00
         0.00000E+00
         0.00000E+00
         0.00000E+00
         0.00000E+00
         0.00000E+00
         0.00000E+00
         0.00000E+00
         0.00000E+00
         0.00000E+00
         0.00000E+00
         0.00000E+00
         0.00000E+00
         0.00000E+00
         0.00000E+00
         0.00000E+00
         0.00000E+00
         0.00000E+00
         0.00000E+00
         0.00000E+00
         0.00000E+00
         0.00000E+00
         0.00000E+00
         0.00000E+00
         0.00000E+00
         0.00000E+00
         0.00000E+00
         0.00000E+00
         0.00000E+00
         0.00000E+00
         0.00000E+00
         0.00000E+00
         0.00000E+00
         0.00000E+00
         0.00000E+00
         0.00000E+00
         0.00000E+00
         0.00000E+00
         0.00000E+00
         0.00000E+00
         0.00000E+00
         0.00000E+00
         0.00000E+00
         0.00000E+00
         0.00000E+00
         0.00000E+00
         0.00000E+00
         0.00000E+00
         0.00000E+00
         0.00000E+00
         0.00000E+00
         0.00000E+00
         0.00000E+00
         0.00000E+00
         0.00000E+00
         0.00000E+00
         0.00000E+00
         0.00000E+00
         0.00000E+00
         0.00000E+00
         0.00000E+00
         0.00000E+00
         0.00000E+00
         0.00000E+00
         0.00000E+00
         0.00000E+00
         0.00000E+00
         0.00000E+00
         0.00000E+00
         0.00000E+00
         0.00000E+00
         0.00000E+00
         0.00000E+00
         0.00000E+00
         0.00000E+00
         0.00000E+00
         0.00000E+00
         0.00000E+00
         0.00000E+00
         0.00000E+00
         0.00000E+00
         0.00000E+00
         0.00000E+00
         0.00000E+00
         0.00000E+00
         0.00000E+00
         0.00000E+00
         0.00000E+00
         0.00000E+00
         0.00000E+00
         0.00000E+00
         0.00000E+00
         0.00000E+00
         0.00000E+00
         0.00000E+00
         0.00000E+00
         0.00000E+00
         0.00000E+00
         0.00000E+00
         0.00000E+00
         0.00000E+00
         0.00000E+00
         0.00000E+00
         0.00000E+00
         0.00000E+00
         0.00000E+00
         0.00000E+00
         0.00000E+00
         0.00000E+00
         0.00000E+00
         0.00000E+00
         0.00000E+00
         0.00000E+00
         0.00000E+00
         0.00000E+00
         0.00000E+00
         0.00000E+00
         0.00000E+00
         0.00000E+00
         0.00000E+00
         0.00000E+00
         0.00000E+00
         0.00000E+00
         0.00000E+00
         0.00000E+00
         0.00000E+00
         0.00000E+00
         0.00000E+00
         0.00000E+00
         0.00000E+00
         0.00000E+00
         0.00000E+00
         0.00000E+00
         0.00000E+00
         0.00000E+00
         0.00000E+00
         0.00000E+00
         0.00000E+00
         0.00000E+00
         0.00000E+00
         0.00000E+00
         0.00000E+00
         0.00000E+00
         0.00000E+00
         0.00000E+00
         0.00000E+00
         0.00000E+00
         0.00000E+00
         0.00000E+00
         0.00000E+00
         0.00000E+00
         0.00000E+00
         0.00000E+00
         0.00000E+00
         0.00000E+00
         0.00000E+00
         0.00000E+00
         0.00000E+00
         0.00000E+00
         0.00000E+00
         0.00000E+00
         0.00000E+00
         0.00000E+00
         0.00000E+00
         0.00000E+00
         0.00000E+00
         0.00000E+00
         0.00000E+00
         0.00000E+00
         0.00000E+00
         0.00000E+00
         0.00000E+00
         0.00000E+00
         0.00000E+00
         0.00000E+00
         0.00000E+00
         0.00000E+00
         0.00000E+00
         0.00000E+00
         0.00000E+00
         0.00000E+00
         0.00000E+00
         0.00000E+00
         0.00000E+00
         0.00000E+00
         0.00000E+00
         0.00000E+00
         0.00000E+00
         0.00000E+00
         0.00000E+00
         0.00000E+00
         0.00000E+00
         0.00000E+00
         0.00000E+00
         0.00000E+00
         0.00000E+00
         0.00000E+00
         0.00000E+00
         0.00000E+00
         0.00000E+00
         0.00000E+00
         0.00000E+00
         0.00000E+00
         0.00000E+00
         0.00000E+00
         0.00000E+00
         0.00000E+00
         0.00000E+00
         0.00000E+00
         0.00000E+00
         0.00000E+00
         0.00000E+00
         0.00000E+00
         0.00000E+00
         0.00000E+00
         0.00000E+00
         0.00000E+00
         0.00000E+00
         0.00000E+00
         0.00000E+00
         0.00000E+00
         0.00000E+00
         0.00000E+00
         0.00000E+00
         0.00000E+00
         0.00000E+00
         0.00000E+00
         0.00000E+00
         0.00000E+00
         0.00000E+00
         0.00000E+00
         0.00000E+00
         0.00000E+00
         0.00000E+00
         0.00000E+00
         0.00000E+00
         0.00000E+00
         0.00000E+00
         0.00000E+00
         0.00000E+00
         0.00000E+00
         0.00000E+00
         0.00000E+00
         0.00000E+00
         0.00000E+00
         0.00000E+00
         0.00000E+00
         0.00000E+00
         0.00000E+00
         0.00000E+00
         0.00000E+00
         0.00000E+00
         0.00000E+00
         0.00000E+00
         0.00000E+00
         0.00000E+00
         0.00000E+00
         0.00000E+00
         0.00000E+00
         0.00000E+00
         0.00000E+00
         0.00000E+00
         0.00000E+00
         0.00000E+00
         0.00000E+00
         0.00000E+00
         0.00000E+00
         0.00000E+00
         0.00000E+00
         0.00000E+00
         0.00000E+00
         0.00000E+00
         0.00000E+00
         0.00000E+00
         0.00000E+00
         0.00000E+00
         0.00000E+00
         0.00000E+00
         0.00000E+00
         0.00000E+00
         0.00000E+00
         0.00000E+00
         0.00000E+00
         0.00000E+00
         0.00000E+00
         0.00000E+00
         0.00000E+00
         0.00000E+00
         0.00000E+00
         0.00000E+00
         0.00000E+00
         0.00000E+00
         0.00000E+00
         0.00000E+00
         0.00000E+00
         0.00000E+00
         0.00000E+00
         0.00000E+00
         0.00000E+00
         0.00000E+00
         0.00000E+00
         0.00000E+00
         0.00000E+00
         0.00000E+00
         0.00000E+00
         0.00000E+00
         0.00000E+00
         0.00000E+00
         0.00000E+00
         0.00000E+00
         0.00000E+00
         0.00000E+00
         0.00000E+00
         0.00000E+00
         0.00000E+00
         0.00000E+00
         0.00000E+00
         0.00000E+00
         0.00000E+00
         0.00000E+00
         0.00000E+00
         0.00000E+00
         0.00000E+00
         0.00000E+00
         0.00000E+00
         0.00000E+00
         0.00000E+00
         0.00000E+00
         0.00000E+00
         0.00000E+00
         0.00000E+00
         0.00000E+00
         0.00000E+00
         0.00000E+00
         0.00000E+00
         0.00000E+00
         0.00000E+00
         0.00000E+00
         0.00000E+00
         0.00000E+00
         0.00000E+00
         0.00000E+00
         0.00000E+00
         0.00000E+00
         0.00000E+00
         0.00000E+00
         0.00000E+00
         0.00000E+00
         0.00000E+00
         0.00000E+00
         0.00000E+00
         0.00000E+00
         0.00000E+00
         0.00000E+00
         0.00000E+00
         0.00000E+00
         0.00000E+00
         0.00000E+00
         0.00000E+00
         0.00000E+00
         0.00000E+00
         0.00000E+00
         0.00000E+00
         0.00000E+00
         0.00000E+00
         0.00000E+00
         0.00000E+00
         0.00000E+00
         0.00000E+00
         0.00000E+00
         0.00000E+00
         0.00000E+00
         0.00000E+00
         0.00000E+00
         0.00000E+00
         0.00000E+00
         0.00000E+00
         0.00000E+00
         0.00000E+00
         0.00000E+00
         0.00000E+00
         0.00000E+00
         0.00000E+00
         0.00000E+00
         0.00000E+00
         0.00000E+00
         0.00000E+00
         0.00000E+00
         0.00000E+00
         0.00000E+00
         0.00000E+00
         0.00000E+00
         0.00000E+00
         0.00000E+00
         0.00000E+00
         0.00000E+00
         0.00000E+00
         0.00000E+00
         0.00000E+00
         0.00000E+00
         0.00000E+00
         0.00000E+00
         0.00000E+00
         0.00000E+00
         0.00000E+00
         0.00000E+00
         0.00000E+00
         0.00000E+00
         0.00000E+00
         0.00000E+00
         0.00000E+00
         0.00000E+00
         0.00000E+00
         0.00000E+00
         0.00000E+00
         0.00000E+00
         0.00000E+00
         0.00000E+00
         0.00000E+00
         0.00000E+00
         0.00000E+00
         0.00000E+00
         0.00000E+00
         0.00000E+00
         0.00000E+00
         0.00000E+00
         0.00000E+00
         0.00000E+00
         0.00000E+00
         0.00000E+00
         0.00000E+00
         0.00000E+00
         0.00000E+00
         0.00000E+00
         0.00000E+00
         0.00000E+00
         0.00000E+00
         0.00000E+00
         0.00000E+00
         0.00000E+00
         0.00000E+00
         0.00000E+00
         0.00000E+00
         0.00000E+00
         0.00000E+00
         0.00000E+00
         0.00000E+00
         0.00000E+00
         0.00000E+00
         0.00000E+00
         0.00000E+00
         0.00000E+00
         0.00000E+00
         0.00000E+00
         0.00000E+00
         0.00000E+00
         0.00000E+00
         0.00000E+00
         0.00000E+00
         0.00000E+00
         0.00000E+00
         0.00000E+00
         0.00000E+00
         0.00000E+00
         0.00000E+00
         0.00000E+00
         0.00000E+00
         0.00000E+00
         0.00000E+00
         0.00000E+00
         0.00000E+00
         0.00000E+00
         0.00000E+00
         0.00000E+00
         0.00000E+00
         0.00000E+00
         0.00000E+00
         0.00000E+00
         0.00000E+00
         0.00000E+00
         0.00000E+00
         0.00000E+00
         0.00000E+00
         0.00000E+00
         0.00000E+00
         0.00000E+00
         0.00000E+00
         0.00000E+00
         0.00000E+00
         0.00000E+00
         0.00000E+00
         0.00000E+00
         0.00000E+00
         0.00000E+00
         0.00000E+00
         0.00000E+00
         0.00000E+00
         0.00000E+00
         0.00000E+00
         0.00000E+00
         0.00000E+00
         0.00000E+00
         0.00000E+00
         0.00000E+00
         0.00000E+00
         0.00000E+00
         0.00000E+00
         0.00000E+00
         0.00000E+00
         0.00000E+00
         0.00000E+00
         0.00000E+00
         0.00000E+00
         0.00000E+00
         0.00000E+00
         0.00000E+00
         0.00000E+00
         0.00000E+00
         0.00000E+00
         0.00000E+00
         0.00000E+00
         0.00000E+00
         0.00000E+00
         0.00000E+00
         0.00000E+00
         0.00000E+00
         0.00000E+00
         0.00000E+00
         0.00000E+00
         0.00000E+00
         0.00000E+00
         0.00000E+00
         0.00000E+00
         0.00000E+00
         0.00000E+00
         0.00000E+00
         0.00000E+00
         0.00000E+00
         0.00000E+00
         0.00000E+00
         0.00000E+00
         0.00000E+00
         0.00000E+00
         0.00000E+00
         0.00000E+00
         0.00000E+00
         0.00000E+00
         0.00000E+00
         0.00000E+00
         0.00000E+00
         0.00000E+00
         0.00000E+00
         0.00000E+00
         0.00000E+00
         0.00000E+00
         0.00000E+00
         0.00000E+00
         0.00000E+00
         0.00000E+00
         0.00000E+00
         0.00000E+00
         0.00000E+00
         0.00000E+00
         0.00000E+00
         0.00000E+00
         0.00000E+00
         0.00000E+00
         0.00000E+00
         0.00000E+00
         0.00000E+00
         0.00000E+00
         0.00000E+00
         0.00000E+00
         0.00000E+00
         0.00000E+00
         0.00000E+00
         0.00000E+00
         0.00000E+00
         0.00000E+00
         0.00000E+00
         0.00000E+00
         0.00000E+00
         0.00000E+00
         0.00000E+00
         0.00000E+00
         0.00000E+00
         0.00000E+00
         0.00000E+00
         0.00000E+00
         0.00000E+00
         0.00000E+00
         0.00000E+00
         0.00000E+00
         0.00000E+00
         0.00000E+00
         0.00000E+00
         0.00000E+00
         0.00000E+00
         0.00000E+00
         0.00000E+00
         0.00000E+00
         0.00000E+00
         0.00000E+00
         0.00000E+00
         0.00000E+00
         0.00000E+00
         0.00000E+00
         0.00000E+00
         0.00000E+00
         0.00000E+00
         0.00000E+00
         0.00000E+00
         0.00000E+00
         0.00000E+00
         0.00000E+00
         0.00000E+00
         0.00000E+00
         0.00000E+00
         0.00000E+00
         0.00000E+00
         0.00000E+00
         0.00000E+00
         0.00000E+00
         0.00000E+00
         0.00000E+00
         0.00000E+00
         0.00000E+00
         0.00000E+00
         0.00000E+00
         0.00000E+00
         0.00000E+00
         0.00000E+00
         0.00000E+00
         0.00000E+00
         0.00000E+00
         0.00000E+00
         0.00000E+00
         0.00000E+00
         0.00000E+00
         0.00000E+00
         0.00000E+00
         0.00000E+00
         0.00000E+00
         0.00000E+00
         0.00000E+00
         0.00000E+00
         0.00000E+00
         0.00000E+00
         0.00000E+00
         0.00000E+00
         0.00000E+00
         0.00000E+00
         0.00000E+00
         0.00000E+00
         0.00000E+00
         0.00000E+00
         0.00000E+00
         0.00000E+00
         0.00000E+00
         0.00000E+00
         0.00000E+00
         0.00000E+00
         0.00000E+00
         0.00000E+00
         0.00000E+00
         0.00000E+00
         0.00000E+00
         0.00000E+00
         0.00000E+00
         0.00000E+00
         0.00000E+00
         0.00000E+00
         0.00000E+00
         0.00000E+00
         0.00000E+00
         0.00000E+00
         0.00000E+00
         0.00000E+00
         0.00000E+00
         0.00000E+00
         0.00000E+00
         0.00000E+00
         0.00000E+00
         0.00000E+00
         0.00000E+00
         0.00000E+00
         0.00000E+00
         0.00000E+00
         0.00000E+00
         0.00000E+00
         0.00000E+00
         0.00000E+00
         0.00000E+00
         0.00000E+00
         0.00000E+00
         0.00000E+00
         0.00000E+00
         0.00000E+00
         0.00000E+00
         0.00000E+00
         0.00000E+00
         0.00000E+00
         0.00000E+00
         0.00000E+00
         0.00000E+00
         0.00000E+00
         0.00000E+00
         0.00000E+00
         0.00000E+00
         0.00000E+00
         0.00000E+00
         0.00000E+00
         0.00000E+00
         0.00000E+00
         0.00000E+00
         0.00000E+00
         0.00000E+00
         0.00000E+00
         0.00000E+00
         0.00000E+00
         0.00000E+00
         0.00000E+00
         0.00000E+00
         0.00000E+00
         0.00000E+00
         0.00000E+00
         0.00000E+00
         0.00000E+00
         0.00000E+00
         0.00000E+00
         0.00000E+00
         0.00000E+00
         0.00000E+00
         0.00000E+00
         0.00000E+00
         0.00000E+00
         0.00000E+00
         0.00000E+00
         0.00000E+00
         0.00000E+00
         0.00000E+00
         0.00000E+00
         0.00000E+00
         0.00000E+00
         0.00000E+00
         0.00000E+00
         0.00000E+00
         0.00000E+00
         0.00000E+00
         0.00000E+00
         0.00000E+00
         0.00000E+00
         0.00000E+00
         0.00000E+00
         0.00000E+00
         0.00000E+00
         0.00000E+00
         0.00000E+00
         0.00000E+00
         0.00000E+00
         0.00000E+00
         0.00000E+00
         0.00000E+00
         0.00000E+00
         0.00000E+00
         0.00000E+00
         0.00000E+00
         0.00000E+00
         0.00000E+00
         0.00000E+00
         0.00000E+00
         0.00000E+00
         0.00000E+00
         0.00000E+00
         0.00000E+00
         0.00000E+00
         0.00000E+00
         0.00000E+00
         0.00000E+00
         0.00000E+00
         0.00000E+00
         0.00000E+00
         0.00000E+00
         0.00000E+00
         0.00000E+00
         0.00000E+00
         0.00000E+00
         0.00000E+00
         0.00000E+00
         0.00000E+00
         0.00000E+00
         0.00000E+00
         0.00000E+00
         0.00000E+00
         0.00000E+00
         0.00000E+00
         0.00000E+00
         0.00000E+00
         0.00000E+00
         0.00000E+00
         0.00000E+00
         0.00000E+00
         0.00000E+00
         0.00000E+00
         0.00000E+00
         0.00000E+00
         0.00000E+00
         0.00000E+00
         0.00000E+00
         0.00000E+00
         0.00000E+00
         0.00000E+00
         0.00000E+00
         0.00000E+00
         0.00000E+00
         0.00000E+00
         0.00000E+00
         0.00000E+00
         0.00000E+00
         0.00000E+00
         0.00000E+00
         0.00000E+00
         0.00000E+00
         0.00000E+00
         0.00000E+00
         0.00000E+00
         0.00000E+00
         0.00000E+00
         0.00000E+00
         0.00000E+00
         0.00000E+00
         0.00000E+00
         0.00000E+00
         0.00000E+00
         0.00000E+00
         0.00000E+00
         0.00000E+00
         0.00000E+00
         0.00000E+00
         0.00000E+00
         0.00000E+00
         0.00000E+00
         0.00000E+00
         0.00000E+00
         0.00000E+00
         0.00000E+00
         0.00000E+00
         0.00000E+00
         0.00000E+00
         0.00000E+00
         0.00000E+00
         0.00000E+00
         0.00000E+00
         0.00000E+00
         0.00000E+00
         0.00000E+00
         0.00000E+00
         0.00000E+00
         0.00000E+00
         0.00000E+00
         0.00000E+00
         0.00000E+00
         0.00000E+00
         0.00000E+00
         0.00000E+00
         0.00000E+00
         0.00000E+00
         0.00000E+00
         0.00000E+00
         0.00000E+00
         0.00000E+00
         0.00000E+00
         0.00000E+00
         0.00000E+00
         0.00000E+00
         0.00000E+00
         0.00000E+00
         0.00000E+00
         0.00000E+00
         0.00000E+00
         0.00000E+00
         0.00000E+00
         0.00000E+00
         0.00000E+00
         0.00000E+00
         0.00000E+00
         0.00000E+00
         0.00000E+00
         0.00000E+00
         0.00000E+00
         0.00000E+00
         0.00000E+00
         0.00000E+00
         0.00000E+00
         0.00000E+00
         0.00000E+00
         0.00000E+00
         0.00000E+00
         0.00000E+00
         0.00000E+00
         0.00000E+00
         0.00000E+00
         0.00000E+00
         0.00000E+00
         0.00000E+00
         0.00000E+00
         0.00000E+00
         0.00000E+00
         0.00000E+00
         0.00000E+00
         0.00000E+00
         0.00000E+00
         0.00000E+00
         0.00000E+00
         0.00000E+00
         0.00000E+00
         0.00000E+00
         0.00000E+00
         0.00000E+00
         0.00000E+00
         0.00000E+00
         0.00000E+00
         0.00000E+00
         0.00000E+00
         0.00000E+00
         0.00000E+00
         0.00000E+00
         0.00000E+00
         0.00000E+00
         0.00000E+00
         0.00000E+00
         0.00000E+00
         0.00000E+00
         0.00000E+00
         0.00000E+00
         0.00000E+00
         0.00000E+00
         0.00000E+00
         0.00000E+00
         0.00000E+00
         0.00000E+00
         0.00000E+00
         0.00000E+00
         0.00000E+00
         0.00000E+00
         0.00000E+00
         0.00000E+00
         0.00000E+00
         0.00000E+00
         0.00000E+00
         0.00000E+00
         0.00000E+00
         0.00000E+00
         0.00000E+00
         0.00000E+00
         0.00000E+00
         0.00000E+00
         0.00000E+00
         0.00000E+00
         0.00000E+00
         0.00000E+00
         0.00000E+00
         0.00000E+00
         0.00000E+00
         0.00000E+00
         0.00000E+00
         0.00000E+00
         0.00000E+00
         0.00000E+00
         0.00000E+00
         0.00000E+00
         0.00000E+00
         0.00000E+00
         0.00000E+00
         0.00000E+00
         0.00000E+00
         0.00000E+00
         0.00000E+00
         0.00000E+00
         0.00000E+00
         0.00000E+00
         0.00000E+00
         0.00000E+00
         0.00000E+00
         0.00000E+00
         0.00000E+00
         0.00000E+00
         0.00000E+00
         0.00000E+00
         0.00000E+00
         0.00000E+00
         0.00000E+00
         0.00000E+00
         0.00000E+00
         0.00000E+00
         0.00000E+00
         0.00000E+00
         0.00000E+00
         0.00000E+00
         0.00000E+00
         0.00000E+00
         0.00000E+00
         0.00000E+00
         0.00000E+00
         0.00000E+00
         0.00000E+00
         0.00000E+00
         0.00000E+00
         0.00000E+00
         0.00000E+00
         0.00000E+00
         0.00000E+00
         0.00000E+00
         0.00000E+00
         0.00000E+00
         0.00000E+00
         0.00000E+00
         0.00000E+00
         0.00000E+00
         0.00000E+00
         0.00000E+00
         0.00000E+00
         0.00000E+00
         0.00000E+00
         0.00000E+00
         0.00000E+00
         0.00000E+00
         0.00000E+00
         0.00000E+00
         0.00000E+00
         0.00000E+00
         0.00000E+00
         0.00000E+00
         0.00000E+00
         0.00000E+00
         0.00000E+00
         0.00000E+00
         0.00000E+00
         0.00000E+00
         0.00000E+00
         0.00000E+00
         0.00000E+00
         0.00000E+00
         0.00000E+00
         0.00000E+00
         0.00000E+00
         0.00000E+00
         0.00000E+00
         0.00000E+00
         0.00000E+00
         0.00000E+00
         0.00000E+00
         0.00000E+00
         0.00000E+00
         0.00000E+00
         0.00000E+00
         0.00000E+00
         0.00000E+00
         0.00000E+00
         0.00000E+00
         0.00000E+00
         0.00000E+00
         0.00000E+00
         0.00000E+00
         0.00000E+00
         0.00000E+00
         0.00000E+00
         0.00000E+00
         0.00000E+00
         0.00000E+00
         0.00000E+00
         0.00000E+00
         0.00000E+00
         0.00000E+00
         0.00000E+00
         0.00000E+00
         0.00000E+00
         0.00000E+00
         0.00000E+00
         0.00000E+00
         0.00000E+00
         0.00000E+00
         0.00000E+00
         0.00000E+00
         0.00000E+00
         0.00000E+00
         0.00000E+00
         0.00000E+00
         0.00000E+00
         0.00000E+00
         0.00000E+00
         0.00000E+00
         0.00000E+00
         0.00000E+00
         0.00000E+00
         0.00000E+00
         0.00000E+00
         0.00000E+00
         0.00000E+00
         0.00000E+00
         0.00000E+00
         0.00000E+00
         0.00000E+00
         0.00000E+00
         0.00000E+00
         0.00000E+00
         0.00000E+00
         0.00000E+00
         0.00000E+00
         0.00000E+00
         0.00000E+00
         0.00000E+00
         0.00000E+00
         0.00000E+00
         0.00000E+00
         0.00000E+00
         0.00000E+00
         0.00000E+00
         0.00000E+00
         0.00000E+00
         0.00000E+00
         0.00000E+00
         0.00000E+00
         0.00000E+00
         0.00000E+00
         0.00000E+00
         0.00000E+00
         0.00000E+00
         0.00000E+00
         0.00000E+00
         0.00000E+00
         0.00000E+00
         0.00000E+00
         0.00000E+00
         0.00000E+00
         0.00000E+00
         0.00000E+00
         0.00000E+00
         0.00000E+00
         0.00000E+00
         0.00000E+00
         0.00000E+00
         0.00000E+00
         0.00000E+00
         0.00000E+00
         0.00000E+00
         0.00000E+00
         0.00000E+00
         0.00000E+00
         0.00000E+00
         0.00000E+00
         0.00000E+00
         0.00000E+00
         0.00000E+00
         0.00000E+00
         0.00000E+00
         0.00000E+00
         0.00000E+00
         0.00000E+00
         0.00000E+00
         0.00000E+00
         0.00000E+00
         0.00000E+00
         0.00000E+00
         0.00000E+00
         0.00000E+00
         0.00000E+00
         0.00000E+00
         0.00000E+00
         0.00000E+00
         0.00000E+00
         0.00000E+00
         0.00000E+00
         0.00000E+00
         0.00000E+00
         0.00000E+00
         0.00000E+00
         0.00000E+00
         0.00000E+00
         0.00000E+00
         0.00000E+00
         0.00000E+00
         0.00000E+00
         0.00000E+00
         0.00000E+00
         0.00000E+00
         0.00000E+00
         0.00000E+00
         0.00000E+00
         0.00000E+00
         0.00000E+00
         0.00000E+00
         0.00000E+00
         0.00000E+00
         0.00000E+00
         0.00000E+00
         0.00000E+00
         0.00000E+00
         0.00000E+00
         0.00000E+00
         0.00000E+00
         0.00000E+00
         0.00000E+00
         0.00000E+00
         0.00000E+00
         0.00000E+00
         0.00000E+00
         0.00000E+00
         0.00000E+00
         0.00000E+00
         0.00000E+00
         0.00000E+00
         0.00000E+00
         0.00000E+00
         0.00000E+00
         0.00000E+00
         0.00000E+00
         0.00000E+00
         0.00000E+00
         0.00000E+00
         0.00000E+00
         0.00000E+00
         0.00000E+00
         0.00000E+00
         0.00000E+00
         0.00000E+00
         0.00000E+00
         0.00000E+00
         0.00000E+00
         0.00000E+00
         0.00000E+00
         0.00000E+00
         0.00000E+00
         0.00000E+00
         0.00000E+00
         0.00000E+00
         0.00000E+00
         0.00000E+00
         0.00000E+00
         0.00000E+00
         0.00000E+00
         0.00000E+00
         0.00000E+00
         0.00000E+00
         0.00000E+00
         0.00000E+00
         0.00000E+00
         0.00000E+00
         0.00000E+00
         0.00000E+00
         0.00000E+00
         0.00000E+00
         0.00000E+00
         0.00000E+00
         0.00000E+00
         0.00000E+00
         0.00000E+00
         0.00000E+00
         0.00000E+00
         0.00000E+00
         0.00000E+00
         0.00000E+00
         0.00000E+00
         0.00000E+00
         0.00000E+00
         0.00000E+00
         0.00000E+00
         0.00000E+00
         0.00000E+00
         0.00000E+00
         0.00000E+00
  
SCALARS                         fint_z  double 1
LOOKUP_TABLE default
         0.00000E+00
         0.00000E+00
         0.00000E+00
         0.00000E+00
         0.00000E+00
         0.00000E+00
         0.00000E+00
         0.00000E+00
         0.00000E+00
         0.00000E+00
         0.00000E+00
         0.00000E+00
         0.00000E+00
         0.00000E+00
         0.00000E+00
         0.00000E+00
         0.00000E+00
         0.00000E+00
         0.00000E+00
         0.00000E+00
         0.00000E+00
         0.00000E+00
         0.00000E+00
         0.00000E+00
         0.00000E+00
         0.00000E+00
         0.00000E+00
         0.00000E+00
         0.00000E+00
         0.00000E+00
         0.00000E+00
         0.00000E+00
         0.00000E+00
         0.00000E+00
         0.00000E+00
         0.00000E+00
         0.00000E+00
         0.00000E+00
         0.00000E+00
         0.00000E+00
         0.00000E+00
         0.00000E+00
         0.00000E+00
         0.00000E+00
         0.00000E+00
         0.00000E+00
         0.00000E+00
         0.00000E+00
         0.00000E+00
         0.00000E+00
         0.00000E+00
         0.00000E+00
         0.00000E+00
         0.00000E+00
         0.00000E+00
         0.00000E+00
         0.00000E+00
         0.00000E+00
         0.00000E+00
         0.00000E+00
         0.00000E+00
         0.00000E+00
         0.00000E+00
         0.00000E+00
         0.00000E+00
         0.00000E+00
         0.00000E+00
         0.00000E+00
         0.00000E+00
         0.00000E+00
         0.00000E+00
         0.00000E+00
         0.00000E+00
         0.00000E+00
         0.00000E+00
         0.00000E+00
         0.00000E+00
         0.00000E+00
         0.00000E+00
         0.00000E+00
         0.00000E+00
         0.00000E+00
         0.00000E+00
         0.00000E+00
         0.00000E+00
         0.00000E+00
         0.00000E+00
         0.00000E+00
         0.00000E+00
         0.00000E+00
         0.00000E+00
         0.00000E+00
         0.00000E+00
         0.00000E+00
         0.00000E+00
         0.00000E+00
         0.00000E+00
         0.00000E+00
         0.00000E+00
         0.00000E+00
         0.00000E+00
         0.00000E+00
         0.00000E+00
         0.00000E+00
         0.00000E+00
         0.00000E+00
         0.00000E+00
         0.00000E+00
         0.00000E+00
         0.00000E+00
         0.00000E+00
         0.00000E+00
         0.00000E+00
         0.00000E+00
         0.00000E+00
         0.00000E+00
         0.00000E+00
         0.00000E+00
         0.00000E+00
         0.00000E+00
         0.00000E+00
         0.00000E+00
         0.00000E+00
         0.00000E+00
         0.00000E+00
         0.00000E+00
         0.00000E+00
         0.00000E+00
         0.00000E+00
         0.00000E+00
         0.00000E+00
         0.00000E+00
         0.00000E+00
         0.00000E+00
         0.00000E+00
         0.00000E+00
         0.00000E+00
         0.00000E+00
         0.00000E+00
         0.00000E+00
         0.00000E+00
         0.00000E+00
         0.00000E+00
         0.00000E+00
         0.00000E+00
         0.00000E+00
         0.00000E+00
         0.00000E+00
         0.00000E+00
         0.00000E+00
         0.00000E+00
         0.00000E+00
         0.00000E+00
         0.00000E+00
         0.00000E+00
         0.00000E+00
         0.00000E+00
         0.00000E+00
         0.00000E+00
         0.00000E+00
         0.00000E+00
         0.00000E+00
         0.00000E+00
         0.00000E+00
         0.00000E+00
         0.00000E+00
         0.00000E+00
         0.00000E+00
         0.00000E+00
         0.00000E+00
         0.00000E+00
         0.00000E+00
         0.00000E+00
         0.00000E+00
         0.00000E+00
         0.00000E+00
         0.00000E+00
         0.00000E+00
         0.00000E+00
         0.00000E+00
         0.00000E+00
         0.00000E+00
         0.00000E+00
         0.00000E+00
         0.00000E+00
         0.00000E+00
         0.00000E+00
         0.00000E+00
         0.00000E+00
         0.00000E+00
         0.00000E+00
         0.00000E+00
         0.00000E+00
         0.00000E+00
         0.00000E+00
         0.00000E+00
         0.00000E+00
         0.00000E+00
         0.00000E+00
         0.00000E+00
         0.00000E+00
         0.00000E+00
         0.00000E+00
         0.00000E+00
         0.00000E+00
         0.00000E+00
         0.00000E+00
         0.00000E+00
         0.00000E+00
         0.00000E+00
         0.00000E+00
         0.00000E+00
         0.00000E+00
         0.00000E+00
         0.00000E+00
         0.00000E+00
         0.00000E+00
         0.00000E+00
         0.00000E+00
         0.00000E+00
         0.00000E+00
         0.00000E+00
         0.00000E+00
         0.00000E+00
         0.00000E+00
         0.00000E+00
         0.00000E+00
         0.00000E+00
         0.00000E+00
         0.00000E+00
         0.00000E+00
         0.00000E+00
         0.00000E+00
         0.00000E+00
         0.00000E+00
         0.00000E+00
         0.00000E+00
         0.00000E+00
         0.00000E+00
         0.00000E+00
         0.00000E+00
         0.00000E+00
         0.00000E+00
         0.00000E+00
         0.00000E+00
         0.00000E+00
         0.00000E+00
         0.00000E+00
         0.00000E+00
         0.00000E+00
         0.00000E+00
         0.00000E+00
         0.00000E+00
         0.00000E+00
         0.00000E+00
         0.00000E+00
         0.00000E+00
         0.00000E+00
         0.00000E+00
         0.00000E+00
         0.00000E+00
         0.00000E+00
         0.00000E+00
         0.00000E+00
         0.00000E+00
         0.00000E+00
         0.00000E+00
         0.00000E+00
         0.00000E+00
         0.00000E+00
         0.00000E+00
         0.00000E+00
         0.00000E+00
         0.00000E+00
         0.00000E+00
         0.00000E+00
         0.00000E+00
         0.00000E+00
         0.00000E+00
         0.00000E+00
         0.00000E+00
         0.00000E+00
         0.00000E+00
         0.00000E+00
         0.00000E+00
         0.00000E+00
         0.00000E+00
         0.00000E+00
         0.00000E+00
         0.00000E+00
         0.00000E+00
         0.00000E+00
         0.00000E+00
         0.00000E+00
         0.00000E+00
         0.00000E+00
         0.00000E+00
         0.00000E+00
         0.00000E+00
         0.00000E+00
         0.00000E+00
         0.00000E+00
         0.00000E+00
         0.00000E+00
         0.00000E+00
         0.00000E+00
         0.00000E+00
         0.00000E+00
         0.00000E+00
         0.00000E+00
         0.00000E+00
         0.00000E+00
         0.00000E+00
         0.00000E+00
         0.00000E+00
         0.00000E+00
         0.00000E+00
         0.00000E+00
         0.00000E+00
         0.00000E+00
         0.00000E+00
         0.00000E+00
         0.00000E+00
         0.00000E+00
         0.00000E+00
         0.00000E+00
         0.00000E+00
         0.00000E+00
         0.00000E+00
         0.00000E+00
         0.00000E+00
         0.00000E+00
         0.00000E+00
         0.00000E+00
         0.00000E+00
         0.00000E+00
         0.00000E+00
         0.00000E+00
         0.00000E+00
         0.00000E+00
         0.00000E+00
         0.00000E+00
         0.00000E+00
         0.00000E+00
         0.00000E+00
         0.00000E+00
         0.00000E+00
         0.00000E+00
         0.00000E+00
         0.00000E+00
         0.00000E+00
         0.00000E+00
         0.00000E+00
         0.00000E+00
         0.00000E+00
         0.00000E+00
         0.00000E+00
         0.00000E+00
         0.00000E+00
         0.00000E+00
         0.00000E+00
         0.00000E+00
         0.00000E+00
         0.00000E+00
         0.00000E+00
         0.00000E+00
         0.00000E+00
         0.00000E+00
         0.00000E+00
         0.00000E+00
         0.00000E+00
         0.00000E+00
         0.00000E+00
         0.00000E+00
         0.00000E+00
         0.00000E+00
         0.00000E+00
         0.00000E+00
         0.00000E+00
         0.00000E+00
         0.00000E+00
         0.00000E+00
         0.00000E+00
         0.00000E+00
         0.00000E+00
         0.00000E+00
         0.00000E+00
         0.00000E+00
         0.00000E+00
         0.00000E+00
         0.00000E+00
         0.00000E+00
         0.00000E+00
         0.00000E+00
         0.00000E+00
         0.00000E+00
         0.00000E+00
         0.00000E+00
         0.00000E+00
         0.00000E+00
         0.00000E+00
         0.00000E+00
         0.00000E+00
         0.00000E+00
         0.00000E+00
         0.00000E+00
         0.00000E+00
         0.00000E+00
         0.00000E+00
         0.00000E+00
         0.00000E+00
         0.00000E+00
         0.00000E+00
         0.00000E+00
         0.00000E+00
         0.00000E+00
         0.00000E+00
         0.00000E+00
         0.00000E+00
         0.00000E+00
         0.00000E+00
         0.00000E+00
         0.00000E+00
         0.00000E+00
         0.00000E+00
         0.00000E+00
         0.00000E+00
         0.00000E+00
         0.00000E+00
         0.00000E+00
         0.00000E+00
         0.00000E+00
         0.00000E+00
         0.00000E+00
         0.00000E+00
         0.00000E+00
         0.00000E+00
         0.00000E+00
         0.00000E+00
         0.00000E+00
         0.00000E+00
         0.00000E+00
         0.00000E+00
         0.00000E+00
         0.00000E+00
         0.00000E+00
         0.00000E+00
         0.00000E+00
         0.00000E+00
         0.00000E+00
         0.00000E+00
         0.00000E+00
         0.00000E+00
         0.00000E+00
         0.00000E+00
         0.00000E+00
         0.00000E+00
         0.00000E+00
         0.00000E+00
         0.00000E+00
         0.00000E+00
         0.00000E+00
         0.00000E+00
         0.00000E+00
         0.00000E+00
         0.00000E+00
         0.00000E+00
         0.00000E+00
         0.00000E+00
         0.00000E+00
         0.00000E+00
         0.00000E+00
         0.00000E+00
         0.00000E+00
         0.00000E+00
         0.00000E+00
         0.00000E+00
         0.00000E+00
         0.00000E+00
         0.00000E+00
         0.00000E+00
         0.00000E+00
         0.00000E+00
         0.00000E+00
         0.00000E+00
         0.00000E+00
         0.00000E+00
         0.00000E+00
         0.00000E+00
         0.00000E+00
         0.00000E+00
         0.00000E+00
         0.00000E+00
         0.00000E+00
         0.00000E+00
         0.00000E+00
         0.00000E+00
         0.00000E+00
         0.00000E+00
         0.00000E+00
         0.00000E+00
         0.00000E+00
         0.00000E+00
         0.00000E+00
         0.00000E+00
         0.00000E+00
         0.00000E+00
         0.00000E+00
         0.00000E+00
         0.00000E+00
         0.00000E+00
         0.00000E+00
         0.00000E+00
         0.00000E+00
         0.00000E+00
         0.00000E+00
         0.00000E+00
         0.00000E+00
         0.00000E+00
         0.00000E+00
         0.00000E+00
         0.00000E+00
         0.00000E+00
         0.00000E+00
         0.00000E+00
         0.00000E+00
         0.00000E+00
         0.00000E+00
         0.00000E+00
         0.00000E+00
         0.00000E+00
         0.00000E+00
         0.00000E+00
         0.00000E+00
         0.00000E+00
         0.00000E+00
         0.00000E+00
         0.00000E+00
         0.00000E+00
         0.00000E+00
         0.00000E+00
         0.00000E+00
         0.00000E+00
         0.00000E+00
         0.00000E+00
         0.00000E+00
         0.00000E+00
         0.00000E+00
         0.00000E+00
         0.00000E+00
         0.00000E+00
         0.00000E+00
         0.00000E+00
         0.00000E+00
         0.00000E+00
         0.00000E+00
         0.00000E+00
         0.00000E+00
         0.00000E+00
         0.00000E+00
         0.00000E+00
         0.00000E+00
         0.00000E+00
         0.00000E+00
         0.00000E+00
         0.00000E+00
         0.00000E+00
         0.00000E+00
         0.00000E+00
         0.00000E+00
         0.00000E+00
         0.00000E+00
         0.00000E+00
         0.00000E+00
         0.00000E+00
         0.00000E+00
         0.00000E+00
         0.00000E+00
         0.00000E+00
         0.00000E+00
         0.00000E+00
         0.00000E+00
         0.00000E+00
         0.00000E+00
         0.00000E+00
         0.00000E+00
         0.00000E+00
         0.00000E+00
         0.00000E+00
         0.00000E+00
         0.00000E+00
         0.00000E+00
         0.00000E+00
         0.00000E+00
         0.00000E+00
         0.00000E+00
         0.00000E+00
         0.00000E+00
         0.00000E+00
         0.00000E+00
         0.00000E+00
         0.00000E+00
         0.00000E+00
         0.00000E+00
         0.00000E+00
         0.00000E+00
         0.00000E+00
         0.00000E+00
         0.00000E+00
         0.00000E+00
         0.00000E+00
         0.00000E+00
         0.00000E+00
         0.00000E+00
         0.00000E+00
         0.00000E+00
         0.00000E+00
         0.00000E+00
         0.00000E+00
         0.00000E+00
         0.00000E+00
         0.00000E+00
         0.00000E+00
         0.00000E+00
         0.00000E+00
         0.00000E+00
         0.00000E+00
         0.00000E+00
         0.00000E+00
         0.00000E+00
         0.00000E+00
         0.00000E+00
         0.00000E+00
         0.00000E+00
         0.00000E+00
         0.00000E+00
         0.00000E+00
         0.00000E+00
         0.00000E+00
         0.00000E+00
         0.00000E+00
         0.00000E+00
         0.00000E+00
         0.00000E+00
         0.00000E+00
         0.00000E+00
         0.00000E+00
         0.00000E+00
         0.00000E+00
         0.00000E+00
         0.00000E+00
         0.00000E+00
         0.00000E+00
         0.00000E+00
         0.00000E+00
         0.00000E+00
         0.00000E+00
         0.00000E+00
         0.00000E+00
         0.00000E+00
         0.00000E+00
         0.00000E+00
         0.00000E+00
         0.00000E+00
         0.00000E+00
         0.00000E+00
         0.00000E+00
         0.00000E+00
         0.00000E+00
         0.00000E+00
         0.00000E+00
         0.00000E+00
         0.00000E+00
         0.00000E+00
         0.00000E+00
         0.00000E+00
         0.00000E+00
         0.00000E+00
         0.00000E+00
         0.00000E+00
         0.00000E+00
         0.00000E+00
         0.00000E+00
         0.00000E+00
         0.00000E+00
         0.00000E+00
         0.00000E+00
         0.00000E+00
         0.00000E+00
         0.00000E+00
         0.00000E+00
         0.00000E+00
         0.00000E+00
         0.00000E+00
         0.00000E+00
         0.00000E+00
         0.00000E+00
         0.00000E+00
         0.00000E+00
         0.00000E+00
         0.00000E+00
         0.00000E+00
         0.00000E+00
         0.00000E+00
         0.00000E+00
         0.00000E+00
         0.00000E+00
         0.00000E+00
         0.00000E+00
         0.00000E+00
         0.00000E+00
         0.00000E+00
         0.00000E+00
         0.00000E+00
         0.00000E+00
         0.00000E+00
         0.00000E+00
         0.00000E+00
         0.00000E+00
         0.00000E+00
         0.00000E+00
         0.00000E+00
         0.00000E+00
         0.00000E+00
         0.00000E+00
         0.00000E+00
         0.00000E+00
         0.00000E+00
         0.00000E+00
         0.00000E+00
         0.00000E+00
         0.00000E+00
         0.00000E+00
         0.00000E+00
         0.00000E+00
         0.00000E+00
         0.00000E+00
         0.00000E+00
         0.00000E+00
         0.00000E+00
         0.00000E+00
         0.00000E+00
         0.00000E+00
         0.00000E+00
         0.00000E+00
         0.00000E+00
         0.00000E+00
         0.00000E+00
         0.00000E+00
         0.00000E+00
         0.00000E+00
         0.00000E+00
         0.00000E+00
         0.00000E+00
         0.00000E+00
         0.00000E+00
         0.00000E+00
         0.00000E+00
         0.00000E+00
         0.00000E+00
         0.00000E+00
         0.00000E+00
         0.00000E+00
         0.00000E+00
         0.00000E+00
         0.00000E+00
         0.00000E+00
         0.00000E+00
         0.00000E+00
         0.00000E+00
         0.00000E+00
         0.00000E+00
         0.00000E+00
         0.00000E+00
         0.00000E+00
         0.00000E+00
         0.00000E+00
         0.00000E+00
         0.00000E+00
         0.00000E+00
         0.00000E+00
         0.00000E+00
         0.00000E+00
         0.00000E+00
         0.00000E+00
         0.00000E+00
         0.00000E+00
         0.00000E+00
         0.00000E+00
         0.00000E+00
         0.00000E+00
         0.00000E+00
         0.00000E+00
         0.00000E+00
         0.00000E+00
         0.00000E+00
         0.00000E+00
         0.00000E+00
         0.00000E+00
         0.00000E+00
         0.00000E+00
         0.00000E+00
         0.00000E+00
         0.00000E+00
         0.00000E+00
         0.00000E+00
         0.00000E+00
         0.00000E+00
         0.00000E+00
         0.00000E+00
         0.00000E+00
         0.00000E+00
         0.00000E+00
         0.00000E+00
         0.00000E+00
         0.00000E+00
         0.00000E+00
         0.00000E+00
         0.00000E+00
         0.00000E+00
         0.00000E+00
         0.00000E+00
         0.00000E+00
         0.00000E+00
         0.00000E+00
         0.00000E+00
         0.00000E+00
         0.00000E+00
         0.00000E+00
         0.00000E+00
         0.00000E+00
         0.00000E+00
         0.00000E+00
         0.00000E+00
         0.00000E+00
         0.00000E+00
         0.00000E+00
         0.00000E+00
         0.00000E+00
         0.00000E+00
         0.00000E+00
         0.00000E+00
         0.00000E+00
         0.00000E+00
         0.00000E+00
         0.00000E+00
         0.00000E+00
         0.00000E+00
         0.00000E+00
         0.00000E+00
         0.00000E+00
         0.00000E+00
         0.00000E+00
         0.00000E+00
         0.00000E+00
         0.00000E+00
         0.00000E+00
         0.00000E+00
         0.00000E+00
         0.00000E+00
         0.00000E+00
         0.00000E+00
         0.00000E+00
         0.00000E+00
         0.00000E+00
         0.00000E+00
         0.00000E+00
         0.00000E+00
         0.00000E+00
         0.00000E+00
         0.00000E+00
         0.00000E+00
         0.00000E+00
         0.00000E+00
         0.00000E+00
         0.00000E+00
         0.00000E+00
         0.00000E+00
         0.00000E+00
         0.00000E+00
         0.00000E+00
         0.00000E+00
         0.00000E+00
         0.00000E+00
         0.00000E+00
         0.00000E+00
         0.00000E+00
         0.00000E+00
         0.00000E+00
         0.00000E+00
         0.00000E+00
         0.00000E+00
         0.00000E+00
         0.00000E+00
         0.00000E+00
         0.00000E+00
         0.00000E+00
         0.00000E+00
         0.00000E+00
         0.00000E+00
         0.00000E+00
         0.00000E+00
         0.00000E+00
         0.00000E+00
         0.00000E+00
         0.00000E+00
         0.00000E+00
         0.00000E+00
         0.00000E+00
         0.00000E+00
         0.00000E+00
         0.00000E+00
         0.00000E+00
         0.00000E+00
         0.00000E+00
         0.00000E+00
         0.00000E+00
         0.00000E+00
         0.00000E+00
         0.00000E+00
         0.00000E+00
         0.00000E+00
         0.00000E+00
         0.00000E+00
         0.00000E+00
         0.00000E+00
         0.00000E+00
         0.00000E+00
         0.00000E+00
         0.00000E+00
         0.00000E+00
         0.00000E+00
         0.00000E+00
         0.00000E+00
         0.00000E+00
         0.00000E+00
         0.00000E+00
         0.00000E+00
         0.00000E+00
         0.00000E+00
         0.00000E+00
         0.00000E+00
         0.00000E+00
         0.00000E+00
         0.00000E+00
         0.00000E+00
         0.00000E+00
         0.00000E+00
         0.00000E+00
         0.00000E+00
         0.00000E+00
         0.00000E+00
         0.00000E+00
         0.00000E+00
         0.00000E+00
         0.00000E+00
         0.00000E+00
         0.00000E+00
         0.00000E+00
         0.00000E+00
         0.00000E+00
         0.00000E+00
         0.00000E+00
         0.00000E+00
         0.00000E+00
         0.00000E+00
         0.00000E+00
         0.00000E+00
         0.00000E+00
         0.00000E+00
         0.00000E+00
         0.00000E+00
         0.00000E+00
         0.00000E+00
         0.00000E+00
         0.00000E+00
         0.00000E+00
         0.00000E+00
         0.00000E+00
         0.00000E+00
         0.00000E+00
         0.00000E+00
         0.00000E+00
         0.00000E+00
         0.00000E+00
         0.00000E+00
         0.00000E+00
         0.00000E+00
         0.00000E+00
         0.00000E+00
         0.00000E+00
         0.00000E+00
         0.00000E+00
         0.00000E+00
         0.00000E+00
         0.00000E+00
         0.00000E+00
         0.00000E+00
         0.00000E+00
         0.00000E+00
         0.00000E+00
         0.00000E+00
         0.00000E+00
         0.00000E+00
         0.00000E+00
         0.00000E+00
         0.00000E+00
         0.00000E+00
         0.00000E+00
         0.00000E+00
         0.00000E+00
         0.00000E+00
         0.00000E+00
         0.00000E+00
         0.00000E+00
         0.00000E+00
         0.00000E+00
         0.00000E+00
         0.00000E+00
         0.00000E+00
         0.00000E+00
         0.00000E+00
         0.00000E+00
         0.00000E+00
         0.00000E+00
         0.00000E+00
         0.00000E+00
         0.00000E+00
         0.00000E+00
         0.00000E+00
         0.00000E+00
         0.00000E+00
         0.00000E+00
         0.00000E+00
         0.00000E+00
         0.00000E+00
         0.00000E+00
         0.00000E+00
         0.00000E+00
         0.00000E+00
         0.00000E+00
         0.00000E+00
         0.00000E+00
         0.00000E+00
         0.00000E+00
         0.00000E+00
         0.00000E+00
         0.00000E+00
         0.00000E+00
         0.00000E+00
         0.00000E+00
         0.00000E+00
         0.00000E+00
         0.00000E+00
         0.00000E+00
         0.00000E+00
         0.00000E+00
         0.00000E+00
         0.00000E+00
         0.00000E+00
         0.00000E+00
         0.00000E+00
         0.00000E+00
         0.00000E+00
         0.00000E+00
         0.00000E+00
         0.00000E+00
         0.00000E+00
         0.00000E+00
         0.00000E+00
         0.00000E+00
         0.00000E+00
         0.00000E+00
         0.00000E+00
         0.00000E+00
         0.00000E+00
         0.00000E+00
         0.00000E+00
         0.00000E+00
         0.00000E+00
         0.00000E+00
         0.00000E+00
         0.00000E+00
         0.00000E+00
         0.00000E+00
         0.00000E+00
         0.00000E+00
         0.00000E+00
         0.00000E+00
         0.00000E+00
         0.00000E+00
         0.00000E+00
         0.00000E+00
         0.00000E+00
         0.00000E+00
         0.00000E+00
         0.00000E+00
         0.00000E+00
         0.00000E+00
         0.00000E+00
         0.00000E+00
         0.00000E+00
         0.00000E+00
         0.00000E+00
         0.00000E+00
         0.00000E+00
         0.00000E+00
         0.00000E+00
         0.00000E+00
         0.00000E+00
         0.00000E+00
         0.00000E+00
         0.00000E+00
         0.00000E+00
         0.00000E+00
         0.00000E+00
         0.00000E+00
         0.00000E+00
         0.00000E+00
         0.00000E+00
         0.00000E+00
         0.00000E+00
         0.00000E+00
         0.00000E+00
         0.00000E+00
         0.00000E+00
         0.00000E+00
         0.00000E+00
         0.00000E+00
         0.00000E+00
         0.00000E+00
         0.00000E+00
         0.00000E+00
         0.00000E+00
         0.00000E+00
         0.00000E+00
         0.00000E+00
         0.00000E+00
         0.00000E+00
         0.00000E+00
         0.00000E+00
         0.00000E+00
         0.00000E+00
         0.00000E+00
         0.00000E+00
         0.00000E+00
         0.00000E+00
         0.00000E+00
         0.00000E+00
         0.00000E+00
         0.00000E+00
         0.00000E+00
         0.00000E+00
         0.00000E+00
         0.00000E+00
         0.00000E+00
         0.00000E+00
         0.00000E+00
         0.00000E+00
         0.00000E+00
         0.00000E+00
         0.00000E+00
         0.00000E+00
         0.00000E+00
         0.00000E+00
         0.00000E+00
         0.00000E+00
         0.00000E+00
         0.00000E+00
         0.00000E+00
         0.00000E+00
         0.00000E+00
         0.00000E+00
         0.00000E+00
         0.00000E+00
         0.00000E+00
         0.00000E+00
         0.00000E+00
         0.00000E+00
         0.00000E+00
         0.00000E+00
         0.00000E+00
         0.00000E+00
         0.00000E+00
         0.00000E+00
         0.00000E+00
         0.00000E+00
         0.00000E+00
         0.00000E+00
         0.00000E+00
         0.00000E+00
         0.00000E+00
         0.00000E+00
         0.00000E+00
         0.00000E+00
         0.00000E+00
         0.00000E+00
         0.00000E+00
         0.00000E+00
         0.00000E+00
         0.00000E+00
         0.00000E+00
         0.00000E+00
         0.00000E+00
         0.00000E+00
         0.00000E+00
         0.00000E+00
         0.00000E+00
         0.00000E+00
         0.00000E+00
         0.00000E+00
         0.00000E+00
         0.00000E+00
         0.00000E+00
         0.00000E+00
         0.00000E+00
         0.00000E+00
         0.00000E+00
         0.00000E+00
         0.00000E+00
         0.00000E+00
         0.00000E+00
         0.00000E+00
         0.00000E+00
         0.00000E+00
         0.00000E+00
         0.00000E+00
         0.00000E+00
         0.00000E+00
         0.00000E+00
         0.00000E+00
         0.00000E+00
         0.00000E+00
         0.00000E+00
         0.00000E+00
         0.00000E+00
         0.00000E+00
         0.00000E+00
         0.00000E+00
         0.00000E+00
         0.00000E+00
         0.00000E+00
         0.00000E+00
         0.00000E+00
         0.00000E+00
         0.00000E+00
         0.00000E+00
         0.00000E+00
         0.00000E+00
         0.00000E+00
         0.00000E+00
         0.00000E+00
         0.00000E+00
         0.00000E+00
         0.00000E+00
         0.00000E+00
         0.00000E+00
         0.00000E+00
         0.00000E+00
         0.00000E+00
         0.00000E+00
         0.00000E+00
         0.00000E+00
         0.00000E+00
         0.00000E+00
         0.00000E+00
         0.00000E+00
         0.00000E+00
         0.00000E+00
         0.00000E+00
         0.00000E+00
         0.00000E+00
         0.00000E+00
         0.00000E+00
         0.00000E+00
         0.00000E+00
         0.00000E+00
         0.00000E+00
         0.00000E+00
         0.00000E+00
         0.00000E+00
         0.00000E+00
         0.00000E+00
         0.00000E+00
         0.00000E+00
         0.00000E+00
         0.00000E+00
         0.00000E+00
         0.00000E+00
         0.00000E+00
         0.00000E+00
         0.00000E+00
         0.00000E+00
         0.00000E+00
         0.00000E+00
         0.00000E+00
         0.00000E+00
         0.00000E+00
         0.00000E+00
         0.00000E+00
         0.00000E+00
         0.00000E+00
         0.00000E+00
         0.00000E+00
         0.00000E+00
         0.00000E+00
         0.00000E+00
         0.00000E+00
         0.00000E+00
         0.00000E+00
         0.00000E+00
         0.00000E+00
         0.00000E+00
         0.00000E+00
         0.00000E+00
         0.00000E+00
         0.00000E+00
         0.00000E+00
         0.00000E+00
         0.00000E+00
         0.00000E+00
         0.00000E+00
         0.00000E+00
         0.00000E+00
         0.00000E+00
         0.00000E+00
         0.00000E+00
         0.00000E+00
         0.00000E+00
         0.00000E+00
         0.00000E+00
         0.00000E+00
         0.00000E+00
         0.00000E+00
         0.00000E+00
         0.00000E+00
         0.00000E+00
         0.00000E+00
         0.00000E+00
         0.00000E+00
         0.00000E+00
         0.00000E+00
         0.00000E+00
         0.00000E+00
         0.00000E+00
         0.00000E+00
         0.00000E+00
         0.00000E+00
         0.00000E+00
         0.00000E+00
         0.00000E+00
         0.00000E+00
         0.00000E+00
         0.00000E+00
         0.00000E+00
         0.00000E+00
         0.00000E+00
         0.00000E+00
         0.00000E+00
         0.00000E+00
         0.00000E+00
         0.00000E+00
         0.00000E+00
         0.00000E+00
         0.00000E+00
         0.00000E+00
         0.00000E+00
         0.00000E+00
         0.00000E+00
         0.00000E+00
         0.00000E+00
         0.00000E+00
         0.00000E+00
         0.00000E+00
         0.00000E+00
         0.00000E+00
         0.00000E+00
         0.00000E+00
         0.00000E+00
         0.00000E+00
         0.00000E+00
         0.00000E+00
         0.00000E+00
         0.00000E+00
         0.00000E+00
         0.00000E+00
         0.00000E+00
         0.00000E+00
         0.00000E+00
         0.00000E+00
         0.00000E+00
         0.00000E+00
         0.00000E+00
         0.00000E+00
         0.00000E+00
         0.00000E+00
         0.00000E+00
         0.00000E+00
         0.00000E+00
         0.00000E+00
         0.00000E+00
         0.00000E+00
         0.00000E+00
         0.00000E+00
         0.00000E+00
         0.00000E+00
         0.00000E+00
         0.00000E+00
         0.00000E+00
         0.00000E+00
         0.00000E+00
         0.00000E+00
         0.00000E+00
         0.00000E+00
         0.00000E+00
         0.00000E+00
         0.00000E+00
         0.00000E+00
         0.00000E+00
         0.00000E+00
         0.00000E+00
         0.00000E+00
         0.00000E+00
         0.00000E+00
         0.00000E+00
         0.00000E+00
         0.00000E+00
         0.00000E+00
         0.00000E+00
         0.00000E+00
         0.00000E+00
         0.00000E+00
         0.00000E+00
         0.00000E+00
         0.00000E+00
         0.00000E+00
         0.00000E+00
         0.00000E+00
         0.00000E+00
         0.00000E+00
         0.00000E+00
         0.00000E+00
         0.00000E+00
         0.00000E+00
         0.00000E+00
         0.00000E+00
         0.00000E+00
         0.00000E+00
         0.00000E+00
         0.00000E+00
         0.00000E+00
         0.00000E+00
         0.00000E+00
         0.00000E+00
         0.00000E+00
         0.00000E+00
         0.00000E+00
         0.00000E+00
         0.00000E+00
         0.00000E+00
         0.00000E+00
         0.00000E+00
         0.00000E+00
         0.00000E+00
         0.00000E+00
         0.00000E+00
         0.00000E+00
         0.00000E+00
         0.00000E+00
         0.00000E+00
         0.00000E+00
         0.00000E+00
         0.00000E+00
         0.00000E+00
         0.00000E+00
         0.00000E+00
         0.00000E+00
         0.00000E+00
         0.00000E+00
         0.00000E+00
         0.00000E+00
         0.00000E+00
         0.00000E+00
         0.00000E+00
         0.00000E+00
         0.00000E+00
         0.00000E+00
         0.00000E+00
         0.00000E+00
         0.00000E+00
         0.00000E+00
         0.00000E+00
         0.00000E+00
         0.00000E+00
         0.00000E+00
         0.00000E+00
         0.00000E+00
         0.00000E+00
         0.00000E+00
         0.00000E+00
         0.00000E+00
         0.00000E+00
         0.00000E+00
         0.00000E+00
         0.00000E+00
         0.00000E+00
         0.00000E+00
         0.00000E+00
         0.00000E+00
         0.00000E+00
         0.00000E+00
         0.00000E+00
         0.00000E+00
         0.00000E+00
         0.00000E+00
         0.00000E+00
         0.00000E+00
         0.00000E+00
         0.00000E+00
         0.00000E+00
         0.00000E+00
         0.00000E+00
         0.00000E+00
         0.00000E+00
         0.00000E+00
         0.00000E+00
         0.00000E+00
         0.00000E+00
         0.00000E+00
         0.00000E+00
         0.00000E+00
         0.00000E+00
         0.00000E+00
         0.00000E+00
         0.00000E+00
         0.00000E+00
         0.00000E+00
         0.00000E+00
         0.00000E+00
         0.00000E+00
         0.00000E+00
         0.00000E+00
         0.00000E+00
         0.00000E+00
         0.00000E+00
         0.00000E+00
         0.00000E+00
         0.00000E+00
         0.00000E+00
         0.00000E+00
         0.00000E+00
         0.00000E+00
         0.00000E+00
         0.00000E+00
         0.00000E+00
         0.00000E+00
         0.00000E+00
         0.00000E+00
         0.00000E+00
         0.00000E+00
         0.00000E+00
         0.00000E+00
         0.00000E+00
         0.00000E+00
         0.00000E+00
         0.00000E+00
         0.00000E+00
         0.00000E+00
         0.00000E+00
         0.00000E+00
         0.00000E+00
         0.00000E+00
         0.00000E+00
         0.00000E+00
         0.00000E+00
         0.00000E+00
         0.00000E+00
         0.00000E+00
         0.00000E+00
         0.00000E+00
         0.00000E+00
         0.00000E+00
         0.00000E+00
         0.00000E+00
         0.00000E+00
         0.00000E+00
         0.00000E+00
         0.00000E+00
         0.00000E+00
         0.00000E+00
         0.00000E+00
         0.00000E+00
         0.00000E+00
         0.00000E+00
         0.00000E+00
         0.00000E+00
         0.00000E+00
         0.00000E+00
         0.00000E+00
         0.00000E+00
         0.00000E+00
         0.00000E+00
         0.00000E+00
         0.00000E+00
         0.00000E+00
         0.00000E+00
         0.00000E+00
         0.00000E+00
         0.00000E+00
         0.00000E+00
         0.00000E+00
         0.00000E+00
         0.00000E+00
         0.00000E+00
         0.00000E+00
         0.00000E+00
         0.00000E+00
         0.00000E+00
         0.00000E+00
         0.00000E+00
         0.00000E+00
         0.00000E+00
         0.00000E+00
         0.00000E+00
         0.00000E+00
         0.00000E+00
         0.00000E+00
         0.00000E+00
         0.00000E+00
         0.00000E+00
         0.00000E+00
         0.00000E+00
         0.00000E+00
         0.00000E+00
         0.00000E+00
         0.00000E+00
         0.00000E+00
         0.00000E+00
         0.00000E+00
         0.00000E+00
         0.00000E+00
         0.00000E+00
         0.00000E+00
         0.00000E+00
         0.00000E+00
         0.00000E+00
         0.00000E+00
         0.00000E+00
         0.00000E+00
         0.00000E+00
         0.00000E+00
         0.00000E+00
         0.00000E+00
         0.00000E+00
         0.00000E+00
         0.00000E+00
         0.00000E+00
         0.00000E+00
         0.00000E+00
         0.00000E+00
         0.00000E+00
         0.00000E+00
         0.00000E+00
         0.00000E+00
         0.00000E+00
         0.00000E+00
         0.00000E+00
         0.00000E+00
         0.00000E+00
         0.00000E+00
         0.00000E+00
         0.00000E+00
         0.00000E+00
         0.00000E+00
         0.00000E+00
         0.00000E+00
         0.00000E+00
         0.00000E+00
         0.00000E+00
         0.00000E+00
         0.00000E+00
         0.00000E+00
         0.00000E+00
         0.00000E+00
         0.00000E+00
         0.00000E+00
         0.00000E+00
         0.00000E+00
         0.00000E+00
         0.00000E+00
         0.00000E+00
         0.00000E+00
         0.00000E+00
         0.00000E+00
         0.00000E+00
         0.00000E+00
         0.00000E+00
         0.00000E+00
         0.00000E+00
         0.00000E+00
         0.00000E+00
         0.00000E+00
         0.00000E+00
         0.00000E+00
         0.00000E+00
         0.00000E+00
         0.00000E+00
         0.00000E+00
         0.00000E+00
         0.00000E+00
         0.00000E+00
         0.00000E+00
         0.00000E+00
         0.00000E+00
         0.00000E+00
         0.00000E+00
         0.00000E+00
         0.00000E+00
         0.00000E+00
         0.00000E+00
         0.00000E+00
         0.00000E+00
         0.00000E+00
         0.00000E+00
         0.00000E+00
         0.00000E+00
         0.00000E+00
         0.00000E+00
         0.00000E+00
         0.00000E+00
         0.00000E+00
         0.00000E+00
         0.00000E+00
         0.00000E+00
         0.00000E+00
         0.00000E+00
         0.00000E+00
         0.00000E+00
         0.00000E+00
         0.00000E+00
         0.00000E+00
         0.00000E+00
         0.00000E+00
         0.00000E+00
         0.00000E+00
         0.00000E+00
         0.00000E+00
         0.00000E+00
         0.00000E+00
         0.00000E+00
         0.00000E+00
         0.00000E+00
         0.00000E+00
         0.00000E+00
         0.00000E+00
         0.00000E+00
         0.00000E+00
         0.00000E+00
         0.00000E+00
         0.00000E+00
         0.00000E+00
         0.00000E+00
         0.00000E+00
         0.00000E+00
         0.00000E+00
         0.00000E+00
         0.00000E+00
         0.00000E+00
         0.00000E+00
         0.00000E+00
         0.00000E+00
         0.00000E+00
         0.00000E+00
         0.00000E+00
         0.00000E+00
         0.00000E+00
         0.00000E+00
         0.00000E+00
         0.00000E+00
         0.00000E+00
         0.00000E+00
         0.00000E+00
         0.00000E+00
         0.00000E+00
         0.00000E+00
         0.00000E+00
         0.00000E+00
         0.00000E+00
         0.00000E+00
         0.00000E+00
         0.00000E+00
         0.00000E+00
         0.00000E+00
         0.00000E+00
         0.00000E+00
         0.00000E+00
         0.00000E+00
         0.00000E+00
         0.00000E+00
         0.00000E+00
         0.00000E+00
         0.00000E+00
         0.00000E+00
         0.00000E+00
         0.00000E+00
         0.00000E+00
         0.00000E+00
         0.00000E+00
         0.00000E+00
         0.00000E+00
         0.00000E+00
         0.00000E+00
         0.00000E+00
         0.00000E+00
         0.00000E+00
         0.00000E+00
         0.00000E+00
         0.00000E+00
         0.00000E+00
         0.00000E+00
         0.00000E+00
         0.00000E+00
         0.00000E+00
         0.00000E+00
         0.00000E+00
         0.00000E+00
         0.00000E+00
         0.00000E+00
         0.00000E+00
         0.00000E+00
         0.00000E+00
         0.00000E+00
         0.00000E+00
         0.00000E+00
         0.00000E+00
         0.00000E+00
         0.00000E+00
         0.00000E+00
         0.00000E+00
         0.00000E+00
         0.00000E+00
         0.00000E+00
         0.00000E+00
         0.00000E+00
         0.00000E+00
         0.00000E+00
         0.00000E+00
         0.00000E+00
         0.00000E+00
         0.00000E+00
         0.00000E+00
         0.00000E+00
         0.00000E+00
         0.00000E+00
         0.00000E+00
         0.00000E+00
         0.00000E+00
         0.00000E+00
         0.00000E+00
         0.00000E+00
         0.00000E+00
         0.00000E+00
         0.00000E+00
         0.00000E+00
         0.00000E+00
         0.00000E+00
         0.00000E+00
         0.00000E+00
         0.00000E+00
         0.00000E+00
         0.00000E+00
         0.00000E+00
         0.00000E+00
         0.00000E+00
         0.00000E+00
         0.00000E+00
         0.00000E+00
         0.00000E+00
         0.00000E+00
         0.00000E+00
         0.00000E+00
         0.00000E+00
         0.00000E+00
         0.00000E+00
         0.00000E+00
         0.00000E+00
         0.00000E+00
         0.00000E+00
         0.00000E+00
         0.00000E+00
         0.00000E+00
         0.00000E+00
         0.00000E+00
         0.00000E+00
         0.00000E+00
         0.00000E+00
         0.00000E+00
         0.00000E+00
         0.00000E+00
         0.00000E+00
         0.00000E+00
         0.00000E+00
         0.00000E+00
         0.00000E+00
         0.00000E+00
         0.00000E+00
         0.00000E+00
         0.00000E+00
         0.00000E+00
         0.00000E+00
         0.00000E+00
         0.00000E+00
         0.00000E+00
         0.00000E+00
         0.00000E+00
         0.00000E+00
         0.00000E+00
         0.00000E+00
         0.00000E+00
         0.00000E+00
         0.00000E+00
         0.00000E+00
         0.00000E+00
         0.00000E+00
         0.00000E+00
         0.00000E+00
         0.00000E+00
         0.00000E+00
         0.00000E+00
         0.00000E+00
         0.00000E+00
         0.00000E+00
         0.00000E+00
         0.00000E+00
         0.00000E+00
         0.00000E+00
         0.00000E+00
         0.00000E+00
         0.00000E+00
         0.00000E+00
         0.00000E+00
         0.00000E+00
         0.00000E+00
         0.00000E+00
         0.00000E+00
         0.00000E+00
         0.00000E+00
         0.00000E+00
         0.00000E+00
         0.00000E+00
  
SCALARS        characteristic_distance  double 1
LOOKUP_TABLE default
         0.00000E+00
         0.00000E+00
         0.00000E+00
         0.00000E+00
         0.00000E+00
         0.00000E+00
         0.00000E+00
         0.00000E+00
         0.00000E+00
         0.00000E+00
         0.00000E+00
         0.00000E+00
         0.00000E+00
         0.00000E+00
         0.00000E+00
         0.00000E+00
         0.00000E+00
         0.00000E+00
         0.00000E+00
         0.00000E+00
         0.00000E+00
         0.00000E+00
         0.00000E+00
         0.00000E+00
         0.00000E+00
         0.00000E+00
         0.00000E+00
         0.00000E+00
         0.00000E+00
         0.00000E+00
         0.00000E+00
         0.00000E+00
         0.00000E+00
         0.00000E+00
         0.00000E+00
         0.00000E+00
         0.00000E+00
         0.00000E+00
         0.00000E+00
         0.00000E+00
         0.00000E+00
         0.00000E+00
         0.00000E+00
         0.00000E+00
         0.00000E+00
         0.00000E+00
         0.00000E+00
         0.00000E+00
         0.00000E+00
         0.00000E+00
         0.00000E+00
         0.00000E+00
         0.00000E+00
         0.00000E+00
         0.00000E+00
         0.00000E+00
         0.00000E+00
         0.00000E+00
         0.00000E+00
         0.00000E+00
         0.00000E+00
         0.00000E+00
         0.00000E+00
         0.00000E+00
         0.00000E+00
         0.00000E+00
         0.00000E+00
         0.00000E+00
         0.00000E+00
         0.00000E+00
         0.00000E+00
         0.00000E+00
         0.00000E+00
         0.00000E+00
         0.00000E+00
         0.00000E+00
         0.00000E+00
         0.00000E+00
         0.00000E+00
         0.00000E+00
         0.00000E+00
         0.00000E+00
         0.00000E+00
         0.00000E+00
         0.00000E+00
         0.00000E+00
         0.00000E+00
         0.00000E+00
         0.00000E+00
         0.00000E+00
         0.00000E+00
         0.00000E+00
         0.00000E+00
         0.00000E+00
         0.00000E+00
         0.00000E+00
         0.00000E+00
         0.00000E+00
         0.00000E+00
         0.00000E+00
         0.00000E+00
         0.00000E+00
         0.00000E+00
         0.00000E+00
         0.00000E+00
         0.00000E+00
         0.00000E+00
         0.00000E+00
         0.00000E+00
         0.00000E+00
         0.00000E+00
         0.00000E+00
         0.00000E+00
         0.00000E+00
         0.00000E+00
         0.00000E+00
         0.00000E+00
         0.00000E+00
         0.00000E+00
         0.00000E+00
         0.00000E+00
         0.00000E+00
         0.00000E+00
         0.00000E+00
         0.00000E+00
         0.00000E+00
         0.00000E+00
         0.00000E+00
         0.00000E+00
         0.00000E+00
         0.00000E+00
         0.00000E+00
         0.00000E+00
         0.00000E+00
         0.00000E+00
         0.00000E+00
         0.00000E+00
         0.00000E+00
         0.00000E+00
         0.00000E+00
         0.00000E+00
         0.00000E+00
         0.00000E+00
         0.00000E+00
         0.00000E+00
         0.00000E+00
         0.00000E+00
         0.00000E+00
         0.00000E+00
         0.00000E+00
         0.00000E+00
         0.00000E+00
         0.00000E+00
         0.00000E+00
         0.00000E+00
         0.00000E+00
         0.00000E+00
         0.00000E+00
         0.00000E+00
         0.00000E+00
         0.00000E+00
         0.00000E+00
         0.00000E+00
         0.00000E+00
         0.00000E+00
         0.00000E+00
         0.00000E+00
         0.00000E+00
         0.00000E+00
         0.00000E+00
         0.00000E+00
         0.00000E+00
         0.00000E+00
         0.00000E+00
         0.00000E+00
         0.00000E+00
         0.00000E+00
         0.00000E+00
         0.00000E+00
         0.00000E+00
         0.00000E+00
         0.00000E+00
         0.00000E+00
         0.00000E+00
         0.00000E+00
         0.00000E+00
         0.00000E+00
         0.00000E+00
         0.00000E+00
         0.00000E+00
         0.00000E+00
         0.00000E+00
         0.00000E+00
         0.00000E+00
         0.00000E+00
         0.00000E+00
         0.00000E+00
         0.00000E+00
         0.00000E+00
         0.00000E+00
         0.00000E+00
         0.00000E+00
         0.00000E+00
         0.00000E+00
         0.00000E+00
         0.00000E+00
         0.00000E+00
         0.00000E+00
         0.00000E+00
         0.00000E+00
         0.00000E+00
         0.00000E+00
         0.00000E+00
         0.00000E+00
         0.00000E+00
         0.00000E+00
         0.00000E+00
         0.00000E+00
         0.00000E+00
         0.00000E+00
         0.00000E+00
         0.00000E+00
         0.00000E+00
         0.00000E+00
         0.00000E+00
         0.00000E+00
         0.00000E+00
         0.00000E+00
         0.00000E+00
         0.00000E+00
         0.00000E+00
         0.00000E+00
         0.00000E+00
         0.00000E+00
         0.00000E+00
         0.00000E+00
         0.00000E+00
         0.00000E+00
         0.00000E+00
         0.00000E+00
         0.00000E+00
         0.00000E+00
         0.00000E+00
         0.00000E+00
         0.00000E+00
         0.00000E+00
         0.00000E+00
         0.00000E+00
         0.00000E+00
         0.00000E+00
         0.00000E+00
         0.00000E+00
         0.00000E+00
         0.00000E+00
         0.00000E+00
         0.00000E+00
         0.00000E+00
         0.00000E+00
         0.00000E+00
         0.00000E+00
         0.00000E+00
         0.00000E+00
         0.00000E+00
         0.00000E+00
         0.00000E+00
         0.00000E+00
         0.00000E+00
         0.00000E+00
         0.00000E+00
         0.00000E+00
         0.00000E+00
         0.00000E+00
         0.00000E+00
         0.00000E+00
         0.00000E+00
         0.00000E+00
         0.00000E+00
         0.00000E+00
         0.00000E+00
         0.00000E+00
         0.00000E+00
         0.00000E+00
         0.00000E+00
         0.00000E+00
         0.00000E+00
         0.00000E+00
         0.00000E+00
         0.00000E+00
         0.00000E+00
         0.00000E+00
         0.00000E+00
         0.00000E+00
         0.00000E+00
         0.00000E+00
         0.00000E+00
         0.00000E+00
         0.00000E+00
         0.00000E+00
         0.00000E+00
         0.00000E+00
         0.00000E+00
         0.00000E+00
         0.00000E+00
         0.00000E+00
         0.00000E+00
         0.00000E+00
         0.00000E+00
         0.00000E+00
         0.00000E+00
         0.00000E+00
         0.00000E+00
         0.00000E+00
         0.00000E+00
         0.00000E+00
         0.00000E+00
         0.00000E+00
         0.00000E+00
         0.00000E+00
         0.00000E+00
         0.00000E+00
         0.00000E+00
         0.00000E+00
         0.00000E+00
         0.00000E+00
         0.00000E+00
         0.00000E+00
         0.00000E+00
         0.00000E+00
         0.00000E+00
         0.00000E+00
         0.00000E+00
         0.00000E+00
         0.00000E+00
         0.00000E+00
         0.00000E+00
         0.00000E+00
         0.00000E+00
         0.00000E+00
         0.00000E+00
         0.00000E+00
         0.00000E+00
         0.00000E+00
         0.00000E+00
         0.00000E+00
         0.00000E+00
         0.00000E+00
         0.00000E+00
         0.00000E+00
         0.00000E+00
         0.00000E+00
         0.00000E+00
         0.00000E+00
         0.00000E+00
         0.00000E+00
         0.00000E+00
         0.00000E+00
         0.00000E+00
         0.00000E+00
         0.00000E+00
         0.00000E+00
         0.00000E+00
         0.00000E+00
         0.00000E+00
         0.00000E+00
         0.00000E+00
         0.00000E+00
         0.00000E+00
         0.00000E+00
         0.00000E+00
         0.00000E+00
         0.00000E+00
         0.00000E+00
         0.00000E+00
         0.00000E+00
         0.00000E+00
         0.00000E+00
         0.00000E+00
         0.00000E+00
         0.00000E+00
         0.00000E+00
         0.00000E+00
         0.00000E+00
         0.00000E+00
         0.00000E+00
         0.00000E+00
         0.00000E+00
         0.00000E+00
         0.00000E+00
         0.00000E+00
         0.00000E+00
         0.00000E+00
         0.00000E+00
         0.00000E+00
         0.00000E+00
         0.00000E+00
         0.00000E+00
         0.00000E+00
         0.00000E+00
         0.00000E+00
         0.00000E+00
         0.00000E+00
         0.00000E+00
         0.00000E+00
         0.00000E+00
         0.00000E+00
         0.00000E+00
         0.00000E+00
         0.00000E+00
         0.00000E+00
         0.00000E+00
         0.00000E+00
         0.00000E+00
         0.00000E+00
         0.00000E+00
         0.00000E+00
         0.00000E+00
         0.00000E+00
         0.00000E+00
         0.00000E+00
         0.00000E+00
         0.00000E+00
         0.00000E+00
         0.00000E+00
         0.00000E+00
         0.00000E+00
         0.00000E+00
         0.00000E+00
         0.00000E+00
         0.00000E+00
         0.00000E+00
         0.00000E+00
         0.00000E+00
         0.00000E+00
         0.00000E+00
         0.00000E+00
         0.00000E+00
         0.00000E+00
         0.00000E+00
         0.00000E+00
         0.00000E+00
         0.00000E+00
         0.00000E+00
         0.00000E+00
         0.00000E+00
         0.00000E+00
         0.00000E+00
         0.00000E+00
         0.00000E+00
         0.00000E+00
         0.00000E+00
         0.00000E+00
         0.00000E+00
         0.00000E+00
         0.00000E+00
         0.00000E+00
         0.00000E+00
         0.00000E+00
         0.00000E+00
         0.00000E+00
         0.00000E+00
         0.00000E+00
         0.00000E+00
         0.00000E+00
         0.00000E+00
         0.00000E+00
         0.00000E+00
         0.00000E+00
         0.00000E+00
         0.00000E+00
         0.00000E+00
         0.00000E+00
         0.00000E+00
         0.00000E+00
         0.00000E+00
         0.00000E+00
         0.00000E+00
         0.00000E+00
         0.00000E+00
         0.00000E+00
         0.00000E+00
         0.00000E+00
         0.00000E+00
         0.00000E+00
         0.00000E+00
         0.00000E+00
         0.00000E+00
         0.00000E+00
         0.00000E+00
         0.00000E+00
         0.00000E+00
         0.00000E+00
         0.00000E+00
         0.00000E+00
         0.00000E+00
         0.00000E+00
         0.00000E+00
         0.00000E+00
         0.00000E+00
         0.00000E+00
         0.00000E+00
         0.00000E+00
         0.00000E+00
         0.00000E+00
         0.00000E+00
         0.00000E+00
         0.00000E+00
         0.00000E+00
         0.00000E+00
         0.00000E+00
         0.00000E+00
         0.00000E+00
         0.00000E+00
         0.00000E+00
         0.00000E+00
         0.00000E+00
         0.00000E+00
         0.00000E+00
         0.00000E+00
         0.00000E+00
         0.00000E+00
         0.00000E+00
         0.00000E+00
         0.00000E+00
         0.00000E+00
         0.00000E+00
         0.00000E+00
         0.00000E+00
         0.00000E+00
         0.00000E+00
         0.00000E+00
         0.00000E+00
         0.00000E+00
         0.00000E+00
         0.00000E+00
         0.00000E+00
         0.00000E+00
         0.00000E+00
         0.00000E+00
         0.00000E+00
         0.00000E+00
         0.00000E+00
         0.00000E+00
         0.00000E+00
         0.00000E+00
         0.00000E+00
         0.00000E+00
         0.00000E+00
         0.00000E+00
         0.00000E+00
         0.00000E+00
         0.00000E+00
         0.00000E+00
         0.00000E+00
         0.00000E+00
         0.00000E+00
         0.00000E+00
         0.00000E+00
         0.00000E+00
         0.00000E+00
         0.00000E+00
         0.00000E+00
         0.00000E+00
         0.00000E+00
         0.00000E+00
         0.00000E+00
         0.00000E+00
         0.00000E+00
         0.00000E+00
         0.00000E+00
         0.00000E+00
         0.00000E+00
         0.00000E+00
         0.00000E+00
         0.00000E+00
         0.00000E+00
         0.00000E+00
         0.00000E+00
         0.00000E+00
         0.00000E+00
         0.00000E+00
         0.00000E+00
         0.00000E+00
         0.00000E+00
         0.00000E+00
         0.00000E+00
         0.00000E+00
         0.00000E+00
         0.00000E+00
         0.00000E+00
         0.00000E+00
         0.00000E+00
         0.00000E+00
         0.00000E+00
         0.00000E+00
         0.00000E+00
         0.00000E+00
         0.00000E+00
         0.00000E+00
         0.00000E+00
         0.00000E+00
         0.00000E+00
         0.00000E+00
         0.00000E+00
         0.00000E+00
         0.00000E+00
         0.00000E+00
         0.00000E+00
         0.00000E+00
         0.00000E+00
         0.00000E+00
         0.00000E+00
         0.00000E+00
         0.00000E+00
         0.00000E+00
         0.00000E+00
         0.00000E+00
         0.00000E+00
         0.00000E+00
         0.00000E+00
         0.00000E+00
         0.00000E+00
         0.00000E+00
         0.00000E+00
         0.00000E+00
         0.00000E+00
         0.00000E+00
         0.00000E+00
         0.00000E+00
         0.00000E+00
         0.00000E+00
         0.00000E+00
         0.00000E+00
         0.00000E+00
         0.00000E+00
         0.00000E+00
         0.00000E+00
         0.00000E+00
         0.00000E+00
         0.00000E+00
         0.00000E+00
         0.00000E+00
         0.00000E+00
         0.00000E+00
         0.00000E+00
         0.00000E+00
         0.00000E+00
         0.00000E+00
         0.00000E+00
         0.00000E+00
         0.00000E+00
         0.00000E+00
         0.00000E+00
         0.00000E+00
         0.00000E+00
         0.00000E+00
         0.00000E+00
         0.00000E+00
         0.00000E+00
         0.00000E+00
         0.00000E+00
         0.00000E+00
         0.00000E+00
         0.00000E+00
         0.00000E+00
         0.00000E+00
         0.00000E+00
         0.00000E+00
         0.00000E+00
         0.00000E+00
         0.00000E+00
         0.00000E+00
         0.00000E+00
         0.00000E+00
         0.00000E+00
         0.00000E+00
         0.00000E+00
         0.00000E+00
         0.00000E+00
         0.00000E+00
         0.00000E+00
         0.00000E+00
         0.00000E+00
         0.00000E+00
         0.00000E+00
         0.00000E+00
         0.00000E+00
         0.00000E+00
         0.00000E+00
         0.00000E+00
         0.00000E+00
         0.00000E+00
         0.00000E+00
         0.00000E+00
         0.00000E+00
         0.00000E+00
         0.00000E+00
         0.00000E+00
         0.00000E+00
         0.00000E+00
         0.00000E+00
         0.00000E+00
         0.00000E+00
         0.00000E+00
         0.00000E+00
         0.00000E+00
         0.00000E+00
         0.00000E+00
         0.00000E+00
         0.00000E+00
         0.00000E+00
         0.00000E+00
         0.00000E+00
         0.00000E+00
         0.00000E+00
         0.00000E+00
         0.00000E+00
         0.00000E+00
         0.00000E+00
         0.00000E+00
         0.00000E+00
         0.00000E+00
         0.00000E+00
         0.00000E+00
         0.00000E+00
         0.00000E+00
         0.00000E+00
         0.00000E+00
         0.00000E+00
         0.00000E+00
         0.00000E+00
         0.00000E+00
         0.00000E+00
         0.00000E+00
         0.00000E+00
         0.00000E+00
         0.00000E+00
         0.00000E+00
         0.00000E+00
         0.00000E+00
         0.00000E+00
         0.00000E+00
         0.00000E+00
         0.00000E+00
         0.00000E+00
         0.00000E+00
         0.00000E+00
         0.00000E+00
         0.00000E+00
         0.00000E+00
         0.00000E+00
         0.00000E+00
         0.00000E+00
         0.00000E+00
         0.00000E+00
         0.00000E+00
         0.00000E+00
         0.00000E+00
         0.00000E+00
         0.00000E+00
         0.00000E+00
         0.00000E+00
         0.00000E+00
         0.00000E+00
         0.00000E+00
         0.00000E+00
         0.00000E+00
         0.00000E+00
         0.00000E+00
         0.00000E+00
         0.00000E+00
         0.00000E+00
         0.00000E+00
         0.00000E+00
         0.00000E+00
         0.00000E+00
         0.00000E+00
         0.00000E+00
         0.00000E+00
         0.00000E+00
         0.00000E+00
         0.00000E+00
         0.00000E+00
         0.00000E+00
         0.00000E+00
         0.00000E+00
         0.00000E+00
         0.00000E+00
         0.00000E+00
         0.00000E+00
         0.00000E+00
         0.00000E+00
         0.00000E+00
         0.00000E+00
         0.00000E+00
         0.00000E+00
         0.00000E+00
         0.00000E+00
         0.00000E+00
         0.00000E+00
         0.00000E+00
         0.00000E+00
         0.00000E+00
         0.00000E+00
         0.00000E+00
         0.00000E+00
         0.00000E+00
         0.00000E+00
         0.00000E+00
         0.00000E+00
         0.00000E+00
         0.00000E+00
         0.00000E+00
         0.00000E+00
         0.00000E+00
         0.00000E+00
         0.00000E+00
         0.00000E+00
         0.00000E+00
         0.00000E+00
         0.00000E+00
         0.00000E+00
         0.00000E+00
         0.00000E+00
         0.00000E+00
         0.00000E+00
         0.00000E+00
         0.00000E+00
         0.00000E+00
         0.00000E+00
         0.00000E+00
         0.00000E+00
         0.00000E+00
         0.00000E+00
         0.00000E+00
         0.00000E+00
         0.00000E+00
         0.00000E+00
         0.00000E+00
         0.00000E+00
         0.00000E+00
         0.00000E+00
         0.00000E+00
         0.00000E+00
         0.00000E+00
         0.00000E+00
         0.00000E+00
         0.00000E+00
         0.00000E+00
         0.00000E+00
         0.00000E+00
         0.00000E+00
         0.00000E+00
         0.00000E+00
         0.00000E+00
         0.00000E+00
         0.00000E+00
         0.00000E+00
         0.00000E+00
         0.00000E+00
         0.00000E+00
         0.00000E+00
         0.00000E+00
         0.00000E+00
         0.00000E+00
         0.00000E+00
         0.00000E+00
         0.00000E+00
         0.00000E+00
         0.00000E+00
         0.00000E+00
         0.00000E+00
         0.00000E+00
         0.00000E+00
         0.00000E+00
         0.00000E+00
         0.00000E+00
         0.00000E+00
         0.00000E+00
         0.00000E+00
         0.00000E+00
         0.00000E+00
         0.00000E+00
         0.00000E+00
         0.00000E+00
         0.00000E+00
         0.00000E+00
         0.00000E+00
         0.00000E+00
         0.00000E+00
         0.00000E+00
         0.00000E+00
         0.00000E+00
         0.00000E+00
         0.00000E+00
         0.00000E+00
         0.00000E+00
         0.00000E+00
         0.00000E+00
         0.00000E+00
         0.00000E+00
         0.00000E+00
         0.00000E+00
         0.00000E+00
         0.00000E+00
         0.00000E+00
         0.00000E+00
         0.00000E+00
         0.00000E+00
         0.00000E+00
         0.00000E+00
         0.00000E+00
         0.00000E+00
         0.00000E+00
         0.00000E+00
         0.00000E+00
         0.00000E+00
         0.00000E+00
         0.00000E+00
         0.00000E+00
         0.00000E+00
         0.00000E+00
         0.00000E+00
         0.00000E+00
         0.00000E+00
         0.00000E+00
         0.00000E+00
         0.00000E+00
         0.00000E+00
         0.00000E+00
         0.00000E+00
         0.00000E+00
         0.00000E+00
         0.00000E+00
         0.00000E+00
         0.00000E+00
         0.00000E+00
         0.00000E+00
         0.00000E+00
         0.00000E+00
         0.00000E+00
         0.00000E+00
         0.00000E+00
         0.00000E+00
         0.00000E+00
         0.00000E+00
         0.00000E+00
         0.00000E+00
         0.00000E+00
         0.00000E+00
         0.00000E+00
         0.00000E+00
         0.00000E+00
         0.00000E+00
         0.00000E+00
         0.00000E+00
         0.00000E+00
         0.00000E+00
         0.00000E+00
         0.00000E+00
         0.00000E+00
         0.00000E+00
         0.00000E+00
         0.00000E+00
         0.00000E+00
         0.00000E+00
         0.00000E+00
         0.00000E+00
         0.00000E+00
         0.00000E+00
         0.00000E+00
         0.00000E+00
         0.00000E+00
         0.00000E+00
         0.00000E+00
         0.00000E+00
         0.00000E+00
         0.00000E+00
         0.00000E+00
         0.00000E+00
         0.00000E+00
         0.00000E+00
         0.00000E+00
         0.00000E+00
         0.00000E+00
         0.00000E+00
         0.00000E+00
         0.00000E+00
         0.00000E+00
         0.00000E+00
         0.00000E+00
         0.00000E+00
         0.00000E+00
         0.00000E+00
         0.00000E+00
         0.00000E+00
         0.00000E+00
         0.00000E+00
         0.00000E+00
         0.00000E+00
         0.00000E+00
         0.00000E+00
         0.00000E+00
         0.00000E+00
         0.00000E+00
         0.00000E+00
         0.00000E+00
         0.00000E+00
         0.00000E+00
         0.00000E+00
         0.00000E+00
         0.00000E+00
         0.00000E+00
         0.00000E+00
         0.00000E+00
         0.00000E+00
         0.00000E+00
         0.00000E+00
         0.00000E+00
         0.00000E+00
         0.00000E+00
         0.00000E+00
         0.00000E+00
         0.00000E+00
         0.00000E+00
         0.00000E+00
         0.00000E+00
         0.00000E+00
         0.00000E+00
         0.00000E+00
         0.00000E+00
         0.00000E+00
         0.00000E+00
         0.00000E+00
         0.00000E+00
         0.00000E+00
         0.00000E+00
         0.00000E+00
         0.00000E+00
         0.00000E+00
         0.00000E+00
         0.00000E+00
         0.00000E+00
         0.00000E+00
         0.00000E+00
         0.00000E+00
         0.00000E+00
         0.00000E+00
         0.00000E+00
         0.00000E+00
         0.00000E+00
         0.00000E+00
         0.00000E+00
         0.00000E+00
         0.00000E+00
         0.00000E+00
         0.00000E+00
         0.00000E+00
         0.00000E+00
         0.00000E+00
         0.00000E+00
         0.00000E+00
         0.00000E+00
         0.00000E+00
         0.00000E+00
         0.00000E+00
         0.00000E+00
         0.00000E+00
         0.00000E+00
         0.00000E+00
         0.00000E+00
         0.00000E+00
         0.00000E+00
         0.00000E+00
         0.00000E+00
         0.00000E+00
         0.00000E+00
         0.00000E+00
         0.00000E+00
         0.00000E+00
         0.00000E+00
         0.00000E+00
         0.00000E+00
         0.00000E+00
         0.00000E+00
         0.00000E+00
         0.00000E+00
         0.00000E+00
         0.00000E+00
         0.00000E+00
         0.00000E+00
         0.00000E+00
         0.00000E+00
         0.00000E+00
         0.00000E+00
         0.00000E+00
         0.00000E+00
         0.00000E+00
         0.00000E+00
         0.00000E+00
         0.00000E+00
         0.00000E+00
         0.00000E+00
         0.00000E+00
         0.00000E+00
         0.00000E+00
         0.00000E+00
         0.00000E+00
         0.00000E+00
         0.00000E+00
         0.00000E+00
         0.00000E+00
         0.00000E+00
         0.00000E+00
         0.00000E+00
         0.00000E+00
         0.00000E+00
         0.00000E+00
         0.00000E+00
         0.00000E+00
         0.00000E+00
         0.00000E+00
         0.00000E+00
         0.00000E+00
         0.00000E+00
         0.00000E+00
         0.00000E+00
         0.00000E+00
         0.00000E+00
         0.00000E+00
         0.00000E+00
         0.00000E+00
         0.00000E+00
         0.00000E+00
         0.00000E+00
         0.00000E+00
         0.00000E+00
         0.00000E+00
         0.00000E+00
         0.00000E+00
         0.00000E+00
         0.00000E+00
         0.00000E+00
         0.00000E+00
         0.00000E+00
         0.00000E+00
         0.00000E+00
         0.00000E+00
         0.00000E+00
         0.00000E+00
         0.00000E+00
         0.00000E+00
         0.00000E+00
         0.00000E+00
         0.00000E+00
         0.00000E+00
         0.00000E+00
         0.00000E+00
         0.00000E+00
         0.00000E+00
         0.00000E+00
         0.00000E+00
         0.00000E+00
         0.00000E+00
         0.00000E+00
         0.00000E+00
         0.00000E+00
         0.00000E+00
         0.00000E+00
         0.00000E+00
         0.00000E+00
         0.00000E+00
         0.00000E+00
         0.00000E+00
         0.00000E+00
         0.00000E+00
         0.00000E+00
         0.00000E+00
         0.00000E+00
         0.00000E+00
         0.00000E+00
         0.00000E+00
         0.00000E+00
         0.00000E+00
         0.00000E+00
         0.00000E+00
         0.00000E+00
         0.00000E+00
         0.00000E+00
         0.00000E+00
         0.00000E+00
         0.00000E+00
         0.00000E+00
         0.00000E+00
         0.00000E+00
         0.00000E+00
         0.00000E+00
         0.00000E+00
         0.00000E+00
         0.00000E+00
         0.00000E+00
         0.00000E+00
         0.00000E+00
         0.00000E+00
         0.00000E+00
         0.00000E+00
         0.00000E+00
         0.00000E+00
         0.00000E+00
         0.00000E+00
         0.00000E+00
         0.00000E+00
         0.00000E+00
         0.00000E+00
         0.00000E+00
         0.00000E+00
         0.00000E+00
         0.00000E+00
         0.00000E+00
         0.00000E+00
         0.00000E+00
         0.00000E+00
         0.00000E+00
         0.00000E+00
         0.00000E+00
         0.00000E+00
         0.00000E+00
         0.00000E+00
         0.00000E+00
         0.00000E+00
         0.00000E+00
         0.00000E+00
         0.00000E+00
         0.00000E+00
         0.00000E+00
         0.00000E+00
         0.00000E+00
         0.00000E+00
         0.00000E+00
         0.00000E+00
         0.00000E+00
         0.00000E+00
         0.00000E+00
         0.00000E+00
         0.00000E+00
         0.00000E+00
         0.00000E+00
         0.00000E+00
         0.00000E+00
         0.00000E+00
         0.00000E+00
         0.00000E+00
         0.00000E+00
         0.00000E+00
         0.00000E+00
         0.00000E+00
         0.00000E+00
         0.00000E+00
         0.00000E+00
         0.00000E+00
         0.00000E+00
         0.00000E+00
         0.00000E+00
         0.00000E+00
         0.00000E+00
         0.00000E+00
         0.00000E+00
         0.00000E+00
         0.00000E+00
         0.00000E+00
         0.00000E+00
         0.00000E+00
         0.00000E+00
         0.00000E+00
         0.00000E+00
         0.00000E+00
         0.00000E+00
         0.00000E+00
         0.00000E+00
         0.00000E+00
         0.00000E+00
         0.00000E+00
         0.00000E+00
         0.00000E+00
         0.00000E+00
         0.00000E+00
         0.00000E+00
         0.00000E+00
         0.00000E+00
         0.00000E+00
         0.00000E+00
         0.00000E+00
         0.00000E+00
         0.00000E+00
         0.00000E+00
         0.00000E+00
         0.00000E+00
         0.00000E+00
         0.00000E+00
         0.00000E+00
         0.00000E+00
         0.00000E+00
         0.00000E+00
         0.00000E+00
         0.00000E+00
         0.00000E+00
         0.00000E+00
         0.00000E+00
         0.00000E+00
         0.00000E+00
         0.00000E+00
         0.00000E+00
         0.00000E+00
         0.00000E+00
         0.00000E+00
         0.00000E+00
         0.00000E+00
         0.00000E+00
         0.00000E+00
         0.00000E+00
         0.00000E+00
         0.00000E+00
         0.00000E+00
         0.00000E+00
         0.00000E+00
         0.00000E+00
         0.00000E+00
         0.00000E+00
         0.00000E+00
         0.00000E+00
         0.00000E+00
         0.00000E+00
         0.00000E+00
         0.00000E+00
         0.00000E+00
         0.00000E+00
         0.00000E+00
         0.00000E+00
         0.00000E+00
         0.00000E+00
         0.00000E+00
         0.00000E+00
         0.00000E+00
         0.00000E+00
         0.00000E+00
         0.00000E+00
         0.00000E+00
         0.00000E+00
         0.00000E+00
         0.00000E+00
         0.00000E+00
         0.00000E+00
         0.00000E+00
         0.00000E+00
         0.00000E+00
         0.00000E+00
         0.00000E+00
         0.00000E+00
         0.00000E+00
         0.00000E+00
         0.00000E+00
         0.00000E+00
         0.00000E+00
         0.00000E+00
         0.00000E+00
         0.00000E+00
         0.00000E+00
         0.00000E+00
         0.00000E+00
         0.00000E+00
         0.00000E+00
         0.00000E+00
         0.00000E+00
         0.00000E+00
         0.00000E+00
         0.00000E+00
         0.00000E+00
         0.00000E+00
         0.00000E+00
         0.00000E+00
         0.00000E+00
         0.00000E+00
         0.00000E+00
         0.00000E+00
         0.00000E+00
         0.00000E+00
         0.00000E+00
         0.00000E+00
         0.00000E+00
         0.00000E+00
         0.00000E+00
         0.00000E+00
         0.00000E+00
         0.00000E+00
         0.00000E+00
         0.00000E+00
         0.00000E+00
         0.00000E+00
         0.00000E+00
         0.00000E+00
         0.00000E+00
         0.00000E+00
         0.00000E+00
         0.00000E+00
         0.00000E+00
         0.00000E+00
         0.00000E+00
         0.00000E+00
         0.00000E+00
         0.00000E+00
         0.00000E+00
         0.00000E+00
         0.00000E+00
         0.00000E+00
         0.00000E+00
         0.00000E+00
         0.00000E+00
         0.00000E+00
         0.00000E+00
         0.00000E+00
         0.00000E+00
         0.00000E+00
         0.00000E+00
         0.00000E+00
         0.00000E+00
         0.00000E+00
         0.00000E+00
         0.00000E+00
         0.00000E+00
         0.00000E+00
         0.00000E+00
         0.00000E+00
         0.00000E+00
         0.00000E+00
         0.00000E+00
         0.00000E+00
         0.00000E+00
         0.00000E+00
         0.00000E+00
         0.00000E+00
         0.00000E+00
         0.00000E+00
         0.00000E+00
         0.00000E+00
         0.00000E+00
         0.00000E+00
         0.00000E+00
         0.00000E+00
         0.00000E+00
         0.00000E+00
         0.00000E+00
         0.00000E+00
         0.00000E+00
         0.00000E+00
         0.00000E+00
         0.00000E+00
         0.00000E+00
         0.00000E+00
         0.00000E+00
         0.00000E+00
         0.00000E+00
         0.00000E+00
         0.00000E+00
         0.00000E+00
         0.00000E+00
         0.00000E+00
         0.00000E+00
         0.00000E+00
         0.00000E+00
         0.00000E+00
         0.00000E+00
         0.00000E+00
         0.00000E+00
         0.00000E+00
         0.00000E+00
         0.00000E+00
         0.00000E+00
         0.00000E+00
         0.00000E+00
         0.00000E+00
         0.00000E+00
         0.00000E+00
         0.00000E+00
         0.00000E+00
         0.00000E+00
         0.00000E+00
         0.00000E+00
         0.00000E+00
         0.00000E+00
         0.00000E+00
         0.00000E+00
         0.00000E+00
         0.00000E+00
         0.00000E+00
         0.00000E+00
         0.00000E+00
         0.00000E+00
         0.00000E+00
         0.00000E+00
         0.00000E+00
         0.00000E+00
         0.00000E+00
         0.00000E+00
         0.00000E+00
         0.00000E+00
         0.00000E+00
         0.00000E+00
         0.00000E+00
         0.00000E+00
         0.00000E+00
         0.00000E+00
         0.00000E+00
         0.00000E+00
         0.00000E+00
         0.00000E+00
         0.00000E+00
         0.00000E+00
         0.00000E+00
         0.00000E+00
         0.00000E+00
         0.00000E+00
         0.00000E+00
         0.00000E+00
         0.00000E+00
         0.00000E+00
         0.00000E+00
         0.00000E+00
         0.00000E+00
         0.00000E+00
         0.00000E+00
         0.00000E+00
         0.00000E+00
         0.00000E+00
         0.00000E+00
         0.00000E+00
         0.00000E+00
         0.00000E+00
         0.00000E+00
         0.00000E+00
         0.00000E+00
         0.00000E+00
         0.00000E+00
         0.00000E+00
         0.00000E+00
         0.00000E+00
         0.00000E+00
         0.00000E+00
         0.00000E+00
         0.00000E+00
         0.00000E+00
         0.00000E+00
         0.00000E+00
         0.00000E+00
         0.00000E+00
         0.00000E+00
         0.00000E+00
         0.00000E+00
         0.00000E+00
         0.00000E+00
         0.00000E+00
         0.00000E+00
         0.00000E+00
         0.00000E+00
         0.00000E+00
         0.00000E+00
         0.00000E+00
         0.00000E+00
         0.00000E+00
         0.00000E+00
         0.00000E+00
         0.00000E+00
         0.00000E+00
         0.00000E+00
         0.00000E+00
         0.00000E+00
         0.00000E+00
         0.00000E+00
         0.00000E+00
         0.00000E+00
         0.00000E+00
         0.00000E+00
         0.00000E+00
         0.00000E+00
         0.00000E+00
         0.00000E+00
         0.00000E+00
         0.00000E+00
         0.00000E+00
         0.00000E+00
         0.00000E+00
         0.00000E+00
         0.00000E+00
         0.00000E+00
         0.00000E+00
         0.00000E+00
         0.00000E+00
         0.00000E+00
         0.00000E+00
         0.00000E+00
         0.00000E+00
         0.00000E+00
         0.00000E+00
         0.00000E+00
         0.00000E+00
         0.00000E+00
         0.00000E+00
         0.00000E+00
         0.00000E+00
         0.00000E+00
         0.00000E+00
         0.00000E+00
         0.00000E+00
         0.00000E+00
         0.00000E+00
         0.00000E+00
         0.00000E+00
         0.00000E+00
         0.00000E+00
         0.00000E+00
         0.00000E+00
         0.00000E+00
         0.00000E+00
         0.00000E+00
         0.00000E+00
         0.00000E+00
         0.00000E+00
         0.00000E+00
         0.00000E+00
         0.00000E+00
         0.00000E+00
         0.00000E+00
         0.00000E+00
         0.00000E+00
         0.00000E+00
         0.00000E+00
         0.00000E+00
         0.00000E+00
         0.00000E+00
         0.00000E+00
         0.00000E+00
         0.00000E+00
         0.00000E+00
         0.00000E+00
         0.00000E+00
         0.00000E+00
         0.00000E+00
         0.00000E+00
         0.00000E+00
         0.00000E+00
         0.00000E+00
         0.00000E+00
         0.00000E+00
         0.00000E+00
         0.00000E+00
         0.00000E+00
         0.00000E+00
         0.00000E+00
         0.00000E+00
         0.00000E+00
         0.00000E+00
         0.00000E+00
         0.00000E+00
         0.00000E+00
         0.00000E+00
         0.00000E+00
         0.00000E+00
         0.00000E+00
         0.00000E+00
         0.00000E+00
         0.00000E+00
         0.00000E+00
         0.00000E+00
         0.00000E+00
         0.00000E+00
         0.00000E+00
         0.00000E+00
         0.00000E+00
         0.00000E+00
         0.00000E+00
         0.00000E+00
         0.00000E+00
         0.00000E+00
         0.00000E+00
         0.00000E+00
         0.00000E+00
         0.00000E+00
         0.00000E+00
         0.00000E+00
         0.00000E+00
         0.00000E+00
         0.00000E+00
         0.00000E+00
         0.00000E+00
         0.00000E+00
         0.00000E+00
         0.00000E+00
         0.00000E+00
         0.00000E+00
         0.00000E+00
         0.00000E+00
         0.00000E+00
         0.00000E+00
         0.00000E+00
         0.00000E+00
         0.00000E+00
         0.00000E+00
         0.00000E+00
         0.00000E+00
         0.00000E+00
         0.00000E+00
         0.00000E+00
         0.00000E+00
         0.00000E+00
         0.00000E+00
         0.00000E+00
         0.00000E+00
         0.00000E+00
         0.00000E+00
         0.00000E+00
         0.00000E+00
         0.00000E+00
         0.00000E+00
         0.00000E+00
         0.00000E+00
         0.00000E+00
         0.00000E+00
         0.00000E+00
         0.00000E+00
         0.00000E+00
         0.00000E+00
         0.00000E+00
         0.00000E+00
         0.00000E+00
         0.00000E+00
         0.00000E+00
         0.00000E+00
         0.00000E+00
         0.00000E+00
         0.00000E+00
         0.00000E+00
         0.00000E+00
         0.00000E+00
         0.00000E+00
         0.00000E+00
         0.00000E+00
         0.00000E+00
         0.00000E+00
         0.00000E+00
         0.00000E+00
         0.00000E+00
         0.00000E+00
         0.00000E+00
         0.00000E+00
         0.00000E+00
         0.00000E+00
         0.00000E+00
         0.00000E+00
         0.00000E+00
         0.00000E+00
         0.00000E+00
         0.00000E+00
         0.00000E+00
         0.00000E+00
         0.00000E+00
         0.00000E+00
         0.00000E+00
         0.00000E+00
         0.00000E+00
         0.00000E+00
         0.00000E+00
         0.00000E+00
         0.00000E+00
         0.00000E+00
         0.00000E+00
         0.00000E+00
         0.00000E+00
         0.00000E+00
         0.00000E+00
         0.00000E+00
         0.00000E+00
         0.00000E+00
         0.00000E+00
         0.00000E+00
         0.00000E+00
         0.00000E+00
         0.00000E+00
         0.00000E+00
         0.00000E+00
         0.00000E+00
         0.00000E+00
         0.00000E+00
         0.00000E+00
         0.00000E+00
         0.00000E+00
         0.00000E+00
         0.00000E+00
         0.00000E+00
         0.00000E+00
         0.00000E+00
         0.00000E+00
         0.00000E+00
         0.00000E+00
         0.00000E+00
         0.00000E+00
         0.00000E+00
         0.00000E+00
         0.00000E+00
         0.00000E+00
         0.00000E+00
         0.00000E+00
         0.00000E+00
         0.00000E+00
         0.00000E+00
         0.00000E+00
         0.00000E+00
         0.00000E+00
         0.00000E+00
         0.00000E+00
         0.00000E+00
         0.00000E+00
         0.00000E+00
         0.00000E+00
         0.00000E+00
         0.00000E+00
         0.00000E+00
         0.00000E+00
         0.00000E+00
         0.00000E+00
         0.00000E+00
         0.00000E+00
         0.00000E+00
         0.00000E+00
         0.00000E+00
         0.00000E+00
         0.00000E+00
         0.00000E+00
         0.00000E+00
         0.00000E+00
         0.00000E+00
         0.00000E+00
         0.00000E+00
         0.00000E+00
         0.00000E+00
         0.00000E+00
         0.00000E+00
         0.00000E+00
         0.00000E+00
         0.00000E+00
         0.00000E+00
         0.00000E+00
         0.00000E+00
         0.00000E+00
         0.00000E+00
         0.00000E+00
         0.00000E+00
         0.00000E+00
         0.00000E+00
         0.00000E+00
         0.00000E+00
         0.00000E+00
         0.00000E+00
         0.00000E+00
         0.00000E+00
         0.00000E+00
         0.00000E+00
         0.00000E+00
         0.00000E+00
         0.00000E+00
         0.00000E+00
         0.00000E+00
         0.00000E+00
         0.00000E+00
         0.00000E+00
         0.00000E+00
         0.00000E+00
         0.00000E+00
         0.00000E+00
         0.00000E+00
         0.00000E+00
         0.00000E+00
         0.00000E+00
         0.00000E+00
         0.00000E+00
         0.00000E+00
         0.00000E+00
         0.00000E+00
         0.00000E+00
         0.00000E+00
         0.00000E+00
         0.00000E+00
         0.00000E+00
         0.00000E+00
         0.00000E+00
         0.00000E+00
         0.00000E+00
         0.00000E+00
         0.00000E+00
         0.00000E+00
         0.00000E+00
         0.00000E+00
         0.00000E+00
         0.00000E+00
         0.00000E+00
         0.00000E+00
         0.00000E+00
         0.00000E+00
         0.00000E+00
         0.00000E+00
         0.00000E+00
         0.00000E+00
         0.00000E+00
         0.00000E+00
         0.00000E+00
         0.00000E+00
         0.00000E+00
         0.00000E+00
         0.00000E+00
         0.00000E+00
         0.00000E+00
         0.00000E+00
         0.00000E+00
         0.00000E+00
         0.00000E+00
         0.00000E+00
         0.00000E+00
         0.00000E+00
         0.00000E+00
         0.00000E+00
         0.00000E+00
         0.00000E+00
         0.00000E+00
         0.00000E+00
         0.00000E+00
         0.00000E+00
         0.00000E+00
         0.00000E+00
         0.00000E+00
         0.00000E+00
         0.00000E+00
         0.00000E+00
         0.00000E+00
         0.00000E+00
         0.00000E+00
         0.00000E+00
         0.00000E+00
         0.00000E+00
         0.00000E+00
         0.00000E+00
         0.00000E+00
         0.00000E+00
         0.00000E+00
  
SCALARS                   max_wave_vel  double 1
LOOKUP_TABLE default
         0.00000E+00
         0.00000E+00
         0.00000E+00
         0.00000E+00
         0.00000E+00
         0.00000E+00
         0.00000E+00
         0.00000E+00
         0.00000E+00
         0.00000E+00
         0.00000E+00
         0.00000E+00
         0.00000E+00
         0.00000E+00
         0.00000E+00
         0.00000E+00
         0.00000E+00
         0.00000E+00
         0.00000E+00
         0.00000E+00
         0.00000E+00
         0.00000E+00
         0.00000E+00
         0.00000E+00
         0.00000E+00
         0.00000E+00
         0.00000E+00
         0.00000E+00
         0.00000E+00
         0.00000E+00
         0.00000E+00
         0.00000E+00
         0.00000E+00
         0.00000E+00
         0.00000E+00
         0.00000E+00
         0.00000E+00
         0.00000E+00
         0.00000E+00
         0.00000E+00
         0.00000E+00
         0.00000E+00
         0.00000E+00
         0.00000E+00
         0.00000E+00
         0.00000E+00
         0.00000E+00
         0.00000E+00
         0.00000E+00
         0.00000E+00
         0.00000E+00
         0.00000E+00
         0.00000E+00
         0.00000E+00
         0.00000E+00
         0.00000E+00
         0.00000E+00
         0.00000E+00
         0.00000E+00
         0.00000E+00
         0.00000E+00
         0.00000E+00
         0.00000E+00
         0.00000E+00
         0.00000E+00
         0.00000E+00
         0.00000E+00
         0.00000E+00
         0.00000E+00
         0.00000E+00
         0.00000E+00
         0.00000E+00
         0.00000E+00
         0.00000E+00
         0.00000E+00
         0.00000E+00
         0.00000E+00
         0.00000E+00
         0.00000E+00
         0.00000E+00
         0.00000E+00
         0.00000E+00
         0.00000E+00
         0.00000E+00
         0.00000E+00
         0.00000E+00
         0.00000E+00
         0.00000E+00
         0.00000E+00
         0.00000E+00
         0.00000E+00
         0.00000E+00
         0.00000E+00
         0.00000E+00
         0.00000E+00
         0.00000E+00
         0.00000E+00
         0.00000E+00
         0.00000E+00
         0.00000E+00
         0.00000E+00
         0.00000E+00
         0.00000E+00
         0.00000E+00
         0.00000E+00
         0.00000E+00
         0.00000E+00
         0.00000E+00
         0.00000E+00
         0.00000E+00
         0.00000E+00
         0.00000E+00
         0.00000E+00
         0.00000E+00
         0.00000E+00
         0.00000E+00
         0.00000E+00
         0.00000E+00
         0.00000E+00
         0.00000E+00
         0.00000E+00
         0.00000E+00
         0.00000E+00
         0.00000E+00
         0.00000E+00
         0.00000E+00
         0.00000E+00
         0.00000E+00
         0.00000E+00
         0.00000E+00
         0.00000E+00
         0.00000E+00
         0.00000E+00
         0.00000E+00
         0.00000E+00
         0.00000E+00
         0.00000E+00
         0.00000E+00
         0.00000E+00
         0.00000E+00
         0.00000E+00
         0.00000E+00
         0.00000E+00
         0.00000E+00
         0.00000E+00
         0.00000E+00
         0.00000E+00
         0.00000E+00
         0.00000E+00
         0.00000E+00
         0.00000E+00
         0.00000E+00
         0.00000E+00
         0.00000E+00
         0.00000E+00
         0.00000E+00
         0.00000E+00
         0.00000E+00
         0.00000E+00
         0.00000E+00
         0.00000E+00
         0.00000E+00
         0.00000E+00
         0.00000E+00
         0.00000E+00
         0.00000E+00
         0.00000E+00
         0.00000E+00
         0.00000E+00
         0.00000E+00
         0.00000E+00
         0.00000E+00
         0.00000E+00
         0.00000E+00
         0.00000E+00
         0.00000E+00
         0.00000E+00
         0.00000E+00
         0.00000E+00
         0.00000E+00
         0.00000E+00
         0.00000E+00
         0.00000E+00
         0.00000E+00
         0.00000E+00
         0.00000E+00
         0.00000E+00
         0.00000E+00
         0.00000E+00
         0.00000E+00
         0.00000E+00
         0.00000E+00
         0.00000E+00
         0.00000E+00
         0.00000E+00
         0.00000E+00
         0.00000E+00
         0.00000E+00
         0.00000E+00
         0.00000E+00
         0.00000E+00
         0.00000E+00
         0.00000E+00
         0.00000E+00
         0.00000E+00
         0.00000E+00
         0.00000E+00
         0.00000E+00
         0.00000E+00
         0.00000E+00
         0.00000E+00
         0.00000E+00
         0.00000E+00
         0.00000E+00
         0.00000E+00
         0.00000E+00
         0.00000E+00
         0.00000E+00
         0.00000E+00
         0.00000E+00
         0.00000E+00
         0.00000E+00
         0.00000E+00
         0.00000E+00
         0.00000E+00
         0.00000E+00
         0.00000E+00
         0.00000E+00
         0.00000E+00
         0.00000E+00
         0.00000E+00
         0.00000E+00
         0.00000E+00
         0.00000E+00
         0.00000E+00
         0.00000E+00
         0.00000E+00
         0.00000E+00
         0.00000E+00
         0.00000E+00
         0.00000E+00
         0.00000E+00
         0.00000E+00
         0.00000E+00
         0.00000E+00
         0.00000E+00
         0.00000E+00
         0.00000E+00
         0.00000E+00
         0.00000E+00
         0.00000E+00
         0.00000E+00
         0.00000E+00
         0.00000E+00
         0.00000E+00
         0.00000E+00
         0.00000E+00
         0.00000E+00
         0.00000E+00
         0.00000E+00
         0.00000E+00
         0.00000E+00
         0.00000E+00
         0.00000E+00
         0.00000E+00
         0.00000E+00
         0.00000E+00
         0.00000E+00
         0.00000E+00
         0.00000E+00
         0.00000E+00
         0.00000E+00
         0.00000E+00
         0.00000E+00
         0.00000E+00
         0.00000E+00
         0.00000E+00
         0.00000E+00
         0.00000E+00
         0.00000E+00
         0.00000E+00
         0.00000E+00
         0.00000E+00
         0.00000E+00
         0.00000E+00
         0.00000E+00
         0.00000E+00
         0.00000E+00
         0.00000E+00
         0.00000E+00
         0.00000E+00
         0.00000E+00
         0.00000E+00
         0.00000E+00
         0.00000E+00
         0.00000E+00
         0.00000E+00
         0.00000E+00
         0.00000E+00
         0.00000E+00
         0.00000E+00
         0.00000E+00
         0.00000E+00
         0.00000E+00
         0.00000E+00
         0.00000E+00
         0.00000E+00
         0.00000E+00
         0.00000E+00
         0.00000E+00
         0.00000E+00
         0.00000E+00
         0.00000E+00
         0.00000E+00
         0.00000E+00
         0.00000E+00
         0.00000E+00
         0.00000E+00
         0.00000E+00
         0.00000E+00
         0.00000E+00
         0.00000E+00
         0.00000E+00
         0.00000E+00
         0.00000E+00
         0.00000E+00
         0.00000E+00
         0.00000E+00
         0.00000E+00
         0.00000E+00
         0.00000E+00
         0.00000E+00
         0.00000E+00
         0.00000E+00
         0.00000E+00
         0.00000E+00
         0.00000E+00
         0.00000E+00
         0.00000E+00
         0.00000E+00
         0.00000E+00
         0.00000E+00
         0.00000E+00
         0.00000E+00
         0.00000E+00
         0.00000E+00
         0.00000E+00
         0.00000E+00
         0.00000E+00
         0.00000E+00
         0.00000E+00
         0.00000E+00
         0.00000E+00
         0.00000E+00
         0.00000E+00
         0.00000E+00
         0.00000E+00
         0.00000E+00
         0.00000E+00
         0.00000E+00
         0.00000E+00
         0.00000E+00
         0.00000E+00
         0.00000E+00
         0.00000E+00
         0.00000E+00
         0.00000E+00
         0.00000E+00
         0.00000E+00
         0.00000E+00
         0.00000E+00
         0.00000E+00
         0.00000E+00
         0.00000E+00
         0.00000E+00
         0.00000E+00
         0.00000E+00
         0.00000E+00
         0.00000E+00
         0.00000E+00
         0.00000E+00
         0.00000E+00
         0.00000E+00
         0.00000E+00
         0.00000E+00
         0.00000E+00
         0.00000E+00
         0.00000E+00
         0.00000E+00
         0.00000E+00
         0.00000E+00
         0.00000E+00
         0.00000E+00
         0.00000E+00
         0.00000E+00
         0.00000E+00
         0.00000E+00
         0.00000E+00
         0.00000E+00
         0.00000E+00
         0.00000E+00
         0.00000E+00
         0.00000E+00
         0.00000E+00
         0.00000E+00
         0.00000E+00
         0.00000E+00
         0.00000E+00
         0.00000E+00
         0.00000E+00
         0.00000E+00
         0.00000E+00
         0.00000E+00
         0.00000E+00
         0.00000E+00
         0.00000E+00
         0.00000E+00
         0.00000E+00
         0.00000E+00
         0.00000E+00
         0.00000E+00
         0.00000E+00
         0.00000E+00
         0.00000E+00
         0.00000E+00
         0.00000E+00
         0.00000E+00
         0.00000E+00
         0.00000E+00
         0.00000E+00
         0.00000E+00
         0.00000E+00
         0.00000E+00
         0.00000E+00
         0.00000E+00
         0.00000E+00
         0.00000E+00
         0.00000E+00
         0.00000E+00
         0.00000E+00
         0.00000E+00
         0.00000E+00
         0.00000E+00
         0.00000E+00
         0.00000E+00
         0.00000E+00
         0.00000E+00
         0.00000E+00
         0.00000E+00
         0.00000E+00
         0.00000E+00
         0.00000E+00
         0.00000E+00
         0.00000E+00
         0.00000E+00
         0.00000E+00
         0.00000E+00
         0.00000E+00
         0.00000E+00
         0.00000E+00
         0.00000E+00
         0.00000E+00
         0.00000E+00
         0.00000E+00
         0.00000E+00
         0.00000E+00
         0.00000E+00
         0.00000E+00
         0.00000E+00
         0.00000E+00
         0.00000E+00
         0.00000E+00
         0.00000E+00
         0.00000E+00
         0.00000E+00
         0.00000E+00
         0.00000E+00
         0.00000E+00
         0.00000E+00
         0.00000E+00
         0.00000E+00
         0.00000E+00
         0.00000E+00
         0.00000E+00
         0.00000E+00
         0.00000E+00
         0.00000E+00
         0.00000E+00
         0.00000E+00
         0.00000E+00
         0.00000E+00
         0.00000E+00
         0.00000E+00
         0.00000E+00
         0.00000E+00
         0.00000E+00
         0.00000E+00
         0.00000E+00
         0.00000E+00
         0.00000E+00
         0.00000E+00
         0.00000E+00
         0.00000E+00
         0.00000E+00
         0.00000E+00
         0.00000E+00
         0.00000E+00
         0.00000E+00
         0.00000E+00
         0.00000E+00
         0.00000E+00
         0.00000E+00
         0.00000E+00
         0.00000E+00
         0.00000E+00
         0.00000E+00
         0.00000E+00
         0.00000E+00
         0.00000E+00
         0.00000E+00
         0.00000E+00
         0.00000E+00
         0.00000E+00
         0.00000E+00
         0.00000E+00
         0.00000E+00
         0.00000E+00
         0.00000E+00
         0.00000E+00
         0.00000E+00
         0.00000E+00
         0.00000E+00
         0.00000E+00
         0.00000E+00
         0.00000E+00
         0.00000E+00
         0.00000E+00
         0.00000E+00
         0.00000E+00
         0.00000E+00
         0.00000E+00
         0.00000E+00
         0.00000E+00
         0.00000E+00
         0.00000E+00
         0.00000E+00
         0.00000E+00
         0.00000E+00
         0.00000E+00
         0.00000E+00
         0.00000E+00
         0.00000E+00
         0.00000E+00
         0.00000E+00
         0.00000E+00
         0.00000E+00
         0.00000E+00
         0.00000E+00
         0.00000E+00
         0.00000E+00
         0.00000E+00
         0.00000E+00
         0.00000E+00
         0.00000E+00
         0.00000E+00
         0.00000E+00
         0.00000E+00
         0.00000E+00
         0.00000E+00
         0.00000E+00
         0.00000E+00
         0.00000E+00
         0.00000E+00
         0.00000E+00
         0.00000E+00
         0.00000E+00
         0.00000E+00
         0.00000E+00
         0.00000E+00
         0.00000E+00
         0.00000E+00
         0.00000E+00
         0.00000E+00
         0.00000E+00
         0.00000E+00
         0.00000E+00
         0.00000E+00
         0.00000E+00
         0.00000E+00
         0.00000E+00
         0.00000E+00
         0.00000E+00
         0.00000E+00
         0.00000E+00
         0.00000E+00
         0.00000E+00
         0.00000E+00
         0.00000E+00
         0.00000E+00
         0.00000E+00
         0.00000E+00
         0.00000E+00
         0.00000E+00
         0.00000E+00
         0.00000E+00
         0.00000E+00
         0.00000E+00
         0.00000E+00
         0.00000E+00
         0.00000E+00
         0.00000E+00
         0.00000E+00
         0.00000E+00
         0.00000E+00
         0.00000E+00
         0.00000E+00
         0.00000E+00
         0.00000E+00
         0.00000E+00
         0.00000E+00
         0.00000E+00
         0.00000E+00
         0.00000E+00
         0.00000E+00
         0.00000E+00
         0.00000E+00
         0.00000E+00
         0.00000E+00
         0.00000E+00
         0.00000E+00
         0.00000E+00
         0.00000E+00
         0.00000E+00
         0.00000E+00
         0.00000E+00
         0.00000E+00
         0.00000E+00
         0.00000E+00
         0.00000E+00
         0.00000E+00
         0.00000E+00
         0.00000E+00
         0.00000E+00
         0.00000E+00
         0.00000E+00
         0.00000E+00
         0.00000E+00
         0.00000E+00
         0.00000E+00
         0.00000E+00
         0.00000E+00
         0.00000E+00
         0.00000E+00
         0.00000E+00
         0.00000E+00
         0.00000E+00
         0.00000E+00
         0.00000E+00
         0.00000E+00
         0.00000E+00
         0.00000E+00
         0.00000E+00
         0.00000E+00
         0.00000E+00
         0.00000E+00
         0.00000E+00
         0.00000E+00
         0.00000E+00
         0.00000E+00
         0.00000E+00
         0.00000E+00
         0.00000E+00
         0.00000E+00
         0.00000E+00
         0.00000E+00
         0.00000E+00
         0.00000E+00
         0.00000E+00
         0.00000E+00
         0.00000E+00
         0.00000E+00
         0.00000E+00
         0.00000E+00
         0.00000E+00
         0.00000E+00
         0.00000E+00
         0.00000E+00
         0.00000E+00
         0.00000E+00
         0.00000E+00
         0.00000E+00
         0.00000E+00
         0.00000E+00
         0.00000E+00
         0.00000E+00
         0.00000E+00
         0.00000E+00
         0.00000E+00
         0.00000E+00
         0.00000E+00
         0.00000E+00
         0.00000E+00
         0.00000E+00
         0.00000E+00
         0.00000E+00
         0.00000E+00
         0.00000E+00
         0.00000E+00
         0.00000E+00
         0.00000E+00
         0.00000E+00
         0.00000E+00
         0.00000E+00
         0.00000E+00
         0.00000E+00
         0.00000E+00
         0.00000E+00
         0.00000E+00
         0.00000E+00
         0.00000E+00
         0.00000E+00
         0.00000E+00
         0.00000E+00
         0.00000E+00
         0.00000E+00
         0.00000E+00
         0.00000E+00
         0.00000E+00
         0.00000E+00
         0.00000E+00
         0.00000E+00
         0.00000E+00
         0.00000E+00
         0.00000E+00
         0.00000E+00
         0.00000E+00
         0.00000E+00
         0.00000E+00
         0.00000E+00
         0.00000E+00
         0.00000E+00
         0.00000E+00
         0.00000E+00
         0.00000E+00
         0.00000E+00
         0.00000E+00
         0.00000E+00
         0.00000E+00
         0.00000E+00
         0.00000E+00
         0.00000E+00
         0.00000E+00
         0.00000E+00
         0.00000E+00
         0.00000E+00
         0.00000E+00
         0.00000E+00
         0.00000E+00
         0.00000E+00
         0.00000E+00
         0.00000E+00
         0.00000E+00
         0.00000E+00
         0.00000E+00
         0.00000E+00
         0.00000E+00
         0.00000E+00
         0.00000E+00
         0.00000E+00
         0.00000E+00
         0.00000E+00
         0.00000E+00
         0.00000E+00
         0.00000E+00
         0.00000E+00
         0.00000E+00
         0.00000E+00
         0.00000E+00
         0.00000E+00
         0.00000E+00
         0.00000E+00
         0.00000E+00
         0.00000E+00
         0.00000E+00
         0.00000E+00
         0.00000E+00
         0.00000E+00
         0.00000E+00
         0.00000E+00
         0.00000E+00
         0.00000E+00
         0.00000E+00
         0.00000E+00
         0.00000E+00
         0.00000E+00
         0.00000E+00
         0.00000E+00
         0.00000E+00
         0.00000E+00
         0.00000E+00
         0.00000E+00
         0.00000E+00
         0.00000E+00
         0.00000E+00
         0.00000E+00
         0.00000E+00
         0.00000E+00
         0.00000E+00
         0.00000E+00
         0.00000E+00
         0.00000E+00
         0.00000E+00
         0.00000E+00
         0.00000E+00
         0.00000E+00
         0.00000E+00
         0.00000E+00
         0.00000E+00
         0.00000E+00
         0.00000E+00
         0.00000E+00
         0.00000E+00
         0.00000E+00
         0.00000E+00
         0.00000E+00
         0.00000E+00
         0.00000E+00
         0.00000E+00
         0.00000E+00
         0.00000E+00
         0.00000E+00
         0.00000E+00
         0.00000E+00
         0.00000E+00
         0.00000E+00
         0.00000E+00
         0.00000E+00
         0.00000E+00
         0.00000E+00
         0.00000E+00
         0.00000E+00
         0.00000E+00
         0.00000E+00
         0.00000E+00
         0.00000E+00
         0.00000E+00
         0.00000E+00
         0.00000E+00
         0.00000E+00
         0.00000E+00
         0.00000E+00
         0.00000E+00
         0.00000E+00
         0.00000E+00
         0.00000E+00
         0.00000E+00
         0.00000E+00
         0.00000E+00
         0.00000E+00
         0.00000E+00
         0.00000E+00
         0.00000E+00
         0.00000E+00
         0.00000E+00
         0.00000E+00
         0.00000E+00
         0.00000E+00
         0.00000E+00
         0.00000E+00
         0.00000E+00
         0.00000E+00
         0.00000E+00
         0.00000E+00
         0.00000E+00
         0.00000E+00
         0.00000E+00
         0.00000E+00
         0.00000E+00
         0.00000E+00
         0.00000E+00
         0.00000E+00
         0.00000E+00
         0.00000E+00
         0.00000E+00
         0.00000E+00
         0.00000E+00
         0.00000E+00
         0.00000E+00
         0.00000E+00
         0.00000E+00
         0.00000E+00
         0.00000E+00
         0.00000E+00
         0.00000E+00
         0.00000E+00
         0.00000E+00
         0.00000E+00
         0.00000E+00
         0.00000E+00
         0.00000E+00
         0.00000E+00
         0.00000E+00
         0.00000E+00
         0.00000E+00
         0.00000E+00
         0.00000E+00
         0.00000E+00
         0.00000E+00
         0.00000E+00
         0.00000E+00
         0.00000E+00
         0.00000E+00
         0.00000E+00
         0.00000E+00
         0.00000E+00
         0.00000E+00
         0.00000E+00
         0.00000E+00
         0.00000E+00
         0.00000E+00
         0.00000E+00
         0.00000E+00
         0.00000E+00
         0.00000E+00
         0.00000E+00
         0.00000E+00
         0.00000E+00
         0.00000E+00
         0.00000E+00
         0.00000E+00
         0.00000E+00
         0.00000E+00
         0.00000E+00
         0.00000E+00
         0.00000E+00
         0.00000E+00
         0.00000E+00
         0.00000E+00
         0.00000E+00
         0.00000E+00
         0.00000E+00
         0.00000E+00
         0.00000E+00
         0.00000E+00
         0.00000E+00
         0.00000E+00
         0.00000E+00
         0.00000E+00
         0.00000E+00
         0.00000E+00
         0.00000E+00
         0.00000E+00
         0.00000E+00
         0.00000E+00
         0.00000E+00
         0.00000E+00
         0.00000E+00
         0.00000E+00
         0.00000E+00
         0.00000E+00
         0.00000E+00
         0.00000E+00
         0.00000E+00
         0.00000E+00
         0.00000E+00
         0.00000E+00
         0.00000E+00
         0.00000E+00
         0.00000E+00
         0.00000E+00
         0.00000E+00
         0.00000E+00
         0.00000E+00
         0.00000E+00
         0.00000E+00
         0.00000E+00
         0.00000E+00
         0.00000E+00
         0.00000E+00
         0.00000E+00
         0.00000E+00
         0.00000E+00
         0.00000E+00
         0.00000E+00
         0.00000E+00
         0.00000E+00
         0.00000E+00
         0.00000E+00
         0.00000E+00
         0.00000E+00
         0.00000E+00
         0.00000E+00
         0.00000E+00
         0.00000E+00
         0.00000E+00
         0.00000E+00
         0.00000E+00
         0.00000E+00
         0.00000E+00
         0.00000E+00
         0.00000E+00
         0.00000E+00
         0.00000E+00
         0.00000E+00
         0.00000E+00
         0.00000E+00
         0.00000E+00
         0.00000E+00
         0.00000E+00
         0.00000E+00
         0.00000E+00
         0.00000E+00
         0.00000E+00
         0.00000E+00
         0.00000E+00
         0.00000E+00
         0.00000E+00
         0.00000E+00
         0.00000E+00
         0.00000E+00
         0.00000E+00
         0.00000E+00
         0.00000E+00
         0.00000E+00
         0.00000E+00
         0.00000E+00
         0.00000E+00
         0.00000E+00
         0.00000E+00
         0.00000E+00
         0.00000E+00
         0.00000E+00
         0.00000E+00
         0.00000E+00
         0.00000E+00
         0.00000E+00
         0.00000E+00
         0.00000E+00
         0.00000E+00
         0.00000E+00
         0.00000E+00
         0.00000E+00
         0.00000E+00
         0.00000E+00
         0.00000E+00
         0.00000E+00
         0.00000E+00
         0.00000E+00
         0.00000E+00
         0.00000E+00
         0.00000E+00
         0.00000E+00
         0.00000E+00
         0.00000E+00
         0.00000E+00
         0.00000E+00
         0.00000E+00
         0.00000E+00
         0.00000E+00
         0.00000E+00
         0.00000E+00
         0.00000E+00
         0.00000E+00
         0.00000E+00
         0.00000E+00
         0.00000E+00
         0.00000E+00
         0.00000E+00
         0.00000E+00
         0.00000E+00
         0.00000E+00
         0.00000E+00
         0.00000E+00
         0.00000E+00
         0.00000E+00
         0.00000E+00
         0.00000E+00
         0.00000E+00
         0.00000E+00
         0.00000E+00
         0.00000E+00
         0.00000E+00
         0.00000E+00
         0.00000E+00
         0.00000E+00
         0.00000E+00
         0.00000E+00
         0.00000E+00
         0.00000E+00
         0.00000E+00
         0.00000E+00
         0.00000E+00
         0.00000E+00
         0.00000E+00
         0.00000E+00
         0.00000E+00
         0.00000E+00
         0.00000E+00
         0.00000E+00
         0.00000E+00
         0.00000E+00
         0.00000E+00
         0.00000E+00
         0.00000E+00
         0.00000E+00
         0.00000E+00
         0.00000E+00
         0.00000E+00
         0.00000E+00
         0.00000E+00
         0.00000E+00
         0.00000E+00
         0.00000E+00
         0.00000E+00
         0.00000E+00
         0.00000E+00
         0.00000E+00
         0.00000E+00
         0.00000E+00
         0.00000E+00
         0.00000E+00
         0.00000E+00
         0.00000E+00
         0.00000E+00
         0.00000E+00
         0.00000E+00
         0.00000E+00
         0.00000E+00
         0.00000E+00
         0.00000E+00
         0.00000E+00
         0.00000E+00
         0.00000E+00
         0.00000E+00
         0.00000E+00
         0.00000E+00
         0.00000E+00
         0.00000E+00
         0.00000E+00
         0.00000E+00
         0.00000E+00
         0.00000E+00
         0.00000E+00
         0.00000E+00
         0.00000E+00
         0.00000E+00
         0.00000E+00
         0.00000E+00
         0.00000E+00
         0.00000E+00
         0.00000E+00
         0.00000E+00
         0.00000E+00
         0.00000E+00
         0.00000E+00
         0.00000E+00
         0.00000E+00
         0.00000E+00
         0.00000E+00
         0.00000E+00
         0.00000E+00
         0.00000E+00
         0.00000E+00
         0.00000E+00
         0.00000E+00
         0.00000E+00
         0.00000E+00
         0.00000E+00
         0.00000E+00
         0.00000E+00
         0.00000E+00
         0.00000E+00
         0.00000E+00
         0.00000E+00
         0.00000E+00
         0.00000E+00
         0.00000E+00
         0.00000E+00
         0.00000E+00
         0.00000E+00
         0.00000E+00
         0.00000E+00
         0.00000E+00
         0.00000E+00
         0.00000E+00
         0.00000E+00
         0.00000E+00
         0.00000E+00
         0.00000E+00
         0.00000E+00
         0.00000E+00
         0.00000E+00
         0.00000E+00
         0.00000E+00
         0.00000E+00
         0.00000E+00
         0.00000E+00
         0.00000E+00
         0.00000E+00
         0.00000E+00
         0.00000E+00
         0.00000E+00
         0.00000E+00
         0.00000E+00
         0.00000E+00
         0.00000E+00
         0.00000E+00
         0.00000E+00
         0.00000E+00
         0.00000E+00
         0.00000E+00
         0.00000E+00
         0.00000E+00
         0.00000E+00
         0.00000E+00
         0.00000E+00
         0.00000E+00
         0.00000E+00
         0.00000E+00
         0.00000E+00
         0.00000E+00
         0.00000E+00
         0.00000E+00
         0.00000E+00
         0.00000E+00
         0.00000E+00
         0.00000E+00
         0.00000E+00
         0.00000E+00
         0.00000E+00
         0.00000E+00
         0.00000E+00
         0.00000E+00
         0.00000E+00
         0.00000E+00
         0.00000E+00
         0.00000E+00
         0.00000E+00
         0.00000E+00
         0.00000E+00
         0.00000E+00
         0.00000E+00
         0.00000E+00
         0.00000E+00
         0.00000E+00
         0.00000E+00
         0.00000E+00
         0.00000E+00
         0.00000E+00
         0.00000E+00
         0.00000E+00
         0.00000E+00
         0.00000E+00
         0.00000E+00
         0.00000E+00
         0.00000E+00
         0.00000E+00
         0.00000E+00
         0.00000E+00
         0.00000E+00
         0.00000E+00
         0.00000E+00
         0.00000E+00
         0.00000E+00
         0.00000E+00
         0.00000E+00
         0.00000E+00
         0.00000E+00
         0.00000E+00
         0.00000E+00
         0.00000E+00
         0.00000E+00
         0.00000E+00
         0.00000E+00
         0.00000E+00
         0.00000E+00
         0.00000E+00
         0.00000E+00
         0.00000E+00
         0.00000E+00
         0.00000E+00
         0.00000E+00
         0.00000E+00
         0.00000E+00
         0.00000E+00
         0.00000E+00
         0.00000E+00
         0.00000E+00
         0.00000E+00
         0.00000E+00
         0.00000E+00
         0.00000E+00
         0.00000E+00
         0.00000E+00
         0.00000E+00
         0.00000E+00
         0.00000E+00
         0.00000E+00
         0.00000E+00
         0.00000E+00
         0.00000E+00
         0.00000E+00
         0.00000E+00
         0.00000E+00
         0.00000E+00
         0.00000E+00
         0.00000E+00
         0.00000E+00
         0.00000E+00
         0.00000E+00
         0.00000E+00
         0.00000E+00
         0.00000E+00
         0.00000E+00
         0.00000E+00
         0.00000E+00
         0.00000E+00
         0.00000E+00
         0.00000E+00
         0.00000E+00
         0.00000E+00
         0.00000E+00
         0.00000E+00
         0.00000E+00
         0.00000E+00
         0.00000E+00
         0.00000E+00
         0.00000E+00
         0.00000E+00
         0.00000E+00
         0.00000E+00
         0.00000E+00
         0.00000E+00
         0.00000E+00
         0.00000E+00
         0.00000E+00
         0.00000E+00
         0.00000E+00
         0.00000E+00
         0.00000E+00
         0.00000E+00
         0.00000E+00
         0.00000E+00
         0.00000E+00
         0.00000E+00
         0.00000E+00
         0.00000E+00
         0.00000E+00
         0.00000E+00
         0.00000E+00
         0.00000E+00
         0.00000E+00
         0.00000E+00
         0.00000E+00
         0.00000E+00
         0.00000E+00
         0.00000E+00
         0.00000E+00
         0.00000E+00
         0.00000E+00
         0.00000E+00
         0.00000E+00
         0.00000E+00
         0.00000E+00
         0.00000E+00
         0.00000E+00
         0.00000E+00
         0.00000E+00
         0.00000E+00
         0.00000E+00
         0.00000E+00
         0.00000E+00
         0.00000E+00
         0.00000E+00
         0.00000E+00
         0.00000E+00
         0.00000E+00
         0.00000E+00
         0.00000E+00
         0.00000E+00
         0.00000E+00
         0.00000E+00
         0.00000E+00
         0.00000E+00
         0.00000E+00
         0.00000E+00
         0.00000E+00
         0.00000E+00
         0.00000E+00
         0.00000E+00
         0.00000E+00
         0.00000E+00
         0.00000E+00
         0.00000E+00
         0.00000E+00
         0.00000E+00
         0.00000E+00
         0.00000E+00
         0.00000E+00
         0.00000E+00
         0.00000E+00
         0.00000E+00
         0.00000E+00
         0.00000E+00
         0.00000E+00
         0.00000E+00
         0.00000E+00
         0.00000E+00
         0.00000E+00
         0.00000E+00
         0.00000E+00
         0.00000E+00
         0.00000E+00
         0.00000E+00
         0.00000E+00
         0.00000E+00
         0.00000E+00
         0.00000E+00
         0.00000E+00
         0.00000E+00
         0.00000E+00
         0.00000E+00
         0.00000E+00
         0.00000E+00
         0.00000E+00
         0.00000E+00
         0.00000E+00
         0.00000E+00
         0.00000E+00
         0.00000E+00
         0.00000E+00
         0.00000E+00
         0.00000E+00
         0.00000E+00
         0.00000E+00
         0.00000E+00
         0.00000E+00
         0.00000E+00
         0.00000E+00
         0.00000E+00
         0.00000E+00
         0.00000E+00
         0.00000E+00
         0.00000E+00
         0.00000E+00
         0.00000E+00
         0.00000E+00
         0.00000E+00
         0.00000E+00
         0.00000E+00
         0.00000E+00
         0.00000E+00
         0.00000E+00
         0.00000E+00
         0.00000E+00
         0.00000E+00
         0.00000E+00
         0.00000E+00
         0.00000E+00
         0.00000E+00
         0.00000E+00
         0.00000E+00
         0.00000E+00
         0.00000E+00
         0.00000E+00
         0.00000E+00
         0.00000E+00
         0.00000E+00
         0.00000E+00
         0.00000E+00
         0.00000E+00
         0.00000E+00
         0.00000E+00
         0.00000E+00
         0.00000E+00
         0.00000E+00
         0.00000E+00
         0.00000E+00
         0.00000E+00
         0.00000E+00
         0.00000E+00
         0.00000E+00
         0.00000E+00
         0.00000E+00
         0.00000E+00
         0.00000E+00
         0.00000E+00
         0.00000E+00
         0.00000E+00
         0.00000E+00
         0.00000E+00
         0.00000E+00
         0.00000E+00
         0.00000E+00
         0.00000E+00
         0.00000E+00
         0.00000E+00
         0.00000E+00
         0.00000E+00
         0.00000E+00
         0.00000E+00
         0.00000E+00
         0.00000E+00
         0.00000E+00
         0.00000E+00
         0.00000E+00
         0.00000E+00
         0.00000E+00
         0.00000E+00
         0.00000E+00
         0.00000E+00
         0.00000E+00
         0.00000E+00
         0.00000E+00
         0.00000E+00
         0.00000E+00
         0.00000E+00
         0.00000E+00
         0.00000E+00
         0.00000E+00
         0.00000E+00
         0.00000E+00
         0.00000E+00
         0.00000E+00
         0.00000E+00
         0.00000E+00
         0.00000E+00
         0.00000E+00
         0.00000E+00
         0.00000E+00
         0.00000E+00
         0.00000E+00
         0.00000E+00
         0.00000E+00
         0.00000E+00
         0.00000E+00
         0.00000E+00
         0.00000E+00
         0.00000E+00
         0.00000E+00
         0.00000E+00
         0.00000E+00
         0.00000E+00
         0.00000E+00
         0.00000E+00
         0.00000E+00
         0.00000E+00
         0.00000E+00
         0.00000E+00
         0.00000E+00
         0.00000E+00
         0.00000E+00
         0.00000E+00
         0.00000E+00
         0.00000E+00
         0.00000E+00
         0.00000E+00
         0.00000E+00
         0.00000E+00
         0.00000E+00
         0.00000E+00
         0.00000E+00
         0.00000E+00
         0.00000E+00
         0.00000E+00
         0.00000E+00
         0.00000E+00
         0.00000E+00
         0.00000E+00
         0.00000E+00
         0.00000E+00
         0.00000E+00
         0.00000E+00
         0.00000E+00
         0.00000E+00
         0.00000E+00
         0.00000E+00
         0.00000E+00
         0.00000E+00
         0.00000E+00
         0.00000E+00
         0.00000E+00
         0.00000E+00
         0.00000E+00
         0.00000E+00
         0.00000E+00
         0.00000E+00
         0.00000E+00
         0.00000E+00
         0.00000E+00
         0.00000E+00
         0.00000E+00
         0.00000E+00
         0.00000E+00
         0.00000E+00
         0.00000E+00
         0.00000E+00
         0.00000E+00
         0.00000E+00
         0.00000E+00
         0.00000E+00
         0.00000E+00
         0.00000E+00
         0.00000E+00
         0.00000E+00
         0.00000E+00
         0.00000E+00
         0.00000E+00
         0.00000E+00
         0.00000E+00
         0.00000E+00
         0.00000E+00
         0.00000E+00
         0.00000E+00
         0.00000E+00
         0.00000E+00
         0.00000E+00
         0.00000E+00
         0.00000E+00
         0.00000E+00
         0.00000E+00
         0.00000E+00
         0.00000E+00
         0.00000E+00
         0.00000E+00
         0.00000E+00
         0.00000E+00
         0.00000E+00
         0.00000E+00
         0.00000E+00
         0.00000E+00
         0.00000E+00
         0.00000E+00
         0.00000E+00
         0.00000E+00
         0.00000E+00
         0.00000E+00
         0.00000E+00
         0.00000E+00
         0.00000E+00
         0.00000E+00
         0.00000E+00
         0.00000E+00
         0.00000E+00
         0.00000E+00
         0.00000E+00
         0.00000E+00
         0.00000E+00
         0.00000E+00
         0.00000E+00
         0.00000E+00
         0.00000E+00
         0.00000E+00
         0.00000E+00
         0.00000E+00
         0.00000E+00
         0.00000E+00
         0.00000E+00
         0.00000E+00
         0.00000E+00
         0.00000E+00
         0.00000E+00
         0.00000E+00
         0.00000E+00
         0.00000E+00
         0.00000E+00
         0.00000E+00
         0.00000E+00
         0.00000E+00
         0.00000E+00
         0.00000E+00
         0.00000E+00
         0.00000E+00
         0.00000E+00
         0.00000E+00
         0.00000E+00
         0.00000E+00
         0.00000E+00
         0.00000E+00
         0.00000E+00
         0.00000E+00
         0.00000E+00
         0.00000E+00
         0.00000E+00
         0.00000E+00
         0.00000E+00
         0.00000E+00
         0.00000E+00
         0.00000E+00
         0.00000E+00
         0.00000E+00
         0.00000E+00
         0.00000E+00
         0.00000E+00
         0.00000E+00
         0.00000E+00
         0.00000E+00
         0.00000E+00
         0.00000E+00
         0.00000E+00
         0.00000E+00
         0.00000E+00
         0.00000E+00
         0.00000E+00
         0.00000E+00
         0.00000E+00
         0.00000E+00
         0.00000E+00
         0.00000E+00
         0.00000E+00
         0.00000E+00
         0.00000E+00
         0.00000E+00
         0.00000E+00
         0.00000E+00
         0.00000E+00
         0.00000E+00
         0.00000E+00
         0.00000E+00
         0.00000E+00
         0.00000E+00
         0.00000E+00
         0.00000E+00
         0.00000E+00
         0.00000E+00
         0.00000E+00
         0.00000E+00
         0.00000E+00
         0.00000E+00
         0.00000E+00
         0.00000E+00
         0.00000E+00
         0.00000E+00
         0.00000E+00
         0.00000E+00
         0.00000E+00
         0.00000E+00
         0.00000E+00
         0.00000E+00
         0.00000E+00
         0.00000E+00
         0.00000E+00
         0.00000E+00
         0.00000E+00
         0.00000E+00
         0.00000E+00
         0.00000E+00
         0.00000E+00
         0.00000E+00
         0.00000E+00
         0.00000E+00
         0.00000E+00
         0.00000E+00
         0.00000E+00
         0.00000E+00
         0.00000E+00
         0.00000E+00
         0.00000E+00
         0.00000E+00
         0.00000E+00
         0.00000E+00
         0.00000E+00
         0.00000E+00
         0.00000E+00
         0.00000E+00
         0.00000E+00
         0.00000E+00
         0.00000E+00
         0.00000E+00
         0.00000E+00
         0.00000E+00
         0.00000E+00
         0.00000E+00
         0.00000E+00
         0.00000E+00
         0.00000E+00
         0.00000E+00
         0.00000E+00
         0.00000E+00
         0.00000E+00
         0.00000E+00
         0.00000E+00
         0.00000E+00
         0.00000E+00
         0.00000E+00
         0.00000E+00
         0.00000E+00
         0.00000E+00
         0.00000E+00
         0.00000E+00
         0.00000E+00
         0.00000E+00
         0.00000E+00
         0.00000E+00
         0.00000E+00
         0.00000E+00
         0.00000E+00
         0.00000E+00
         0.00000E+00
         0.00000E+00
         0.00000E+00
         0.00000E+00
         0.00000E+00
         0.00000E+00
         0.00000E+00
         0.00000E+00
         0.00000E+00
         0.00000E+00
         0.00000E+00
         0.00000E+00
         0.00000E+00
         0.00000E+00
         0.00000E+00
         0.00000E+00
         0.00000E+00
         0.00000E+00
         0.00000E+00
         0.00000E+00
         0.00000E+00
         0.00000E+00
         0.00000E+00
         0.00000E+00
         0.00000E+00
         0.00000E+00
         0.00000E+00
         0.00000E+00
         0.00000E+00
         0.00000E+00
         0.00000E+00
         0.00000E+00
         0.00000E+00
         0.00000E+00
         0.00000E+00
         0.00000E+00
         0.00000E+00
         0.00000E+00
         0.00000E+00
         0.00000E+00
         0.00000E+00
         0.00000E+00
         0.00000E+00
         0.00000E+00
         0.00000E+00
         0.00000E+00
         0.00000E+00
         0.00000E+00
         0.00000E+00
         0.00000E+00
         0.00000E+00
         0.00000E+00
         0.00000E+00
         0.00000E+00
         0.00000E+00
         0.00000E+00
         0.00000E+00
         0.00000E+00
         0.00000E+00
         0.00000E+00
         0.00000E+00
         0.00000E+00
         0.00000E+00
         0.00000E+00
         0.00000E+00
         0.00000E+00
         0.00000E+00
         0.00000E+00
         0.00000E+00
         0.00000E+00
         0.00000E+00
         0.00000E+00
         0.00000E+00
         0.00000E+00
         0.00000E+00
         0.00000E+00
         0.00000E+00
         0.00000E+00
         0.00000E+00
         0.00000E+00
         0.00000E+00
         0.00000E+00
         0.00000E+00
         0.00000E+00
         0.00000E+00
         0.00000E+00
         0.00000E+00
         0.00000E+00
         0.00000E+00
         0.00000E+00
         0.00000E+00
         0.00000E+00
         0.00000E+00
         0.00000E+00
         0.00000E+00
         0.00000E+00
         0.00000E+00
         0.00000E+00
         0.00000E+00
         0.00000E+00
         0.00000E+00
         0.00000E+00
         0.00000E+00
         0.00000E+00
         0.00000E+00
         0.00000E+00
         0.00000E+00
         0.00000E+00
         0.00000E+00
         0.00000E+00
         0.00000E+00
         0.00000E+00
         0.00000E+00
         0.00000E+00
         0.00000E+00
         0.00000E+00
         0.00000E+00
         0.00000E+00
         0.00000E+00
         0.00000E+00
         0.00000E+00
         0.00000E+00
         0.00000E+00
         0.00000E+00
         0.00000E+00
         0.00000E+00
         0.00000E+00
         0.00000E+00
         0.00000E+00
         0.00000E+00
         0.00000E+00
         0.00000E+00
         0.00000E+00
         0.00000E+00
         0.00000E+00
         0.00000E+00
         0.00000E+00
         0.00000E+00
         0.00000E+00
         0.00000E+00
         0.00000E+00
         0.00000E+00
         0.00000E+00
         0.00000E+00
         0.00000E+00
         0.00000E+00
         0.00000E+00
         0.00000E+00
         0.00000E+00
         0.00000E+00
         0.00000E+00
         0.00000E+00
  
SCALARS                      eps_shear  double 1
LOOKUP_TABLE default
         0.00000E+00
         0.00000E+00
         0.00000E+00
         0.00000E+00
         0.00000E+00
         0.00000E+00
         0.00000E+00
         0.00000E+00
         0.00000E+00
         0.00000E+00
         0.00000E+00
         0.00000E+00
         0.00000E+00
         0.00000E+00
         0.00000E+00
         0.00000E+00
         0.00000E+00
         0.00000E+00
         0.00000E+00
         0.00000E+00
         0.00000E+00
         0.00000E+00
         0.00000E+00
         0.00000E+00
         0.00000E+00
         0.00000E+00
         0.00000E+00
         0.00000E+00
         0.00000E+00
         0.00000E+00
         0.00000E+00
         0.00000E+00
         0.00000E+00
         0.00000E+00
         0.00000E+00
         0.00000E+00
         0.00000E+00
         0.00000E+00
         0.00000E+00
         0.00000E+00
         0.00000E+00
         0.00000E+00
         0.00000E+00
         0.00000E+00
         0.00000E+00
         0.00000E+00
         0.00000E+00
         0.00000E+00
         0.00000E+00
         0.00000E+00
         0.00000E+00
         0.00000E+00
         0.00000E+00
         0.00000E+00
         0.00000E+00
         0.00000E+00
         0.00000E+00
         0.00000E+00
         0.00000E+00
         0.00000E+00
         0.00000E+00
         0.00000E+00
         0.00000E+00
         0.00000E+00
         0.00000E+00
         0.00000E+00
         0.00000E+00
         0.00000E+00
         0.00000E+00
         0.00000E+00
         0.00000E+00
         0.00000E+00
         0.00000E+00
         0.00000E+00
         0.00000E+00
         0.00000E+00
         0.00000E+00
         0.00000E+00
         0.00000E+00
         0.00000E+00
         0.00000E+00
         0.00000E+00
         0.00000E+00
         0.00000E+00
         0.00000E+00
         0.00000E+00
         0.00000E+00
         0.00000E+00
         0.00000E+00
         0.00000E+00
         0.00000E+00
         0.00000E+00
         0.00000E+00
         0.00000E+00
         0.00000E+00
         0.00000E+00
         0.00000E+00
         0.00000E+00
         0.00000E+00
         0.00000E+00
         0.00000E+00
         0.00000E+00
         0.00000E+00
         0.00000E+00
         0.00000E+00
         0.00000E+00
         0.00000E+00
         0.00000E+00
         0.00000E+00
         0.00000E+00
         0.00000E+00
         0.00000E+00
         0.00000E+00
         0.00000E+00
         0.00000E+00
         0.00000E+00
         0.00000E+00
         0.00000E+00
         0.00000E+00
         0.00000E+00
         0.00000E+00
         0.00000E+00
         0.00000E+00
         0.00000E+00
         0.00000E+00
         0.00000E+00
         0.00000E+00
         0.00000E+00
         0.00000E+00
         0.00000E+00
         0.00000E+00
         0.00000E+00
         0.00000E+00
         0.00000E+00
         0.00000E+00
         0.00000E+00
         0.00000E+00
         0.00000E+00
         0.00000E+00
         0.00000E+00
         0.00000E+00
         0.00000E+00
         0.00000E+00
         0.00000E+00
         0.00000E+00
         0.00000E+00
         0.00000E+00
         0.00000E+00
         0.00000E+00
         0.00000E+00
         0.00000E+00
         0.00000E+00
         0.00000E+00
         0.00000E+00
         0.00000E+00
         0.00000E+00
         0.00000E+00
         0.00000E+00
         0.00000E+00
         0.00000E+00
         0.00000E+00
         0.00000E+00
         0.00000E+00
         0.00000E+00
         0.00000E+00
         0.00000E+00
         0.00000E+00
         0.00000E+00
         0.00000E+00
         0.00000E+00
         0.00000E+00
         0.00000E+00
         0.00000E+00
         0.00000E+00
         0.00000E+00
         0.00000E+00
         0.00000E+00
         0.00000E+00
         0.00000E+00
         0.00000E+00
         0.00000E+00
         0.00000E+00
         0.00000E+00
         0.00000E+00
         0.00000E+00
         0.00000E+00
         0.00000E+00
         0.00000E+00
         0.00000E+00
         0.00000E+00
         0.00000E+00
         0.00000E+00
         0.00000E+00
         0.00000E+00
         0.00000E+00
         0.00000E+00
         0.00000E+00
         0.00000E+00
         0.00000E+00
         0.00000E+00
         0.00000E+00
         0.00000E+00
         0.00000E+00
         0.00000E+00
         0.00000E+00
         0.00000E+00
         0.00000E+00
         0.00000E+00
         0.00000E+00
         0.00000E+00
         0.00000E+00
         0.00000E+00
         0.00000E+00
         0.00000E+00
         0.00000E+00
         0.00000E+00
         0.00000E+00
         0.00000E+00
         0.00000E+00
         0.00000E+00
         0.00000E+00
         0.00000E+00
         0.00000E+00
         0.00000E+00
         0.00000E+00
         0.00000E+00
         0.00000E+00
         0.00000E+00
         0.00000E+00
         0.00000E+00
         0.00000E+00
         0.00000E+00
         0.00000E+00
         0.00000E+00
         0.00000E+00
         0.00000E+00
         0.00000E+00
         0.00000E+00
         0.00000E+00
         0.00000E+00
         0.00000E+00
         0.00000E+00
         0.00000E+00
         0.00000E+00
         0.00000E+00
         0.00000E+00
         0.00000E+00
         0.00000E+00
         0.00000E+00
         0.00000E+00
         0.00000E+00
         0.00000E+00
         0.00000E+00
         0.00000E+00
         0.00000E+00
         0.00000E+00
         0.00000E+00
         0.00000E+00
         0.00000E+00
         0.00000E+00
         0.00000E+00
         0.00000E+00
         0.00000E+00
         0.00000E+00
         0.00000E+00
         0.00000E+00
         0.00000E+00
         0.00000E+00
         0.00000E+00
         0.00000E+00
         0.00000E+00
         0.00000E+00
         0.00000E+00
         0.00000E+00
         0.00000E+00
         0.00000E+00
         0.00000E+00
         0.00000E+00
         0.00000E+00
         0.00000E+00
         0.00000E+00
         0.00000E+00
         0.00000E+00
         0.00000E+00
         0.00000E+00
         0.00000E+00
         0.00000E+00
         0.00000E+00
         0.00000E+00
         0.00000E+00
         0.00000E+00
         0.00000E+00
         0.00000E+00
         0.00000E+00
         0.00000E+00
         0.00000E+00
         0.00000E+00
         0.00000E+00
         0.00000E+00
         0.00000E+00
         0.00000E+00
         0.00000E+00
         0.00000E+00
         0.00000E+00
         0.00000E+00
         0.00000E+00
         0.00000E+00
         0.00000E+00
         0.00000E+00
         0.00000E+00
         0.00000E+00
         0.00000E+00
         0.00000E+00
         0.00000E+00
         0.00000E+00
         0.00000E+00
         0.00000E+00
         0.00000E+00
         0.00000E+00
         0.00000E+00
         0.00000E+00
         0.00000E+00
         0.00000E+00
         0.00000E+00
         0.00000E+00
         0.00000E+00
         0.00000E+00
         0.00000E+00
         0.00000E+00
         0.00000E+00
         0.00000E+00
         0.00000E+00
         0.00000E+00
         0.00000E+00
         0.00000E+00
         0.00000E+00
         0.00000E+00
         0.00000E+00
         0.00000E+00
         0.00000E+00
         0.00000E+00
         0.00000E+00
         0.00000E+00
         0.00000E+00
         0.00000E+00
         0.00000E+00
         0.00000E+00
         0.00000E+00
         0.00000E+00
         0.00000E+00
         0.00000E+00
         0.00000E+00
         0.00000E+00
         0.00000E+00
         0.00000E+00
         0.00000E+00
         0.00000E+00
         0.00000E+00
         0.00000E+00
         0.00000E+00
         0.00000E+00
         0.00000E+00
         0.00000E+00
         0.00000E+00
         0.00000E+00
         0.00000E+00
         0.00000E+00
         0.00000E+00
         0.00000E+00
         0.00000E+00
         0.00000E+00
         0.00000E+00
         0.00000E+00
         0.00000E+00
         0.00000E+00
         0.00000E+00
         0.00000E+00
         0.00000E+00
         0.00000E+00
         0.00000E+00
         0.00000E+00
         0.00000E+00
         0.00000E+00
         0.00000E+00
         0.00000E+00
         0.00000E+00
         0.00000E+00
         0.00000E+00
         0.00000E+00
         0.00000E+00
         0.00000E+00
         0.00000E+00
         0.00000E+00
         0.00000E+00
         0.00000E+00
         0.00000E+00
         0.00000E+00
         0.00000E+00
         0.00000E+00
         0.00000E+00
         0.00000E+00
         0.00000E+00
         0.00000E+00
         0.00000E+00
         0.00000E+00
         0.00000E+00
         0.00000E+00
         0.00000E+00
         0.00000E+00
         0.00000E+00
         0.00000E+00
         0.00000E+00
         0.00000E+00
         0.00000E+00
         0.00000E+00
         0.00000E+00
         0.00000E+00
         0.00000E+00
         0.00000E+00
         0.00000E+00
         0.00000E+00
         0.00000E+00
         0.00000E+00
         0.00000E+00
         0.00000E+00
         0.00000E+00
         0.00000E+00
         0.00000E+00
         0.00000E+00
         0.00000E+00
         0.00000E+00
         0.00000E+00
         0.00000E+00
         0.00000E+00
         0.00000E+00
         0.00000E+00
         0.00000E+00
         0.00000E+00
         0.00000E+00
         0.00000E+00
         0.00000E+00
         0.00000E+00
         0.00000E+00
         0.00000E+00
         0.00000E+00
         0.00000E+00
         0.00000E+00
         0.00000E+00
         0.00000E+00
         0.00000E+00
         0.00000E+00
         0.00000E+00
         0.00000E+00
         0.00000E+00
         0.00000E+00
         0.00000E+00
         0.00000E+00
         0.00000E+00
         0.00000E+00
         0.00000E+00
         0.00000E+00
         0.00000E+00
         0.00000E+00
         0.00000E+00
         0.00000E+00
         0.00000E+00
         0.00000E+00
         0.00000E+00
         0.00000E+00
         0.00000E+00
         0.00000E+00
         0.00000E+00
         0.00000E+00
         0.00000E+00
         0.00000E+00
         0.00000E+00
         0.00000E+00
         0.00000E+00
         0.00000E+00
         0.00000E+00
         0.00000E+00
         0.00000E+00
         0.00000E+00
         0.00000E+00
         0.00000E+00
         0.00000E+00
         0.00000E+00
         0.00000E+00
         0.00000E+00
         0.00000E+00
         0.00000E+00
         0.00000E+00
         0.00000E+00
         0.00000E+00
         0.00000E+00
         0.00000E+00
         0.00000E+00
         0.00000E+00
         0.00000E+00
         0.00000E+00
         0.00000E+00
         0.00000E+00
         0.00000E+00
         0.00000E+00
         0.00000E+00
         0.00000E+00
         0.00000E+00
         0.00000E+00
         0.00000E+00
         0.00000E+00
         0.00000E+00
         0.00000E+00
         0.00000E+00
         0.00000E+00
         0.00000E+00
         0.00000E+00
         0.00000E+00
         0.00000E+00
         0.00000E+00
         0.00000E+00
         0.00000E+00
         0.00000E+00
         0.00000E+00
         0.00000E+00
         0.00000E+00
         0.00000E+00
         0.00000E+00
         0.00000E+00
         0.00000E+00
         0.00000E+00
         0.00000E+00
         0.00000E+00
         0.00000E+00
         0.00000E+00
         0.00000E+00
         0.00000E+00
         0.00000E+00
         0.00000E+00
         0.00000E+00
         0.00000E+00
         0.00000E+00
         0.00000E+00
         0.00000E+00
         0.00000E+00
         0.00000E+00
         0.00000E+00
         0.00000E+00
         0.00000E+00
         0.00000E+00
         0.00000E+00
         0.00000E+00
         0.00000E+00
         0.00000E+00
         0.00000E+00
         0.00000E+00
         0.00000E+00
         0.00000E+00
         0.00000E+00
         0.00000E+00
         0.00000E+00
         0.00000E+00
         0.00000E+00
         0.00000E+00
         0.00000E+00
         0.00000E+00
         0.00000E+00
         0.00000E+00
         0.00000E+00
         0.00000E+00
         0.00000E+00
         0.00000E+00
         0.00000E+00
         0.00000E+00
         0.00000E+00
         0.00000E+00
         0.00000E+00
         0.00000E+00
         0.00000E+00
         0.00000E+00
         0.00000E+00
         0.00000E+00
         0.00000E+00
         0.00000E+00
         0.00000E+00
         0.00000E+00
         0.00000E+00
         0.00000E+00
         0.00000E+00
         0.00000E+00
         0.00000E+00
         0.00000E+00
         0.00000E+00
         0.00000E+00
         0.00000E+00
         0.00000E+00
         0.00000E+00
         0.00000E+00
         0.00000E+00
         0.00000E+00
         0.00000E+00
         0.00000E+00
         0.00000E+00
         0.00000E+00
         0.00000E+00
         0.00000E+00
         0.00000E+00
         0.00000E+00
         0.00000E+00
         0.00000E+00
         0.00000E+00
         0.00000E+00
         0.00000E+00
         0.00000E+00
         0.00000E+00
         0.00000E+00
         0.00000E+00
         0.00000E+00
         0.00000E+00
         0.00000E+00
         0.00000E+00
         0.00000E+00
         0.00000E+00
         0.00000E+00
         0.00000E+00
         0.00000E+00
         0.00000E+00
         0.00000E+00
         0.00000E+00
         0.00000E+00
         0.00000E+00
         0.00000E+00
         0.00000E+00
         0.00000E+00
         0.00000E+00
         0.00000E+00
         0.00000E+00
         0.00000E+00
         0.00000E+00
         0.00000E+00
         0.00000E+00
         0.00000E+00
         0.00000E+00
         0.00000E+00
         0.00000E+00
         0.00000E+00
         0.00000E+00
         0.00000E+00
         0.00000E+00
         0.00000E+00
         0.00000E+00
         0.00000E+00
         0.00000E+00
         0.00000E+00
         0.00000E+00
         0.00000E+00
         0.00000E+00
         0.00000E+00
         0.00000E+00
         0.00000E+00
         0.00000E+00
         0.00000E+00
         0.00000E+00
         0.00000E+00
         0.00000E+00
         0.00000E+00
         0.00000E+00
         0.00000E+00
         0.00000E+00
         0.00000E+00
         0.00000E+00
         0.00000E+00
         0.00000E+00
         0.00000E+00
         0.00000E+00
         0.00000E+00
         0.00000E+00
         0.00000E+00
         0.00000E+00
         0.00000E+00
         0.00000E+00
         0.00000E+00
         0.00000E+00
         0.00000E+00
         0.00000E+00
         0.00000E+00
         0.00000E+00
         0.00000E+00
         0.00000E+00
         0.00000E+00
         0.00000E+00
         0.00000E+00
         0.00000E+00
         0.00000E+00
         0.00000E+00
         0.00000E+00
         0.00000E+00
         0.00000E+00
         0.00000E+00
         0.00000E+00
         0.00000E+00
         0.00000E+00
         0.00000E+00
         0.00000E+00
         0.00000E+00
         0.00000E+00
         0.00000E+00
         0.00000E+00
         0.00000E+00
         0.00000E+00
         0.00000E+00
         0.00000E+00
         0.00000E+00
         0.00000E+00
         0.00000E+00
         0.00000E+00
         0.00000E+00
         0.00000E+00
         0.00000E+00
         0.00000E+00
         0.00000E+00
         0.00000E+00
         0.00000E+00
         0.00000E+00
         0.00000E+00
         0.00000E+00
         0.00000E+00
         0.00000E+00
         0.00000E+00
         0.00000E+00
         0.00000E+00
         0.00000E+00
         0.00000E+00
         0.00000E+00
         0.00000E+00
         0.00000E+00
         0.00000E+00
         0.00000E+00
         0.00000E+00
         0.00000E+00
         0.00000E+00
         0.00000E+00
         0.00000E+00
         0.00000E+00
         0.00000E+00
         0.00000E+00
         0.00000E+00
         0.00000E+00
         0.00000E+00
         0.00000E+00
         0.00000E+00
         0.00000E+00
         0.00000E+00
         0.00000E+00
         0.00000E+00
         0.00000E+00
         0.00000E+00
         0.00000E+00
         0.00000E+00
         0.00000E+00
         0.00000E+00
         0.00000E+00
         0.00000E+00
         0.00000E+00
         0.00000E+00
         0.00000E+00
         0.00000E+00
         0.00000E+00
         0.00000E+00
         0.00000E+00
         0.00000E+00
         0.00000E+00
         0.00000E+00
         0.00000E+00
         0.00000E+00
         0.00000E+00
         0.00000E+00
         0.00000E+00
         0.00000E+00
         0.00000E+00
         0.00000E+00
         0.00000E+00
         0.00000E+00
         0.00000E+00
         0.00000E+00
         0.00000E+00
         0.00000E+00
         0.00000E+00
         0.00000E+00
         0.00000E+00
         0.00000E+00
         0.00000E+00
         0.00000E+00
         0.00000E+00
         0.00000E+00
         0.00000E+00
         0.00000E+00
         0.00000E+00
         0.00000E+00
         0.00000E+00
         0.00000E+00
         0.00000E+00
         0.00000E+00
         0.00000E+00
         0.00000E+00
         0.00000E+00
         0.00000E+00
         0.00000E+00
         0.00000E+00
         0.00000E+00
         0.00000E+00
         0.00000E+00
         0.00000E+00
         0.00000E+00
         0.00000E+00
         0.00000E+00
         0.00000E+00
         0.00000E+00
         0.00000E+00
         0.00000E+00
         0.00000E+00
         0.00000E+00
         0.00000E+00
         0.00000E+00
         0.00000E+00
         0.00000E+00
         0.00000E+00
         0.00000E+00
         0.00000E+00
         0.00000E+00
         0.00000E+00
         0.00000E+00
         0.00000E+00
         0.00000E+00
         0.00000E+00
         0.00000E+00
         0.00000E+00
         0.00000E+00
         0.00000E+00
         0.00000E+00
         0.00000E+00
         0.00000E+00
         0.00000E+00
         0.00000E+00
         0.00000E+00
         0.00000E+00
         0.00000E+00
         0.00000E+00
         0.00000E+00
         0.00000E+00
         0.00000E+00
         0.00000E+00
         0.00000E+00
         0.00000E+00
         0.00000E+00
         0.00000E+00
         0.00000E+00
         0.00000E+00
         0.00000E+00
         0.00000E+00
         0.00000E+00
         0.00000E+00
         0.00000E+00
         0.00000E+00
         0.00000E+00
         0.00000E+00
         0.00000E+00
         0.00000E+00
         0.00000E+00
         0.00000E+00
         0.00000E+00
         0.00000E+00
         0.00000E+00
         0.00000E+00
         0.00000E+00
         0.00000E+00
         0.00000E+00
         0.00000E+00
         0.00000E+00
         0.00000E+00
         0.00000E+00
         0.00000E+00
         0.00000E+00
         0.00000E+00
         0.00000E+00
         0.00000E+00
         0.00000E+00
         0.00000E+00
         0.00000E+00
         0.00000E+00
         0.00000E+00
         0.00000E+00
         0.00000E+00
         0.00000E+00
         0.00000E+00
         0.00000E+00
         0.00000E+00
         0.00000E+00
         0.00000E+00
         0.00000E+00
         0.00000E+00
         0.00000E+00
         0.00000E+00
         0.00000E+00
         0.00000E+00
         0.00000E+00
         0.00000E+00
         0.00000E+00
         0.00000E+00
         0.00000E+00
         0.00000E+00
         0.00000E+00
         0.00000E+00
         0.00000E+00
         0.00000E+00
         0.00000E+00
         0.00000E+00
         0.00000E+00
         0.00000E+00
         0.00000E+00
         0.00000E+00
         0.00000E+00
         0.00000E+00
         0.00000E+00
         0.00000E+00
         0.00000E+00
         0.00000E+00
         0.00000E+00
         0.00000E+00
         0.00000E+00
         0.00000E+00
         0.00000E+00
         0.00000E+00
         0.00000E+00
         0.00000E+00
         0.00000E+00
         0.00000E+00
         0.00000E+00
         0.00000E+00
         0.00000E+00
         0.00000E+00
         0.00000E+00
         0.00000E+00
         0.00000E+00
         0.00000E+00
         0.00000E+00
         0.00000E+00
         0.00000E+00
         0.00000E+00
         0.00000E+00
         0.00000E+00
         0.00000E+00
         0.00000E+00
         0.00000E+00
         0.00000E+00
         0.00000E+00
         0.00000E+00
         0.00000E+00
         0.00000E+00
         0.00000E+00
         0.00000E+00
         0.00000E+00
         0.00000E+00
         0.00000E+00
         0.00000E+00
         0.00000E+00
         0.00000E+00
         0.00000E+00
         0.00000E+00
         0.00000E+00
         0.00000E+00
         0.00000E+00
         0.00000E+00
         0.00000E+00
         0.00000E+00
         0.00000E+00
         0.00000E+00
         0.00000E+00
         0.00000E+00
         0.00000E+00
         0.00000E+00
         0.00000E+00
         0.00000E+00
         0.00000E+00
         0.00000E+00
         0.00000E+00
         0.00000E+00
         0.00000E+00
         0.00000E+00
         0.00000E+00
         0.00000E+00
         0.00000E+00
         0.00000E+00
         0.00000E+00
         0.00000E+00
         0.00000E+00
         0.00000E+00
         0.00000E+00
         0.00000E+00
         0.00000E+00
         0.00000E+00
         0.00000E+00
         0.00000E+00
         0.00000E+00
         0.00000E+00
         0.00000E+00
         0.00000E+00
         0.00000E+00
         0.00000E+00
         0.00000E+00
         0.00000E+00
         0.00000E+00
         0.00000E+00
         0.00000E+00
         0.00000E+00
         0.00000E+00
         0.00000E+00
         0.00000E+00
         0.00000E+00
         0.00000E+00
         0.00000E+00
         0.00000E+00
         0.00000E+00
         0.00000E+00
         0.00000E+00
         0.00000E+00
         0.00000E+00
         0.00000E+00
         0.00000E+00
         0.00000E+00
         0.00000E+00
         0.00000E+00
         0.00000E+00
         0.00000E+00
         0.00000E+00
         0.00000E+00
         0.00000E+00
         0.00000E+00
         0.00000E+00
         0.00000E+00
         0.00000E+00
         0.00000E+00
         0.00000E+00
         0.00000E+00
         0.00000E+00
         0.00000E+00
         0.00000E+00
         0.00000E+00
         0.00000E+00
         0.00000E+00
         0.00000E+00
         0.00000E+00
         0.00000E+00
         0.00000E+00
         0.00000E+00
         0.00000E+00
         0.00000E+00
         0.00000E+00
         0.00000E+00
         0.00000E+00
         0.00000E+00
         0.00000E+00
         0.00000E+00
         0.00000E+00
         0.00000E+00
         0.00000E+00
         0.00000E+00
         0.00000E+00
         0.00000E+00
         0.00000E+00
         0.00000E+00
         0.00000E+00
         0.00000E+00
         0.00000E+00
         0.00000E+00
         0.00000E+00
         0.00000E+00
         0.00000E+00
         0.00000E+00
         0.00000E+00
         0.00000E+00
         0.00000E+00
         0.00000E+00
         0.00000E+00
         0.00000E+00
         0.00000E+00
         0.00000E+00
         0.00000E+00
         0.00000E+00
         0.00000E+00
         0.00000E+00
         0.00000E+00
         0.00000E+00
         0.00000E+00
         0.00000E+00
         0.00000E+00
         0.00000E+00
         0.00000E+00
         0.00000E+00
         0.00000E+00
         0.00000E+00
         0.00000E+00
         0.00000E+00
         0.00000E+00
         0.00000E+00
         0.00000E+00
         0.00000E+00
         0.00000E+00
         0.00000E+00
         0.00000E+00
         0.00000E+00
         0.00000E+00
         0.00000E+00
         0.00000E+00
         0.00000E+00
         0.00000E+00
         0.00000E+00
         0.00000E+00
         0.00000E+00
         0.00000E+00
         0.00000E+00
         0.00000E+00
         0.00000E+00
         0.00000E+00
         0.00000E+00
         0.00000E+00
         0.00000E+00
         0.00000E+00
         0.00000E+00
         0.00000E+00
         0.00000E+00
         0.00000E+00
         0.00000E+00
         0.00000E+00
         0.00000E+00
         0.00000E+00
         0.00000E+00
         0.00000E+00
         0.00000E+00
         0.00000E+00
         0.00000E+00
         0.00000E+00
         0.00000E+00
         0.00000E+00
         0.00000E+00
         0.00000E+00
         0.00000E+00
         0.00000E+00
         0.00000E+00
         0.00000E+00
         0.00000E+00
         0.00000E+00
         0.00000E+00
         0.00000E+00
         0.00000E+00
         0.00000E+00
         0.00000E+00
         0.00000E+00
         0.00000E+00
         0.00000E+00
         0.00000E+00
         0.00000E+00
         0.00000E+00
         0.00000E+00
         0.00000E+00
         0.00000E+00
         0.00000E+00
         0.00000E+00
         0.00000E+00
         0.00000E+00
         0.00000E+00
         0.00000E+00
         0.00000E+00
         0.00000E+00
         0.00000E+00
         0.00000E+00
         0.00000E+00
         0.00000E+00
         0.00000E+00
         0.00000E+00
         0.00000E+00
         0.00000E+00
         0.00000E+00
         0.00000E+00
         0.00000E+00
         0.00000E+00
         0.00000E+00
         0.00000E+00
         0.00000E+00
         0.00000E+00
         0.00000E+00
         0.00000E+00
         0.00000E+00
         0.00000E+00
         0.00000E+00
         0.00000E+00
         0.00000E+00
         0.00000E+00
         0.00000E+00
         0.00000E+00
         0.00000E+00
         0.00000E+00
         0.00000E+00
         0.00000E+00
         0.00000E+00
         0.00000E+00
         0.00000E+00
         0.00000E+00
         0.00000E+00
         0.00000E+00
         0.00000E+00
         0.00000E+00
         0.00000E+00
         0.00000E+00
         0.00000E+00
         0.00000E+00
         0.00000E+00
         0.00000E+00
         0.00000E+00
         0.00000E+00
         0.00000E+00
         0.00000E+00
         0.00000E+00
         0.00000E+00
         0.00000E+00
         0.00000E+00
         0.00000E+00
         0.00000E+00
         0.00000E+00
         0.00000E+00
         0.00000E+00
         0.00000E+00
         0.00000E+00
         0.00000E+00
         0.00000E+00
         0.00000E+00
         0.00000E+00
         0.00000E+00
         0.00000E+00
         0.00000E+00
         0.00000E+00
         0.00000E+00
         0.00000E+00
         0.00000E+00
         0.00000E+00
         0.00000E+00
         0.00000E+00
         0.00000E+00
         0.00000E+00
         0.00000E+00
         0.00000E+00
         0.00000E+00
         0.00000E+00
         0.00000E+00
         0.00000E+00
         0.00000E+00
         0.00000E+00
         0.00000E+00
         0.00000E+00
         0.00000E+00
         0.00000E+00
         0.00000E+00
         0.00000E+00
         0.00000E+00
         0.00000E+00
         0.00000E+00
         0.00000E+00
         0.00000E+00
         0.00000E+00
         0.00000E+00
         0.00000E+00
         0.00000E+00
         0.00000E+00
         0.00000E+00
         0.00000E+00
         0.00000E+00
         0.00000E+00
         0.00000E+00
         0.00000E+00
         0.00000E+00
         0.00000E+00
         0.00000E+00
         0.00000E+00
         0.00000E+00
         0.00000E+00
         0.00000E+00
         0.00000E+00
         0.00000E+00
         0.00000E+00
         0.00000E+00
         0.00000E+00
         0.00000E+00
         0.00000E+00
         0.00000E+00
         0.00000E+00
         0.00000E+00
         0.00000E+00
         0.00000E+00
         0.00000E+00
         0.00000E+00
         0.00000E+00
         0.00000E+00
         0.00000E+00
         0.00000E+00
         0.00000E+00
         0.00000E+00
         0.00000E+00
         0.00000E+00
         0.00000E+00
         0.00000E+00
         0.00000E+00
         0.00000E+00
         0.00000E+00
         0.00000E+00
         0.00000E+00
         0.00000E+00
         0.00000E+00
         0.00000E+00
         0.00000E+00
         0.00000E+00
         0.00000E+00
         0.00000E+00
         0.00000E+00
         0.00000E+00
         0.00000E+00
         0.00000E+00
         0.00000E+00
         0.00000E+00
         0.00000E+00
         0.00000E+00
         0.00000E+00
         0.00000E+00
         0.00000E+00
         0.00000E+00
         0.00000E+00
         0.00000E+00
         0.00000E+00
         0.00000E+00
         0.00000E+00
         0.00000E+00
         0.00000E+00
         0.00000E+00
         0.00000E+00
         0.00000E+00
         0.00000E+00
         0.00000E+00
         0.00000E+00
         0.00000E+00
         0.00000E+00
         0.00000E+00
         0.00000E+00
         0.00000E+00
         0.00000E+00
         0.00000E+00
         0.00000E+00
         0.00000E+00
         0.00000E+00
         0.00000E+00
         0.00000E+00
         0.00000E+00
         0.00000E+00
         0.00000E+00
         0.00000E+00
         0.00000E+00
         0.00000E+00
         0.00000E+00
         0.00000E+00
         0.00000E+00
         0.00000E+00
         0.00000E+00
         0.00000E+00
         0.00000E+00
         0.00000E+00
         0.00000E+00
         0.00000E+00
         0.00000E+00
         0.00000E+00
         0.00000E+00
         0.00000E+00
         0.00000E+00
         0.00000E+00
         0.00000E+00
         0.00000E+00
         0.00000E+00
         0.00000E+00
         0.00000E+00
         0.00000E+00
         0.00000E+00
         0.00000E+00
         0.00000E+00
         0.00000E+00
         0.00000E+00
         0.00000E+00
         0.00000E+00
         0.00000E+00
         0.00000E+00
         0.00000E+00
         0.00000E+00
         0.00000E+00
         0.00000E+00
         0.00000E+00
         0.00000E+00
         0.00000E+00
         0.00000E+00
         0.00000E+00
         0.00000E+00
         0.00000E+00
         0.00000E+00
         0.00000E+00
         0.00000E+00
         0.00000E+00
         0.00000E+00
         0.00000E+00
         0.00000E+00
         0.00000E+00
         0.00000E+00
         0.00000E+00
         0.00000E+00
         0.00000E+00
         0.00000E+00
         0.00000E+00
         0.00000E+00
         0.00000E+00
         0.00000E+00
         0.00000E+00
         0.00000E+00
         0.00000E+00
         0.00000E+00
         0.00000E+00
         0.00000E+00
         0.00000E+00
         0.00000E+00
         0.00000E+00
         0.00000E+00
         0.00000E+00
         0.00000E+00
         0.00000E+00
         0.00000E+00
         0.00000E+00
         0.00000E+00
         0.00000E+00
         0.00000E+00
         0.00000E+00
         0.00000E+00
         0.00000E+00
         0.00000E+00
         0.00000E+00
         0.00000E+00
         0.00000E+00
         0.00000E+00
         0.00000E+00
         0.00000E+00
         0.00000E+00
         0.00000E+00
         0.00000E+00
         0.00000E+00
         0.00000E+00
         0.00000E+00
         0.00000E+00
         0.00000E+00
         0.00000E+00
         0.00000E+00
         0.00000E+00
         0.00000E+00
         0.00000E+00
         0.00000E+00
         0.00000E+00
         0.00000E+00
         0.00000E+00
         0.00000E+00
         0.00000E+00
         0.00000E+00
         0.00000E+00
         0.00000E+00
         0.00000E+00
         0.00000E+00
         0.00000E+00
         0.00000E+00
         0.00000E+00
         0.00000E+00
         0.00000E+00
         0.00000E+00
         0.00000E+00
         0.00000E+00
         0.00000E+00
         0.00000E+00
         0.00000E+00
         0.00000E+00
         0.00000E+00
         0.00000E+00
         0.00000E+00
         0.00000E+00
         0.00000E+00
         0.00000E+00
         0.00000E+00
         0.00000E+00
         0.00000E+00
         0.00000E+00
         0.00000E+00
         0.00000E+00
         0.00000E+00
         0.00000E+00
         0.00000E+00
         0.00000E+00
         0.00000E+00
         0.00000E+00
         0.00000E+00
         0.00000E+00
         0.00000E+00
         0.00000E+00
         0.00000E+00
         0.00000E+00
         0.00000E+00
         0.00000E+00
         0.00000E+00
         0.00000E+00
         0.00000E+00
         0.00000E+00
         0.00000E+00
         0.00000E+00
         0.00000E+00
         0.00000E+00
         0.00000E+00
         0.00000E+00
         0.00000E+00
         0.00000E+00
         0.00000E+00
         0.00000E+00
         0.00000E+00
         0.00000E+00
         0.00000E+00
         0.00000E+00
         0.00000E+00
         0.00000E+00
         0.00000E+00
         0.00000E+00
         0.00000E+00
         0.00000E+00
         0.00000E+00
         0.00000E+00
         0.00000E+00
         0.00000E+00
         0.00000E+00
         0.00000E+00
         0.00000E+00
         0.00000E+00
         0.00000E+00
         0.00000E+00
         0.00000E+00
         0.00000E+00
         0.00000E+00
         0.00000E+00
         0.00000E+00
         0.00000E+00
         0.00000E+00
         0.00000E+00
         0.00000E+00
         0.00000E+00
         0.00000E+00
         0.00000E+00
         0.00000E+00
         0.00000E+00
         0.00000E+00
         0.00000E+00
         0.00000E+00
         0.00000E+00
         0.00000E+00
         0.00000E+00
         0.00000E+00
         0.00000E+00
         0.00000E+00
         0.00000E+00
         0.00000E+00
         0.00000E+00
         0.00000E+00
         0.00000E+00
         0.00000E+00
         0.00000E+00
         0.00000E+00
         0.00000E+00
         0.00000E+00
         0.00000E+00
         0.00000E+00
         0.00000E+00
         0.00000E+00
         0.00000E+00
         0.00000E+00
         0.00000E+00
         0.00000E+00
         0.00000E+00
         0.00000E+00
         0.00000E+00
         0.00000E+00
         0.00000E+00
         0.00000E+00
         0.00000E+00
         0.00000E+00
         0.00000E+00
         0.00000E+00
         0.00000E+00
         0.00000E+00
         0.00000E+00
         0.00000E+00
         0.00000E+00
         0.00000E+00
         0.00000E+00
         0.00000E+00
         0.00000E+00
         0.00000E+00
         0.00000E+00
         0.00000E+00
         0.00000E+00
         0.00000E+00
         0.00000E+00
         0.00000E+00
         0.00000E+00
         0.00000E+00
         0.00000E+00
         0.00000E+00
         0.00000E+00
         0.00000E+00
         0.00000E+00
         0.00000E+00
         0.00000E+00
         0.00000E+00
         0.00000E+00
         0.00000E+00
         0.00000E+00
         0.00000E+00
         0.00000E+00
         0.00000E+00
         0.00000E+00
         0.00000E+00
         0.00000E+00
         0.00000E+00
         0.00000E+00
         0.00000E+00
         0.00000E+00
         0.00000E+00
         0.00000E+00
         0.00000E+00
         0.00000E+00
         0.00000E+00
         0.00000E+00
         0.00000E+00
         0.00000E+00
         0.00000E+00
         0.00000E+00
         0.00000E+00
         0.00000E+00
         0.00000E+00
         0.00000E+00
         0.00000E+00
         0.00000E+00
         0.00000E+00
         0.00000E+00
         0.00000E+00
         0.00000E+00
         0.00000E+00
         0.00000E+00
         0.00000E+00
         0.00000E+00
         0.00000E+00
         0.00000E+00
         0.00000E+00
         0.00000E+00
         0.00000E+00
         0.00000E+00
         0.00000E+00
         0.00000E+00
         0.00000E+00
         0.00000E+00
         0.00000E+00
         0.00000E+00
         0.00000E+00
         0.00000E+00
         0.00000E+00
         0.00000E+00
         0.00000E+00
         0.00000E+00
         0.00000E+00
         0.00000E+00
         0.00000E+00
         0.00000E+00
         0.00000E+00
         0.00000E+00
         0.00000E+00
         0.00000E+00
         0.00000E+00
         0.00000E+00
         0.00000E+00
         0.00000E+00
         0.00000E+00
         0.00000E+00
         0.00000E+00
         0.00000E+00
         0.00000E+00
         0.00000E+00
         0.00000E+00
         0.00000E+00
         0.00000E+00
         0.00000E+00
         0.00000E+00
         0.00000E+00
         0.00000E+00
         0.00000E+00
         0.00000E+00
         0.00000E+00
         0.00000E+00
         0.00000E+00
         0.00000E+00
         0.00000E+00
         0.00000E+00
         0.00000E+00
         0.00000E+00
         0.00000E+00
         0.00000E+00
         0.00000E+00
         0.00000E+00
         0.00000E+00
         0.00000E+00
         0.00000E+00
         0.00000E+00
         0.00000E+00
         0.00000E+00
         0.00000E+00
         0.00000E+00
         0.00000E+00
         0.00000E+00
         0.00000E+00
         0.00000E+00
         0.00000E+00
         0.00000E+00
         0.00000E+00
         0.00000E+00
         0.00000E+00
         0.00000E+00
         0.00000E+00
         0.00000E+00
         0.00000E+00
         0.00000E+00
         0.00000E+00
         0.00000E+00
         0.00000E+00
         0.00000E+00
         0.00000E+00
         0.00000E+00
         0.00000E+00
         0.00000E+00
         0.00000E+00
         0.00000E+00
         0.00000E+00
         0.00000E+00
         0.00000E+00
         0.00000E+00
         0.00000E+00
         0.00000E+00
         0.00000E+00
         0.00000E+00
         0.00000E+00
         0.00000E+00
         0.00000E+00
         0.00000E+00
         0.00000E+00
         0.00000E+00
         0.00000E+00
         0.00000E+00
         0.00000E+00
         0.00000E+00
         0.00000E+00
         0.00000E+00
         0.00000E+00
         0.00000E+00
         0.00000E+00
         0.00000E+00
         0.00000E+00
         0.00000E+00
         0.00000E+00
         0.00000E+00
         0.00000E+00
         0.00000E+00
         0.00000E+00
         0.00000E+00
         0.00000E+00
         0.00000E+00
         0.00000E+00
         0.00000E+00
         0.00000E+00
         0.00000E+00
         0.00000E+00
         0.00000E+00
         0.00000E+00
         0.00000E+00
         0.00000E+00
         0.00000E+00
         0.00000E+00
         0.00000E+00
         0.00000E+00
         0.00000E+00
         0.00000E+00
         0.00000E+00
         0.00000E+00
         0.00000E+00
         0.00000E+00
         0.00000E+00
         0.00000E+00
         0.00000E+00
         0.00000E+00
         0.00000E+00
         0.00000E+00
         0.00000E+00
         0.00000E+00
         0.00000E+00
         0.00000E+00
         0.00000E+00
         0.00000E+00
         0.00000E+00
         0.00000E+00
         0.00000E+00
         0.00000E+00
         0.00000E+00
         0.00000E+00
         0.00000E+00
         0.00000E+00
         0.00000E+00
         0.00000E+00
         0.00000E+00
         0.00000E+00
         0.00000E+00
         0.00000E+00
         0.00000E+00
         0.00000E+00
         0.00000E+00
         0.00000E+00
         0.00000E+00
         0.00000E+00
         0.00000E+00
         0.00000E+00
         0.00000E+00
         0.00000E+00
         0.00000E+00
         0.00000E+00
         0.00000E+00
         0.00000E+00
         0.00000E+00
         0.00000E+00
         0.00000E+00
         0.00000E+00
         0.00000E+00
         0.00000E+00
         0.00000E+00
         0.00000E+00
         0.00000E+00
         0.00000E+00
         0.00000E+00
         0.00000E+00
         0.00000E+00
         0.00000E+00
         0.00000E+00
         0.00000E+00
         0.00000E+00
         0.00000E+00
         0.00000E+00
         0.00000E+00
         0.00000E+00
         0.00000E+00
         0.00000E+00
         0.00000E+00
         0.00000E+00
         0.00000E+00
         0.00000E+00
         0.00000E+00
         0.00000E+00
         0.00000E+00
         0.00000E+00
         0.00000E+00
         0.00000E+00
         0.00000E+00
         0.00000E+00
         0.00000E+00
         0.00000E+00
         0.00000E+00
         0.00000E+00
         0.00000E+00
         0.00000E+00
         0.00000E+00
         0.00000E+00
         0.00000E+00
         0.00000E+00
         0.00000E+00
         0.00000E+00
         0.00000E+00
         0.00000E+00
         0.00000E+00
         0.00000E+00
         0.00000E+00
         0.00000E+00
         0.00000E+00
         0.00000E+00
         0.00000E+00
         0.00000E+00
         0.00000E+00
         0.00000E+00
         0.00000E+00
         0.00000E+00
         0.00000E+00
         0.00000E+00
         0.00000E+00
         0.00000E+00
         0.00000E+00
         0.00000E+00
         0.00000E+00
         0.00000E+00
         0.00000E+00
         0.00000E+00
         0.00000E+00
         0.00000E+00
         0.00000E+00
         0.00000E+00
         0.00000E+00
         0.00000E+00
         0.00000E+00
         0.00000E+00
         0.00000E+00
         0.00000E+00
         0.00000E+00
         0.00000E+00
         0.00000E+00
         0.00000E+00
         0.00000E+00
         0.00000E+00
         0.00000E+00
         0.00000E+00
         0.00000E+00
         0.00000E+00
         0.00000E+00
         0.00000E+00
         0.00000E+00
         0.00000E+00
         0.00000E+00
         0.00000E+00
         0.00000E+00
         0.00000E+00
         0.00000E+00
         0.00000E+00
         0.00000E+00
         0.00000E+00
         0.00000E+00
         0.00000E+00
         0.00000E+00
         0.00000E+00
  
SCALARS                        eps_vol  double 1
LOOKUP_TABLE default
         0.00000E+00
         0.00000E+00
         0.00000E+00
         0.00000E+00
         0.00000E+00
         0.00000E+00
         0.00000E+00
         0.00000E+00
         0.00000E+00
         0.00000E+00
         0.00000E+00
         0.00000E+00
         0.00000E+00
         0.00000E+00
         0.00000E+00
         0.00000E+00
         0.00000E+00
         0.00000E+00
         0.00000E+00
         0.00000E+00
         0.00000E+00
         0.00000E+00
         0.00000E+00
         0.00000E+00
         0.00000E+00
         0.00000E+00
         0.00000E+00
         0.00000E+00
         0.00000E+00
         0.00000E+00
         0.00000E+00
         0.00000E+00
         0.00000E+00
         0.00000E+00
         0.00000E+00
         0.00000E+00
         0.00000E+00
         0.00000E+00
         0.00000E+00
         0.00000E+00
         0.00000E+00
         0.00000E+00
         0.00000E+00
         0.00000E+00
         0.00000E+00
         0.00000E+00
         0.00000E+00
         0.00000E+00
         0.00000E+00
         0.00000E+00
         0.00000E+00
         0.00000E+00
         0.00000E+00
         0.00000E+00
         0.00000E+00
         0.00000E+00
         0.00000E+00
         0.00000E+00
         0.00000E+00
         0.00000E+00
         0.00000E+00
         0.00000E+00
         0.00000E+00
         0.00000E+00
         0.00000E+00
         0.00000E+00
         0.00000E+00
         0.00000E+00
         0.00000E+00
         0.00000E+00
         0.00000E+00
         0.00000E+00
         0.00000E+00
         0.00000E+00
         0.00000E+00
         0.00000E+00
         0.00000E+00
         0.00000E+00
         0.00000E+00
         0.00000E+00
         0.00000E+00
         0.00000E+00
         0.00000E+00
         0.00000E+00
         0.00000E+00
         0.00000E+00
         0.00000E+00
         0.00000E+00
         0.00000E+00
         0.00000E+00
         0.00000E+00
         0.00000E+00
         0.00000E+00
         0.00000E+00
         0.00000E+00
         0.00000E+00
         0.00000E+00
         0.00000E+00
         0.00000E+00
         0.00000E+00
         0.00000E+00
         0.00000E+00
         0.00000E+00
         0.00000E+00
         0.00000E+00
         0.00000E+00
         0.00000E+00
         0.00000E+00
         0.00000E+00
         0.00000E+00
         0.00000E+00
         0.00000E+00
         0.00000E+00
         0.00000E+00
         0.00000E+00
         0.00000E+00
         0.00000E+00
         0.00000E+00
         0.00000E+00
         0.00000E+00
         0.00000E+00
         0.00000E+00
         0.00000E+00
         0.00000E+00
         0.00000E+00
         0.00000E+00
         0.00000E+00
         0.00000E+00
         0.00000E+00
         0.00000E+00
         0.00000E+00
         0.00000E+00
         0.00000E+00
         0.00000E+00
         0.00000E+00
         0.00000E+00
         0.00000E+00
         0.00000E+00
         0.00000E+00
         0.00000E+00
         0.00000E+00
         0.00000E+00
         0.00000E+00
         0.00000E+00
         0.00000E+00
         0.00000E+00
         0.00000E+00
         0.00000E+00
         0.00000E+00
         0.00000E+00
         0.00000E+00
         0.00000E+00
         0.00000E+00
         0.00000E+00
         0.00000E+00
         0.00000E+00
         0.00000E+00
         0.00000E+00
         0.00000E+00
         0.00000E+00
         0.00000E+00
         0.00000E+00
         0.00000E+00
         0.00000E+00
         0.00000E+00
         0.00000E+00
         0.00000E+00
         0.00000E+00
         0.00000E+00
         0.00000E+00
         0.00000E+00
         0.00000E+00
         0.00000E+00
         0.00000E+00
         0.00000E+00
         0.00000E+00
         0.00000E+00
         0.00000E+00
         0.00000E+00
         0.00000E+00
         0.00000E+00
         0.00000E+00
         0.00000E+00
         0.00000E+00
         0.00000E+00
         0.00000E+00
         0.00000E+00
         0.00000E+00
         0.00000E+00
         0.00000E+00
         0.00000E+00
         0.00000E+00
         0.00000E+00
         0.00000E+00
         0.00000E+00
         0.00000E+00
         0.00000E+00
         0.00000E+00
         0.00000E+00
         0.00000E+00
         0.00000E+00
         0.00000E+00
         0.00000E+00
         0.00000E+00
         0.00000E+00
         0.00000E+00
         0.00000E+00
         0.00000E+00
         0.00000E+00
         0.00000E+00
         0.00000E+00
         0.00000E+00
         0.00000E+00
         0.00000E+00
         0.00000E+00
         0.00000E+00
         0.00000E+00
         0.00000E+00
         0.00000E+00
         0.00000E+00
         0.00000E+00
         0.00000E+00
         0.00000E+00
         0.00000E+00
         0.00000E+00
         0.00000E+00
         0.00000E+00
         0.00000E+00
         0.00000E+00
         0.00000E+00
         0.00000E+00
         0.00000E+00
         0.00000E+00
         0.00000E+00
         0.00000E+00
         0.00000E+00
         0.00000E+00
         0.00000E+00
         0.00000E+00
         0.00000E+00
         0.00000E+00
         0.00000E+00
         0.00000E+00
         0.00000E+00
         0.00000E+00
         0.00000E+00
         0.00000E+00
         0.00000E+00
         0.00000E+00
         0.00000E+00
         0.00000E+00
         0.00000E+00
         0.00000E+00
         0.00000E+00
         0.00000E+00
         0.00000E+00
         0.00000E+00
         0.00000E+00
         0.00000E+00
         0.00000E+00
         0.00000E+00
         0.00000E+00
         0.00000E+00
         0.00000E+00
         0.00000E+00
         0.00000E+00
         0.00000E+00
         0.00000E+00
         0.00000E+00
         0.00000E+00
         0.00000E+00
         0.00000E+00
         0.00000E+00
         0.00000E+00
         0.00000E+00
         0.00000E+00
         0.00000E+00
         0.00000E+00
         0.00000E+00
         0.00000E+00
         0.00000E+00
         0.00000E+00
         0.00000E+00
         0.00000E+00
         0.00000E+00
         0.00000E+00
         0.00000E+00
         0.00000E+00
         0.00000E+00
         0.00000E+00
         0.00000E+00
         0.00000E+00
         0.00000E+00
         0.00000E+00
         0.00000E+00
         0.00000E+00
         0.00000E+00
         0.00000E+00
         0.00000E+00
         0.00000E+00
         0.00000E+00
         0.00000E+00
         0.00000E+00
         0.00000E+00
         0.00000E+00
         0.00000E+00
         0.00000E+00
         0.00000E+00
         0.00000E+00
         0.00000E+00
         0.00000E+00
         0.00000E+00
         0.00000E+00
         0.00000E+00
         0.00000E+00
         0.00000E+00
         0.00000E+00
         0.00000E+00
         0.00000E+00
         0.00000E+00
         0.00000E+00
         0.00000E+00
         0.00000E+00
         0.00000E+00
         0.00000E+00
         0.00000E+00
         0.00000E+00
         0.00000E+00
         0.00000E+00
         0.00000E+00
         0.00000E+00
         0.00000E+00
         0.00000E+00
         0.00000E+00
         0.00000E+00
         0.00000E+00
         0.00000E+00
         0.00000E+00
         0.00000E+00
         0.00000E+00
         0.00000E+00
         0.00000E+00
         0.00000E+00
         0.00000E+00
         0.00000E+00
         0.00000E+00
         0.00000E+00
         0.00000E+00
         0.00000E+00
         0.00000E+00
         0.00000E+00
         0.00000E+00
         0.00000E+00
         0.00000E+00
         0.00000E+00
         0.00000E+00
         0.00000E+00
         0.00000E+00
         0.00000E+00
         0.00000E+00
         0.00000E+00
         0.00000E+00
         0.00000E+00
         0.00000E+00
         0.00000E+00
         0.00000E+00
         0.00000E+00
         0.00000E+00
         0.00000E+00
         0.00000E+00
         0.00000E+00
         0.00000E+00
         0.00000E+00
         0.00000E+00
         0.00000E+00
         0.00000E+00
         0.00000E+00
         0.00000E+00
         0.00000E+00
         0.00000E+00
         0.00000E+00
         0.00000E+00
         0.00000E+00
         0.00000E+00
         0.00000E+00
         0.00000E+00
         0.00000E+00
         0.00000E+00
         0.00000E+00
         0.00000E+00
         0.00000E+00
         0.00000E+00
         0.00000E+00
         0.00000E+00
         0.00000E+00
         0.00000E+00
         0.00000E+00
         0.00000E+00
         0.00000E+00
         0.00000E+00
         0.00000E+00
         0.00000E+00
         0.00000E+00
         0.00000E+00
         0.00000E+00
         0.00000E+00
         0.00000E+00
         0.00000E+00
         0.00000E+00
         0.00000E+00
         0.00000E+00
         0.00000E+00
         0.00000E+00
         0.00000E+00
         0.00000E+00
         0.00000E+00
         0.00000E+00
         0.00000E+00
         0.00000E+00
         0.00000E+00
         0.00000E+00
         0.00000E+00
         0.00000E+00
         0.00000E+00
         0.00000E+00
         0.00000E+00
         0.00000E+00
         0.00000E+00
         0.00000E+00
         0.00000E+00
         0.00000E+00
         0.00000E+00
         0.00000E+00
         0.00000E+00
         0.00000E+00
         0.00000E+00
         0.00000E+00
         0.00000E+00
         0.00000E+00
         0.00000E+00
         0.00000E+00
         0.00000E+00
         0.00000E+00
         0.00000E+00
         0.00000E+00
         0.00000E+00
         0.00000E+00
         0.00000E+00
         0.00000E+00
         0.00000E+00
         0.00000E+00
         0.00000E+00
         0.00000E+00
         0.00000E+00
         0.00000E+00
         0.00000E+00
         0.00000E+00
         0.00000E+00
         0.00000E+00
         0.00000E+00
         0.00000E+00
         0.00000E+00
         0.00000E+00
         0.00000E+00
         0.00000E+00
         0.00000E+00
         0.00000E+00
         0.00000E+00
         0.00000E+00
         0.00000E+00
         0.00000E+00
         0.00000E+00
         0.00000E+00
         0.00000E+00
         0.00000E+00
         0.00000E+00
         0.00000E+00
         0.00000E+00
         0.00000E+00
         0.00000E+00
         0.00000E+00
         0.00000E+00
         0.00000E+00
         0.00000E+00
         0.00000E+00
         0.00000E+00
         0.00000E+00
         0.00000E+00
         0.00000E+00
         0.00000E+00
         0.00000E+00
         0.00000E+00
         0.00000E+00
         0.00000E+00
         0.00000E+00
         0.00000E+00
         0.00000E+00
         0.00000E+00
         0.00000E+00
         0.00000E+00
         0.00000E+00
         0.00000E+00
         0.00000E+00
         0.00000E+00
         0.00000E+00
         0.00000E+00
         0.00000E+00
         0.00000E+00
         0.00000E+00
         0.00000E+00
         0.00000E+00
         0.00000E+00
         0.00000E+00
         0.00000E+00
         0.00000E+00
         0.00000E+00
         0.00000E+00
         0.00000E+00
         0.00000E+00
         0.00000E+00
         0.00000E+00
         0.00000E+00
         0.00000E+00
         0.00000E+00
         0.00000E+00
         0.00000E+00
         0.00000E+00
         0.00000E+00
         0.00000E+00
         0.00000E+00
         0.00000E+00
         0.00000E+00
         0.00000E+00
         0.00000E+00
         0.00000E+00
         0.00000E+00
         0.00000E+00
         0.00000E+00
         0.00000E+00
         0.00000E+00
         0.00000E+00
         0.00000E+00
         0.00000E+00
         0.00000E+00
         0.00000E+00
         0.00000E+00
         0.00000E+00
         0.00000E+00
         0.00000E+00
         0.00000E+00
         0.00000E+00
         0.00000E+00
         0.00000E+00
         0.00000E+00
         0.00000E+00
         0.00000E+00
         0.00000E+00
         0.00000E+00
         0.00000E+00
         0.00000E+00
         0.00000E+00
         0.00000E+00
         0.00000E+00
         0.00000E+00
         0.00000E+00
         0.00000E+00
         0.00000E+00
         0.00000E+00
         0.00000E+00
         0.00000E+00
         0.00000E+00
         0.00000E+00
         0.00000E+00
         0.00000E+00
         0.00000E+00
         0.00000E+00
         0.00000E+00
         0.00000E+00
         0.00000E+00
         0.00000E+00
         0.00000E+00
         0.00000E+00
         0.00000E+00
         0.00000E+00
         0.00000E+00
         0.00000E+00
         0.00000E+00
         0.00000E+00
         0.00000E+00
         0.00000E+00
         0.00000E+00
         0.00000E+00
         0.00000E+00
         0.00000E+00
         0.00000E+00
         0.00000E+00
         0.00000E+00
         0.00000E+00
         0.00000E+00
         0.00000E+00
         0.00000E+00
         0.00000E+00
         0.00000E+00
         0.00000E+00
         0.00000E+00
         0.00000E+00
         0.00000E+00
         0.00000E+00
         0.00000E+00
         0.00000E+00
         0.00000E+00
         0.00000E+00
         0.00000E+00
         0.00000E+00
         0.00000E+00
         0.00000E+00
         0.00000E+00
         0.00000E+00
         0.00000E+00
         0.00000E+00
         0.00000E+00
         0.00000E+00
         0.00000E+00
         0.00000E+00
         0.00000E+00
         0.00000E+00
         0.00000E+00
         0.00000E+00
         0.00000E+00
         0.00000E+00
         0.00000E+00
         0.00000E+00
         0.00000E+00
         0.00000E+00
         0.00000E+00
         0.00000E+00
         0.00000E+00
         0.00000E+00
         0.00000E+00
         0.00000E+00
         0.00000E+00
         0.00000E+00
         0.00000E+00
         0.00000E+00
         0.00000E+00
         0.00000E+00
         0.00000E+00
         0.00000E+00
         0.00000E+00
         0.00000E+00
         0.00000E+00
         0.00000E+00
         0.00000E+00
         0.00000E+00
         0.00000E+00
         0.00000E+00
         0.00000E+00
         0.00000E+00
         0.00000E+00
         0.00000E+00
         0.00000E+00
         0.00000E+00
         0.00000E+00
         0.00000E+00
         0.00000E+00
         0.00000E+00
         0.00000E+00
         0.00000E+00
         0.00000E+00
         0.00000E+00
         0.00000E+00
         0.00000E+00
         0.00000E+00
         0.00000E+00
         0.00000E+00
         0.00000E+00
         0.00000E+00
         0.00000E+00
         0.00000E+00
         0.00000E+00
         0.00000E+00
         0.00000E+00
         0.00000E+00
         0.00000E+00
         0.00000E+00
         0.00000E+00
         0.00000E+00
         0.00000E+00
         0.00000E+00
         0.00000E+00
         0.00000E+00
         0.00000E+00
         0.00000E+00
         0.00000E+00
         0.00000E+00
         0.00000E+00
         0.00000E+00
         0.00000E+00
         0.00000E+00
         0.00000E+00
         0.00000E+00
         0.00000E+00
         0.00000E+00
         0.00000E+00
         0.00000E+00
         0.00000E+00
         0.00000E+00
         0.00000E+00
         0.00000E+00
         0.00000E+00
         0.00000E+00
         0.00000E+00
         0.00000E+00
         0.00000E+00
         0.00000E+00
         0.00000E+00
         0.00000E+00
         0.00000E+00
         0.00000E+00
         0.00000E+00
         0.00000E+00
         0.00000E+00
         0.00000E+00
         0.00000E+00
         0.00000E+00
         0.00000E+00
         0.00000E+00
         0.00000E+00
         0.00000E+00
         0.00000E+00
         0.00000E+00
         0.00000E+00
         0.00000E+00
         0.00000E+00
         0.00000E+00
         0.00000E+00
         0.00000E+00
         0.00000E+00
         0.00000E+00
         0.00000E+00
         0.00000E+00
         0.00000E+00
         0.00000E+00
         0.00000E+00
         0.00000E+00
         0.00000E+00
         0.00000E+00
         0.00000E+00
         0.00000E+00
         0.00000E+00
         0.00000E+00
         0.00000E+00
         0.00000E+00
         0.00000E+00
         0.00000E+00
         0.00000E+00
         0.00000E+00
         0.00000E+00
         0.00000E+00
         0.00000E+00
         0.00000E+00
         0.00000E+00
         0.00000E+00
         0.00000E+00
         0.00000E+00
         0.00000E+00
         0.00000E+00
         0.00000E+00
         0.00000E+00
         0.00000E+00
         0.00000E+00
         0.00000E+00
         0.00000E+00
         0.00000E+00
         0.00000E+00
         0.00000E+00
         0.00000E+00
         0.00000E+00
         0.00000E+00
         0.00000E+00
         0.00000E+00
         0.00000E+00
         0.00000E+00
         0.00000E+00
         0.00000E+00
         0.00000E+00
         0.00000E+00
         0.00000E+00
         0.00000E+00
         0.00000E+00
         0.00000E+00
         0.00000E+00
         0.00000E+00
         0.00000E+00
         0.00000E+00
         0.00000E+00
         0.00000E+00
         0.00000E+00
         0.00000E+00
         0.00000E+00
         0.00000E+00
         0.00000E+00
         0.00000E+00
         0.00000E+00
         0.00000E+00
         0.00000E+00
         0.00000E+00
         0.00000E+00
         0.00000E+00
         0.00000E+00
         0.00000E+00
         0.00000E+00
         0.00000E+00
         0.00000E+00
         0.00000E+00
         0.00000E+00
         0.00000E+00
         0.00000E+00
         0.00000E+00
         0.00000E+00
         0.00000E+00
         0.00000E+00
         0.00000E+00
         0.00000E+00
         0.00000E+00
         0.00000E+00
         0.00000E+00
         0.00000E+00
         0.00000E+00
         0.00000E+00
         0.00000E+00
         0.00000E+00
         0.00000E+00
         0.00000E+00
         0.00000E+00
         0.00000E+00
         0.00000E+00
         0.00000E+00
         0.00000E+00
         0.00000E+00
         0.00000E+00
         0.00000E+00
         0.00000E+00
         0.00000E+00
         0.00000E+00
         0.00000E+00
         0.00000E+00
         0.00000E+00
         0.00000E+00
         0.00000E+00
         0.00000E+00
         0.00000E+00
         0.00000E+00
         0.00000E+00
         0.00000E+00
         0.00000E+00
         0.00000E+00
         0.00000E+00
         0.00000E+00
         0.00000E+00
         0.00000E+00
         0.00000E+00
         0.00000E+00
         0.00000E+00
         0.00000E+00
         0.00000E+00
         0.00000E+00
         0.00000E+00
         0.00000E+00
         0.00000E+00
         0.00000E+00
         0.00000E+00
         0.00000E+00
         0.00000E+00
         0.00000E+00
         0.00000E+00
         0.00000E+00
         0.00000E+00
         0.00000E+00
         0.00000E+00
         0.00000E+00
         0.00000E+00
         0.00000E+00
         0.00000E+00
         0.00000E+00
         0.00000E+00
         0.00000E+00
         0.00000E+00
         0.00000E+00
         0.00000E+00
         0.00000E+00
         0.00000E+00
         0.00000E+00
         0.00000E+00
         0.00000E+00
         0.00000E+00
         0.00000E+00
         0.00000E+00
         0.00000E+00
         0.00000E+00
         0.00000E+00
         0.00000E+00
         0.00000E+00
         0.00000E+00
         0.00000E+00
         0.00000E+00
         0.00000E+00
         0.00000E+00
         0.00000E+00
         0.00000E+00
         0.00000E+00
         0.00000E+00
         0.00000E+00
         0.00000E+00
         0.00000E+00
         0.00000E+00
         0.00000E+00
         0.00000E+00
         0.00000E+00
         0.00000E+00
         0.00000E+00
         0.00000E+00
         0.00000E+00
         0.00000E+00
         0.00000E+00
         0.00000E+00
         0.00000E+00
         0.00000E+00
         0.00000E+00
         0.00000E+00
         0.00000E+00
         0.00000E+00
         0.00000E+00
         0.00000E+00
         0.00000E+00
         0.00000E+00
         0.00000E+00
         0.00000E+00
         0.00000E+00
         0.00000E+00
         0.00000E+00
         0.00000E+00
         0.00000E+00
         0.00000E+00
         0.00000E+00
         0.00000E+00
         0.00000E+00
         0.00000E+00
         0.00000E+00
         0.00000E+00
         0.00000E+00
         0.00000E+00
         0.00000E+00
         0.00000E+00
         0.00000E+00
         0.00000E+00
         0.00000E+00
         0.00000E+00
         0.00000E+00
         0.00000E+00
         0.00000E+00
         0.00000E+00
         0.00000E+00
         0.00000E+00
         0.00000E+00
         0.00000E+00
         0.00000E+00
         0.00000E+00
         0.00000E+00
         0.00000E+00
         0.00000E+00
         0.00000E+00
         0.00000E+00
         0.00000E+00
         0.00000E+00
         0.00000E+00
         0.00000E+00
         0.00000E+00
         0.00000E+00
         0.00000E+00
         0.00000E+00
         0.00000E+00
         0.00000E+00
         0.00000E+00
         0.00000E+00
         0.00000E+00
         0.00000E+00
         0.00000E+00
         0.00000E+00
         0.00000E+00
         0.00000E+00
         0.00000E+00
         0.00000E+00
         0.00000E+00
         0.00000E+00
         0.00000E+00
         0.00000E+00
         0.00000E+00
         0.00000E+00
         0.00000E+00
         0.00000E+00
         0.00000E+00
         0.00000E+00
         0.00000E+00
         0.00000E+00
         0.00000E+00
         0.00000E+00
         0.00000E+00
         0.00000E+00
         0.00000E+00
         0.00000E+00
         0.00000E+00
         0.00000E+00
         0.00000E+00
         0.00000E+00
         0.00000E+00
         0.00000E+00
         0.00000E+00
         0.00000E+00
         0.00000E+00
         0.00000E+00
         0.00000E+00
         0.00000E+00
         0.00000E+00
         0.00000E+00
         0.00000E+00
         0.00000E+00
         0.00000E+00
         0.00000E+00
         0.00000E+00
         0.00000E+00
         0.00000E+00
         0.00000E+00
         0.00000E+00
         0.00000E+00
         0.00000E+00
         0.00000E+00
         0.00000E+00
         0.00000E+00
         0.00000E+00
         0.00000E+00
         0.00000E+00
         0.00000E+00
         0.00000E+00
         0.00000E+00
         0.00000E+00
         0.00000E+00
         0.00000E+00
         0.00000E+00
         0.00000E+00
         0.00000E+00
         0.00000E+00
         0.00000E+00
         0.00000E+00
         0.00000E+00
         0.00000E+00
         0.00000E+00
         0.00000E+00
         0.00000E+00
         0.00000E+00
         0.00000E+00
         0.00000E+00
         0.00000E+00
         0.00000E+00
         0.00000E+00
         0.00000E+00
         0.00000E+00
         0.00000E+00
         0.00000E+00
         0.00000E+00
         0.00000E+00
         0.00000E+00
         0.00000E+00
         0.00000E+00
         0.00000E+00
         0.00000E+00
         0.00000E+00
         0.00000E+00
         0.00000E+00
         0.00000E+00
         0.00000E+00
         0.00000E+00
         0.00000E+00
         0.00000E+00
         0.00000E+00
         0.00000E+00
         0.00000E+00
         0.00000E+00
         0.00000E+00
         0.00000E+00
         0.00000E+00
         0.00000E+00
         0.00000E+00
         0.00000E+00
         0.00000E+00
         0.00000E+00
         0.00000E+00
         0.00000E+00
         0.00000E+00
         0.00000E+00
         0.00000E+00
         0.00000E+00
         0.00000E+00
         0.00000E+00
         0.00000E+00
         0.00000E+00
         0.00000E+00
         0.00000E+00
         0.00000E+00
         0.00000E+00
         0.00000E+00
         0.00000E+00
         0.00000E+00
         0.00000E+00
         0.00000E+00
         0.00000E+00
         0.00000E+00
         0.00000E+00
         0.00000E+00
         0.00000E+00
         0.00000E+00
         0.00000E+00
         0.00000E+00
         0.00000E+00
         0.00000E+00
         0.00000E+00
         0.00000E+00
         0.00000E+00
         0.00000E+00
         0.00000E+00
         0.00000E+00
         0.00000E+00
         0.00000E+00
         0.00000E+00
         0.00000E+00
         0.00000E+00
         0.00000E+00
         0.00000E+00
         0.00000E+00
         0.00000E+00
         0.00000E+00
         0.00000E+00
         0.00000E+00
         0.00000E+00
         0.00000E+00
         0.00000E+00
         0.00000E+00
         0.00000E+00
         0.00000E+00
         0.00000E+00
         0.00000E+00
         0.00000E+00
         0.00000E+00
         0.00000E+00
         0.00000E+00
         0.00000E+00
         0.00000E+00
         0.00000E+00
         0.00000E+00
         0.00000E+00
         0.00000E+00
         0.00000E+00
         0.00000E+00
         0.00000E+00
         0.00000E+00
         0.00000E+00
         0.00000E+00
         0.00000E+00
         0.00000E+00
         0.00000E+00
         0.00000E+00
         0.00000E+00
         0.00000E+00
         0.00000E+00
         0.00000E+00
         0.00000E+00
         0.00000E+00
         0.00000E+00
         0.00000E+00
         0.00000E+00
         0.00000E+00
         0.00000E+00
         0.00000E+00
         0.00000E+00
         0.00000E+00
         0.00000E+00
         0.00000E+00
         0.00000E+00
         0.00000E+00
         0.00000E+00
         0.00000E+00
         0.00000E+00
         0.00000E+00
         0.00000E+00
         0.00000E+00
         0.00000E+00
         0.00000E+00
         0.00000E+00
         0.00000E+00
         0.00000E+00
         0.00000E+00
         0.00000E+00
         0.00000E+00
         0.00000E+00
         0.00000E+00
         0.00000E+00
         0.00000E+00
         0.00000E+00
         0.00000E+00
         0.00000E+00
         0.00000E+00
         0.00000E+00
         0.00000E+00
         0.00000E+00
         0.00000E+00
         0.00000E+00
         0.00000E+00
         0.00000E+00
         0.00000E+00
         0.00000E+00
         0.00000E+00
         0.00000E+00
         0.00000E+00
         0.00000E+00
         0.00000E+00
         0.00000E+00
         0.00000E+00
         0.00000E+00
         0.00000E+00
         0.00000E+00
         0.00000E+00
         0.00000E+00
         0.00000E+00
         0.00000E+00
         0.00000E+00
         0.00000E+00
         0.00000E+00
         0.00000E+00
         0.00000E+00
         0.00000E+00
         0.00000E+00
         0.00000E+00
         0.00000E+00
         0.00000E+00
         0.00000E+00
         0.00000E+00
         0.00000E+00
         0.00000E+00
         0.00000E+00
         0.00000E+00
         0.00000E+00
         0.00000E+00
         0.00000E+00
         0.00000E+00
         0.00000E+00
         0.00000E+00
         0.00000E+00
         0.00000E+00
         0.00000E+00
         0.00000E+00
         0.00000E+00
         0.00000E+00
         0.00000E+00
         0.00000E+00
         0.00000E+00
         0.00000E+00
         0.00000E+00
         0.00000E+00
         0.00000E+00
         0.00000E+00
         0.00000E+00
         0.00000E+00
         0.00000E+00
         0.00000E+00
         0.00000E+00
         0.00000E+00
         0.00000E+00
         0.00000E+00
         0.00000E+00
         0.00000E+00
         0.00000E+00
         0.00000E+00
         0.00000E+00
         0.00000E+00
         0.00000E+00
         0.00000E+00
         0.00000E+00
         0.00000E+00
         0.00000E+00
         0.00000E+00
         0.00000E+00
         0.00000E+00
         0.00000E+00
         0.00000E+00
         0.00000E+00
         0.00000E+00
         0.00000E+00
         0.00000E+00
         0.00000E+00
         0.00000E+00
         0.00000E+00
         0.00000E+00
         0.00000E+00
         0.00000E+00
         0.00000E+00
         0.00000E+00
         0.00000E+00
         0.00000E+00
         0.00000E+00
         0.00000E+00
         0.00000E+00
         0.00000E+00
         0.00000E+00
         0.00000E+00
         0.00000E+00
         0.00000E+00
         0.00000E+00
         0.00000E+00
         0.00000E+00
         0.00000E+00
         0.00000E+00
         0.00000E+00
         0.00000E+00
         0.00000E+00
         0.00000E+00
         0.00000E+00
         0.00000E+00
         0.00000E+00
         0.00000E+00
         0.00000E+00
         0.00000E+00
         0.00000E+00
         0.00000E+00
         0.00000E+00
         0.00000E+00
         0.00000E+00
         0.00000E+00
         0.00000E+00
         0.00000E+00
         0.00000E+00
         0.00000E+00
         0.00000E+00
         0.00000E+00
         0.00000E+00
         0.00000E+00
         0.00000E+00
         0.00000E+00
         0.00000E+00
         0.00000E+00
         0.00000E+00
         0.00000E+00
         0.00000E+00
         0.00000E+00
         0.00000E+00
         0.00000E+00
         0.00000E+00
         0.00000E+00
         0.00000E+00
         0.00000E+00
         0.00000E+00
         0.00000E+00
         0.00000E+00
         0.00000E+00
         0.00000E+00
         0.00000E+00
         0.00000E+00
         0.00000E+00
         0.00000E+00
         0.00000E+00
         0.00000E+00
         0.00000E+00
         0.00000E+00
         0.00000E+00
         0.00000E+00
         0.00000E+00
         0.00000E+00
         0.00000E+00
         0.00000E+00
         0.00000E+00
         0.00000E+00
         0.00000E+00
         0.00000E+00
         0.00000E+00
         0.00000E+00
         0.00000E+00
         0.00000E+00
         0.00000E+00
         0.00000E+00
         0.00000E+00
         0.00000E+00
         0.00000E+00
         0.00000E+00
         0.00000E+00
         0.00000E+00
         0.00000E+00
         0.00000E+00
         0.00000E+00
         0.00000E+00
         0.00000E+00
         0.00000E+00
         0.00000E+00
         0.00000E+00
         0.00000E+00
         0.00000E+00
         0.00000E+00
         0.00000E+00
         0.00000E+00
         0.00000E+00
         0.00000E+00
         0.00000E+00
         0.00000E+00
         0.00000E+00
         0.00000E+00
         0.00000E+00
         0.00000E+00
         0.00000E+00
         0.00000E+00
         0.00000E+00
         0.00000E+00
         0.00000E+00
         0.00000E+00
         0.00000E+00
         0.00000E+00
         0.00000E+00
         0.00000E+00
         0.00000E+00
         0.00000E+00
         0.00000E+00
         0.00000E+00
         0.00000E+00
         0.00000E+00
         0.00000E+00
         0.00000E+00
         0.00000E+00
         0.00000E+00
         0.00000E+00
         0.00000E+00
         0.00000E+00
         0.00000E+00
         0.00000E+00
         0.00000E+00
         0.00000E+00
         0.00000E+00
         0.00000E+00
         0.00000E+00
         0.00000E+00
         0.00000E+00
         0.00000E+00
         0.00000E+00
         0.00000E+00
         0.00000E+00
         0.00000E+00
         0.00000E+00
         0.00000E+00
         0.00000E+00
         0.00000E+00
         0.00000E+00
         0.00000E+00
         0.00000E+00
         0.00000E+00
         0.00000E+00
         0.00000E+00
         0.00000E+00
         0.00000E+00
         0.00000E+00
         0.00000E+00
         0.00000E+00
         0.00000E+00
         0.00000E+00
         0.00000E+00
         0.00000E+00
         0.00000E+00
         0.00000E+00
         0.00000E+00
         0.00000E+00
         0.00000E+00
         0.00000E+00
         0.00000E+00
         0.00000E+00
         0.00000E+00
         0.00000E+00
         0.00000E+00
         0.00000E+00
         0.00000E+00
         0.00000E+00
         0.00000E+00
         0.00000E+00
         0.00000E+00
         0.00000E+00
         0.00000E+00
         0.00000E+00
         0.00000E+00
         0.00000E+00
         0.00000E+00
         0.00000E+00
         0.00000E+00
         0.00000E+00
         0.00000E+00
         0.00000E+00
         0.00000E+00
         0.00000E+00
         0.00000E+00
         0.00000E+00
         0.00000E+00
         0.00000E+00
         0.00000E+00
         0.00000E+00
         0.00000E+00
         0.00000E+00
         0.00000E+00
         0.00000E+00
         0.00000E+00
         0.00000E+00
         0.00000E+00
         0.00000E+00
         0.00000E+00
         0.00000E+00
         0.00000E+00
         0.00000E+00
         0.00000E+00
         0.00000E+00
         0.00000E+00
         0.00000E+00
         0.00000E+00
         0.00000E+00
         0.00000E+00
         0.00000E+00
         0.00000E+00
         0.00000E+00
         0.00000E+00
         0.00000E+00
         0.00000E+00
         0.00000E+00
         0.00000E+00
         0.00000E+00
         0.00000E+00
         0.00000E+00
         0.00000E+00
         0.00000E+00
         0.00000E+00
         0.00000E+00
         0.00000E+00
         0.00000E+00
         0.00000E+00
         0.00000E+00
         0.00000E+00
         0.00000E+00
         0.00000E+00
         0.00000E+00
         0.00000E+00
         0.00000E+00
         0.00000E+00
         0.00000E+00
         0.00000E+00
         0.00000E+00
         0.00000E+00
         0.00000E+00
         0.00000E+00
         0.00000E+00
         0.00000E+00
         0.00000E+00
         0.00000E+00
         0.00000E+00
         0.00000E+00
         0.00000E+00
         0.00000E+00
         0.00000E+00
         0.00000E+00
         0.00000E+00
         0.00000E+00
         0.00000E+00
         0.00000E+00
         0.00000E+00
         0.00000E+00
         0.00000E+00
         0.00000E+00
         0.00000E+00
         0.00000E+00
         0.00000E+00
         0.00000E+00
         0.00000E+00
         0.00000E+00
         0.00000E+00
         0.00000E+00
         0.00000E+00
         0.00000E+00
         0.00000E+00
         0.00000E+00
         0.00000E+00
         0.00000E+00
         0.00000E+00
         0.00000E+00
         0.00000E+00
         0.00000E+00
         0.00000E+00
         0.00000E+00
         0.00000E+00
         0.00000E+00
         0.00000E+00
         0.00000E+00
         0.00000E+00
         0.00000E+00
         0.00000E+00
         0.00000E+00
         0.00000E+00
         0.00000E+00
         0.00000E+00
         0.00000E+00
         0.00000E+00
         0.00000E+00
         0.00000E+00
         0.00000E+00
         0.00000E+00
         0.00000E+00
         0.00000E+00
         0.00000E+00
         0.00000E+00
         0.00000E+00
         0.00000E+00
         0.00000E+00
         0.00000E+00
         0.00000E+00
         0.00000E+00
         0.00000E+00
         0.00000E+00
         0.00000E+00
         0.00000E+00
         0.00000E+00
         0.00000E+00
         0.00000E+00
         0.00000E+00
         0.00000E+00
         0.00000E+00
         0.00000E+00
         0.00000E+00
         0.00000E+00
         0.00000E+00
         0.00000E+00
         0.00000E+00
         0.00000E+00
         0.00000E+00
         0.00000E+00
         0.00000E+00
         0.00000E+00
         0.00000E+00
         0.00000E+00
         0.00000E+00
         0.00000E+00
         0.00000E+00
         0.00000E+00
         0.00000E+00
         0.00000E+00
         0.00000E+00
         0.00000E+00
         0.00000E+00
         0.00000E+00
         0.00000E+00
         0.00000E+00
         0.00000E+00
         0.00000E+00
         0.00000E+00
         0.00000E+00
         0.00000E+00
         0.00000E+00
         0.00000E+00
         0.00000E+00
         0.00000E+00
         0.00000E+00
         0.00000E+00
         0.00000E+00
         0.00000E+00
         0.00000E+00
         0.00000E+00
         0.00000E+00
         0.00000E+00
         0.00000E+00
         0.00000E+00
         0.00000E+00
         0.00000E+00
         0.00000E+00
         0.00000E+00
         0.00000E+00
         0.00000E+00
         0.00000E+00
         0.00000E+00
         0.00000E+00
         0.00000E+00
         0.00000E+00
         0.00000E+00
         0.00000E+00
         0.00000E+00
         0.00000E+00
         0.00000E+00
         0.00000E+00
         0.00000E+00
         0.00000E+00
         0.00000E+00
         0.00000E+00
         0.00000E+00
         0.00000E+00
         0.00000E+00
         0.00000E+00
         0.00000E+00
         0.00000E+00
         0.00000E+00
         0.00000E+00
         0.00000E+00
         0.00000E+00
         0.00000E+00
         0.00000E+00
         0.00000E+00
         0.00000E+00
         0.00000E+00
         0.00000E+00
         0.00000E+00
         0.00000E+00
         0.00000E+00
         0.00000E+00
         0.00000E+00
         0.00000E+00
         0.00000E+00
         0.00000E+00
         0.00000E+00
         0.00000E+00
         0.00000E+00
         0.00000E+00
         0.00000E+00
         0.00000E+00
         0.00000E+00
         0.00000E+00
         0.00000E+00
         0.00000E+00
         0.00000E+00
         0.00000E+00
         0.00000E+00
         0.00000E+00
         0.00000E+00
         0.00000E+00
         0.00000E+00
         0.00000E+00
         0.00000E+00
         0.00000E+00
         0.00000E+00
         0.00000E+00
         0.00000E+00
         0.00000E+00
         0.00000E+00
         0.00000E+00
         0.00000E+00
         0.00000E+00
         0.00000E+00
         0.00000E+00
         0.00000E+00
         0.00000E+00
         0.00000E+00
         0.00000E+00
         0.00000E+00
         0.00000E+00
         0.00000E+00
         0.00000E+00
         0.00000E+00
         0.00000E+00
         0.00000E+00
         0.00000E+00
         0.00000E+00
         0.00000E+00
         0.00000E+00
         0.00000E+00
         0.00000E+00
         0.00000E+00
         0.00000E+00
         0.00000E+00
         0.00000E+00
         0.00000E+00
         0.00000E+00
         0.00000E+00
         0.00000E+00
         0.00000E+00
         0.00000E+00
         0.00000E+00
         0.00000E+00
         0.00000E+00
         0.00000E+00
         0.00000E+00
         0.00000E+00
         0.00000E+00
         0.00000E+00
         0.00000E+00
         0.00000E+00
         0.00000E+00
         0.00000E+00
         0.00000E+00
         0.00000E+00
         0.00000E+00
         0.00000E+00
         0.00000E+00
         0.00000E+00
         0.00000E+00
         0.00000E+00
         0.00000E+00
         0.00000E+00
         0.00000E+00
         0.00000E+00
         0.00000E+00
         0.00000E+00
         0.00000E+00
         0.00000E+00
         0.00000E+00
         0.00000E+00
         0.00000E+00
         0.00000E+00
         0.00000E+00
         0.00000E+00
         0.00000E+00
         0.00000E+00
         0.00000E+00
         0.00000E+00
         0.00000E+00
         0.00000E+00
         0.00000E+00
         0.00000E+00
         0.00000E+00
         0.00000E+00
         0.00000E+00
         0.00000E+00
         0.00000E+00
         0.00000E+00
         0.00000E+00
         0.00000E+00
         0.00000E+00
         0.00000E+00
         0.00000E+00
         0.00000E+00
         0.00000E+00
         0.00000E+00
         0.00000E+00
         0.00000E+00
         0.00000E+00
         0.00000E+00
         0.00000E+00
         0.00000E+00
         0.00000E+00
         0.00000E+00
         0.00000E+00
         0.00000E+00
         0.00000E+00
         0.00000E+00
         0.00000E+00
         0.00000E+00
         0.00000E+00
         0.00000E+00
         0.00000E+00
         0.00000E+00
         0.00000E+00
         0.00000E+00
         0.00000E+00
         0.00000E+00
         0.00000E+00
         0.00000E+00
         0.00000E+00
         0.00000E+00
         0.00000E+00
         0.00000E+00
         0.00000E+00
         0.00000E+00
         0.00000E+00
         0.00000E+00
         0.00000E+00
         0.00000E+00
         0.00000E+00
         0.00000E+00
         0.00000E+00
         0.00000E+00
         0.00000E+00
         0.00000E+00
         0.00000E+00
         0.00000E+00
         0.00000E+00
         0.00000E+00
         0.00000E+00
         0.00000E+00
         0.00000E+00
         0.00000E+00
         0.00000E+00
         0.00000E+00
         0.00000E+00
         0.00000E+00
         0.00000E+00
         0.00000E+00
         0.00000E+00
         0.00000E+00
         0.00000E+00
         0.00000E+00
         0.00000E+00
         0.00000E+00
         0.00000E+00
         0.00000E+00
         0.00000E+00
         0.00000E+00
         0.00000E+00
         0.00000E+00
         0.00000E+00
         0.00000E+00
         0.00000E+00
         0.00000E+00
         0.00000E+00
         0.00000E+00
         0.00000E+00
         0.00000E+00
         0.00000E+00
         0.00000E+00
         0.00000E+00
         0.00000E+00
         0.00000E+00
         0.00000E+00
         0.00000E+00
         0.00000E+00
         0.00000E+00
         0.00000E+00
         0.00000E+00
         0.00000E+00
         0.00000E+00
         0.00000E+00
         0.00000E+00
         0.00000E+00
         0.00000E+00
         0.00000E+00
         0.00000E+00
         0.00000E+00
         0.00000E+00
         0.00000E+00
         0.00000E+00
         0.00000E+00
         0.00000E+00
         0.00000E+00
         0.00000E+00
         0.00000E+00
         0.00000E+00
         0.00000E+00
         0.00000E+00
         0.00000E+00
         0.00000E+00
         0.00000E+00
         0.00000E+00
         0.00000E+00
         0.00000E+00
         0.00000E+00
         0.00000E+00
         0.00000E+00
         0.00000E+00
  
SCALARS                            eps  double 1
LOOKUP_TABLE default
         0.70204E+01
         0.69331E+01
         0.69885E+01
         0.70878E+01
         0.00000E+00
         0.00000E+00
         0.00000E+00
         0.00000E+00
         0.69305E+01
         0.69598E+01
         0.00000E+00
         0.00000E+00
         0.68064E+01
         0.68017E+01
         0.00000E+00
         0.00000E+00
         0.70733E+01
         0.68086E+01
         0.00000E+00
         0.00000E+00
         0.67112E+01
         0.66358E+01
         0.67562E+01
         0.00000E+00
         0.00000E+00
         0.00000E+00
         0.66386E+01
         0.65282E+01
         0.00000E+00
         0.00000E+00
         0.70685E+01
         0.69534E+01
         0.71800E+01
         0.00000E+00
         0.00000E+00
         0.00000E+00
         0.70019E+01
         0.68552E+01
         0.00000E+00
         0.00000E+00
         0.69440E+01
         0.68308E+01
         0.00000E+00
         0.00000E+00
         0.70397E+01
         0.70821E+01
         0.00000E+00
         0.00000E+00
         0.67397E+01
         0.00000E+00
         0.70738E+01
         0.00000E+00
         0.66066E+01
         0.00000E+00
         0.65719E+01
         0.00000E+00
         0.65726E+01
         0.66959E+01
         0.00000E+00
         0.00000E+00
         0.70661E+01
         0.70220E+01
         0.00000E+00
         0.00000E+00
         0.70937E+01
         0.00000E+00
         0.70412E+01
         0.00000E+00
         0.69037E+01
         0.68894E+01
         0.00000E+00
         0.00000E+00
         0.68579E+01
         0.00000E+00
         0.64890E+01
         0.00000E+00
         0.64697E+01
         0.00000E+00
         0.64796E+01
         0.00000E+00
         0.65336E+01
         0.65886E+01
         0.00000E+00
         0.00000E+00
         0.67002E+01
         0.00000E+00
         0.70376E+01
         0.00000E+00
         0.69853E+01
         0.00000E+00
         0.69427E+01
         0.69184E+01
         0.00000E+00
         0.00000E+00
         0.69473E+01
         0.00000E+00
         0.69680E+01
         0.00000E+00
         0.69495E+01
         0.00000E+00
         0.69434E+01
         0.69620E+01
         0.00000E+00
         0.00000E+00
         0.68415E+01
         0.68920E+01
         0.00000E+00
         0.00000E+00
         0.68328E+01
         0.00000E+00
         0.68911E+01
         0.00000E+00
         0.68340E+01
         0.00000E+00
         0.67084E+01
         0.00000E+00
         0.65870E+01
         0.00000E+00
         0.65139E+01
         0.00000E+00
         0.65064E+01
         0.00000E+00
         0.65086E+01
         0.00000E+00
         0.65877E+01
         0.00000E+00
         0.67368E+01
         0.00000E+00
         0.68998E+01
         0.00000E+00
         0.69943E+01
         0.00000E+00
         0.70879E+01
         0.00000E+00
         0.71498E+01
         0.00000E+00
         0.71479E+01
         0.00000E+00
         0.69962E+01
         0.00000E+00
         0.68901E+01
         0.00000E+00
         0.68550E+01
         0.00000E+00
         0.69121E+01
         0.00000E+00
         0.69412E+01
         0.00000E+00
         0.68908E+01
         0.00000E+00
         0.68908E+01
         0.00000E+00
         0.69288E+01
         0.00000E+00
         0.69781E+01
         0.00000E+00
         0.32746E+00
         0.32742E+00
         0.32742E+00
         0.32745E+00
         0.32744E+00
         0.32745E+00
         0.32738E+00
         0.32741E+00
         0.32745E+00
         0.32744E+00
         0.32736E+00
         0.32747E+00
         0.32745E+00
         0.32737E+00
         0.32748E+00
         0.32745E+00
         0.32744E+00
         0.32745E+00
         0.32741E+00
         0.32742E+00
         0.32748E+00
         0.32749E+00
         0.32747E+00
         0.32741E+00
         0.32742E+00
         0.32741E+00
         0.32739E+00
         0.32739E+00
         0.32738E+00
         0.32741E+00
         0.32744E+00
         0.32741E+00
         0.32744E+00
         0.32742E+00
         0.32746E+00
         0.32742E+00
         0.32744E+00
         0.32748E+00
         0.32745E+00
         0.32743E+00
         0.32749E+00
         0.32747E+00
         0.32750E+00
         0.32746E+00
         0.32745E+00
         0.32747E+00
         0.32742E+00
         0.32744E+00
         0.32743E+00
         0.32742E+00
         0.32746E+00
         0.32744E+00
         0.32825E+00
         0.32839E+00
         0.32846E+00
         0.32854E+00
         0.32867E+00
         0.32883E+00
         0.32874E+00
         0.32852E+00
         0.32846E+00
         0.32854E+00
         0.32846E+00
         0.32856E+00
         0.32832E+00
         0.32824E+00
         0.32836E+00
         0.32847E+00
         0.32855E+00
         0.32860E+00
         0.32837E+00
         0.32850E+00
         0.32844E+00
         0.32834E+00
         0.32835E+00
         0.32825E+00
         0.32838E+00
         0.32845E+00
         0.57639E-02
         0.22088E-02
         0.19064E-02
         0.33178E-03
         0.61080E-02
         0.32495E-02
         0.00000E+00
         0.56166E-02
         0.23439E-02
         0.51096E-02
         0.88964E-03
         0.14269E-01
         0.10053E-01
         0.34405E-02
         0.15101E-01
         0.33260E-02
         0.15085E-03
         0.00000E+00
         0.12203E-02
         0.00000E+00
         0.10526E-01
         0.96753E-02
         0.93380E-02
         0.11513E-03
         0.21841E-02
         0.00000E+00
         0.30687E-02
         0.00000E+00
         0.00000E+00
         0.26335E-02
         0.23851E-02
         0.00000E+00
         0.45004E-03
         0.00000E+00
         0.88306E-02
         0.40089E-02
         0.61201E-02
         0.11712E-01
         0.82641E-02
         0.74701E-02
         0.11964E-01
         0.10542E-01
         0.10634E-01
         0.75058E-02
         0.63618E-02
         0.98812E-02
         0.53776E-02
         0.41000E-02
         0.28304E-02
         0.39100E-02
         0.84082E-02
         0.47757E-02
         0.48185E-01
         0.49424E-01
         0.51825E-01
         0.51423E-01
         0.55056E-01
         0.59381E-01
         0.56834E-01
         0.50136E-01
         0.48766E-01
         0.52443E-01
         0.51325E-01
         0.50578E-01
         0.41194E-01
         0.38986E-01
         0.43176E-01
         0.46500E-01
         0.48390E-01
         0.53175E-01
         0.51012E-01
         0.52491E-01
         0.46908E-01
         0.44358E-01
         0.47543E-01
         0.46397E-01
         0.47848E-01
         0.47415E-01
         0.57707E-02
         0.22100E-02
         0.19093E-02
         0.33669E-03
         0.61038E-02
         0.32458E-02
         0.00000E+00
         0.56251E-02
         0.23534E-02
         0.51340E-02
         0.88955E-03
         0.14269E-01
         0.10058E-01
         0.34251E-02
         0.15120E-01
         0.33311E-02
         0.15993E-03
         0.00000E+00
         0.12228E-02
         0.00000E+00
         0.10527E-01
         0.96744E-02
         0.93372E-02
         0.11505E-03
         0.22069E-02
         0.00000E+00
         0.30708E-02
         0.00000E+00
         0.00000E+00
         0.26436E-02
         0.23904E-02
         0.00000E+00
         0.44405E-03
         0.00000E+00
         0.88360E-02
         0.40069E-02
         0.61180E-02
         0.11735E-01
         0.82898E-02
         0.74849E-02
         0.11974E-01
         0.10549E-01
         0.10635E-01
         0.75056E-02
         0.63599E-02
         0.98805E-02
         0.53777E-02
         0.40995E-02
         0.28219E-02
         0.39003E-02
         0.84017E-02
         0.47635E-02
         0.48167E-01
         0.49411E-01
         0.51825E-01
         0.51424E-01
         0.55046E-01
         0.59360E-01
         0.56809E-01
         0.50122E-01
         0.48753E-01
         0.52426E-01
         0.51316E-01
         0.50580E-01
         0.41189E-01
         0.38984E-01
         0.43182E-01
         0.46511E-01
         0.48403E-01
         0.53187E-01
         0.51009E-01
         0.52488E-01
         0.46902E-01
         0.44355E-01
         0.47525E-01
         0.46364E-01
         0.47819E-01
         0.47388E-01
         0.57775E-02
         0.22112E-02
         0.19121E-02
         0.34162E-03
         0.60995E-02
         0.32423E-02
         0.00000E+00
         0.56336E-02
         0.23629E-02
         0.51581E-02
         0.88951E-03
         0.14268E-01
         0.10063E-01
         0.34097E-02
         0.15138E-01
         0.33365E-02
         0.16917E-03
         0.00000E+00
         0.12254E-02
         0.00000E+00
         0.10528E-01
         0.96735E-02
         0.93365E-02
         0.11491E-03
         0.22295E-02
         0.00000E+00
         0.30728E-02
         0.00000E+00
         0.00000E+00
         0.26534E-02
         0.23957E-02
         0.00000E+00
         0.43805E-03
         0.00000E+00
         0.88414E-02
         0.40050E-02
         0.61158E-02
         0.11758E-01
         0.83157E-02
         0.74998E-02
         0.11984E-01
         0.10557E-01
         0.10637E-01
         0.75059E-02
         0.63583E-02
         0.98802E-02
         0.53778E-02
         0.40990E-02
         0.28135E-02
         0.38906E-02
         0.83954E-02
         0.47513E-02
         0.48148E-01
         0.49399E-01
         0.51825E-01
         0.51424E-01
         0.55037E-01
         0.59339E-01
         0.56783E-01
         0.50107E-01
         0.48740E-01
         0.52410E-01
         0.51307E-01
         0.50582E-01
         0.41185E-01
         0.38982E-01
         0.43187E-01
         0.46524E-01
         0.48417E-01
         0.53199E-01
         0.51006E-01
         0.52484E-01
         0.46897E-01
         0.44352E-01
         0.47508E-01
         0.46332E-01
         0.47791E-01
         0.47361E-01
         0.57843E-02
         0.22124E-02
         0.19150E-02
         0.34656E-03
         0.60953E-02
         0.32386E-02
         0.00000E+00
         0.56419E-02
         0.23723E-02
         0.51818E-02
         0.88952E-03
         0.14268E-01
         0.10069E-01
         0.33943E-02
         0.15158E-01
         0.33423E-02
         0.17877E-03
         0.00000E+00
         0.12281E-02
         0.00000E+00
         0.10530E-01
         0.96730E-02
         0.93367E-02
         0.11459E-03
         0.22517E-02
         0.00000E+00
         0.30745E-02
         0.00000E+00
         0.00000E+00
         0.26624E-02
         0.24013E-02
         0.00000E+00
         0.43202E-03
         0.00000E+00
         0.88466E-02
         0.40030E-02
         0.61136E-02
         0.11782E-01
         0.83420E-02
         0.75155E-02
         0.11995E-01
         0.10564E-01
         0.10640E-01
         0.75071E-02
         0.63572E-02
         0.98800E-02
         0.53784E-02
         0.40986E-02
         0.28050E-02
         0.38809E-02
         0.83888E-02
         0.47391E-02
         0.48129E-01
         0.49386E-01
         0.51825E-01
         0.51425E-01
         0.55027E-01
         0.59317E-01
         0.56758E-01
         0.50093E-01
         0.48726E-01
         0.52393E-01
         0.51298E-01
         0.50584E-01
         0.41182E-01
         0.38981E-01
         0.43194E-01
         0.46538E-01
         0.48432E-01
         0.53213E-01
         0.51003E-01
         0.52481E-01
         0.46891E-01
         0.44349E-01
         0.47490E-01
         0.46299E-01
         0.47762E-01
         0.47334E-01
         0.57909E-02
         0.22136E-02
         0.19179E-02
         0.35149E-03
         0.60911E-02
         0.32350E-02
         0.00000E+00
         0.56502E-02
         0.23817E-02
         0.52050E-02
         0.88962E-03
         0.14267E-01
         0.10074E-01
         0.33789E-02
         0.15177E-01
         0.33485E-02
         0.18872E-03
         0.00000E+00
         0.12310E-02
         0.00000E+00
         0.10532E-01
         0.96727E-02
         0.93375E-02
         0.11410E-03
         0.22734E-02
         0.00000E+00
         0.30760E-02
         0.00000E+00
         0.00000E+00
         0.26704E-02
         0.24072E-02
         0.00000E+00
         0.42598E-03
         0.00000E+00
         0.88520E-02
         0.40010E-02
         0.61115E-02
         0.11805E-01
         0.83687E-02
         0.75319E-02
         0.12007E-01
         0.10572E-01
         0.10643E-01
         0.75093E-02
         0.63568E-02
         0.98806E-02
         0.53795E-02
         0.40985E-02
         0.27967E-02
         0.38711E-02
         0.83825E-02
         0.47269E-02
         0.48111E-01
         0.49373E-01
         0.51824E-01
         0.51425E-01
         0.55017E-01
         0.59296E-01
         0.56733E-01
         0.50079E-01
         0.48713E-01
         0.52376E-01
         0.51289E-01
         0.50588E-01
         0.41180E-01
         0.38980E-01
         0.43200E-01
         0.46554E-01
         0.48449E-01
         0.53226E-01
         0.51000E-01
         0.52478E-01
         0.46886E-01
         0.44346E-01
         0.47473E-01
         0.46266E-01
         0.47733E-01
         0.47307E-01
         0.57973E-02
         0.22145E-02
         0.19206E-02
         0.35642E-03
         0.60869E-02
         0.32313E-02
         0.00000E+00
         0.56580E-02
         0.23911E-02
         0.52275E-02
         0.89006E-03
         0.14267E-01
         0.10079E-01
         0.33635E-02
         0.15196E-01
         0.33549E-02
         0.19873E-03
         0.00000E+00
         0.12338E-02
         0.00000E+00
         0.10534E-01
         0.96727E-02
         0.93387E-02
         0.11360E-03
         0.22945E-02
         0.00000E+00
         0.30774E-02
         0.00000E+00
         0.00000E+00
         0.26781E-02
         0.24128E-02
         0.00000E+00
         0.41995E-03
         0.00000E+00
         0.88576E-02
         0.39994E-02
         0.61097E-02
         0.11829E-01
         0.83958E-02
         0.75488E-02
         0.12019E-01
         0.10580E-01
         0.10647E-01
         0.75119E-02
         0.63571E-02
         0.98818E-02
         0.53807E-02
         0.40986E-02
         0.27888E-02
         0.38616E-02
         0.83763E-02
         0.47149E-02
         0.48092E-01
         0.49361E-01
         0.51824E-01
         0.51425E-01
         0.55008E-01
         0.59275E-01
         0.56708E-01
         0.50064E-01
         0.48700E-01
         0.52359E-01
         0.51280E-01
         0.50591E-01
         0.41179E-01
         0.38979E-01
         0.43207E-01
         0.46571E-01
         0.48467E-01
         0.53240E-01
         0.50997E-01
         0.52475E-01
         0.46881E-01
         0.44343E-01
         0.47455E-01
         0.46234E-01
         0.47704E-01
         0.47280E-01
         0.58032E-02
         0.22147E-02
         0.19233E-02
         0.36142E-03
         0.60829E-02
         0.32278E-02
         0.00000E+00
         0.56646E-02
         0.24007E-02
         0.52490E-02
         0.89108E-03
         0.14267E-01
         0.10085E-01
         0.33483E-02
         0.15215E-01
         0.33613E-02
         0.20855E-03
         0.00000E+00
         0.12368E-02
         0.00000E+00
         0.10537E-01
         0.96727E-02
         0.93402E-02
         0.11321E-03
         0.23150E-02
         0.00000E+00
         0.30790E-02
         0.00000E+00
         0.00000E+00
         0.26858E-02
         0.24181E-02
         0.00000E+00
         0.41386E-03
         0.00000E+00
         0.88632E-02
         0.39980E-02
         0.61081E-02
         0.11853E-01
         0.84231E-02
         0.75657E-02
         0.12031E-01
         0.10589E-01
         0.10650E-01
         0.75146E-02
         0.63577E-02
         0.98835E-02
         0.53825E-02
         0.40995E-02
         0.27820E-02
         0.38525E-02
         0.83705E-02
         0.47030E-02
         0.48073E-01
         0.49348E-01
         0.51823E-01
         0.51426E-01
         0.54998E-01
         0.59253E-01
         0.56682E-01
         0.50050E-01
         0.48687E-01
         0.52342E-01
         0.51271E-01
         0.50595E-01
         0.41177E-01
         0.38978E-01
         0.43214E-01
         0.46587E-01
         0.48485E-01
         0.53254E-01
         0.50994E-01
         0.52471E-01
         0.46876E-01
         0.44341E-01
         0.47438E-01
         0.46201E-01
         0.47675E-01
         0.47253E-01
         0.58088E-02
         0.22147E-02
         0.19259E-02
         0.36639E-03
         0.60791E-02
         0.32242E-02
         0.00000E+00
         0.56706E-02
         0.24105E-02
         0.52701E-02
         0.89246E-03
         0.14267E-01
         0.10091E-01
         0.33332E-02
         0.15234E-01
         0.33678E-02
         0.21829E-03
         0.00000E+00
         0.12396E-02
         0.00000E+00
         0.10539E-01
         0.96727E-02
         0.93415E-02
         0.11279E-03
         0.23353E-02
         0.00000E+00
         0.30807E-02
         0.00000E+00
         0.00000E+00
         0.26935E-02
         0.24232E-02
         0.00000E+00
         0.40775E-03
         0.00000E+00
         0.88691E-02
         0.39970E-02
         0.61069E-02
         0.11877E-01
         0.84505E-02
         0.75828E-02
         0.12043E-01
         0.10597E-01
         0.10654E-01
         0.75177E-02
         0.63586E-02
         0.98856E-02
         0.53846E-02
         0.41006E-02
         0.27757E-02
         0.38436E-02
         0.83650E-02
         0.46914E-02
         0.48054E-01
         0.49336E-01
         0.51823E-01
         0.51426E-01
         0.54988E-01
         0.59232E-01
         0.56657E-01
         0.50036E-01
         0.48674E-01
         0.52324E-01
         0.51262E-01
         0.50599E-01
         0.41176E-01
         0.38978E-01
         0.43222E-01
         0.46604E-01
         0.48503E-01
         0.53267E-01
         0.50990E-01
         0.52468E-01
         0.46871E-01
         0.44339E-01
         0.47420E-01
         0.46169E-01
         0.47647E-01
         0.47226E-01
         0.58144E-02
         0.22147E-02
         0.19284E-02
         0.37139E-03
         0.60751E-02
         0.32205E-02
         0.00000E+00
         0.56767E-02
         0.24202E-02
         0.52912E-02
         0.89373E-03
         0.14267E-01
         0.10097E-01
         0.33182E-02
         0.15254E-01
         0.33742E-02
         0.22805E-03
         0.00000E+00
         0.12425E-02
         0.00000E+00
         0.10541E-01
         0.96728E-02
         0.93429E-02
         0.11249E-03
         0.23554E-02
         0.00000E+00
         0.30825E-02
         0.00000E+00
         0.00000E+00
         0.27013E-02
         0.24283E-02
         0.00000E+00
         0.40170E-03
         0.00000E+00
         0.88751E-02
         0.39957E-02
         0.61056E-02
         0.11901E-01
         0.84780E-02
         0.75996E-02
         0.12055E-01
         0.10606E-01
         0.10657E-01
         0.75208E-02
         0.63597E-02
         0.98878E-02
         0.53866E-02
         0.41017E-02
         0.27694E-02
         0.38348E-02
         0.83597E-02
         0.46796E-02
         0.48035E-01
         0.49323E-01
         0.51822E-01
         0.51426E-01
         0.54979E-01
         0.59211E-01
         0.56631E-01
         0.50021E-01
         0.48661E-01
         0.52307E-01
         0.51253E-01
         0.50602E-01
         0.41174E-01
         0.38977E-01
         0.43229E-01
         0.46621E-01
         0.48521E-01
         0.53280E-01
         0.50986E-01
         0.52464E-01
         0.46867E-01
         0.44337E-01
         0.47402E-01
         0.46136E-01
         0.47618E-01
         0.47199E-01
         0.58199E-02
         0.22146E-02
         0.19309E-02
         0.37642E-03
         0.60712E-02
         0.32169E-02
         0.00000E+00
         0.56827E-02
         0.24300E-02
         0.53122E-02
         0.89524E-03
         0.14267E-01
         0.10103E-01
         0.33031E-02
         0.15273E-01
         0.33807E-02
         0.23784E-03
         0.00000E+00
         0.12453E-02
         0.00000E+00
         0.10544E-01
         0.96727E-02
         0.93441E-02
         0.11218E-03
         0.23756E-02
         0.00000E+00
         0.30843E-02
         0.00000E+00
         0.00000E+00
         0.27090E-02
         0.24333E-02
         0.00000E+00
         0.39567E-03
         0.00000E+00
         0.88808E-02
         0.39947E-02
         0.61044E-02
         0.11925E-01
         0.85055E-02
         0.76166E-02
         0.12067E-01
         0.10614E-01
         0.10661E-01
         0.75238E-02
         0.63606E-02
         0.98898E-02
         0.53887E-02
         0.41030E-02
         0.27631E-02
         0.38259E-02
         0.83540E-02
         0.46678E-02
         0.48017E-01
         0.49311E-01
         0.51821E-01
         0.51426E-01
         0.54969E-01
         0.59189E-01
         0.56605E-01
         0.50007E-01
         0.48648E-01
         0.52290E-01
         0.51244E-01
         0.50606E-01
         0.41172E-01
         0.38976E-01
         0.43236E-01
         0.46638E-01
         0.48539E-01
         0.53293E-01
         0.50983E-01
         0.52461E-01
         0.46862E-01
         0.44334E-01
         0.47385E-01
         0.46104E-01
         0.47590E-01
         0.47172E-01
         0.58254E-02
         0.22145E-02
         0.19335E-02
         0.38141E-03
         0.60673E-02
         0.32134E-02
         0.00000E+00
         0.56887E-02
         0.24398E-02
         0.53333E-02
         0.89677E-03
         0.14267E-01
         0.10109E-01
         0.32881E-02
         0.15292E-01
         0.33871E-02
         0.24764E-03
         0.00000E+00
         0.12482E-02
         0.00000E+00
         0.10546E-01
         0.96727E-02
         0.93455E-02
         0.11189E-03
         0.23957E-02
         0.00000E+00
         0.30861E-02
         0.00000E+00
         0.00000E+00
         0.27167E-02
         0.24384E-02
         0.00000E+00
         0.38970E-03
         0.00000E+00
         0.88868E-02
         0.39935E-02
         0.61031E-02
         0.11949E-01
         0.85330E-02
         0.76334E-02
         0.12080E-01
         0.10622E-01
         0.10665E-01
         0.75267E-02
         0.63616E-02
         0.98919E-02
         0.53909E-02
         0.41041E-02
         0.27569E-02
         0.38170E-02
         0.83487E-02
         0.46561E-02
         0.47998E-01
         0.49298E-01
         0.51821E-01
         0.51426E-01
         0.54959E-01
         0.59168E-01
         0.56579E-01
         0.49992E-01
         0.48635E-01
         0.52272E-01
         0.51235E-01
         0.50609E-01
         0.41170E-01
         0.38975E-01
         0.43243E-01
         0.46654E-01
         0.48557E-01
         0.53306E-01
         0.50979E-01
         0.52457E-01
         0.46858E-01
         0.44332E-01
         0.47367E-01
         0.46071E-01
         0.47561E-01
         0.47145E-01
         0.58309E-02
         0.22145E-02
         0.19361E-02
         0.38646E-03
         0.60634E-02
         0.32097E-02
         0.00000E+00
         0.56947E-02
         0.24496E-02
         0.53543E-02
         0.89836E-03
         0.14267E-01
         0.10115E-01
         0.32732E-02
         0.15312E-01
         0.33936E-02
         0.25745E-03
         0.00000E+00
         0.12511E-02
         0.00000E+00
         0.10549E-01
         0.96727E-02
         0.93469E-02
         0.11164E-03
         0.24158E-02
         0.00000E+00
         0.30879E-02
         0.00000E+00
         0.00000E+00
         0.27244E-02
         0.24435E-02
         0.00000E+00
         0.38370E-03
         0.20669E-05
         0.88929E-02
         0.39924E-02
         0.61018E-02
         0.11973E-01
         0.85606E-02
         0.76504E-02
         0.12092E-01
         0.10631E-01
         0.10668E-01
         0.75297E-02
         0.63625E-02
         0.98941E-02
         0.53929E-02
         0.41054E-02
         0.27507E-02
         0.38082E-02
         0.83432E-02
         0.46444E-02
         0.47979E-01
         0.49286E-01
         0.51820E-01
         0.51427E-01
         0.54949E-01
         0.59146E-01
         0.56554E-01
         0.49978E-01
         0.48622E-01
         0.52255E-01
         0.51226E-01
         0.50613E-01
         0.41169E-01
         0.38975E-01
         0.43250E-01
         0.46671E-01
         0.48575E-01
         0.53320E-01
         0.50975E-01
         0.52454E-01
         0.46853E-01
         0.44330E-01
         0.47349E-01
         0.46039E-01
         0.47533E-01
         0.47118E-01
         0.58365E-02
         0.22145E-02
         0.19386E-02
         0.39151E-03
         0.60595E-02
         0.32061E-02
         0.00000E+00
         0.57008E-02
         0.24593E-02
         0.53752E-02
         0.90002E-03
         0.14267E-01
         0.10121E-01
         0.32582E-02
         0.15331E-01
         0.34000E-02
         0.26726E-03
         0.00000E+00
         0.12540E-02
         0.00000E+00
         0.10551E-01
         0.96727E-02
         0.93482E-02
         0.11139E-03
         0.24358E-02
         0.00000E+00
         0.30897E-02
         0.00000E+00
         0.00000E+00
         0.27320E-02
         0.24486E-02
         0.00000E+00
         0.37771E-03
         0.47325E-05
         0.88987E-02
         0.39914E-02
         0.61006E-02
         0.11997E-01
         0.85882E-02
         0.76673E-02
         0.12104E-01
         0.10639E-01
         0.10672E-01
         0.75328E-02
         0.63637E-02
         0.98959E-02
         0.53951E-02
         0.41065E-02
         0.27445E-02
         0.37994E-02
         0.83375E-02
         0.46326E-02
         0.47960E-01
         0.49273E-01
         0.51819E-01
         0.51427E-01
         0.54940E-01
         0.59125E-01
         0.56528E-01
         0.49963E-01
         0.48608E-01
         0.52237E-01
         0.51217E-01
         0.50616E-01
         0.41167E-01
         0.38974E-01
         0.43257E-01
         0.46688E-01
         0.48593E-01
         0.53333E-01
         0.50972E-01
         0.52450E-01
         0.46849E-01
         0.44328E-01
         0.47331E-01
         0.46006E-01
         0.47504E-01
         0.47091E-01
         0.58420E-02
         0.22145E-02
         0.19412E-02
         0.39656E-03
         0.60557E-02
         0.32025E-02
         0.00000E+00
         0.57067E-02
         0.24691E-02
         0.53962E-02
         0.90173E-03
         0.14268E-01
         0.10127E-01
         0.32432E-02
         0.15350E-01
         0.34064E-02
         0.27711E-03
         0.00000E+00
         0.12568E-02
         0.00000E+00
         0.10553E-01
         0.96726E-02
         0.93496E-02
         0.11113E-03
         0.24558E-02
         0.00000E+00
         0.30914E-02
         0.00000E+00
         0.00000E+00
         0.27396E-02
         0.24536E-02
         0.00000E+00
         0.37179E-03
         0.74176E-05
         0.89048E-02
         0.39903E-02
         0.60993E-02
         0.12021E-01
         0.86159E-02
         0.76841E-02
         0.12116E-01
         0.10647E-01
         0.10675E-01
         0.75358E-02
         0.63646E-02
         0.98981E-02
         0.53972E-02
         0.41077E-02
         0.27382E-02
         0.37906E-02
         0.83322E-02
         0.46210E-02
         0.47941E-01
         0.49261E-01
         0.51818E-01
         0.51427E-01
         0.54930E-01
         0.59103E-01
         0.56502E-01
         0.49949E-01
         0.48595E-01
         0.52220E-01
         0.51208E-01
         0.50620E-01
         0.41165E-01
         0.38973E-01
         0.43264E-01
         0.46704E-01
         0.48611E-01
         0.53346E-01
         0.50968E-01
         0.52447E-01
         0.46844E-01
         0.44325E-01
         0.47314E-01
         0.45974E-01
         0.47476E-01
         0.47064E-01
         0.58474E-02
         0.22144E-02
         0.19437E-02
         0.40165E-03
         0.60518E-02
         0.31988E-02
         0.00000E+00
         0.57128E-02
         0.24790E-02
         0.54171E-02
         0.90350E-03
         0.14268E-01
         0.10133E-01
         0.32283E-02
         0.15370E-01
         0.34128E-02
         0.28698E-03
         0.00000E+00
         0.12597E-02
         0.00000E+00
         0.10556E-01
         0.96726E-02
         0.93508E-02
         0.11088E-03
         0.24759E-02
         0.00000E+00
         0.30932E-02
         0.00000E+00
         0.00000E+00
         0.27473E-02
         0.24587E-02
         0.00000E+00
         0.36589E-03
         0.10096E-04
         0.89106E-02
         0.39894E-02
         0.60981E-02
         0.12045E-01
         0.86435E-02
         0.77010E-02
         0.12128E-01
         0.10656E-01
         0.10679E-01
         0.75388E-02
         0.63656E-02
         0.99003E-02
         0.53992E-02
         0.41090E-02
         0.27319E-02
         0.37817E-02
         0.83266E-02
         0.46092E-02
         0.47922E-01
         0.49249E-01
         0.51817E-01
         0.51428E-01
         0.54921E-01
         0.59082E-01
         0.56476E-01
         0.49934E-01
         0.48582E-01
         0.52202E-01
         0.51199E-01
         0.50624E-01
         0.41164E-01
         0.38972E-01
         0.43271E-01
         0.46721E-01
         0.48629E-01
         0.53359E-01
         0.50965E-01
         0.52443E-01
         0.46840E-01
         0.44323E-01
         0.47296E-01
         0.45941E-01
         0.47447E-01
         0.47037E-01
         0.58529E-02
         0.22143E-02
         0.19462E-02
         0.40671E-03
         0.60478E-02
         0.31954E-02
         0.00000E+00
         0.57188E-02
         0.24888E-02
         0.54381E-02
         0.90531E-03
         0.14268E-01
         0.10140E-01
         0.32134E-02
         0.15389E-01
         0.34192E-02
         0.29688E-03
         0.00000E+00
         0.12626E-02
         0.00000E+00
         0.10558E-01
         0.96726E-02
         0.93522E-02
         0.11066E-03
         0.24959E-02
         0.00000E+00
         0.30949E-02
         0.00000E+00
         0.00000E+00
         0.27549E-02
         0.24637E-02
         0.00000E+00
         0.36004E-03
         0.12823E-04
         0.89167E-02
         0.39882E-02
         0.60969E-02
         0.12070E-01
         0.86711E-02
         0.77175E-02
         0.12140E-01
         0.10664E-01
         0.10682E-01
         0.75417E-02
         0.63667E-02
         0.99024E-02
         0.54013E-02
         0.41101E-02
         0.27258E-02
         0.37728E-02
         0.83212E-02
         0.45974E-02
         0.47904E-01
         0.49236E-01
         0.51817E-01
         0.51428E-01
         0.54911E-01
         0.59060E-01
         0.56450E-01
         0.49919E-01
         0.48569E-01
         0.52184E-01
         0.51191E-01
         0.50627E-01
         0.41162E-01
         0.38971E-01
         0.43278E-01
         0.46738E-01
         0.48647E-01
         0.53372E-01
         0.50961E-01
         0.52440E-01
         0.46835E-01
         0.44321E-01
         0.47278E-01
         0.45909E-01
         0.47419E-01
         0.47010E-01
         0.58583E-02
         0.22142E-02
         0.19488E-02
         0.41181E-03
         0.60441E-02
         0.31918E-02
         0.00000E+00
         0.57247E-02
         0.24987E-02
         0.54589E-02
         0.90720E-03
         0.14268E-01
         0.10146E-01
         0.31984E-02
         0.15409E-01
         0.34257E-02
         0.30681E-03
         0.00000E+00
         0.12654E-02
         0.00000E+00
         0.10560E-01
         0.96725E-02
         0.93535E-02
         0.11048E-03
         0.25158E-02
         0.00000E+00
         0.30965E-02
         0.00000E+00
         0.00000E+00
         0.27624E-02
         0.24688E-02
         0.00000E+00
         0.35423E-03
         0.15573E-04
         0.89228E-02
         0.39871E-02
         0.60955E-02
         0.12094E-01
         0.86988E-02
         0.77342E-02
         0.12152E-01
         0.10672E-01
         0.10686E-01
         0.75448E-02
         0.63677E-02
         0.99046E-02
         0.54035E-02
         0.41114E-02
         0.27196E-02
         0.37640E-02
         0.83156E-02
         0.45858E-02
         0.47885E-01
         0.49224E-01
         0.51816E-01
         0.51428E-01
         0.54901E-01
         0.59038E-01
         0.56424E-01
         0.49904E-01
         0.48556E-01
         0.52166E-01
         0.51182E-01
         0.50631E-01
         0.41160E-01
         0.38971E-01
         0.43285E-01
         0.46754E-01
         0.48665E-01
         0.53385E-01
         0.50957E-01
         0.52436E-01
         0.46831E-01
         0.44319E-01
         0.47260E-01
         0.45877E-01
         0.47390E-01
         0.46983E-01
         0.58638E-02
         0.22142E-02
         0.19513E-02
         0.41692E-03
         0.60402E-02
         0.31881E-02
         0.00000E+00
         0.57306E-02
         0.25086E-02
         0.54796E-02
         0.90911E-03
         0.14268E-01
         0.10152E-01
         0.31834E-02
         0.15428E-01
         0.34321E-02
         0.31674E-03
         0.00000E+00
         0.12684E-02
         0.00000E+00
         0.10563E-01
         0.96724E-02
         0.93550E-02
         0.11020E-03
         0.25357E-02
         0.00000E+00
         0.30976E-02
         0.00000E+00
         0.00000E+00
         0.27695E-02
         0.24739E-02
         0.00000E+00
         0.34840E-03
         0.18303E-04
         0.89287E-02
         0.39862E-02
         0.60944E-02
         0.12118E-01
         0.87264E-02
         0.77501E-02
         0.12163E-01
         0.10680E-01
         0.10689E-01
         0.75479E-02
         0.63687E-02
         0.99067E-02
         0.54056E-02
         0.41126E-02
         0.27133E-02
         0.37551E-02
         0.83104E-02
         0.45740E-02
         0.47866E-01
         0.49212E-01
         0.51815E-01
         0.51428E-01
         0.54892E-01
         0.59017E-01
         0.56397E-01
         0.49890E-01
         0.48543E-01
         0.52147E-01
         0.51173E-01
         0.50637E-01
         0.41160E-01
         0.38970E-01
         0.43292E-01
         0.46771E-01
         0.48683E-01
         0.53398E-01
         0.50954E-01
         0.52433E-01
         0.46826E-01
         0.44317E-01
         0.47242E-01
         0.45844E-01
         0.47362E-01
         0.46956E-01
         0.58692E-02
         0.22142E-02
         0.19538E-02
         0.42204E-03
         0.60362E-02
         0.31845E-02
         0.00000E+00
         0.57365E-02
         0.25186E-02
         0.55002E-02
         0.91106E-03
         0.14268E-01
         0.10158E-01
         0.31683E-02
         0.15447E-01
         0.34385E-02
         0.32667E-03
         0.00000E+00
         0.12712E-02
         0.00000E+00
         0.10565E-01
         0.96720E-02
         0.93564E-02
         0.11002E-03
         0.25555E-02
         0.00000E+00
         0.30983E-02
         0.00000E+00
         0.00000E+00
         0.27763E-02
         0.24789E-02
         0.00000E+00
         0.34260E-03
         0.21018E-04
         0.89348E-02
         0.39851E-02
         0.60931E-02
         0.12143E-01
         0.87538E-02
         0.77658E-02
         0.12174E-01
         0.10686E-01
         0.10692E-01
         0.75508E-02
         0.63699E-02
         0.99089E-02
         0.54077E-02
         0.41138E-02
         0.27072E-02
         0.37462E-02
         0.83047E-02
         0.45622E-02
         0.47847E-01
         0.49199E-01
         0.51814E-01
         0.51428E-01
         0.54882E-01
         0.58995E-01
         0.56371E-01
         0.49875E-01
         0.48530E-01
         0.52127E-01
         0.51164E-01
         0.50643E-01
         0.41160E-01
         0.38969E-01
         0.43299E-01
         0.46787E-01
         0.48701E-01
         0.53411E-01
         0.50950E-01
         0.52429E-01
         0.46822E-01
         0.44314E-01
         0.47224E-01
         0.45812E-01
         0.47334E-01
         0.46929E-01
         0.58747E-02
         0.22142E-02
         0.19565E-02
         0.42718E-03
         0.60326E-02
         0.31811E-02
         0.00000E+00
         0.57424E-02
         0.25286E-02
         0.55207E-02
         0.91311E-03
         0.14268E-01
         0.10164E-01
         0.31531E-02
         0.15466E-01
         0.34449E-02
         0.33666E-03
         0.00000E+00
         0.12742E-02
         0.00000E+00
         0.10568E-01
         0.96718E-02
         0.93576E-02
         0.10986E-03
         0.25752E-02
         0.00000E+00
         0.30988E-02
         0.00000E+00
         0.00000E+00
         0.27829E-02
         0.24840E-02
         0.00000E+00
         0.33694E-03
         0.23817E-04
         0.89410E-02
         0.39842E-02
         0.60918E-02
         0.12167E-01
         0.87813E-02
         0.77808E-02
         0.12184E-01
         0.10693E-01
         0.10695E-01
         0.75539E-02
         0.63708E-02
         0.99111E-02
         0.54099E-02
         0.41152E-02
         0.27011E-02
         0.37374E-02
         0.82995E-02
         0.45507E-02
         0.47828E-01
         0.49187E-01
         0.51813E-01
         0.51429E-01
         0.54872E-01
         0.58974E-01
         0.56345E-01
         0.49861E-01
         0.48517E-01
         0.52107E-01
         0.51156E-01
         0.50651E-01
         0.41160E-01
         0.38969E-01
         0.43306E-01
         0.46804E-01
         0.48718E-01
         0.53424E-01
         0.50947E-01
         0.52426E-01
         0.46817E-01
         0.44312E-01
         0.47206E-01
         0.45780E-01
         0.47306E-01
         0.46902E-01
         0.62933E-02
         0.28838E-02
         0.26471E-02
         0.12092E-02
         0.65900E-02
         0.38452E-02
         0.10545E-02
         0.62721E-02
         0.31144E-02
         0.60754E-02
         0.20676E-02
         0.14768E-01
         0.10663E-01
         0.40016E-02
         0.15988E-01
         0.39372E-02
         0.12713E-02
         0.00000E+00
         0.21018E-02
         0.57075E-03
         0.10986E-01
         0.10116E-01
         0.97692E-02
         0.10726E-02
         0.33419E-02
         0.00000E+00
         0.39461E-02
         0.19527E-03
         0.93994E-03
         0.35658E-02
         0.30516E-02
         0.81242E-03
         0.11341E-02
         0.95899E-03
         0.94948E-02
         0.46603E-02
         0.66439E-02
         0.12709E-01
         0.93846E-02
         0.83965E-02
         0.12694E-01
         0.11183E-01
         0.11139E-01
         0.79908E-02
         0.68840E-02
         0.10434E-01
         0.60128E-02
         0.47192E-02
         0.33846E-02
         0.43795E-02
         0.88212E-02
         0.51455E-02
         0.48485E-01
         0.49829E-01
         0.52481E-01
         0.52071E-01
         0.55533E-01
         0.59669E-01
         0.57043E-01
         0.50563E-01
         0.49229E-01
         0.52836E-01
         0.51866E-01
         0.51318E-01
         0.41732E-01
         0.39499E-01
         0.43845E-01
         0.47362E-01
         0.49286E-01
         0.54054E-01
         0.51624E-01
         0.53106E-01
         0.47425E-01
         0.44894E-01
         0.47800E-01
         0.46355E-01
         0.47876E-01
         0.47474E-01
         0.28382E-01
         0.27690E-01
         0.27173E-01
         0.24210E-01
         0.32338E-01
         0.29127E-01
         0.29295E-01
         0.31893E-01
         0.25954E-01
         0.31749E-01
         0.32578E-01
         0.43520E-01
         0.37539E-01
         0.34252E-01
         0.45703E-01
         0.25885E-01
         0.26577E-01
         0.22649E-01
         0.27758E-01
         0.28764E-01
         0.35243E-01
         0.35316E-01
         0.33253E-01
         0.26323E-01
         0.30719E-01
         0.25038E-01
         0.34133E-01
         0.32362E-01
         0.32696E-01
         0.31888E-01
         0.25692E-01
         0.26126E-01
         0.24384E-01
         0.25489E-01
         0.36739E-01
         0.31489E-01
         0.32654E-01
         0.42373E-01
         0.39297E-01
         0.38284E-01
         0.41733E-01
         0.39031E-01
         0.37312E-01
         0.31407E-01
         0.31776E-01
         0.37284E-01
         0.32371E-01
         0.29942E-01
         0.28746E-01
         0.30236E-01
         0.35076E-01
         0.30683E-01
         0.83276E-01
         0.83563E-01
         0.86956E-01
         0.85605E-01
         0.90079E-01
         0.96232E-01
         0.94811E-01
         0.88648E-01
         0.87508E-01
         0.91657E-01
         0.89604E-01
         0.86668E-01
         0.73858E-01
         0.69967E-01
         0.73842E-01
         0.77234E-01
         0.79329E-01
         0.86384E-01
         0.86241E-01
         0.87921E-01
         0.80127E-01
         0.76786E-01
         0.80578E-01
         0.79065E-01
         0.80056E-01
         0.79374E-01
  
SCALARS                            dam  double 1
LOOKUP_TABLE default
         0.00000E+00
         0.00000E+00
         0.00000E+00
         0.00000E+00
         0.00000E+00
         0.00000E+00
         0.00000E+00
         0.00000E+00
         0.00000E+00
         0.00000E+00
         0.00000E+00
         0.00000E+00
         0.00000E+00
         0.00000E+00
         0.00000E+00
         0.00000E+00
         0.00000E+00
         0.00000E+00
         0.00000E+00
         0.00000E+00
         0.00000E+00
         0.00000E+00
         0.00000E+00
         0.00000E+00
         0.00000E+00
         0.00000E+00
         0.00000E+00
         0.00000E+00
         0.00000E+00
         0.00000E+00
         0.00000E+00
         0.00000E+00
         0.00000E+00
         0.00000E+00
         0.00000E+00
         0.00000E+00
         0.00000E+00
         0.00000E+00
         0.00000E+00
         0.00000E+00
         0.00000E+00
         0.00000E+00
         0.00000E+00
         0.00000E+00
         0.00000E+00
         0.00000E+00
         0.00000E+00
         0.00000E+00
         0.00000E+00
         0.00000E+00
         0.00000E+00
         0.00000E+00
         0.00000E+00
         0.00000E+00
         0.00000E+00
         0.00000E+00
         0.00000E+00
         0.00000E+00
         0.00000E+00
         0.00000E+00
         0.00000E+00
         0.00000E+00
         0.00000E+00
         0.00000E+00
         0.00000E+00
         0.00000E+00
         0.00000E+00
         0.00000E+00
         0.00000E+00
         0.00000E+00
         0.00000E+00
         0.00000E+00
         0.00000E+00
         0.00000E+00
         0.00000E+00
         0.00000E+00
         0.00000E+00
         0.00000E+00
         0.00000E+00
         0.00000E+00
         0.00000E+00
         0.00000E+00
         0.00000E+00
         0.00000E+00
         0.00000E+00
         0.00000E+00
         0.00000E+00
         0.00000E+00
         0.00000E+00
         0.00000E+00
         0.00000E+00
         0.00000E+00
         0.00000E+00
         0.00000E+00
         0.00000E+00
         0.00000E+00
         0.00000E+00
         0.00000E+00
         0.00000E+00
         0.00000E+00
         0.00000E+00
         0.00000E+00
         0.00000E+00
         0.00000E+00
         0.00000E+00
         0.00000E+00
         0.00000E+00
         0.00000E+00
         0.00000E+00
         0.00000E+00
         0.00000E+00
         0.00000E+00
         0.00000E+00
         0.00000E+00
         0.00000E+00
         0.00000E+00
         0.00000E+00
         0.00000E+00
         0.00000E+00
         0.00000E+00
         0.00000E+00
         0.00000E+00
         0.00000E+00
         0.00000E+00
         0.00000E+00
         0.00000E+00
         0.00000E+00
         0.00000E+00
         0.00000E+00
         0.00000E+00
         0.00000E+00
         0.00000E+00
         0.00000E+00
         0.00000E+00
         0.00000E+00
         0.00000E+00
         0.00000E+00
         0.00000E+00
         0.00000E+00
         0.00000E+00
         0.00000E+00
         0.00000E+00
         0.00000E+00
         0.00000E+00
         0.00000E+00
         0.00000E+00
         0.00000E+00
         0.00000E+00
         0.00000E+00
         0.00000E+00
         0.00000E+00
         0.00000E+00
         0.00000E+00
         0.00000E+00
         0.00000E+00
         0.00000E+00
         0.00000E+00
         0.00000E+00
         0.00000E+00
         0.00000E+00
         0.00000E+00
         0.00000E+00
         0.00000E+00
         0.00000E+00
         0.00000E+00
         0.00000E+00
         0.00000E+00
         0.00000E+00
         0.00000E+00
         0.00000E+00
         0.00000E+00
         0.00000E+00
         0.00000E+00
         0.00000E+00
         0.00000E+00
         0.00000E+00
         0.00000E+00
         0.00000E+00
         0.00000E+00
         0.00000E+00
         0.00000E+00
         0.00000E+00
         0.00000E+00
         0.00000E+00
         0.00000E+00
         0.00000E+00
         0.00000E+00
         0.00000E+00
         0.00000E+00
         0.00000E+00
         0.00000E+00
         0.00000E+00
         0.00000E+00
         0.00000E+00
         0.00000E+00
         0.00000E+00
         0.00000E+00
         0.00000E+00
         0.00000E+00
         0.00000E+00
         0.00000E+00
         0.00000E+00
         0.00000E+00
         0.00000E+00
         0.00000E+00
         0.00000E+00
         0.00000E+00
         0.00000E+00
         0.00000E+00
         0.00000E+00
         0.00000E+00
         0.00000E+00
         0.00000E+00
         0.00000E+00
         0.00000E+00
         0.00000E+00
         0.00000E+00
         0.00000E+00
         0.00000E+00
         0.00000E+00
         0.00000E+00
         0.00000E+00
         0.00000E+00
         0.00000E+00
         0.00000E+00
         0.00000E+00
         0.00000E+00
         0.00000E+00
         0.00000E+00
         0.00000E+00
         0.00000E+00
         0.00000E+00
         0.00000E+00
         0.00000E+00
         0.00000E+00
         0.00000E+00
         0.00000E+00
         0.00000E+00
         0.00000E+00
         0.00000E+00
         0.00000E+00
         0.00000E+00
         0.00000E+00
         0.00000E+00
         0.00000E+00
         0.00000E+00
         0.00000E+00
         0.00000E+00
         0.00000E+00
         0.00000E+00
         0.00000E+00
         0.00000E+00
         0.00000E+00
         0.00000E+00
         0.00000E+00
         0.00000E+00
         0.00000E+00
         0.00000E+00
         0.00000E+00
         0.00000E+00
         0.00000E+00
         0.00000E+00
         0.00000E+00
         0.00000E+00
         0.00000E+00
         0.00000E+00
         0.00000E+00
         0.00000E+00
         0.00000E+00
         0.00000E+00
         0.00000E+00
         0.00000E+00
         0.00000E+00
         0.00000E+00
         0.00000E+00
         0.00000E+00
         0.00000E+00
         0.00000E+00
         0.00000E+00
         0.00000E+00
         0.00000E+00
         0.00000E+00
         0.00000E+00
         0.00000E+00
         0.00000E+00
         0.00000E+00
         0.00000E+00
         0.00000E+00
         0.00000E+00
         0.00000E+00
         0.00000E+00
         0.00000E+00
         0.00000E+00
         0.00000E+00
         0.00000E+00
         0.00000E+00
         0.00000E+00
         0.00000E+00
         0.00000E+00
         0.00000E+00
         0.00000E+00
         0.00000E+00
         0.00000E+00
         0.00000E+00
         0.00000E+00
         0.00000E+00
         0.00000E+00
         0.00000E+00
         0.00000E+00
         0.00000E+00
         0.00000E+00
         0.00000E+00
         0.00000E+00
         0.00000E+00
         0.00000E+00
         0.00000E+00
         0.00000E+00
         0.00000E+00
         0.00000E+00
         0.00000E+00
         0.00000E+00
         0.00000E+00
         0.00000E+00
         0.00000E+00
         0.00000E+00
         0.00000E+00
         0.00000E+00
         0.00000E+00
         0.00000E+00
         0.00000E+00
         0.00000E+00
         0.00000E+00
         0.00000E+00
         0.00000E+00
         0.00000E+00
         0.00000E+00
         0.00000E+00
         0.00000E+00
         0.00000E+00
         0.00000E+00
         0.00000E+00
         0.00000E+00
         0.00000E+00
         0.00000E+00
         0.00000E+00
         0.00000E+00
         0.00000E+00
         0.00000E+00
         0.00000E+00
         0.00000E+00
         0.00000E+00
         0.00000E+00
         0.00000E+00
         0.00000E+00
         0.00000E+00
         0.00000E+00
         0.00000E+00
         0.00000E+00
         0.00000E+00
         0.00000E+00
         0.00000E+00
         0.00000E+00
         0.00000E+00
         0.00000E+00
         0.00000E+00
         0.00000E+00
         0.00000E+00
         0.00000E+00
         0.00000E+00
         0.00000E+00
         0.00000E+00
         0.00000E+00
         0.00000E+00
         0.00000E+00
         0.00000E+00
         0.00000E+00
         0.00000E+00
         0.00000E+00
         0.00000E+00
         0.00000E+00
         0.00000E+00
         0.00000E+00
         0.00000E+00
         0.00000E+00
         0.00000E+00
         0.00000E+00
         0.00000E+00
         0.00000E+00
         0.00000E+00
         0.00000E+00
         0.00000E+00
         0.00000E+00
         0.00000E+00
         0.00000E+00
         0.00000E+00
         0.00000E+00
         0.00000E+00
         0.00000E+00
         0.00000E+00
         0.00000E+00
         0.00000E+00
         0.00000E+00
         0.00000E+00
         0.00000E+00
         0.00000E+00
         0.00000E+00
         0.00000E+00
         0.00000E+00
         0.00000E+00
         0.00000E+00
         0.00000E+00
         0.00000E+00
         0.00000E+00
         0.00000E+00
         0.00000E+00
         0.00000E+00
         0.00000E+00
         0.00000E+00
         0.00000E+00
         0.00000E+00
         0.00000E+00
         0.00000E+00
         0.00000E+00
         0.00000E+00
         0.00000E+00
         0.00000E+00
         0.00000E+00
         0.00000E+00
         0.00000E+00
         0.00000E+00
         0.00000E+00
         0.00000E+00
         0.00000E+00
         0.00000E+00
         0.00000E+00
         0.00000E+00
         0.00000E+00
         0.00000E+00
         0.00000E+00
         0.00000E+00
         0.00000E+00
         0.00000E+00
         0.00000E+00
         0.00000E+00
         0.00000E+00
         0.00000E+00
         0.00000E+00
         0.00000E+00
         0.00000E+00
         0.00000E+00
         0.00000E+00
         0.00000E+00
         0.00000E+00
         0.00000E+00
         0.00000E+00
         0.00000E+00
         0.00000E+00
         0.00000E+00
         0.00000E+00
         0.00000E+00
         0.00000E+00
         0.00000E+00
         0.00000E+00
         0.00000E+00
         0.00000E+00
         0.00000E+00
         0.00000E+00
         0.00000E+00
         0.00000E+00
         0.00000E+00
         0.00000E+00
         0.00000E+00
         0.00000E+00
         0.00000E+00
         0.00000E+00
         0.00000E+00
         0.00000E+00
         0.00000E+00
         0.00000E+00
         0.00000E+00
         0.00000E+00
         0.00000E+00
         0.00000E+00
         0.00000E+00
         0.00000E+00
         0.00000E+00
         0.00000E+00
         0.00000E+00
         0.00000E+00
         0.00000E+00
         0.00000E+00
         0.00000E+00
         0.00000E+00
         0.00000E+00
         0.00000E+00
         0.00000E+00
         0.00000E+00
         0.00000E+00
         0.00000E+00
         0.00000E+00
         0.00000E+00
         0.00000E+00
         0.00000E+00
         0.00000E+00
         0.00000E+00
         0.00000E+00
         0.00000E+00
         0.00000E+00
         0.00000E+00
         0.00000E+00
         0.00000E+00
         0.00000E+00
         0.00000E+00
         0.00000E+00
         0.00000E+00
         0.00000E+00
         0.00000E+00
         0.00000E+00
         0.00000E+00
         0.00000E+00
         0.00000E+00
         0.00000E+00
         0.00000E+00
         0.00000E+00
         0.00000E+00
         0.00000E+00
         0.00000E+00
         0.00000E+00
         0.00000E+00
         0.00000E+00
         0.00000E+00
         0.00000E+00
         0.00000E+00
         0.00000E+00
         0.00000E+00
         0.00000E+00
         0.00000E+00
         0.00000E+00
         0.00000E+00
         0.00000E+00
         0.00000E+00
         0.00000E+00
         0.00000E+00
         0.00000E+00
         0.00000E+00
         0.00000E+00
         0.00000E+00
         0.00000E+00
         0.00000E+00
         0.00000E+00
         0.00000E+00
         0.00000E+00
         0.00000E+00
         0.00000E+00
         0.00000E+00
         0.00000E+00
         0.00000E+00
         0.00000E+00
         0.00000E+00
         0.00000E+00
         0.00000E+00
         0.00000E+00
         0.00000E+00
         0.00000E+00
         0.00000E+00
         0.00000E+00
         0.00000E+00
         0.00000E+00
         0.00000E+00
         0.00000E+00
         0.00000E+00
         0.00000E+00
         0.00000E+00
         0.00000E+00
         0.00000E+00
         0.00000E+00
         0.00000E+00
         0.00000E+00
         0.00000E+00
         0.00000E+00
         0.00000E+00
         0.00000E+00
         0.00000E+00
         0.00000E+00
         0.00000E+00
         0.00000E+00
         0.00000E+00
         0.00000E+00
         0.00000E+00
         0.00000E+00
         0.00000E+00
         0.00000E+00
         0.00000E+00
         0.00000E+00
         0.00000E+00
         0.00000E+00
         0.00000E+00
         0.00000E+00
         0.00000E+00
         0.00000E+00
         0.00000E+00
         0.00000E+00
         0.00000E+00
         0.00000E+00
         0.00000E+00
         0.00000E+00
         0.00000E+00
         0.00000E+00
         0.00000E+00
         0.00000E+00
         0.00000E+00
         0.00000E+00
         0.00000E+00
         0.00000E+00
         0.00000E+00
         0.00000E+00
         0.00000E+00
         0.00000E+00
         0.00000E+00
         0.00000E+00
         0.00000E+00
         0.00000E+00
         0.00000E+00
         0.00000E+00
         0.00000E+00
         0.00000E+00
         0.00000E+00
         0.00000E+00
         0.00000E+00
         0.00000E+00
         0.00000E+00
         0.00000E+00
         0.00000E+00
         0.00000E+00
         0.00000E+00
         0.00000E+00
         0.00000E+00
         0.00000E+00
         0.00000E+00
         0.00000E+00
         0.00000E+00
         0.00000E+00
         0.00000E+00
         0.00000E+00
         0.00000E+00
         0.00000E+00
         0.00000E+00
         0.00000E+00
         0.00000E+00
         0.00000E+00
         0.00000E+00
         0.00000E+00
         0.00000E+00
         0.00000E+00
         0.00000E+00
         0.00000E+00
         0.00000E+00
         0.00000E+00
         0.00000E+00
         0.00000E+00
         0.00000E+00
         0.00000E+00
         0.00000E+00
         0.00000E+00
         0.00000E+00
         0.00000E+00
         0.00000E+00
         0.00000E+00
         0.00000E+00
         0.00000E+00
         0.00000E+00
         0.00000E+00
         0.00000E+00
         0.00000E+00
         0.00000E+00
         0.00000E+00
         0.00000E+00
         0.00000E+00
         0.00000E+00
         0.00000E+00
         0.00000E+00
         0.00000E+00
         0.00000E+00
         0.00000E+00
         0.00000E+00
         0.00000E+00
         0.00000E+00
         0.00000E+00
         0.00000E+00
         0.00000E+00
         0.00000E+00
         0.00000E+00
         0.00000E+00
         0.00000E+00
         0.00000E+00
         0.00000E+00
         0.00000E+00
         0.00000E+00
         0.00000E+00
         0.00000E+00
         0.00000E+00
         0.00000E+00
         0.00000E+00
         0.00000E+00
         0.00000E+00
         0.00000E+00
         0.00000E+00
         0.00000E+00
         0.00000E+00
         0.00000E+00
         0.00000E+00
         0.00000E+00
         0.00000E+00
         0.00000E+00
         0.00000E+00
         0.00000E+00
         0.00000E+00
         0.00000E+00
         0.00000E+00
         0.00000E+00
         0.00000E+00
         0.00000E+00
         0.00000E+00
         0.00000E+00
         0.00000E+00
         0.00000E+00
         0.00000E+00
         0.00000E+00
         0.00000E+00
         0.00000E+00
         0.00000E+00
         0.00000E+00
         0.00000E+00
         0.00000E+00
         0.00000E+00
         0.00000E+00
         0.00000E+00
         0.00000E+00
         0.00000E+00
         0.00000E+00
         0.00000E+00
         0.00000E+00
         0.00000E+00
         0.00000E+00
         0.00000E+00
         0.00000E+00
         0.00000E+00
         0.00000E+00
         0.00000E+00
         0.00000E+00
         0.00000E+00
         0.00000E+00
         0.00000E+00
         0.00000E+00
         0.00000E+00
         0.00000E+00
         0.00000E+00
         0.00000E+00
         0.00000E+00
         0.00000E+00
         0.00000E+00
         0.00000E+00
         0.00000E+00
         0.00000E+00
         0.00000E+00
         0.00000E+00
         0.00000E+00
         0.00000E+00
         0.00000E+00
         0.00000E+00
         0.00000E+00
         0.00000E+00
         0.00000E+00
         0.00000E+00
         0.00000E+00
         0.00000E+00
         0.00000E+00
         0.00000E+00
         0.00000E+00
         0.00000E+00
         0.00000E+00
         0.00000E+00
         0.00000E+00
         0.00000E+00
         0.00000E+00
         0.00000E+00
         0.00000E+00
         0.00000E+00
         0.00000E+00
         0.00000E+00
         0.00000E+00
         0.00000E+00
         0.00000E+00
         0.00000E+00
         0.00000E+00
         0.00000E+00
         0.00000E+00
         0.00000E+00
         0.00000E+00
         0.00000E+00
         0.00000E+00
         0.00000E+00
         0.00000E+00
         0.00000E+00
         0.00000E+00
         0.00000E+00
         0.00000E+00
         0.00000E+00
         0.00000E+00
         0.00000E+00
         0.00000E+00
         0.00000E+00
         0.00000E+00
         0.00000E+00
         0.00000E+00
         0.00000E+00
         0.00000E+00
         0.00000E+00
         0.00000E+00
         0.00000E+00
         0.00000E+00
         0.00000E+00
         0.00000E+00
         0.00000E+00
         0.00000E+00
         0.00000E+00
         0.00000E+00
         0.00000E+00
         0.00000E+00
         0.00000E+00
         0.00000E+00
         0.00000E+00
         0.00000E+00
         0.00000E+00
         0.00000E+00
         0.00000E+00
         0.00000E+00
         0.00000E+00
         0.00000E+00
         0.00000E+00
         0.00000E+00
         0.00000E+00
         0.00000E+00
         0.00000E+00
         0.00000E+00
         0.00000E+00
         0.00000E+00
         0.00000E+00
         0.00000E+00
         0.00000E+00
         0.00000E+00
         0.00000E+00
         0.00000E+00
         0.00000E+00
         0.00000E+00
         0.00000E+00
         0.00000E+00
         0.00000E+00
         0.00000E+00
         0.00000E+00
         0.00000E+00
         0.00000E+00
         0.00000E+00
         0.00000E+00
         0.00000E+00
         0.00000E+00
         0.00000E+00
         0.00000E+00
         0.00000E+00
         0.00000E+00
         0.00000E+00
         0.00000E+00
         0.00000E+00
         0.00000E+00
         0.00000E+00
         0.00000E+00
         0.00000E+00
         0.00000E+00
         0.00000E+00
         0.00000E+00
         0.00000E+00
         0.00000E+00
         0.00000E+00
         0.00000E+00
         0.00000E+00
         0.00000E+00
         0.00000E+00
         0.00000E+00
         0.00000E+00
         0.00000E+00
         0.00000E+00
         0.00000E+00
         0.00000E+00
         0.00000E+00
         0.00000E+00
         0.00000E+00
         0.00000E+00
         0.00000E+00
         0.00000E+00
         0.00000E+00
         0.00000E+00
         0.00000E+00
         0.00000E+00
         0.00000E+00
         0.00000E+00
         0.00000E+00
         0.00000E+00
         0.00000E+00
         0.00000E+00
         0.00000E+00
         0.00000E+00
         0.00000E+00
         0.00000E+00
         0.00000E+00
         0.00000E+00
         0.00000E+00
         0.00000E+00
         0.00000E+00
         0.00000E+00
         0.00000E+00
         0.00000E+00
         0.00000E+00
         0.00000E+00
         0.00000E+00
         0.00000E+00
         0.00000E+00
         0.00000E+00
         0.00000E+00
         0.00000E+00
         0.00000E+00
         0.00000E+00
         0.00000E+00
         0.00000E+00
         0.00000E+00
         0.00000E+00
         0.00000E+00
         0.00000E+00
         0.00000E+00
         0.00000E+00
         0.00000E+00
         0.00000E+00
         0.00000E+00
         0.00000E+00
         0.00000E+00
         0.00000E+00
         0.00000E+00
         0.00000E+00
         0.00000E+00
         0.00000E+00
         0.00000E+00
         0.00000E+00
         0.00000E+00
         0.00000E+00
         0.00000E+00
         0.00000E+00
         0.00000E+00
         0.00000E+00
         0.00000E+00
         0.00000E+00
         0.00000E+00
         0.00000E+00
         0.00000E+00
         0.00000E+00
         0.00000E+00
         0.00000E+00
         0.00000E+00
         0.00000E+00
         0.00000E+00
         0.00000E+00
         0.00000E+00
         0.00000E+00
         0.00000E+00
         0.00000E+00
         0.00000E+00
         0.00000E+00
         0.00000E+00
         0.00000E+00
         0.00000E+00
         0.00000E+00
         0.00000E+00
         0.00000E+00
         0.00000E+00
         0.00000E+00
         0.00000E+00
         0.00000E+00
         0.00000E+00
         0.00000E+00
         0.00000E+00
         0.00000E+00
         0.00000E+00
         0.00000E+00
         0.00000E+00
         0.00000E+00
         0.00000E+00
         0.00000E+00
         0.00000E+00
         0.00000E+00
         0.00000E+00
         0.00000E+00
         0.00000E+00
         0.00000E+00
         0.00000E+00
         0.00000E+00
         0.00000E+00
         0.00000E+00
         0.00000E+00
         0.00000E+00
         0.00000E+00
         0.00000E+00
         0.00000E+00
         0.00000E+00
         0.00000E+00
         0.00000E+00
         0.00000E+00
         0.00000E+00
         0.00000E+00
         0.00000E+00
         0.00000E+00
         0.00000E+00
         0.00000E+00
         0.00000E+00
         0.00000E+00
         0.00000E+00
         0.00000E+00
         0.00000E+00
         0.00000E+00
         0.00000E+00
         0.00000E+00
         0.00000E+00
         0.00000E+00
         0.00000E+00
         0.00000E+00
         0.00000E+00
         0.00000E+00
         0.00000E+00
         0.00000E+00
         0.00000E+00
         0.00000E+00
         0.00000E+00
         0.00000E+00
         0.00000E+00
         0.00000E+00
         0.00000E+00
         0.00000E+00
         0.00000E+00
         0.00000E+00
         0.00000E+00
         0.00000E+00
         0.00000E+00
         0.00000E+00
         0.00000E+00
         0.00000E+00
         0.00000E+00
         0.00000E+00
         0.00000E+00
         0.00000E+00
         0.00000E+00
         0.00000E+00
         0.00000E+00
         0.00000E+00
         0.00000E+00
         0.00000E+00
         0.00000E+00
         0.00000E+00
         0.00000E+00
         0.00000E+00
         0.00000E+00
         0.00000E+00
         0.00000E+00
         0.00000E+00
         0.00000E+00
         0.00000E+00
         0.00000E+00
         0.00000E+00
         0.00000E+00
         0.00000E+00
         0.00000E+00
         0.00000E+00
         0.00000E+00
         0.00000E+00
         0.00000E+00
         0.00000E+00
         0.00000E+00
         0.00000E+00
         0.00000E+00
         0.00000E+00
         0.00000E+00
         0.00000E+00
         0.00000E+00
         0.00000E+00
         0.00000E+00
         0.00000E+00
         0.00000E+00
         0.00000E+00
         0.00000E+00
         0.00000E+00
         0.00000E+00
         0.00000E+00
         0.00000E+00
         0.00000E+00
         0.00000E+00
         0.00000E+00
         0.00000E+00
         0.00000E+00
         0.00000E+00
         0.00000E+00
         0.00000E+00
         0.00000E+00
         0.00000E+00
         0.00000E+00
         0.00000E+00
         0.00000E+00
         0.00000E+00
         0.00000E+00
         0.00000E+00
         0.00000E+00
         0.00000E+00
         0.00000E+00
         0.00000E+00
         0.00000E+00
         0.00000E+00
         0.00000E+00
         0.00000E+00
         0.00000E+00
         0.00000E+00
         0.00000E+00
         0.00000E+00
         0.00000E+00
         0.00000E+00
         0.00000E+00
         0.00000E+00
         0.00000E+00
         0.00000E+00
         0.00000E+00
         0.00000E+00
         0.00000E+00
         0.00000E+00
         0.00000E+00
         0.00000E+00
         0.00000E+00
         0.00000E+00
         0.00000E+00
         0.00000E+00
         0.00000E+00
         0.00000E+00
         0.00000E+00
         0.00000E+00
         0.00000E+00
         0.00000E+00
         0.00000E+00
         0.00000E+00
         0.00000E+00
         0.00000E+00
         0.00000E+00
         0.00000E+00
         0.00000E+00
         0.00000E+00
         0.00000E+00
         0.00000E+00
         0.00000E+00
         0.00000E+00
         0.00000E+00
         0.00000E+00
         0.00000E+00
         0.00000E+00
         0.00000E+00
         0.00000E+00
         0.00000E+00
         0.00000E+00
         0.00000E+00
         0.00000E+00
         0.00000E+00
         0.00000E+00
         0.00000E+00
         0.00000E+00
         0.00000E+00
         0.00000E+00
         0.00000E+00
         0.00000E+00
         0.00000E+00
         0.00000E+00
         0.00000E+00
         0.00000E+00
         0.00000E+00
         0.00000E+00
         0.00000E+00
         0.00000E+00
         0.00000E+00
         0.00000E+00
         0.00000E+00
         0.00000E+00
         0.00000E+00
         0.00000E+00
         0.00000E+00
         0.00000E+00
         0.00000E+00
         0.00000E+00
         0.00000E+00
         0.00000E+00
         0.00000E+00
         0.00000E+00
         0.00000E+00
         0.00000E+00
         0.00000E+00
         0.00000E+00
         0.00000E+00
         0.00000E+00
         0.00000E+00
         0.00000E+00
         0.00000E+00
         0.00000E+00
         0.00000E+00
         0.00000E+00
         0.00000E+00
         0.00000E+00
         0.00000E+00
         0.00000E+00
         0.00000E+00
         0.00000E+00
         0.00000E+00
         0.00000E+00
         0.00000E+00
         0.00000E+00
         0.00000E+00
         0.00000E+00
         0.00000E+00
         0.00000E+00
         0.00000E+00
         0.00000E+00
         0.00000E+00
         0.00000E+00
         0.00000E+00
         0.00000E+00
         0.00000E+00
         0.00000E+00
         0.00000E+00
         0.00000E+00
         0.00000E+00
         0.00000E+00
         0.00000E+00
         0.00000E+00
         0.00000E+00
         0.00000E+00
         0.00000E+00
         0.00000E+00
         0.00000E+00
         0.00000E+00
         0.00000E+00
         0.00000E+00
         0.00000E+00
         0.00000E+00
         0.00000E+00
         0.00000E+00
         0.00000E+00
         0.00000E+00
         0.00000E+00
         0.00000E+00
         0.00000E+00
         0.00000E+00
         0.00000E+00
         0.00000E+00
         0.00000E+00
         0.00000E+00
         0.00000E+00
         0.00000E+00
         0.00000E+00
         0.00000E+00
         0.00000E+00
         0.00000E+00
         0.00000E+00
         0.00000E+00
         0.00000E+00
         0.00000E+00
         0.00000E+00
         0.00000E+00
         0.00000E+00
         0.00000E+00
         0.00000E+00
         0.00000E+00
         0.00000E+00
         0.00000E+00
         0.00000E+00
         0.00000E+00
         0.00000E+00
         0.00000E+00
         0.00000E+00
         0.00000E+00
         0.00000E+00
         0.00000E+00
         0.00000E+00
         0.00000E+00
         0.00000E+00
         0.00000E+00
         0.00000E+00
         0.00000E+00
         0.00000E+00
         0.00000E+00
         0.00000E+00
         0.00000E+00
         0.00000E+00
         0.00000E+00
         0.00000E+00
         0.00000E+00
         0.00000E+00
         0.00000E+00
         0.00000E+00
         0.00000E+00
         0.00000E+00
         0.00000E+00
         0.00000E+00
         0.00000E+00
         0.00000E+00
         0.00000E+00
         0.00000E+00
         0.00000E+00
         0.00000E+00
         0.00000E+00
         0.00000E+00
         0.00000E+00
         0.00000E+00
         0.00000E+00
         0.00000E+00
         0.00000E+00
         0.00000E+00
         0.00000E+00
         0.00000E+00
         0.00000E+00
         0.00000E+00
         0.00000E+00
         0.00000E+00
         0.00000E+00
         0.00000E+00
         0.00000E+00
         0.00000E+00
         0.00000E+00
         0.00000E+00
         0.00000E+00
         0.00000E+00
         0.00000E+00
         0.00000E+00
         0.00000E+00
         0.00000E+00
         0.00000E+00
         0.00000E+00
         0.00000E+00
         0.00000E+00
         0.00000E+00
         0.00000E+00
         0.00000E+00
         0.00000E+00
         0.00000E+00
         0.00000E+00
         0.00000E+00
         0.00000E+00
         0.00000E+00
         0.00000E+00
         0.00000E+00
         0.00000E+00
         0.00000E+00
         0.00000E+00
         0.00000E+00
         0.00000E+00
         0.00000E+00
         0.00000E+00
         0.00000E+00
         0.00000E+00
         0.00000E+00
         0.00000E+00
         0.00000E+00
         0.00000E+00
         0.00000E+00
         0.00000E+00
         0.00000E+00
         0.00000E+00
         0.00000E+00
         0.00000E+00
         0.00000E+00
         0.00000E+00
         0.00000E+00
         0.00000E+00
         0.00000E+00
         0.00000E+00
         0.00000E+00
         0.00000E+00
         0.00000E+00
         0.00000E+00
         0.00000E+00
         0.00000E+00
         0.00000E+00
         0.00000E+00
         0.00000E+00
         0.00000E+00
         0.00000E+00
         0.00000E+00
         0.00000E+00
         0.00000E+00
         0.00000E+00
         0.00000E+00
         0.00000E+00
         0.00000E+00
         0.00000E+00
         0.00000E+00
         0.00000E+00
         0.00000E+00
         0.00000E+00
         0.00000E+00
         0.00000E+00
         0.00000E+00
         0.00000E+00
         0.00000E+00
         0.00000E+00
         0.00000E+00
         0.00000E+00
         0.00000E+00
         0.00000E+00
         0.00000E+00
         0.00000E+00
         0.00000E+00
         0.00000E+00
         0.00000E+00
         0.00000E+00
         0.00000E+00
         0.00000E+00
         0.00000E+00
         0.00000E+00
         0.00000E+00
         0.00000E+00
         0.00000E+00
         0.00000E+00
         0.00000E+00
         0.00000E+00
         0.00000E+00
         0.00000E+00
         0.00000E+00
         0.00000E+00
         0.00000E+00
         0.00000E+00
         0.00000E+00
         0.00000E+00
         0.00000E+00
         0.00000E+00
         0.00000E+00
         0.00000E+00
         0.00000E+00
         0.00000E+00
         0.00000E+00
         0.00000E+00
         0.00000E+00
         0.00000E+00
         0.00000E+00
         0.00000E+00
         0.00000E+00
         0.00000E+00
         0.00000E+00
         0.00000E+00
         0.00000E+00
         0.00000E+00
         0.00000E+00
         0.00000E+00
         0.00000E+00
         0.00000E+00
         0.00000E+00
         0.00000E+00
         0.00000E+00
         0.00000E+00
         0.00000E+00
         0.00000E+00
         0.00000E+00
         0.00000E+00
         0.00000E+00
         0.00000E+00
         0.00000E+00
         0.00000E+00
         0.00000E+00
         0.00000E+00
         0.00000E+00
         0.00000E+00
         0.00000E+00
         0.00000E+00
         0.00000E+00
         0.00000E+00
         0.00000E+00
         0.00000E+00
         0.00000E+00
         0.00000E+00
         0.00000E+00
         0.00000E+00
         0.00000E+00
         0.00000E+00
         0.00000E+00
         0.00000E+00
         0.00000E+00
         0.00000E+00
         0.00000E+00
         0.00000E+00
         0.00000E+00
         0.00000E+00
         0.00000E+00
         0.00000E+00
         0.00000E+00
         0.00000E+00
         0.00000E+00
         0.00000E+00
         0.00000E+00
         0.00000E+00
         0.00000E+00
         0.00000E+00
         0.00000E+00
         0.00000E+00
         0.00000E+00
         0.00000E+00
         0.00000E+00
         0.00000E+00
         0.00000E+00
         0.00000E+00
         0.00000E+00
         0.00000E+00
         0.00000E+00
         0.00000E+00
         0.00000E+00
         0.00000E+00
         0.00000E+00
         0.00000E+00
         0.00000E+00
         0.00000E+00
         0.00000E+00
         0.00000E+00
         0.00000E+00
         0.00000E+00
         0.00000E+00
         0.00000E+00
         0.00000E+00
         0.00000E+00
         0.00000E+00
         0.00000E+00
         0.00000E+00
         0.00000E+00
         0.00000E+00
         0.00000E+00
         0.00000E+00
         0.00000E+00
         0.00000E+00
         0.00000E+00
         0.00000E+00
         0.00000E+00
         0.00000E+00
         0.00000E+00
         0.00000E+00
         0.00000E+00
         0.00000E+00
         0.00000E+00
         0.00000E+00
         0.00000E+00
         0.00000E+00
         0.00000E+00
         0.00000E+00
         0.00000E+00
         0.00000E+00
         0.00000E+00
         0.00000E+00
         0.00000E+00
         0.00000E+00
         0.00000E+00
         0.00000E+00
         0.00000E+00
         0.00000E+00
         0.00000E+00
         0.00000E+00
         0.00000E+00
         0.00000E+00
         0.00000E+00
         0.00000E+00
         0.00000E+00
         0.00000E+00
         0.00000E+00
         0.00000E+00
         0.00000E+00
         0.00000E+00
         0.00000E+00
         0.00000E+00
         0.00000E+00
         0.00000E+00
         0.00000E+00
         0.00000E+00
         0.00000E+00
         0.00000E+00
         0.00000E+00
         0.00000E+00
         0.00000E+00
         0.00000E+00
         0.00000E+00
         0.00000E+00
         0.00000E+00
         0.00000E+00
         0.00000E+00
         0.00000E+00
         0.00000E+00
         0.00000E+00
         0.00000E+00
         0.00000E+00
         0.00000E+00
         0.00000E+00
         0.00000E+00
         0.00000E+00
         0.00000E+00
         0.00000E+00
         0.00000E+00
         0.00000E+00
         0.00000E+00
         0.00000E+00
         0.00000E+00
         0.00000E+00
         0.00000E+00
         0.00000E+00
         0.00000E+00
         0.00000E+00
         0.00000E+00
         0.00000E+00
         0.00000E+00
         0.00000E+00
         0.00000E+00
         0.00000E+00
         0.00000E+00
         0.00000E+00
         0.00000E+00
         0.00000E+00
         0.00000E+00
         0.00000E+00
         0.00000E+00
         0.00000E+00
         0.00000E+00
         0.00000E+00
         0.00000E+00
         0.00000E+00
         0.00000E+00
         0.00000E+00
         0.00000E+00
         0.00000E+00
         0.00000E+00
         0.00000E+00
         0.00000E+00
         0.00000E+00
         0.00000E+00
         0.00000E+00
         0.00000E+00
         0.00000E+00
         0.00000E+00
         0.00000E+00
         0.00000E+00
         0.00000E+00
         0.00000E+00
         0.00000E+00
         0.00000E+00
         0.00000E+00
         0.00000E+00
         0.00000E+00
         0.00000E+00
         0.00000E+00
         0.00000E+00
         0.00000E+00
         0.00000E+00
         0.00000E+00
         0.00000E+00
         0.00000E+00
         0.00000E+00
         0.00000E+00
         0.00000E+00
         0.00000E+00
         0.00000E+00
         0.00000E+00
         0.00000E+00
         0.00000E+00
         0.00000E+00
         0.00000E+00
         0.00000E+00
         0.00000E+00
         0.00000E+00
         0.00000E+00
         0.00000E+00
         0.00000E+00
         0.00000E+00
         0.00000E+00
         0.00000E+00
         0.00000E+00
         0.00000E+00
         0.00000E+00
         0.00000E+00
         0.00000E+00
         0.00000E+00
         0.00000E+00
         0.00000E+00
         0.00000E+00
         0.00000E+00
         0.00000E+00
         0.00000E+00
         0.00000E+00
         0.00000E+00
         0.00000E+00
         0.00000E+00
         0.00000E+00
         0.00000E+00
         0.00000E+00
         0.00000E+00
         0.00000E+00
         0.00000E+00
         0.00000E+00
         0.00000E+00
         0.00000E+00
         0.00000E+00
         0.00000E+00
         0.00000E+00
         0.00000E+00
         0.00000E+00
         0.00000E+00
         0.00000E+00
         0.00000E+00
         0.00000E+00
         0.00000E+00
         0.00000E+00
         0.00000E+00
         0.00000E+00
         0.00000E+00
         0.00000E+00
         0.00000E+00
         0.00000E+00
         0.00000E+00
         0.00000E+00
         0.00000E+00
         0.00000E+00
         0.00000E+00
         0.00000E+00
         0.00000E+00
         0.00000E+00
         0.00000E+00
         0.00000E+00
         0.00000E+00
         0.00000E+00
         0.00000E+00
         0.00000E+00
         0.00000E+00
         0.00000E+00
         0.00000E+00
         0.00000E+00
         0.00000E+00
         0.00000E+00
         0.00000E+00
         0.00000E+00
         0.00000E+00
         0.00000E+00
         0.00000E+00
         0.00000E+00
         0.00000E+00
         0.00000E+00
         0.00000E+00
         0.00000E+00
         0.00000E+00
         0.00000E+00
         0.00000E+00
         0.00000E+00
         0.00000E+00
         0.00000E+00
         0.00000E+00
         0.00000E+00
         0.00000E+00
         0.00000E+00
         0.00000E+00
         0.00000E+00
         0.00000E+00
         0.00000E+00
         0.00000E+00
         0.00000E+00
         0.00000E+00
         0.00000E+00
         0.00000E+00
         0.00000E+00
         0.00000E+00
         0.00000E+00
         0.00000E+00
         0.00000E+00
         0.00000E+00
         0.00000E+00
         0.00000E+00
         0.00000E+00
         0.00000E+00
         0.00000E+00
         0.00000E+00
         0.00000E+00
         0.00000E+00
         0.00000E+00
         0.00000E+00
         0.00000E+00
         0.00000E+00
         0.00000E+00
         0.00000E+00
         0.00000E+00
         0.00000E+00
         0.00000E+00
         0.00000E+00
         0.00000E+00
         0.00000E+00
         0.00000E+00
         0.00000E+00
         0.00000E+00
         0.00000E+00
         0.00000E+00
         0.00000E+00
         0.00000E+00
         0.00000E+00
         0.00000E+00
         0.00000E+00
         0.00000E+00
         0.00000E+00
         0.00000E+00
         0.00000E+00
         0.00000E+00
         0.00000E+00
         0.00000E+00
         0.00000E+00
         0.00000E+00
         0.00000E+00
         0.00000E+00
         0.00000E+00
         0.00000E+00
         0.00000E+00
         0.00000E+00
         0.00000E+00
         0.00000E+00
         0.00000E+00
         0.00000E+00
         0.00000E+00
         0.00000E+00
         0.00000E+00
         0.00000E+00
         0.00000E+00
         0.00000E+00
         0.00000E+00
         0.00000E+00
         0.00000E+00
         0.00000E+00
         0.00000E+00
         0.00000E+00
         0.00000E+00
         0.00000E+00
         0.00000E+00
         0.00000E+00
         0.00000E+00
         0.00000E+00
         0.00000E+00
         0.00000E+00
         0.00000E+00
         0.00000E+00
         0.00000E+00
         0.00000E+00
         0.00000E+00
         0.00000E+00
         0.00000E+00
         0.00000E+00
         0.00000E+00
         0.00000E+00
         0.00000E+00
         0.00000E+00
         0.00000E+00
         0.00000E+00
         0.00000E+00
         0.00000E+00
         0.00000E+00
         0.00000E+00
         0.00000E+00
         0.00000E+00
         0.00000E+00
         0.00000E+00
         0.00000E+00
         0.00000E+00
         0.00000E+00
         0.00000E+00
         0.00000E+00
         0.00000E+00
         0.00000E+00
         0.00000E+00
         0.00000E+00
         0.00000E+00
         0.00000E+00
         0.00000E+00
         0.00000E+00
         0.00000E+00
         0.00000E+00
         0.00000E+00
         0.00000E+00
         0.00000E+00
         0.00000E+00
         0.00000E+00
         0.00000E+00
         0.00000E+00
         0.00000E+00
         0.00000E+00
         0.00000E+00
         0.00000E+00
         0.00000E+00
         0.00000E+00
         0.00000E+00
         0.00000E+00
         0.00000E+00
         0.00000E+00
         0.00000E+00
         0.00000E+00
         0.00000E+00
         0.00000E+00
         0.00000E+00
         0.00000E+00
         0.00000E+00
         0.00000E+00
         0.00000E+00
         0.00000E+00
         0.00000E+00
         0.00000E+00
         0.00000E+00
         0.00000E+00
         0.00000E+00
         0.00000E+00
         0.00000E+00
         0.00000E+00
         0.00000E+00
         0.00000E+00
         0.00000E+00
         0.00000E+00
         0.00000E+00
         0.00000E+00
         0.00000E+00
         0.00000E+00
         0.00000E+00
         0.00000E+00
         0.00000E+00
         0.00000E+00
         0.00000E+00
         0.00000E+00
         0.00000E+00
         0.00000E+00
         0.00000E+00
         0.00000E+00
         0.00000E+00
         0.00000E+00
         0.00000E+00
         0.00000E+00
         0.00000E+00
         0.00000E+00
         0.00000E+00
         0.00000E+00
         0.00000E+00
         0.00000E+00
         0.00000E+00
  
SCALARS           initial_coordinate_x  double 1
LOOKUP_TABLE default
         0.10378E-02
         0.17452E-02
         0.23177E-02
         0.16698E-02
         0.10379E-02
         0.17453E-02
         0.23178E-02
         0.16700E-02
         0.30377E-02
         0.27791E-02
         0.30377E-02
         0.27788E-02
         0.12850E-02
         0.65139E-03
         0.12851E-02
         0.65164E-03
         0.12757E-03
        -0.12822E-03
         0.12783E-03
        -0.12804E-03
         0.94500E-03
         0.11327E-02
         0.17490E-02
         0.94533E-03
         0.11330E-02
         0.17494E-02
         0.40588E-03
         0.39779E-03
         0.40594E-03
         0.39781E-03
        -0.76303E-03
        -0.86604E-03
         0.46119E-03
        -0.76268E-03
        -0.86593E-03
         0.46164E-03
        -0.18300E-02
        -0.18440E-02
        -0.18297E-02
        -0.18441E-02
        -0.27238E-02
        -0.28028E-02
        -0.27238E-02
        -0.28031E-02
        -0.25365E-02
        -0.19287E-02
        -0.25363E-02
        -0.19283E-02
        -0.99363E-03
        -0.99377E-03
        -0.14380E-02
        -0.14377E-02
        -0.31574E-03
        -0.31594E-03
        -0.11068E-02
        -0.11071E-02
        -0.18845E-02
        -0.18713E-02
        -0.18846E-02
        -0.18714E-02
        -0.15871E-03
        -0.94089E-03
        -0.15844E-03
        -0.94029E-03
         0.78856E-03
         0.78922E-03
         0.17211E-02
         0.17211E-02
         0.32050E-02
         0.28046E-02
         0.32047E-02
         0.28047E-02
         0.23059E-02
         0.23060E-02
        -0.40614E-03
        -0.40627E-03
        -0.12092E-02
        -0.12092E-02
        -0.19448E-02
        -0.19448E-02
        -0.25029E-02
        -0.26371E-02
        -0.25029E-02
        -0.26372E-02
        -0.27671E-02
        -0.27674E-02
        -0.21123E-02
        -0.21122E-02
        -0.16087E-02
        -0.16087E-02
        -0.11939E-02
        -0.58641E-03
        -0.11937E-02
        -0.58606E-03
         0.20912E-03
         0.20952E-03
         0.10586E-02
         0.10589E-02
         0.18413E-02
         0.18413E-02
         0.24544E-02
         0.26022E-02
         0.24543E-02
         0.26021E-02
         0.37964E-02
         0.39100E-02
         0.37964E-02
         0.39100E-02
         0.34621E-02
         0.34621E-02
         0.29267E-02
         0.29267E-02
         0.22211E-02
         0.22211E-02
         0.13865E-02
         0.13865E-02
         0.47130E-03
         0.47130E-03
        -0.47130E-03
        -0.47130E-03
        -0.13865E-02
        -0.13865E-02
        -0.22211E-02
        -0.22211E-02
        -0.29267E-02
        -0.29267E-02
        -0.34621E-02
        -0.34621E-02
        -0.37964E-02
        -0.37964E-02
        -0.39100E-02
        -0.39100E-02
        -0.37964E-02
        -0.37964E-02
        -0.34621E-02
        -0.34621E-02
        -0.29267E-02
        -0.29267E-02
        -0.22211E-02
        -0.22211E-02
        -0.13865E-02
        -0.13865E-02
        -0.47130E-03
        -0.47130E-03
         0.47130E-03
         0.47130E-03
         0.13865E-02
         0.13865E-02
         0.22211E-02
         0.22211E-02
         0.29267E-02
         0.29267E-02
         0.34621E-02
         0.34621E-02
         0.37964E-02
         0.37964E-02
         0.10376E-02
         0.17450E-02
         0.23175E-02
         0.16696E-02
         0.30377E-02
         0.27795E-02
         0.12849E-02
         0.65115E-03
         0.12731E-03
        -0.12841E-03
         0.94467E-03
         0.11323E-02
         0.17487E-02
         0.40583E-03
         0.39777E-03
        -0.76338E-03
        -0.86615E-03
         0.46074E-03
        -0.18303E-02
        -0.18439E-02
        -0.27238E-02
        -0.28025E-02
        -0.25366E-02
        -0.19292E-02
        -0.99349E-03
        -0.14384E-02
        -0.31554E-03
        -0.11064E-02
        -0.18845E-02
        -0.18712E-02
        -0.15899E-03
        -0.94149E-03
         0.78790E-03
         0.17210E-02
         0.32053E-02
         0.28046E-02
         0.23058E-02
        -0.40600E-03
        -0.12092E-02
        -0.19447E-02
        -0.25028E-02
        -0.26370E-02
        -0.27668E-02
        -0.21125E-02
        -0.16088E-02
        -0.11940E-02
        -0.58676E-03
         0.20871E-03
         0.10583E-02
         0.18413E-02
         0.24545E-02
         0.26022E-02
         0.37964E-02
         0.39100E-02
         0.34621E-02
         0.29267E-02
         0.22211E-02
         0.13865E-02
         0.47130E-03
        -0.47130E-03
        -0.13865E-02
        -0.22211E-02
        -0.29267E-02
        -0.34621E-02
        -0.37964E-02
        -0.39100E-02
        -0.37964E-02
        -0.34621E-02
        -0.29267E-02
        -0.22211E-02
        -0.13865E-02
        -0.47130E-03
         0.47130E-03
         0.13865E-02
         0.22211E-02
         0.29267E-02
         0.34621E-02
         0.37964E-02
         0.10375E-02
         0.17448E-02
         0.23174E-02
         0.16694E-02
         0.30377E-02
         0.27798E-02
         0.12848E-02
         0.65090E-03
         0.12705E-03
        -0.12859E-03
         0.94434E-03
         0.11320E-02
         0.17483E-02
         0.40577E-03
         0.39776E-03
        -0.76374E-03
        -0.86626E-03
         0.46029E-03
        -0.18306E-02
        -0.18438E-02
        -0.27238E-02
        -0.28022E-02
        -0.25368E-02
        -0.19296E-02
        -0.99334E-03
        -0.14387E-02
        -0.31534E-03
        -0.11061E-02
        -0.18844E-02
        -0.18710E-02
        -0.15926E-03
        -0.94209E-03
         0.78724E-03
         0.17210E-02
         0.32056E-02
         0.28046E-02
         0.23057E-02
        -0.40586E-03
        -0.12092E-02
        -0.19447E-02
        -0.25028E-02
        -0.26369E-02
        -0.27665E-02
        -0.21126E-02
        -0.16088E-02
        -0.11941E-02
        -0.58711E-03
         0.20830E-03
         0.10580E-02
         0.18414E-02
         0.24546E-02
         0.26023E-02
         0.37964E-02
         0.39100E-02
         0.34621E-02
         0.29267E-02
         0.22211E-02
         0.13865E-02
         0.47130E-03
        -0.47130E-03
        -0.13865E-02
        -0.22211E-02
        -0.29267E-02
        -0.34621E-02
        -0.37964E-02
        -0.39100E-02
        -0.37964E-02
        -0.34621E-02
        -0.29267E-02
        -0.22211E-02
        -0.13865E-02
        -0.47130E-03
         0.47130E-03
         0.13865E-02
         0.22211E-02
         0.29267E-02
         0.34621E-02
         0.37964E-02
         0.10374E-02
         0.17446E-02
         0.23173E-02
         0.16692E-02
         0.30376E-02
         0.27801E-02
         0.12847E-02
         0.65065E-03
         0.12678E-03
        -0.12878E-03
         0.94401E-03
         0.11316E-02
         0.17479E-02
         0.40572E-03
         0.39774E-03
        -0.76409E-03
        -0.86637E-03
         0.45985E-03
        -0.18309E-02
        -0.18437E-02
        -0.27237E-02
        -0.28020E-02
        -0.25369E-02
        -0.19300E-02
        -0.99320E-03
        -0.14391E-02
        -0.31514E-03
        -0.11057E-02
        -0.18844E-02
        -0.18709E-02
        -0.15954E-03
        -0.94269E-03
         0.78658E-03
         0.17209E-02
         0.32060E-02
         0.28046E-02
         0.23056E-02
        -0.40572E-03
        -0.12092E-02
        -0.19446E-02
        -0.25028E-02
        -0.26368E-02
        -0.27662E-02
        -0.21128E-02
        -0.16088E-02
        -0.11942E-02
        -0.58746E-03
         0.20790E-03
         0.10577E-02
         0.18414E-02
         0.24548E-02
         0.26024E-02
         0.37964E-02
         0.39100E-02
         0.34621E-02
         0.29267E-02
         0.22211E-02
         0.13865E-02
         0.47130E-03
        -0.47130E-03
        -0.13865E-02
        -0.22211E-02
        -0.29267E-02
        -0.34621E-02
        -0.37964E-02
        -0.39100E-02
        -0.37964E-02
        -0.34621E-02
        -0.29267E-02
        -0.22211E-02
        -0.13865E-02
        -0.47130E-03
         0.47130E-03
         0.13865E-02
         0.22211E-02
         0.29267E-02
         0.34621E-02
         0.37964E-02
         0.10373E-02
         0.17445E-02
         0.23172E-02
         0.16689E-02
         0.30376E-02
         0.27805E-02
         0.12846E-02
         0.65041E-03
         0.12652E-03
        -0.12896E-03
         0.94367E-03
         0.11313E-02
         0.17475E-02
         0.40566E-03
         0.39772E-03
        -0.76444E-03
        -0.86648E-03
         0.45940E-03
        -0.18312E-02
        -0.18436E-02
        -0.27237E-02
        -0.28017E-02
        -0.25371E-02
        -0.19305E-02
        -0.99305E-03
        -0.14394E-02
        -0.31494E-03
        -0.11054E-02
        -0.18843E-02
        -0.18708E-02
        -0.15981E-03
        -0.94328E-03
         0.78592E-03
         0.17209E-02
         0.32063E-02
         0.28045E-02
         0.23055E-02
        -0.40558E-03
        -0.12092E-02
        -0.19446E-02
        -0.25027E-02
        -0.26367E-02
        -0.27658E-02
        -0.21129E-02
        -0.16089E-02
        -0.11943E-02
        -0.58781E-03
         0.20749E-03
         0.10574E-02
         0.18415E-02
         0.24549E-02
         0.26025E-02
         0.37964E-02
         0.39100E-02
         0.34621E-02
         0.29267E-02
         0.22211E-02
         0.13865E-02
         0.47130E-03
        -0.47130E-03
        -0.13865E-02
        -0.22211E-02
        -0.29267E-02
        -0.34621E-02
        -0.37964E-02
        -0.39100E-02
        -0.37964E-02
        -0.34621E-02
        -0.29267E-02
        -0.22211E-02
        -0.13865E-02
        -0.47130E-03
         0.47130E-03
         0.13865E-02
         0.22211E-02
         0.29267E-02
         0.34621E-02
         0.37964E-02
         0.10372E-02
         0.17443E-02
         0.23171E-02
         0.16687E-02
         0.30376E-02
         0.27808E-02
         0.12845E-02
         0.65016E-03
         0.12626E-03
        -0.12915E-03
         0.94334E-03
         0.11310E-02
         0.17471E-02
         0.40561E-03
         0.39770E-03
        -0.76480E-03
        -0.86659E-03
         0.45895E-03
        -0.18315E-02
        -0.18435E-02
        -0.27237E-02
        -0.28014E-02
        -0.25372E-02
        -0.19309E-02
        -0.99291E-03
        -0.14398E-02
        -0.31474E-03
        -0.11051E-02
        -0.18843E-02
        -0.18706E-02
        -0.16009E-03
        -0.94388E-03
         0.78526E-03
         0.17208E-02
         0.32066E-02
         0.28045E-02
         0.23053E-02
        -0.40545E-03
        -0.12092E-02
        -0.19446E-02
        -0.25027E-02
        -0.26366E-02
        -0.27655E-02
        -0.21130E-02
        -0.16089E-02
        -0.11944E-02
        -0.58816E-03
         0.20709E-03
         0.10571E-02
         0.18415E-02
         0.24550E-02
         0.26025E-02
         0.37964E-02
         0.39100E-02
         0.34621E-02
         0.29267E-02
         0.22211E-02
         0.13865E-02
         0.47130E-03
        -0.47130E-03
        -0.13865E-02
        -0.22211E-02
        -0.29267E-02
        -0.34621E-02
        -0.37964E-02
        -0.39100E-02
        -0.37964E-02
        -0.34621E-02
        -0.29267E-02
        -0.22211E-02
        -0.13865E-02
        -0.47130E-03
         0.47130E-03
         0.13865E-02
         0.22211E-02
         0.29267E-02
         0.34621E-02
         0.37964E-02
         0.10371E-02
         0.17441E-02
         0.23169E-02
         0.16685E-02
         0.30376E-02
         0.27812E-02
         0.12844E-02
         0.64992E-03
         0.12600E-03
        -0.12933E-03
         0.94301E-03
         0.11306E-02
         0.17467E-02
         0.40556E-03
         0.39769E-03
        -0.76515E-03
        -0.86670E-03
         0.45850E-03
        -0.18318E-02
        -0.18434E-02
        -0.27236E-02
        -0.28011E-02
        -0.25374E-02
        -0.19313E-02
        -0.99277E-03
        -0.14401E-02
        -0.31454E-03
        -0.11047E-02
        -0.18842E-02
        -0.18705E-02
        -0.16036E-03
        -0.94448E-03
         0.78460E-03
         0.17208E-02
         0.32070E-02
         0.28045E-02
         0.23052E-02
        -0.40531E-03
        -0.12092E-02
        -0.19445E-02
        -0.25027E-02
        -0.26366E-02
        -0.27652E-02
        -0.21132E-02
        -0.16090E-02
        -0.11946E-02
        -0.58851E-03
         0.20668E-03
         0.10567E-02
         0.18416E-02
         0.24551E-02
         0.26026E-02
         0.37964E-02
         0.39100E-02
         0.34621E-02
         0.29267E-02
         0.22211E-02
         0.13865E-02
         0.47130E-03
        -0.47130E-03
        -0.13865E-02
        -0.22211E-02
        -0.29267E-02
        -0.34621E-02
        -0.37964E-02
        -0.39100E-02
        -0.37964E-02
        -0.34621E-02
        -0.29267E-02
        -0.22211E-02
        -0.13865E-02
        -0.47130E-03
         0.47130E-03
         0.13865E-02
         0.22211E-02
         0.29267E-02
         0.34621E-02
         0.37964E-02
         0.10370E-02
         0.17439E-02
         0.23168E-02
         0.16683E-02
         0.30375E-02
         0.27815E-02
         0.12843E-02
         0.64967E-03
         0.12573E-03
        -0.12952E-03
         0.94268E-03
         0.11303E-02
         0.17463E-02
         0.40550E-03
         0.39767E-03
        -0.76551E-03
        -0.86680E-03
         0.45806E-03
        -0.18321E-02
        -0.18433E-02
        -0.27236E-02
        -0.28009E-02
        -0.25375E-02
        -0.19317E-02
        -0.99262E-03
        -0.14405E-02
        -0.31434E-03
        -0.11044E-02
        -0.18842E-02
        -0.18704E-02
        -0.16064E-03
        -0.94508E-03
         0.78394E-03
         0.17208E-02
         0.32073E-02
         0.28045E-02
         0.23051E-02
        -0.40517E-03
        -0.12092E-02
        -0.19445E-02
        -0.25026E-02
        -0.26365E-02
        -0.27649E-02
        -0.21133E-02
        -0.16090E-02
        -0.11947E-02
        -0.58886E-03
         0.20627E-03
         0.10564E-02
         0.18416E-02
         0.24553E-02
         0.26027E-02
         0.37964E-02
         0.39100E-02
         0.34621E-02
         0.29267E-02
         0.22211E-02
         0.13865E-02
         0.47130E-03
        -0.47130E-03
        -0.13865E-02
        -0.22211E-02
        -0.29267E-02
        -0.34621E-02
        -0.37964E-02
        -0.39100E-02
        -0.37964E-02
        -0.34621E-02
        -0.29267E-02
        -0.22211E-02
        -0.13865E-02
        -0.47130E-03
         0.47130E-03
         0.13865E-02
         0.22211E-02
         0.29267E-02
         0.34621E-02
         0.37964E-02
         0.10368E-02
         0.17438E-02
         0.23167E-02
         0.16681E-02
         0.30375E-02
         0.27819E-02
         0.12842E-02
         0.64943E-03
         0.12547E-03
        -0.12970E-03
         0.94235E-03
         0.11300E-02
         0.17459E-02
         0.40545E-03
         0.39766E-03
        -0.76586E-03
        -0.86691E-03
         0.45761E-03
        -0.18324E-02
        -0.18432E-02
        -0.27236E-02
        -0.28006E-02
        -0.25377E-02
        -0.19322E-02
        -0.99248E-03
        -0.14408E-02
        -0.31414E-03
        -0.11040E-02
        -0.18841E-02
        -0.18703E-02
        -0.16091E-03
        -0.94568E-03
         0.78328E-03
         0.17207E-02
         0.32076E-02
         0.28044E-02
         0.23050E-02
        -0.40503E-03
        -0.12092E-02
        -0.19445E-02
        -0.25026E-02
        -0.26364E-02
        -0.27646E-02
        -0.21134E-02
        -0.16091E-02
        -0.11948E-02
        -0.58921E-03
         0.20587E-03
         0.10561E-02
         0.18416E-02
         0.24554E-02
         0.26027E-02
         0.37964E-02
         0.39100E-02
         0.34621E-02
         0.29267E-02
         0.22211E-02
         0.13865E-02
         0.47130E-03
        -0.47130E-03
        -0.13865E-02
        -0.22211E-02
        -0.29267E-02
        -0.34621E-02
        -0.37964E-02
        -0.39100E-02
        -0.37964E-02
        -0.34621E-02
        -0.29267E-02
        -0.22211E-02
        -0.13865E-02
        -0.47130E-03
         0.47130E-03
         0.13865E-02
         0.22211E-02
         0.29267E-02
         0.34621E-02
         0.37964E-02
         0.10367E-02
         0.17436E-02
         0.23166E-02
         0.16679E-02
         0.30375E-02
         0.27822E-02
         0.12841E-02
         0.64918E-03
         0.12521E-03
        -0.12989E-03
         0.94202E-03
         0.11296E-02
         0.17455E-02
         0.40539E-03
         0.39764E-03
        -0.76621E-03
        -0.86702E-03
         0.45716E-03
        -0.18326E-02
        -0.18431E-02
        -0.27235E-02
        -0.28003E-02
        -0.25379E-02
        -0.19326E-02
        -0.99233E-03
        -0.14412E-02
        -0.31394E-03
        -0.11037E-02
        -0.18841E-02
        -0.18701E-02
        -0.16119E-03
        -0.94628E-03
         0.78262E-03
         0.17207E-02
         0.32079E-02
         0.28044E-02
         0.23049E-02
        -0.40490E-03
        -0.12093E-02
        -0.19444E-02
        -0.25026E-02
        -0.26363E-02
        -0.27643E-02
        -0.21136E-02
        -0.16091E-02
        -0.11949E-02
        -0.58956E-03
         0.20546E-03
         0.10558E-02
         0.18417E-02
         0.24555E-02
         0.26028E-02
         0.37964E-02
         0.39100E-02
         0.34621E-02
         0.29267E-02
         0.22211E-02
         0.13865E-02
         0.47130E-03
        -0.47130E-03
        -0.13865E-02
        -0.22211E-02
        -0.29267E-02
        -0.34621E-02
        -0.37964E-02
        -0.39100E-02
        -0.37964E-02
        -0.34621E-02
        -0.29267E-02
        -0.22211E-02
        -0.13865E-02
        -0.47130E-03
         0.47130E-03
         0.13865E-02
         0.22211E-02
         0.29267E-02
         0.34621E-02
         0.37964E-02
         0.10366E-02
         0.17434E-02
         0.23164E-02
         0.16677E-02
         0.30375E-02
         0.27825E-02
         0.12840E-02
         0.64894E-03
         0.12495E-03
        -0.13007E-03
         0.94169E-03
         0.11293E-02
         0.17451E-02
         0.40534E-03
         0.39762E-03
        -0.76657E-03
        -0.86713E-03
         0.45671E-03
        -0.18329E-02
        -0.18430E-02
        -0.27235E-02
        -0.28001E-02
        -0.25380E-02
        -0.19330E-02
        -0.99219E-03
        -0.14415E-02
        -0.31374E-03
        -0.11033E-02
        -0.18840E-02
        -0.18700E-02
        -0.16146E-03
        -0.94687E-03
         0.78195E-03
         0.17207E-02
         0.32083E-02
         0.28044E-02
         0.23048E-02
        -0.40476E-03
        -0.12093E-02
        -0.19444E-02
        -0.25026E-02
        -0.26362E-02
        -0.27640E-02
        -0.21137E-02
        -0.16091E-02
        -0.11950E-02
        -0.58991E-03
         0.20505E-03
         0.10555E-02
         0.18417E-02
         0.24556E-02
         0.26029E-02
         0.37964E-02
         0.39100E-02
         0.34621E-02
         0.29267E-02
         0.22211E-02
         0.13865E-02
         0.47130E-03
        -0.47130E-03
        -0.13865E-02
        -0.22211E-02
        -0.29267E-02
        -0.34621E-02
        -0.37964E-02
        -0.39100E-02
        -0.37964E-02
        -0.34621E-02
        -0.29267E-02
        -0.22211E-02
        -0.13865E-02
        -0.47130E-03
         0.47130E-03
         0.13865E-02
         0.22211E-02
         0.29267E-02
         0.34621E-02
         0.37964E-02
         0.10365E-02
         0.17432E-02
         0.23163E-02
         0.16675E-02
         0.30374E-02
         0.27829E-02
         0.12839E-02
         0.64869E-03
         0.12468E-03
        -0.13026E-03
         0.94135E-03
         0.11289E-02
         0.17447E-02
         0.40528E-03
         0.39760E-03
        -0.76692E-03
        -0.86724E-03
         0.45626E-03
        -0.18332E-02
        -0.18430E-02
        -0.27235E-02
        -0.27998E-02
        -0.25382E-02
        -0.19334E-02
        -0.99205E-03
        -0.14419E-02
        -0.31354E-03
        -0.11030E-02
        -0.18840E-02
        -0.18699E-02
        -0.16174E-03
        -0.94747E-03
         0.78129E-03
         0.17206E-02
         0.32086E-02
         0.28044E-02
         0.23047E-02
        -0.40462E-03
        -0.12093E-02
        -0.19444E-02
        -0.25025E-02
        -0.26361E-02
        -0.27637E-02
        -0.21139E-02
        -0.16092E-02
        -0.11951E-02
        -0.59025E-03
         0.20465E-03
         0.10552E-02
         0.18418E-02
         0.24558E-02
         0.26030E-02
         0.37964E-02
         0.39100E-02
         0.34621E-02
         0.29267E-02
         0.22211E-02
         0.13865E-02
         0.47130E-03
        -0.47130E-03
        -0.13865E-02
        -0.22211E-02
        -0.29267E-02
        -0.34621E-02
        -0.37964E-02
        -0.39100E-02
        -0.37964E-02
        -0.34621E-02
        -0.29267E-02
        -0.22211E-02
        -0.13865E-02
        -0.47130E-03
         0.47130E-03
         0.13865E-02
         0.22211E-02
         0.29267E-02
         0.34621E-02
         0.37964E-02
         0.10364E-02
         0.17430E-02
         0.23162E-02
         0.16672E-02
         0.30374E-02
         0.27832E-02
         0.12838E-02
         0.64845E-03
         0.12442E-03
        -0.13044E-03
         0.94102E-03
         0.11286E-02
         0.17443E-02
         0.40523E-03
         0.39759E-03
        -0.76727E-03
        -0.86735E-03
         0.45582E-03
        -0.18335E-02
        -0.18429E-02
        -0.27235E-02
        -0.27995E-02
        -0.25383E-02
        -0.19339E-02
        -0.99190E-03
        -0.14422E-02
        -0.31334E-03
        -0.11026E-02
        -0.18839E-02
        -0.18697E-02
        -0.16201E-03
        -0.94807E-03
         0.78063E-03
         0.17206E-02
         0.32089E-02
         0.28043E-02
         0.23046E-02
        -0.40448E-03
        -0.12093E-02
        -0.19443E-02
        -0.25025E-02
        -0.26360E-02
        -0.27633E-02
        -0.21140E-02
        -0.16092E-02
        -0.11953E-02
        -0.59060E-03
         0.20424E-03
         0.10549E-02
         0.18418E-02
         0.24559E-02
         0.26030E-02
         0.37964E-02
         0.39100E-02
         0.34621E-02
         0.29267E-02
         0.22211E-02
         0.13865E-02
         0.47130E-03
        -0.47130E-03
        -0.13865E-02
        -0.22211E-02
        -0.29267E-02
        -0.34621E-02
        -0.37964E-02
        -0.39100E-02
        -0.37964E-02
        -0.34621E-02
        -0.29267E-02
        -0.22211E-02
        -0.13865E-02
        -0.47130E-03
         0.47130E-03
         0.13865E-02
         0.22211E-02
         0.29267E-02
         0.34621E-02
         0.37964E-02
         0.10363E-02
         0.17429E-02
         0.23161E-02
         0.16670E-02
         0.30374E-02
         0.27836E-02
         0.12837E-02
         0.64820E-03
         0.12416E-03
        -0.13063E-03
         0.94069E-03
         0.11282E-02
         0.17439E-02
         0.40518E-03
         0.39757E-03
        -0.76763E-03
        -0.86746E-03
         0.45537E-03
        -0.18338E-02
        -0.18428E-02
        -0.27234E-02
        -0.27992E-02
        -0.25385E-02
        -0.19343E-02
        -0.99176E-03
        -0.14425E-02
        -0.31314E-03
        -0.11023E-02
        -0.18839E-02
        -0.18696E-02
        -0.16229E-03
        -0.94867E-03
         0.77997E-03
         0.17205E-02
         0.32092E-02
         0.28043E-02
         0.23044E-02
        -0.40434E-03
        -0.12093E-02
        -0.19443E-02
        -0.25025E-02
        -0.26359E-02
        -0.27630E-02
        -0.21141E-02
        -0.16093E-02
        -0.11954E-02
        -0.59095E-03
         0.20384E-03
         0.10546E-02
         0.18419E-02
         0.24560E-02
         0.26031E-02
         0.37964E-02
         0.39100E-02
         0.34621E-02
         0.29267E-02
         0.22211E-02
         0.13865E-02
         0.47130E-03
        -0.47130E-03
        -0.13865E-02
        -0.22211E-02
        -0.29267E-02
        -0.34621E-02
        -0.37964E-02
        -0.39100E-02
        -0.37964E-02
        -0.34621E-02
        -0.29267E-02
        -0.22211E-02
        -0.13865E-02
        -0.47130E-03
         0.47130E-03
         0.13865E-02
         0.22211E-02
         0.29267E-02
         0.34621E-02
         0.37964E-02
         0.10362E-02
         0.17427E-02
         0.23160E-02
         0.16668E-02
         0.30373E-02
         0.27839E-02
         0.12836E-02
         0.64796E-03
         0.12390E-03
        -0.13082E-03
         0.94036E-03
         0.11279E-02
         0.17435E-02
         0.40512E-03
         0.39755E-03
        -0.76798E-03
        -0.86756E-03
         0.45492E-03
        -0.18341E-02
        -0.18427E-02
        -0.27234E-02
        -0.27990E-02
        -0.25386E-02
        -0.19347E-02
        -0.99161E-03
        -0.14429E-02
        -0.31294E-03
        -0.11019E-02
        -0.18838E-02
        -0.18695E-02
        -0.16256E-03
        -0.94927E-03
         0.77931E-03
         0.17205E-02
         0.32096E-02
         0.28043E-02
         0.23043E-02
        -0.40420E-03
        -0.12093E-02
        -0.19443E-02
        -0.25024E-02
        -0.26358E-02
        -0.27627E-02
        -0.21143E-02
        -0.16093E-02
        -0.11955E-02
        -0.59130E-03
         0.20343E-03
         0.10543E-02
         0.18419E-02
         0.24561E-02
         0.26032E-02
         0.37964E-02
         0.39100E-02
         0.34621E-02
         0.29267E-02
         0.22211E-02
         0.13865E-02
         0.47130E-03
        -0.47130E-03
        -0.13865E-02
        -0.22211E-02
        -0.29267E-02
        -0.34621E-02
        -0.37964E-02
        -0.39100E-02
        -0.37964E-02
        -0.34621E-02
        -0.29267E-02
        -0.22211E-02
        -0.13865E-02
        -0.47130E-03
         0.47130E-03
         0.13865E-02
         0.22211E-02
         0.29267E-02
         0.34621E-02
         0.37964E-02
         0.10360E-02
         0.17425E-02
         0.23158E-02
         0.16666E-02
         0.30373E-02
         0.27842E-02
         0.12835E-02
         0.64771E-03
         0.12363E-03
        -0.13100E-03
         0.94003E-03
         0.11276E-02
         0.17432E-02
         0.40507E-03
         0.39754E-03
        -0.76834E-03
        -0.86767E-03
         0.45447E-03
        -0.18344E-02
        -0.18426E-02
        -0.27234E-02
        -0.27987E-02
        -0.25388E-02
        -0.19352E-02
        -0.99147E-03
        -0.14433E-02
        -0.31274E-03
        -0.11016E-02
        -0.18838E-02
        -0.18694E-02
        -0.16284E-03
        -0.94986E-03
         0.77865E-03
         0.17205E-02
         0.32099E-02
         0.28042E-02
         0.23042E-02
        -0.40407E-03
        -0.12093E-02
        -0.19442E-02
        -0.25024E-02
        -0.26358E-02
        -0.27624E-02
        -0.21144E-02
        -0.16094E-02
        -0.11956E-02
        -0.59165E-03
         0.20302E-03
         0.10540E-02
         0.18419E-02
         0.24563E-02
         0.26033E-02
         0.37964E-02
         0.39100E-02
         0.34621E-02
         0.29267E-02
         0.22211E-02
         0.13865E-02
         0.47130E-03
        -0.47130E-03
        -0.13865E-02
        -0.22211E-02
        -0.29267E-02
        -0.34621E-02
        -0.37964E-02
        -0.39100E-02
        -0.37964E-02
        -0.34621E-02
        -0.29267E-02
        -0.22211E-02
        -0.13865E-02
        -0.47130E-03
         0.47130E-03
         0.13865E-02
         0.22211E-02
         0.29267E-02
         0.34621E-02
         0.37964E-02
         0.10359E-02
         0.17423E-02
         0.23157E-02
         0.16664E-02
         0.30373E-02
         0.27846E-02
         0.12834E-02
         0.64747E-03
         0.12337E-03
        -0.13118E-03
         0.93970E-03
         0.11272E-02
         0.17428E-02
         0.40501E-03
         0.39752E-03
        -0.76869E-03
        -0.86778E-03
         0.45402E-03
        -0.18347E-02
        -0.18425E-02
        -0.27234E-02
        -0.27984E-02
        -0.25389E-02
        -0.19356E-02
        -0.99133E-03
        -0.14436E-02
        -0.31254E-03
        -0.11013E-02
        -0.18837E-02
        -0.18692E-02
        -0.16311E-03
        -0.95046E-03
         0.77799E-03
         0.17204E-02
         0.32102E-02
         0.28042E-02
         0.23041E-02
        -0.40393E-03
        -0.12093E-02
        -0.19442E-02
        -0.25024E-02
        -0.26357E-02
        -0.27621E-02
        -0.21146E-02
        -0.16094E-02
        -0.11957E-02
        -0.59200E-03
         0.20262E-03
         0.10536E-02
         0.18420E-02
         0.24564E-02
         0.26033E-02
         0.37964E-02
         0.39100E-02
         0.34621E-02
         0.29267E-02
         0.22211E-02
         0.13865E-02
         0.47130E-03
        -0.47130E-03
        -0.13865E-02
        -0.22211E-02
        -0.29267E-02
        -0.34621E-02
        -0.37964E-02
        -0.39100E-02
        -0.37964E-02
        -0.34621E-02
        -0.29267E-02
        -0.22211E-02
        -0.13865E-02
        -0.47130E-03
         0.47130E-03
         0.13865E-02
         0.22211E-02
         0.29267E-02
         0.34621E-02
         0.37964E-02
         0.10358E-02
         0.17422E-02
         0.23156E-02
         0.16662E-02
         0.30373E-02
         0.27849E-02
         0.12833E-02
         0.64722E-03
         0.12311E-03
        -0.13137E-03
         0.93937E-03
         0.11269E-02
         0.17424E-02
         0.40496E-03
         0.39750E-03
        -0.76904E-03
        -0.86789E-03
         0.45358E-03
        -0.18350E-02
        -0.18424E-02
        -0.27233E-02
        -0.27981E-02
        -0.25391E-02
        -0.19360E-02
        -0.99118E-03
        -0.14440E-02
        -0.31234E-03
        -0.11009E-02
        -0.18836E-02
        -0.18691E-02
        -0.16339E-03
        -0.95106E-03
         0.77733E-03
         0.17204E-02
         0.32105E-02
         0.28042E-02
         0.23040E-02
        -0.40379E-03
        -0.12093E-02
        -0.19441E-02
        -0.25023E-02
        -0.26356E-02
        -0.27618E-02
        -0.21147E-02
        -0.16094E-02
        -0.11958E-02
        -0.59235E-03
         0.20221E-03
         0.10533E-02
         0.18420E-02
         0.24565E-02
         0.26034E-02
         0.37964E-02
         0.39100E-02
         0.34621E-02
         0.29267E-02
         0.22211E-02
         0.13865E-02
         0.47130E-03
        -0.47130E-03
        -0.13865E-02
        -0.22211E-02
        -0.29267E-02
        -0.34621E-02
        -0.37964E-02
        -0.39100E-02
        -0.37964E-02
        -0.34621E-02
        -0.29267E-02
        -0.22211E-02
        -0.13865E-02
        -0.47130E-03
         0.47130E-03
         0.13865E-02
         0.22211E-02
         0.29267E-02
         0.34621E-02
         0.37964E-02
         0.10357E-02
         0.17420E-02
         0.23155E-02
         0.16660E-02
         0.30372E-02
         0.27853E-02
         0.12832E-02
         0.64698E-03
         0.12285E-03
        -0.13155E-03
         0.93903E-03
         0.11266E-02
         0.17420E-02
         0.40490E-03
         0.39749E-03
        -0.76940E-03
        -0.86800E-03
         0.45313E-03
        -0.18353E-02
        -0.18423E-02
        -0.27233E-02
        -0.27979E-02
        -0.25393E-02
        -0.19365E-02
        -0.99104E-03
        -0.14443E-02
        -0.31214E-03
        -0.11006E-02
        -0.18836E-02
        -0.18690E-02
        -0.16366E-03
        -0.95166E-03
         0.77667E-03
         0.17203E-02
         0.32109E-02
         0.28042E-02
         0.23039E-02
        -0.40365E-03
        -0.12093E-02
        -0.19441E-02
        -0.25023E-02
        -0.26355E-02
        -0.27615E-02
        -0.21148E-02
        -0.16095E-02
        -0.11960E-02
        -0.59270E-03
         0.20180E-03
         0.10530E-02
         0.18421E-02
         0.24566E-02
         0.26035E-02
         0.37964E-02
         0.39100E-02
         0.34621E-02
         0.29267E-02
         0.22211E-02
         0.13865E-02
         0.47130E-03
        -0.47130E-03
        -0.13865E-02
        -0.22211E-02
        -0.29267E-02
        -0.34621E-02
        -0.37964E-02
        -0.39100E-02
        -0.37964E-02
        -0.34621E-02
        -0.29267E-02
        -0.22211E-02
        -0.13865E-02
        -0.47130E-03
         0.47130E-03
         0.13865E-02
         0.22211E-02
         0.29267E-02
         0.34621E-02
         0.37964E-02
         0.10356E-02
         0.17418E-02
         0.23153E-02
         0.16657E-02
         0.30372E-02
         0.27856E-02
         0.12830E-02
         0.64673E-03
         0.12259E-03
        -0.13174E-03
         0.93870E-03
         0.11262E-02
         0.17416E-02
         0.40485E-03
         0.39747E-03
        -0.76975E-03
        -0.86811E-03
         0.45268E-03
        -0.18356E-02
        -0.18422E-02
        -0.27233E-02
        -0.27976E-02
        -0.25394E-02
        -0.19369E-02
        -0.99090E-03
        -0.14446E-02
        -0.31194E-03
        -0.11002E-02
        -0.18835E-02
        -0.18689E-02
        -0.16394E-03
        -0.95226E-03
         0.77601E-03
         0.17203E-02
         0.32112E-02
         0.28042E-02
         0.23038E-02
        -0.40352E-03
        -0.12093E-02
        -0.19441E-02
        -0.25023E-02
        -0.26354E-02
        -0.27612E-02
        -0.21150E-02
        -0.16095E-02
        -0.11961E-02
        -0.59305E-03
         0.20140E-03
         0.10527E-02
         0.18421E-02
         0.24568E-02
         0.26036E-02
         0.37964E-02
         0.39100E-02
         0.34621E-02
         0.29267E-02
         0.22211E-02
         0.13865E-02
         0.47130E-03
        -0.47130E-03
        -0.13865E-02
        -0.22211E-02
        -0.29267E-02
        -0.34621E-02
        -0.37964E-02
        -0.39100E-02
        -0.37964E-02
        -0.34621E-02
        -0.29267E-02
        -0.22211E-02
        -0.13865E-02
        -0.47130E-03
         0.47130E-03
         0.13865E-02
         0.22211E-02
         0.29267E-02
         0.34621E-02
         0.37964E-02
         0.10355E-02
         0.17416E-02
         0.23152E-02
         0.16655E-02
         0.30372E-02
         0.27860E-02
         0.12829E-02
         0.64649E-03
         0.12232E-03
        -0.13193E-03
         0.93837E-03
         0.11259E-02
         0.17412E-02
         0.40480E-03
         0.39745E-03
        -0.77011E-03
        -0.86822E-03
         0.45223E-03
        -0.18359E-02
        -0.18421E-02
        -0.27232E-02
        -0.27973E-02
        -0.25396E-02
        -0.19373E-02
        -0.99075E-03
        -0.14450E-02
        -0.31173E-03
        -0.10999E-02
        -0.18835E-02
        -0.18687E-02
        -0.16421E-03
        -0.95285E-03
         0.77535E-03
         0.17202E-02
         0.32115E-02
         0.28041E-02
         0.23037E-02
        -0.40338E-03
        -0.12093E-02
        -0.19440E-02
        -0.25023E-02
        -0.26353E-02
        -0.27609E-02
        -0.21151E-02
        -0.16096E-02
        -0.11962E-02
        -0.59340E-03
         0.20099E-03
         0.10524E-02
         0.18422E-02
         0.24569E-02
         0.26036E-02
         0.37964E-02
         0.39100E-02
         0.34621E-02
         0.29267E-02
         0.22211E-02
         0.13865E-02
         0.47130E-03
        -0.47130E-03
        -0.13865E-02
        -0.22211E-02
        -0.29267E-02
        -0.34621E-02
        -0.37964E-02
        -0.39100E-02
        -0.37964E-02
        -0.34621E-02
        -0.29267E-02
        -0.22211E-02
        -0.13865E-02
        -0.47130E-03
         0.47130E-03
         0.13865E-02
         0.22211E-02
         0.29267E-02
         0.34621E-02
         0.37964E-02
         0.10354E-02
         0.17414E-02
         0.23151E-02
         0.16653E-02
         0.30372E-02
         0.27863E-02
         0.12829E-02
         0.64624E-03
         0.12206E-03
        -0.13211E-03
         0.93804E-03
         0.11255E-02
         0.17408E-02
         0.40474E-03
         0.39744E-03
        -0.77046E-03
        -0.86832E-03
         0.45179E-03
        -0.18362E-02
        -0.18420E-02
        -0.27232E-02
        -0.27970E-02
        -0.25397E-02
        -0.19377E-02
        -0.99061E-03
        -0.14453E-02
        -0.31153E-03
        -0.10995E-02
        -0.18834E-02
        -0.18686E-02
        -0.16449E-03
        -0.95345E-03
         0.77469E-03
         0.17202E-02
         0.32119E-02
         0.28041E-02
         0.23036E-02
        -0.40324E-03
        -0.12093E-02
        -0.19440E-02
        -0.25022E-02
        -0.26352E-02
        -0.27606E-02
        -0.21152E-02
        -0.16096E-02
        -0.11963E-02
        -0.59375E-03
         0.20059E-03
         0.10521E-02
         0.18422E-02
         0.24570E-02
         0.26037E-02
         0.37964E-02
         0.39100E-02
         0.34621E-02
         0.29267E-02
         0.22211E-02
         0.13865E-02
         0.47130E-03
        -0.47130E-03
        -0.13865E-02
        -0.22211E-02
        -0.29267E-02
        -0.34621E-02
        -0.37964E-02
        -0.39100E-02
        -0.37964E-02
        -0.34621E-02
        -0.29267E-02
        -0.22211E-02
        -0.13865E-02
        -0.47130E-03
         0.47130E-03
         0.13865E-02
         0.22211E-02
         0.29267E-02
         0.34621E-02
         0.37964E-02
         0.10352E-02
         0.17413E-02
         0.23150E-02
         0.16651E-02
         0.30371E-02
         0.27866E-02
         0.12827E-02
         0.64600E-03
         0.12180E-03
        -0.13230E-03
         0.93771E-03
         0.11252E-02
         0.17404E-02
         0.40469E-03
         0.39742E-03
        -0.77081E-03
        -0.86843E-03
         0.45134E-03
        -0.18365E-02
        -0.18419E-02
        -0.27232E-02
        -0.27968E-02
        -0.25399E-02
        -0.19382E-02
        -0.99046E-03
        -0.14457E-02
        -0.31133E-03
        -0.10992E-02
        -0.18834E-02
        -0.18685E-02
        -0.16476E-03
        -0.95405E-03
         0.77402E-03
         0.17202E-02
         0.32122E-02
         0.28041E-02
         0.23034E-02
        -0.40310E-03
        -0.12093E-02
        -0.19440E-02
        -0.25022E-02
        -0.26351E-02
        -0.27602E-02
        -0.21154E-02
        -0.16097E-02
        -0.11964E-02
        -0.59409E-03
         0.20018E-03
         0.10518E-02
         0.18422E-02
         0.24571E-02
         0.26038E-02
         0.37964E-02
         0.39100E-02
         0.34621E-02
         0.29267E-02
         0.22211E-02
         0.13865E-02
         0.47130E-03
        -0.47130E-03
        -0.13865E-02
        -0.22211E-02
        -0.29267E-02
        -0.34621E-02
        -0.37964E-02
        -0.39100E-02
        -0.37964E-02
        -0.34621E-02
        -0.29267E-02
        -0.22211E-02
        -0.13865E-02
        -0.47130E-03
         0.47130E-03
         0.13865E-02
         0.22211E-02
         0.29267E-02
         0.34621E-02
         0.37964E-02
         0.10351E-02
         0.17411E-02
         0.23149E-02
         0.16649E-02
         0.30371E-02
         0.27870E-02
         0.12826E-02
         0.64575E-03
         0.12154E-03
        -0.13248E-03
         0.93738E-03
         0.11249E-02
         0.17400E-02
         0.40463E-03
         0.39740E-03
        -0.77117E-03
        -0.86854E-03
         0.45089E-03
        -0.18368E-02
        -0.18418E-02
        -0.27232E-02
        -0.27965E-02
        -0.25400E-02
        -0.19386E-02
        -0.99032E-03
        -0.14460E-02
        -0.31113E-03
        -0.10988E-02
        -0.18833E-02
        -0.18683E-02
        -0.16504E-03
        -0.95465E-03
         0.77336E-03
         0.17201E-02
         0.32125E-02
         0.28041E-02
         0.23033E-02
        -0.40296E-03
        -0.12093E-02
        -0.19439E-02
        -0.25022E-02
        -0.26350E-02
        -0.27599E-02
        -0.21155E-02
        -0.16097E-02
        -0.11965E-02
        -0.59444E-03
         0.19977E-03
         0.10515E-02
         0.18423E-02
         0.24573E-02
         0.26039E-02
         0.37964E-02
         0.39100E-02
         0.34621E-02
         0.29267E-02
         0.22211E-02
         0.13865E-02
         0.47130E-03
        -0.47130E-03
        -0.13865E-02
        -0.22211E-02
        -0.29267E-02
        -0.34621E-02
        -0.37964E-02
        -0.39100E-02
        -0.37964E-02
        -0.34621E-02
        -0.29267E-02
        -0.22211E-02
        -0.13865E-02
        -0.47130E-03
         0.47130E-03
         0.13865E-02
         0.22211E-02
         0.29267E-02
         0.34621E-02
         0.37964E-02
  
SCALARS           initial_coordinate_y  double 1
LOOKUP_TABLE default
         0.67292E-03
         0.12308E-02
         0.59151E-03
        -0.33775E-03
         0.67237E-03
         0.12301E-02
         0.59098E-03
        -0.33851E-03
         0.14882E-03
        -0.67643E-03
         0.14846E-03
        -0.67692E-03
         0.18412E-02
         0.14576E-02
         0.18410E-02
         0.14566E-02
         0.29933E-03
         0.11672E-02
         0.29819E-03
         0.11655E-02
         0.22748E-02
         0.28286E-02
         0.24238E-02
         0.22746E-02
         0.28291E-02
         0.24236E-02
         0.21685E-02
         0.29366E-02
         0.21684E-02
         0.29369E-02
        -0.10033E-02
         0.78969E-04
        -0.70318E-03
        -0.10032E-02
         0.78160E-04
        -0.70391E-03
        -0.71196E-03
         0.82749E-04
        -0.71210E-03
         0.82626E-04
        -0.77865E-03
         0.40713E-04
        -0.77882E-03
         0.40439E-04
        -0.15195E-02
        -0.13230E-02
        -0.15195E-02
        -0.13231E-02
         0.98847E-03
         0.98712E-03
        -0.17325E-02
        -0.17325E-02
         0.20220E-02
         0.20217E-02
         0.18615E-02
         0.18616E-02
         0.17175E-02
         0.90940E-03
         0.17175E-02
         0.90916E-03
        -0.19800E-02
        -0.23489E-02
        -0.19800E-02
        -0.23489E-02
        -0.17074E-02
        -0.17074E-02
        -0.14894E-02
        -0.14892E-02
         0.76036E-03
         0.12477E-02
         0.75936E-03
         0.12473E-02
         0.18665E-02
         0.18664E-02
         0.29038E-02
         0.29049E-02
         0.27207E-02
         0.27212E-02
         0.24642E-02
         0.24645E-02
         0.22359E-02
         0.16503E-02
         0.22359E-02
         0.16503E-02
         0.87493E-03
         0.87466E-03
        -0.21373E-02
        -0.21373E-02
        -0.26931E-02
        -0.26931E-02
        -0.31291E-02
        -0.30382E-02
        -0.31291E-02
        -0.30382E-02
        -0.28748E-02
        -0.28748E-02
        -0.26423E-02
        -0.26420E-02
        -0.23707E-02
        -0.23705E-02
        -0.21445E-02
        -0.15105E-02
        -0.21439E-02
        -0.15106E-02
         0.93572E-03
         0.00000E+00
         0.93572E-03
         0.00000E+00
         0.18171E-02
         0.18171E-02
         0.25928E-02
         0.25928E-02
         0.32179E-02
         0.32179E-02
         0.36559E-02
         0.36559E-02
         0.38815E-02
         0.38815E-02
         0.38815E-02
         0.38815E-02
         0.36559E-02
         0.36559E-02
         0.32179E-02
         0.32179E-02
         0.25928E-02
         0.25928E-02
         0.18171E-02
         0.18171E-02
         0.93572E-03
         0.93572E-03
         0.22152E-17
        -0.47884E-18
        -0.93572E-03
        -0.93572E-03
        -0.18171E-02
        -0.18171E-02
        -0.25928E-02
        -0.25928E-02
        -0.32179E-02
        -0.32179E-02
        -0.36559E-02
        -0.36559E-02
        -0.38815E-02
        -0.38815E-02
        -0.38815E-02
        -0.38815E-02
        -0.36559E-02
        -0.36559E-02
        -0.32179E-02
        -0.32179E-02
        -0.25928E-02
        -0.25928E-02
        -0.18171E-02
        -0.18171E-02
        -0.93572E-03
        -0.93572E-03
         0.67348E-03
         0.12314E-02
         0.59203E-03
        -0.33700E-03
         0.14918E-03
        -0.67594E-03
         0.18414E-02
         0.14586E-02
         0.30048E-03
         0.11690E-02
         0.22749E-02
         0.28282E-02
         0.24239E-02
         0.21685E-02
         0.29364E-02
        -0.10035E-02
         0.79778E-04
        -0.70245E-03
        -0.71182E-03
         0.82873E-04
        -0.77848E-03
         0.40986E-04
        -0.15194E-02
        -0.13228E-02
         0.98983E-03
        -0.17324E-02
         0.20223E-02
         0.18614E-02
         0.17175E-02
         0.90964E-03
        -0.19800E-02
        -0.23489E-02
        -0.17074E-02
        -0.14896E-02
         0.76137E-03
         0.12481E-02
         0.18665E-02
         0.29027E-02
         0.27202E-02
         0.24640E-02
         0.22359E-02
         0.16503E-02
         0.87519E-03
        -0.21373E-02
        -0.26932E-02
        -0.31291E-02
        -0.30382E-02
        -0.28748E-02
        -0.26426E-02
        -0.23709E-02
        -0.21450E-02
        -0.15104E-02
         0.93572E-03
         0.00000E+00
         0.18171E-02
         0.25928E-02
         0.32179E-02
         0.36559E-02
         0.38815E-02
         0.38815E-02
         0.36559E-02
         0.32179E-02
         0.25928E-02
         0.18171E-02
         0.93572E-03
        -0.47884E-18
        -0.93572E-03
        -0.18171E-02
        -0.25928E-02
        -0.32179E-02
        -0.36559E-02
        -0.38815E-02
        -0.38815E-02
        -0.36559E-02
        -0.32179E-02
        -0.25928E-02
        -0.18171E-02
        -0.93572E-03
         0.67403E-03
         0.12321E-02
         0.59255E-03
        -0.33624E-03
         0.14955E-03
        -0.67544E-03
         0.18415E-02
         0.14596E-02
         0.30163E-03
         0.11707E-02
         0.22750E-02
         0.28277E-02
         0.24241E-02
         0.21685E-02
         0.29361E-02
        -0.10036E-02
         0.80588E-04
        -0.70173E-03
        -0.71168E-03
         0.82996E-04
        -0.77831E-03
         0.41259E-04
        -0.15194E-02
        -0.13227E-02
         0.99119E-03
        -0.17324E-02
         0.20226E-02
         0.18613E-02
         0.17175E-02
         0.90988E-03
        -0.19801E-02
        -0.23490E-02
        -0.17074E-02
        -0.14899E-02
         0.76237E-03
         0.12485E-02
         0.18666E-02
         0.29017E-02
         0.27198E-02
         0.24638E-02
         0.22359E-02
         0.16503E-02
         0.87545E-03
        -0.21374E-02
        -0.26932E-02
        -0.31291E-02
        -0.30382E-02
        -0.28748E-02
        -0.26428E-02
        -0.23711E-02
        -0.21456E-02
        -0.15103E-02
         0.93572E-03
         0.00000E+00
         0.18171E-02
         0.25928E-02
         0.32179E-02
         0.36559E-02
         0.38815E-02
         0.38815E-02
         0.36559E-02
         0.32179E-02
         0.25928E-02
         0.18171E-02
         0.93572E-03
         0.39516E-17
        -0.93572E-03
        -0.18171E-02
        -0.25928E-02
        -0.32179E-02
        -0.36559E-02
        -0.38815E-02
        -0.38815E-02
        -0.36559E-02
        -0.32179E-02
        -0.25928E-02
        -0.18171E-02
        -0.93572E-03
         0.67459E-03
         0.12328E-02
         0.59308E-03
        -0.33549E-03
         0.14991E-03
        -0.67495E-03
         0.18417E-02
         0.14606E-02
         0.30278E-03
         0.11725E-02
         0.22752E-02
         0.28273E-02
         0.24242E-02
         0.21686E-02
         0.29359E-02
        -0.10038E-02
         0.81397E-04
        -0.70100E-03
        -0.71154E-03
         0.83120E-04
        -0.77814E-03
         0.41533E-04
        -0.15193E-02
        -0.13227E-02
         0.99254E-03
        -0.17324E-02
         0.20228E-02
         0.18611E-02
         0.17175E-02
         0.91012E-03
        -0.19801E-02
        -0.23490E-02
        -0.17074E-02
        -0.14901E-02
         0.76338E-03
         0.12490E-02
         0.18666E-02
         0.29006E-02
         0.27193E-02
         0.24636E-02
         0.22359E-02
         0.16503E-02
         0.87571E-03
        -0.21374E-02
        -0.26932E-02
        -0.31291E-02
        -0.30382E-02
        -0.28748E-02
        -0.26431E-02
        -0.23713E-02
        -0.21461E-02
        -0.15102E-02
         0.93572E-03
         0.00000E+00
         0.18171E-02
         0.25928E-02
         0.32179E-02
         0.36559E-02
         0.38815E-02
         0.38815E-02
         0.36559E-02
         0.32179E-02
         0.25928E-02
         0.18171E-02
         0.93572E-03
        -0.47884E-18
        -0.93572E-03
        -0.18171E-02
        -0.25928E-02
        -0.32179E-02
        -0.36559E-02
        -0.38815E-02
        -0.38815E-02
        -0.36559E-02
        -0.32179E-02
        -0.25928E-02
        -0.18171E-02
        -0.93572E-03
         0.67514E-03
         0.12334E-02
         0.59360E-03
        -0.33474E-03
         0.15027E-03
        -0.67446E-03
         0.18419E-02
         0.14616E-02
         0.30393E-03
         0.11742E-02
         0.22753E-02
         0.28269E-02
         0.24244E-02
         0.21686E-02
         0.29356E-02
        -0.10039E-02
         0.82206E-04
        -0.70028E-03
        -0.71140E-03
         0.83243E-04
        -0.77797E-03
         0.41806E-04
        -0.15193E-02
        -0.13226E-02
         0.99390E-03
        -0.17323E-02
         0.20231E-02
         0.18610E-02
         0.17175E-02
         0.91036E-03
        -0.19801E-02
        -0.23490E-02
        -0.17074E-02
        -0.14904E-02
         0.76439E-03
         0.12494E-02
         0.18666E-02
         0.28995E-02
         0.27188E-02
         0.24633E-02
         0.22359E-02
         0.16503E-02
         0.87597E-03
        -0.21374E-02
        -0.26932E-02
        -0.31291E-02
        -0.30382E-02
        -0.28748E-02
        -0.26434E-02
        -0.23715E-02
        -0.21467E-02
        -0.15101E-02
         0.93572E-03
         0.00000E+00
         0.18171E-02
         0.25928E-02
         0.32179E-02
         0.36559E-02
         0.38815E-02
         0.38815E-02
         0.36559E-02
         0.32179E-02
         0.25928E-02
         0.18171E-02
         0.93572E-03
        -0.47884E-18
        -0.93572E-03
        -0.18171E-02
        -0.25928E-02
        -0.32179E-02
        -0.36559E-02
        -0.38815E-02
        -0.38815E-02
        -0.36559E-02
        -0.32179E-02
        -0.25928E-02
        -0.18171E-02
        -0.93572E-03
         0.67570E-03
         0.12341E-02
         0.59412E-03
        -0.33398E-03
         0.15064E-03
        -0.67396E-03
         0.18421E-02
         0.14626E-02
         0.30507E-03
         0.11760E-02
         0.22754E-02
         0.28264E-02
         0.24245E-02
         0.21686E-02
         0.29353E-02
        -0.10040E-02
         0.83015E-04
        -0.69955E-03
        -0.71126E-03
         0.83367E-04
        -0.77780E-03
         0.42080E-04
        -0.15192E-02
        -0.13224E-02
         0.99526E-03
        -0.17323E-02
         0.20234E-02
         0.18609E-02
         0.17175E-02
         0.91060E-03
        -0.19801E-02
        -0.23490E-02
        -0.17074E-02
        -0.14906E-02
         0.76539E-03
         0.12498E-02
         0.18667E-02
         0.28984E-02
         0.27184E-02
         0.24631E-02
         0.22359E-02
         0.16503E-02
         0.87623E-03
        -0.21374E-02
        -0.26932E-02
        -0.31291E-02
        -0.30382E-02
        -0.28748E-02
        -0.26436E-02
        -0.23717E-02
        -0.21472E-02
        -0.15100E-02
         0.93572E-03
         0.00000E+00
         0.18171E-02
         0.25928E-02
         0.32179E-02
         0.36559E-02
         0.38815E-02
         0.38815E-02
         0.36559E-02
         0.32179E-02
         0.25928E-02
         0.18171E-02
         0.93572E-03
        -0.47884E-18
        -0.93572E-03
        -0.18171E-02
        -0.25928E-02
        -0.32179E-02
        -0.36559E-02
        -0.38815E-02
        -0.38815E-02
        -0.36559E-02
        -0.32179E-02
        -0.25928E-02
        -0.18171E-02
        -0.93572E-03
         0.67625E-03
         0.12348E-02
         0.59465E-03
        -0.33323E-03
         0.15100E-03
        -0.67347E-03
         0.18423E-02
         0.14636E-02
         0.30622E-03
         0.11777E-02
         0.22755E-02
         0.28260E-02
         0.24247E-02
         0.21687E-02
         0.29351E-02
        -0.10042E-02
         0.83825E-04
        -0.69882E-03
        -0.71112E-03
         0.83490E-04
        -0.77763E-03
         0.42353E-04
        -0.15192E-02
        -0.13223E-02
         0.99661E-03
        -0.17322E-02
         0.20237E-02
         0.18607E-02
         0.17175E-02
         0.91084E-03
        -0.19801E-02
        -0.23491E-02
        -0.17074E-02
        -0.14909E-02
         0.76640E-03
         0.12503E-02
         0.18667E-02
         0.28974E-02
         0.27179E-02
         0.24629E-02
         0.22359E-02
         0.16503E-02
         0.87650E-03
        -0.21374E-02
        -0.26933E-02
        -0.31291E-02
        -0.30382E-02
        -0.28749E-02
        -0.26439E-02
        -0.23719E-02
        -0.21478E-02
        -0.15099E-02
         0.93572E-03
         0.00000E+00
         0.18171E-02
         0.25928E-02
         0.32179E-02
         0.36559E-02
         0.38815E-02
         0.38815E-02
         0.36559E-02
         0.32179E-02
         0.25928E-02
         0.18171E-02
         0.93572E-03
        -0.47884E-18
        -0.93572E-03
        -0.18171E-02
        -0.25928E-02
        -0.32179E-02
        -0.36559E-02
        -0.38815E-02
        -0.38815E-02
        -0.36559E-02
        -0.32179E-02
        -0.25928E-02
        -0.18171E-02
        -0.93572E-03
         0.67680E-03
         0.12354E-02
         0.59517E-03
        -0.33247E-03
         0.15136E-03
        -0.67298E-03
         0.18425E-02
         0.14646E-02
         0.30737E-03
         0.11795E-02
         0.22757E-02
         0.28255E-02
         0.24248E-02
         0.21687E-02
         0.29348E-02
        -0.10043E-02
         0.84634E-04
        -0.69810E-03
        -0.71098E-03
         0.83614E-04
        -0.77746E-03
         0.42626E-04
        -0.15191E-02
        -0.13223E-02
         0.99797E-03
        -0.17322E-02
         0.20240E-02
         0.18606E-02
         0.17175E-02
         0.91108E-03
        -0.19802E-02
        -0.23491E-02
        -0.17074E-02
        -0.14911E-02
         0.76740E-03
         0.12507E-02
         0.18668E-02
         0.28963E-02
         0.27174E-02
         0.24627E-02
         0.22358E-02
         0.16503E-02
         0.87676E-03
        -0.21374E-02
        -0.26933E-02
        -0.31291E-02
        -0.30382E-02
        -0.28749E-02
        -0.26442E-02
        -0.23721E-02
        -0.21483E-02
        -0.15097E-02
         0.93572E-03
         0.00000E+00
         0.18171E-02
         0.25928E-02
         0.32179E-02
         0.36559E-02
         0.38815E-02
         0.38815E-02
         0.36559E-02
         0.32179E-02
         0.25928E-02
         0.18171E-02
         0.93572E-03
        -0.47884E-18
        -0.93572E-03
        -0.18171E-02
        -0.25928E-02
        -0.32179E-02
        -0.36559E-02
        -0.38815E-02
        -0.38815E-02
        -0.36559E-02
        -0.32179E-02
        -0.25928E-02
        -0.18171E-02
        -0.93572E-03
         0.67736E-03
         0.12361E-02
         0.59570E-03
        -0.33172E-03
         0.15173E-03
        -0.67248E-03
         0.18427E-02
         0.14656E-02
         0.30852E-03
         0.11812E-02
         0.22758E-02
         0.28251E-02
         0.24249E-02
         0.21688E-02
         0.29345E-02
        -0.10044E-02
         0.85443E-04
        -0.69737E-03
        -0.71084E-03
         0.83737E-04
        -0.77729E-03
         0.42899E-04
        -0.15191E-02
        -0.13222E-02
         0.99932E-03
        -0.17322E-02
         0.20243E-02
         0.18605E-02
         0.17175E-02
         0.91132E-03
        -0.19802E-02
        -0.23491E-02
        -0.17074E-02
        -0.14914E-02
         0.76841E-03
         0.12511E-02
         0.18668E-02
         0.28952E-02
         0.27170E-02
         0.24624E-02
         0.22358E-02
         0.16503E-02
         0.87702E-03
        -0.21374E-02
        -0.26933E-02
        -0.31291E-02
        -0.30382E-02
        -0.28749E-02
        -0.26444E-02
        -0.23723E-02
        -0.21489E-02
        -0.15096E-02
         0.93572E-03
         0.00000E+00
         0.18171E-02
         0.25928E-02
         0.32179E-02
         0.36559E-02
         0.38815E-02
         0.38815E-02
         0.36559E-02
         0.32179E-02
         0.25928E-02
         0.18171E-02
         0.93572E-03
        -0.47884E-18
        -0.93572E-03
        -0.18171E-02
        -0.25928E-02
        -0.32179E-02
        -0.36559E-02
        -0.38815E-02
        -0.38815E-02
        -0.36559E-02
        -0.32179E-02
        -0.25928E-02
        -0.18171E-02
        -0.93572E-03
         0.67791E-03
         0.12368E-02
         0.59622E-03
        -0.33096E-03
         0.15209E-03
        -0.67199E-03
         0.18429E-02
         0.14666E-02
         0.30967E-03
         0.11830E-02
         0.22759E-02
         0.28247E-02
         0.24251E-02
         0.21688E-02
         0.29343E-02
        -0.10046E-02
         0.86253E-04
        -0.69665E-03
        -0.71070E-03
         0.83861E-04
        -0.77712E-03
         0.43173E-04
        -0.15190E-02
        -0.13220E-02
         0.10007E-02
        -0.17321E-02
         0.20245E-02
         0.18603E-02
         0.17175E-02
         0.91156E-03
        -0.19802E-02
        -0.23491E-02
        -0.17074E-02
        -0.14916E-02
         0.76941E-03
         0.12515E-02
         0.18668E-02
         0.28942E-02
         0.27165E-02
         0.24622E-02
         0.22358E-02
         0.16503E-02
         0.87728E-03
        -0.21374E-02
        -0.26933E-02
        -0.31291E-02
        -0.30382E-02
        -0.28749E-02
        -0.26447E-02
        -0.23725E-02
        -0.21494E-02
        -0.15095E-02
         0.93572E-03
         0.00000E+00
         0.18171E-02
         0.25928E-02
         0.32179E-02
         0.36559E-02
         0.38815E-02
         0.38815E-02
         0.36559E-02
         0.32179E-02
         0.25928E-02
         0.18171E-02
         0.93572E-03
        -0.47884E-18
        -0.93572E-03
        -0.18171E-02
        -0.25928E-02
        -0.32179E-02
        -0.36559E-02
        -0.38815E-02
        -0.38815E-02
        -0.36559E-02
        -0.32179E-02
        -0.25928E-02
        -0.18171E-02
        -0.93572E-03
         0.67847E-03
         0.12374E-02
         0.59674E-03
        -0.33021E-03
         0.15245E-03
        -0.67150E-03
         0.18430E-02
         0.14676E-02
         0.31081E-03
         0.11847E-02
         0.22761E-02
         0.28242E-02
         0.24252E-02
         0.21688E-02
         0.29340E-02
        -0.10047E-02
         0.87062E-04
        -0.69592E-03
        -0.71056E-03
         0.83985E-04
        -0.77695E-03
         0.43446E-04
        -0.15190E-02
        -0.13219E-02
         0.10020E-02
        -0.17321E-02
         0.20248E-02
         0.18602E-02
         0.17175E-02
         0.91180E-03
        -0.19803E-02
        -0.23491E-02
        -0.17073E-02
        -0.14919E-02
         0.77042E-03
         0.12520E-02
         0.18669E-02
         0.28931E-02
         0.27160E-02
         0.24620E-02
         0.22358E-02
         0.16503E-02
         0.87754E-03
        -0.21374E-02
        -0.26933E-02
        -0.31291E-02
        -0.30382E-02
        -0.28749E-02
        -0.26450E-02
        -0.23727E-02
        -0.21500E-02
        -0.15094E-02
         0.93572E-03
         0.00000E+00
         0.18171E-02
         0.25928E-02
         0.32179E-02
         0.36559E-02
         0.38815E-02
         0.38815E-02
         0.36559E-02
         0.32179E-02
         0.25928E-02
         0.18171E-02
         0.93572E-03
         0.39516E-17
        -0.93572E-03
        -0.18171E-02
        -0.25928E-02
        -0.32179E-02
        -0.36559E-02
        -0.38815E-02
        -0.38815E-02
        -0.36559E-02
        -0.32179E-02
        -0.25928E-02
        -0.18171E-02
        -0.93572E-03
         0.67902E-03
         0.12381E-02
         0.59727E-03
        -0.32945E-03
         0.15282E-03
        -0.67100E-03
         0.18432E-02
         0.14686E-02
         0.31196E-03
         0.11865E-02
         0.22762E-02
         0.28238E-02
         0.24254E-02
         0.21688E-02
         0.29337E-02
        -0.10049E-02
         0.87871E-04
        -0.69519E-03
        -0.71042E-03
         0.84108E-04
        -0.77678E-03
         0.43720E-04
        -0.15189E-02
        -0.13219E-02
         0.10034E-02
        -0.17320E-02
         0.20251E-02
         0.18601E-02
         0.17175E-02
         0.91204E-03
        -0.19803E-02
        -0.23492E-02
        -0.17073E-02
        -0.14921E-02
         0.77142E-03
         0.12524E-02
         0.18669E-02
         0.28920E-02
         0.27155E-02
         0.24618E-02
         0.22358E-02
         0.16503E-02
         0.87781E-03
        -0.21374E-02
        -0.26934E-02
        -0.31291E-02
        -0.30382E-02
        -0.28749E-02
        -0.26452E-02
        -0.23729E-02
        -0.21505E-02
        -0.15093E-02
         0.93572E-03
         0.00000E+00
         0.18171E-02
         0.25928E-02
         0.32179E-02
         0.36559E-02
         0.38815E-02
         0.38815E-02
         0.36559E-02
         0.32179E-02
         0.25928E-02
         0.18171E-02
         0.93572E-03
        -0.47884E-18
        -0.93572E-03
        -0.18171E-02
        -0.25928E-02
        -0.32179E-02
        -0.36559E-02
        -0.38815E-02
        -0.38815E-02
        -0.36559E-02
        -0.32179E-02
        -0.25928E-02
        -0.18171E-02
        -0.93572E-03
         0.67958E-03
         0.12387E-02
         0.59779E-03
        -0.32870E-03
         0.15318E-03
        -0.67051E-03
         0.18434E-02
         0.14696E-02
         0.31311E-03
         0.11882E-02
         0.22763E-02
         0.28233E-02
         0.24255E-02
         0.21689E-02
         0.29335E-02
        -0.10050E-02
         0.88681E-04
        -0.69447E-03
        -0.71028E-03
         0.84232E-04
        -0.77661E-03
         0.43993E-04
        -0.15189E-02
        -0.13218E-02
         0.10048E-02
        -0.17320E-02
         0.20254E-02
         0.18599E-02
         0.17175E-02
         0.91228E-03
        -0.19803E-02
        -0.23492E-02
        -0.17073E-02
        -0.14923E-02
         0.77243E-03
         0.12528E-02
         0.18670E-02
         0.28910E-02
         0.27151E-02
         0.24615E-02
         0.22358E-02
         0.16503E-02
         0.87807E-03
        -0.21374E-02
        -0.26934E-02
        -0.31291E-02
        -0.30382E-02
        -0.28749E-02
        -0.26455E-02
        -0.23732E-02
        -0.21511E-02
        -0.15092E-02
         0.93572E-03
         0.00000E+00
         0.18171E-02
         0.25928E-02
         0.32179E-02
         0.36559E-02
         0.38815E-02
         0.38815E-02
         0.36559E-02
         0.32179E-02
         0.25928E-02
         0.18171E-02
         0.93572E-03
         0.22152E-17
        -0.93572E-03
        -0.18171E-02
        -0.25928E-02
        -0.32179E-02
        -0.36559E-02
        -0.38815E-02
        -0.38815E-02
        -0.36559E-02
        -0.32179E-02
        -0.25928E-02
        -0.18171E-02
        -0.93572E-03
         0.68013E-03
         0.12394E-02
         0.59831E-03
        -0.32794E-03
         0.15354E-03
        -0.67002E-03
         0.18436E-02
         0.14706E-02
         0.31426E-03
         0.11900E-02
         0.22765E-02
         0.28229E-02
         0.24257E-02
         0.21689E-02
         0.29332E-02
        -0.10051E-02
         0.89490E-04
        -0.69374E-03
        -0.71013E-03
         0.84355E-04
        -0.77644E-03
         0.44266E-04
        -0.15188E-02
        -0.13216E-02
         0.10061E-02
        -0.17320E-02
         0.20257E-02
         0.18598E-02
         0.17175E-02
         0.91252E-03
        -0.19803E-02
        -0.23492E-02
        -0.17073E-02
        -0.14926E-02
         0.77343E-03
         0.12533E-02
         0.18670E-02
         0.28899E-02
         0.27146E-02
         0.24613E-02
         0.22358E-02
         0.16503E-02
         0.87833E-03
        -0.21374E-02
        -0.26934E-02
        -0.31291E-02
        -0.30382E-02
        -0.28750E-02
        -0.26458E-02
        -0.23734E-02
        -0.21516E-02
        -0.15091E-02
         0.93572E-03
         0.00000E+00
         0.18171E-02
         0.25928E-02
         0.32179E-02
         0.36559E-02
         0.38815E-02
         0.38815E-02
         0.36559E-02
         0.32179E-02
         0.25928E-02
         0.18171E-02
         0.93572E-03
        -0.47884E-18
        -0.93572E-03
        -0.18171E-02
        -0.25928E-02
        -0.32179E-02
        -0.36559E-02
        -0.38815E-02
        -0.38815E-02
        -0.36559E-02
        -0.32179E-02
        -0.25928E-02
        -0.18171E-02
        -0.93572E-03
         0.68068E-03
         0.12401E-02
         0.59884E-03
        -0.32719E-03
         0.15391E-03
        -0.66953E-03
         0.18438E-02
         0.14716E-02
         0.31541E-03
         0.11917E-02
         0.22766E-02
         0.28225E-02
         0.24258E-02
         0.21690E-02
         0.29330E-02
        -0.10053E-02
         0.90299E-04
        -0.69302E-03
        -0.70999E-03
         0.84479E-04
        -0.77627E-03
         0.44540E-04
        -0.15188E-02
        -0.13215E-02
         0.10075E-02
        -0.17319E-02
         0.20260E-02
         0.18597E-02
         0.17175E-02
         0.91276E-03
        -0.19804E-02
        -0.23493E-02
        -0.17073E-02
        -0.14928E-02
         0.77444E-03
         0.12537E-02
         0.18670E-02
         0.28888E-02
         0.27141E-02
         0.24611E-02
         0.22358E-02
         0.16503E-02
         0.87859E-03
        -0.21374E-02
        -0.26934E-02
        -0.31291E-02
        -0.30382E-02
        -0.28750E-02
        -0.26460E-02
        -0.23736E-02
        -0.21521E-02
        -0.15090E-02
         0.93572E-03
         0.00000E+00
         0.18171E-02
         0.25928E-02
         0.32179E-02
         0.36559E-02
         0.38815E-02
         0.38815E-02
         0.36559E-02
         0.32179E-02
         0.25928E-02
         0.18171E-02
         0.93572E-03
         0.22152E-17
        -0.93572E-03
        -0.18171E-02
        -0.25928E-02
        -0.32179E-02
        -0.36559E-02
        -0.38815E-02
        -0.38815E-02
        -0.36559E-02
        -0.32179E-02
        -0.25928E-02
        -0.18171E-02
        -0.93572E-03
         0.68124E-03
         0.12407E-02
         0.59936E-03
        -0.32643E-03
         0.15427E-03
        -0.66903E-03
         0.18440E-02
         0.14727E-02
         0.31656E-03
         0.11935E-02
         0.22767E-02
         0.28220E-02
         0.24260E-02
         0.21690E-02
         0.29327E-02
        -0.10054E-02
         0.91108E-04
        -0.69229E-03
        -0.70985E-03
         0.84602E-04
        -0.77610E-03
         0.44813E-04
        -0.15187E-02
        -0.13215E-02
         0.10088E-02
        -0.17319E-02
         0.20262E-02
         0.18595E-02
         0.17175E-02
         0.91300E-03
        -0.19804E-02
        -0.23493E-02
        -0.17073E-02
        -0.14931E-02
         0.77544E-03
         0.12541E-02
         0.18671E-02
         0.28877E-02
         0.27137E-02
         0.24609E-02
         0.22358E-02
         0.16503E-02
         0.87885E-03
        -0.21374E-02
        -0.26934E-02
        -0.31291E-02
        -0.30382E-02
        -0.28750E-02
        -0.26463E-02
        -0.23738E-02
        -0.21527E-02
        -0.15088E-02
         0.93572E-03
         0.00000E+00
         0.18171E-02
         0.25928E-02
         0.32179E-02
         0.36559E-02
         0.38815E-02
         0.38815E-02
         0.36559E-02
         0.32179E-02
         0.25928E-02
         0.18171E-02
         0.93572E-03
        -0.47884E-18
        -0.93572E-03
        -0.18171E-02
        -0.25928E-02
        -0.32179E-02
        -0.36559E-02
        -0.38815E-02
        -0.38815E-02
        -0.36559E-02
        -0.32179E-02
        -0.25928E-02
        -0.18171E-02
        -0.93572E-03
         0.68179E-03
         0.12414E-02
         0.59988E-03
        -0.32568E-03
         0.15463E-03
        -0.66854E-03
         0.18442E-02
         0.14736E-02
         0.31770E-03
         0.11952E-02
         0.22768E-02
         0.28216E-02
         0.24261E-02
         0.21690E-02
         0.29324E-02
        -0.10056E-02
         0.91918E-04
        -0.69156E-03
        -0.70971E-03
         0.84726E-04
        -0.77593E-03
         0.45086E-04
        -0.15187E-02
        -0.13213E-02
         0.10102E-02
        -0.17318E-02
         0.20265E-02
         0.18594E-02
         0.17175E-02
         0.91324E-03
        -0.19804E-02
        -0.23493E-02
        -0.17073E-02
        -0.14933E-02
         0.77645E-03
         0.12545E-02
         0.18671E-02
         0.28867E-02
         0.27132E-02
         0.24606E-02
         0.22358E-02
         0.16503E-02
         0.87912E-03
        -0.21374E-02
        -0.26935E-02
        -0.31291E-02
        -0.30381E-02
        -0.28750E-02
        -0.26466E-02
        -0.23740E-02
        -0.21533E-02
        -0.15087E-02
         0.93572E-03
         0.00000E+00
         0.18171E-02
         0.25928E-02
         0.32179E-02
         0.36559E-02
         0.38815E-02
         0.38815E-02
         0.36559E-02
         0.32179E-02
         0.25928E-02
         0.18171E-02
         0.93572E-03
        -0.47884E-18
        -0.93572E-03
        -0.18171E-02
        -0.25928E-02
        -0.32179E-02
        -0.36559E-02
        -0.38815E-02
        -0.38815E-02
        -0.36559E-02
        -0.32179E-02
        -0.25928E-02
        -0.18171E-02
        -0.93572E-03
         0.68235E-03
         0.12421E-02
         0.60041E-03
        -0.32493E-03
         0.15500E-03
        -0.66805E-03
         0.18444E-02
         0.14747E-02
         0.31885E-03
         0.11970E-02
         0.22770E-02
         0.28211E-02
         0.24262E-02
         0.21691E-02
         0.29322E-02
        -0.10057E-02
         0.92727E-04
        -0.69084E-03
        -0.70957E-03
         0.84849E-04
        -0.77576E-03
         0.45359E-04
        -0.15186E-02
        -0.13212E-02
         0.10115E-02
        -0.17318E-02
         0.20268E-02
         0.18593E-02
         0.17175E-02
         0.91347E-03
        -0.19804E-02
        -0.23493E-02
        -0.17073E-02
        -0.14936E-02
         0.77745E-03
         0.12550E-02
         0.18671E-02
         0.28856E-02
         0.27127E-02
         0.24604E-02
         0.22358E-02
         0.16503E-02
         0.87938E-03
        -0.21374E-02
        -0.26935E-02
        -0.31291E-02
        -0.30381E-02
        -0.28750E-02
        -0.26468E-02
        -0.23742E-02
        -0.21538E-02
        -0.15086E-02
         0.93572E-03
         0.00000E+00
         0.18171E-02
         0.25928E-02
         0.32179E-02
         0.36559E-02
         0.38815E-02
         0.38815E-02
         0.36559E-02
         0.32179E-02
         0.25928E-02
         0.18171E-02
         0.93572E-03
        -0.47884E-18
        -0.93572E-03
        -0.18171E-02
        -0.25928E-02
        -0.32179E-02
        -0.36559E-02
        -0.38815E-02
        -0.38815E-02
        -0.36559E-02
        -0.32179E-02
        -0.25928E-02
        -0.18171E-02
        -0.93572E-03
         0.68290E-03
         0.12427E-02
         0.60093E-03
        -0.32417E-03
         0.15536E-03
        -0.66755E-03
         0.18445E-02
         0.14757E-02
         0.32000E-03
         0.11987E-02
         0.22771E-02
         0.28207E-02
         0.24264E-02
         0.21691E-02
         0.29319E-02
        -0.10058E-02
         0.93536E-04
        -0.69011E-03
        -0.70943E-03
         0.84973E-04
        -0.77559E-03
         0.45633E-04
        -0.15186E-02
        -0.13212E-02
         0.10129E-02
        -0.17318E-02
         0.20271E-02
         0.18592E-02
         0.17175E-02
         0.91371E-03
        -0.19805E-02
        -0.23493E-02
        -0.17073E-02
        -0.14938E-02
         0.77846E-03
         0.12554E-02
         0.18672E-02
         0.28845E-02
         0.27122E-02
         0.24602E-02
         0.22358E-02
         0.16502E-02
         0.87964E-03
        -0.21374E-02
        -0.26935E-02
        -0.31291E-02
        -0.30381E-02
        -0.28750E-02
        -0.26471E-02
        -0.23744E-02
        -0.21543E-02
        -0.15085E-02
         0.93572E-03
         0.00000E+00
         0.18171E-02
         0.25928E-02
         0.32179E-02
         0.36559E-02
         0.38815E-02
         0.38815E-02
         0.36559E-02
         0.32179E-02
         0.25928E-02
         0.18171E-02
         0.93572E-03
        -0.47884E-18
        -0.93572E-03
        -0.18171E-02
        -0.25928E-02
        -0.32179E-02
        -0.36559E-02
        -0.38815E-02
        -0.38815E-02
        -0.36559E-02
        -0.32179E-02
        -0.25928E-02
        -0.18171E-02
        -0.93572E-03
         0.68346E-03
         0.12434E-02
         0.60145E-03
        -0.32342E-03
         0.15572E-03
        -0.66706E-03
         0.18447E-02
         0.14767E-02
         0.32115E-03
         0.12005E-02
         0.22772E-02
         0.28203E-02
         0.24265E-02
         0.21691E-02
         0.29316E-02
        -0.10060E-02
         0.94345E-04
        -0.68939E-03
        -0.70929E-03
         0.85096E-04
        -0.77542E-03
         0.45906E-04
        -0.15185E-02
        -0.13211E-02
         0.10142E-02
        -0.17317E-02
         0.20274E-02
         0.18590E-02
         0.17175E-02
         0.91395E-03
        -0.19805E-02
        -0.23494E-02
        -0.17073E-02
        -0.14941E-02
         0.77946E-03
         0.12558E-02
         0.18672E-02
         0.28835E-02
         0.27118E-02
         0.24600E-02
         0.22358E-02
         0.16502E-02
         0.87990E-03
        -0.21374E-02
        -0.26935E-02
        -0.31291E-02
        -0.30381E-02
        -0.28750E-02
        -0.26474E-02
        -0.23746E-02
        -0.21549E-02
        -0.15084E-02
         0.93572E-03
         0.00000E+00
         0.18171E-02
         0.25928E-02
         0.32179E-02
         0.36559E-02
         0.38815E-02
         0.38815E-02
         0.36559E-02
         0.32179E-02
         0.25928E-02
         0.18171E-02
         0.93572E-03
         0.22152E-17
        -0.93572E-03
        -0.18171E-02
        -0.25928E-02
        -0.32179E-02
        -0.36559E-02
        -0.38815E-02
        -0.38815E-02
        -0.36559E-02
        -0.32179E-02
        -0.25928E-02
        -0.18171E-02
        -0.93572E-03
         0.68401E-03
         0.12440E-02
         0.60198E-03
        -0.32266E-03
         0.15609E-03
        -0.66657E-03
         0.18449E-02
         0.14777E-02
         0.32230E-03
         0.12022E-02
         0.22774E-02
         0.28198E-02
         0.24267E-02
         0.21692E-02
         0.29314E-02
        -0.10061E-02
         0.95155E-04
        -0.68866E-03
        -0.70915E-03
         0.85220E-04
        -0.77525E-03
         0.46180E-04
        -0.15185E-02
        -0.13210E-02
         0.10156E-02
        -0.17317E-02
         0.20277E-02
         0.18589E-02
         0.17175E-02
         0.91419E-03
        -0.19805E-02
        -0.23494E-02
        -0.17073E-02
        -0.14943E-02
         0.78047E-03
         0.12563E-02
         0.18672E-02
         0.28824E-02
         0.27113E-02
         0.24597E-02
         0.22358E-02
         0.16502E-02
         0.88016E-03
        -0.21374E-02
        -0.26935E-02
        -0.31291E-02
        -0.30381E-02
        -0.28751E-02
        -0.26476E-02
        -0.23748E-02
        -0.21554E-02
        -0.15083E-02
         0.93572E-03
         0.00000E+00
         0.18171E-02
         0.25928E-02
         0.32179E-02
         0.36559E-02
         0.38815E-02
         0.38815E-02
         0.36559E-02
         0.32179E-02
         0.25928E-02
         0.18171E-02
         0.93572E-03
        -0.47884E-18
        -0.93572E-03
        -0.18171E-02
        -0.25928E-02
        -0.32179E-02
        -0.36559E-02
        -0.38815E-02
        -0.38815E-02
        -0.36559E-02
        -0.32179E-02
        -0.25928E-02
        -0.18171E-02
        -0.93572E-03
         0.68457E-03
         0.12447E-02
         0.60250E-03
        -0.32191E-03
         0.15645E-03
        -0.66607E-03
         0.18451E-02
         0.14787E-02
         0.32345E-03
         0.12040E-02
         0.22775E-02
         0.28194E-02
         0.24268E-02
         0.21692E-02
         0.29311E-02
        -0.10062E-02
         0.95964E-04
        -0.68793E-03
        -0.70901E-03
         0.85343E-04
        -0.77507E-03
         0.46453E-04
        -0.15184E-02
        -0.13209E-02
         0.10169E-02
        -0.17316E-02
         0.20280E-02
         0.18588E-02
         0.17175E-02
         0.91443E-03
        -0.19806E-02
        -0.23494E-02
        -0.17073E-02
        -0.14945E-02
         0.78148E-03
         0.12567E-02
         0.18673E-02
         0.28813E-02
         0.27108E-02
         0.24595E-02
         0.22358E-02
         0.16502E-02
         0.88043E-03
        -0.21374E-02
        -0.26936E-02
        -0.31291E-02
        -0.30381E-02
        -0.28751E-02
        -0.26479E-02
        -0.23750E-02
        -0.21560E-02
        -0.15082E-02
         0.93572E-03
         0.00000E+00
         0.18171E-02
         0.25928E-02
         0.32179E-02
         0.36559E-02
         0.38815E-02
         0.38815E-02
         0.36559E-02
         0.32179E-02
         0.25928E-02
         0.18171E-02
         0.93572E-03
        -0.47884E-18
        -0.93572E-03
        -0.18171E-02
        -0.25928E-02
        -0.32179E-02
        -0.36559E-02
        -0.38815E-02
        -0.38815E-02
        -0.36559E-02
        -0.32179E-02
        -0.25928E-02
        -0.18171E-02
        -0.93572E-03
         0.68512E-03
         0.12454E-02
         0.60302E-03
        -0.32115E-03
         0.15681E-03
        -0.66558E-03
         0.18453E-02
         0.14797E-02
         0.32459E-03
         0.12058E-02
         0.22776E-02
         0.28189E-02
         0.24270E-02
         0.21693E-02
         0.29308E-02
        -0.10064E-02
         0.96773E-04
        -0.68721E-03
        -0.70887E-03
         0.85467E-04
        -0.77490E-03
         0.46726E-04
        -0.15184E-02
        -0.13208E-02
         0.10183E-02
        -0.17316E-02
         0.20283E-02
         0.18586E-02
         0.17175E-02
         0.91467E-03
        -0.19806E-02
        -0.23494E-02
        -0.17073E-02
        -0.14948E-02
         0.78248E-03
         0.12571E-02
         0.18673E-02
         0.28802E-02
         0.27103E-02
         0.24593E-02
         0.22358E-02
         0.16502E-02
         0.88069E-03
        -0.21374E-02
        -0.26936E-02
        -0.31291E-02
        -0.30381E-02
        -0.28751E-02
        -0.26482E-02
        -0.23752E-02
        -0.21565E-02
        -0.15081E-02
         0.93572E-03
         0.00000E+00
         0.18171E-02
         0.25928E-02
         0.32179E-02
         0.36559E-02
         0.38815E-02
         0.38815E-02
         0.36559E-02
         0.32179E-02
         0.25928E-02
         0.18171E-02
         0.93572E-03
        -0.47884E-18
        -0.93572E-03
        -0.18171E-02
        -0.25928E-02
        -0.32179E-02
        -0.36559E-02
        -0.38815E-02
        -0.38815E-02
        -0.36559E-02
        -0.32179E-02
        -0.25928E-02
        -0.18171E-02
        -0.93572E-03
         0.68567E-03
         0.12460E-02
         0.60355E-03
        -0.32040E-03
         0.15718E-03
        -0.66509E-03
         0.18455E-02
         0.14807E-02
         0.32574E-03
         0.12075E-02
         0.22777E-02
         0.28185E-02
         0.24271E-02
         0.21693E-02
         0.29306E-02
        -0.10065E-02
         0.97583E-04
        -0.68648E-03
        -0.70873E-03
         0.85591E-04
        -0.77474E-03
         0.47000E-04
        -0.15183E-02
        -0.13207E-02
         0.10197E-02
        -0.17316E-02
         0.20285E-02
         0.18585E-02
         0.17175E-02
         0.91491E-03
        -0.19806E-02
        -0.23495E-02
        -0.17073E-02
        -0.14950E-02
         0.78348E-03
         0.12576E-02
         0.18674E-02
         0.28792E-02
         0.27099E-02
         0.24591E-02
         0.22358E-02
         0.16502E-02
         0.88095E-03
        -0.21374E-02
        -0.26936E-02
        -0.31290E-02
        -0.30381E-02
        -0.28751E-02
        -0.26484E-02
        -0.23754E-02
        -0.21571E-02
        -0.15080E-02
         0.93572E-03
         0.00000E+00
         0.18171E-02
         0.25928E-02
         0.32179E-02
         0.36559E-02
         0.38815E-02
         0.38815E-02
         0.36559E-02
         0.32179E-02
         0.25928E-02
         0.18171E-02
         0.93572E-03
         0.47884E-18
        -0.93572E-03
        -0.18171E-02
        -0.25928E-02
        -0.32179E-02
        -0.36559E-02
        -0.38815E-02
        -0.38815E-02
        -0.36559E-02
        -0.32179E-02
        -0.25928E-02
        -0.18171E-02
        -0.93572E-03
  
SCALARS           initial_coordinate_z  double 1
LOOKUP_TABLE default
        -0.10771E-01
        -0.10771E-01
        -0.10771E-01
        -0.10771E-01
        -0.11750E-01
        -0.11750E-01
        -0.11750E-01
        -0.11750E-01
        -0.10771E-01
        -0.10771E-01
        -0.11750E-01
        -0.11750E-01
        -0.10771E-01
        -0.10771E-01
        -0.11750E-01
        -0.11750E-01
        -0.10771E-01
        -0.10771E-01
        -0.11750E-01
        -0.11750E-01
        -0.10771E-01
        -0.10771E-01
        -0.10771E-01
        -0.11750E-01
        -0.11750E-01
        -0.11750E-01
        -0.10771E-01
        -0.10771E-01
        -0.11750E-01
        -0.11750E-01
        -0.10771E-01
        -0.10771E-01
        -0.10771E-01
        -0.11750E-01
        -0.11750E-01
        -0.11750E-01
        -0.10771E-01
        -0.10771E-01
        -0.11750E-01
        -0.11750E-01
        -0.10771E-01
        -0.10771E-01
        -0.11750E-01
        -0.11750E-01
        -0.10771E-01
        -0.10771E-01
        -0.11750E-01
        -0.11750E-01
        -0.10771E-01
        -0.11750E-01
        -0.10771E-01
        -0.11750E-01
        -0.10771E-01
        -0.11750E-01
        -0.10771E-01
        -0.11750E-01
        -0.10771E-01
        -0.10771E-01
        -0.11750E-01
        -0.11750E-01
        -0.10771E-01
        -0.10771E-01
        -0.11750E-01
        -0.11750E-01
        -0.10771E-01
        -0.11750E-01
        -0.10771E-01
        -0.11750E-01
        -0.10771E-01
        -0.10771E-01
        -0.11750E-01
        -0.11750E-01
        -0.10771E-01
        -0.11750E-01
        -0.10771E-01
        -0.11750E-01
        -0.10771E-01
        -0.11750E-01
        -0.10771E-01
        -0.11750E-01
        -0.10771E-01
        -0.10771E-01
        -0.11750E-01
        -0.11750E-01
        -0.10771E-01
        -0.11750E-01
        -0.10771E-01
        -0.11750E-01
        -0.10771E-01
        -0.11750E-01
        -0.10771E-01
        -0.10771E-01
        -0.11750E-01
        -0.11750E-01
        -0.10771E-01
        -0.11750E-01
        -0.10771E-01
        -0.11750E-01
        -0.10771E-01
        -0.11750E-01
        -0.10771E-01
        -0.10771E-01
        -0.11750E-01
        -0.11750E-01
        -0.10771E-01
        -0.10771E-01
        -0.11750E-01
        -0.11750E-01
        -0.10771E-01
        -0.11750E-01
        -0.10771E-01
        -0.11750E-01
        -0.10771E-01
        -0.11750E-01
        -0.10771E-01
        -0.11750E-01
        -0.10771E-01
        -0.11750E-01
        -0.10771E-01
        -0.11750E-01
        -0.10771E-01
        -0.11750E-01
        -0.10771E-01
        -0.11750E-01
        -0.10771E-01
        -0.11750E-01
        -0.10771E-01
        -0.11750E-01
        -0.10771E-01
        -0.11750E-01
        -0.10771E-01
        -0.11750E-01
        -0.10771E-01
        -0.11750E-01
        -0.10771E-01
        -0.11750E-01
        -0.10771E-01
        -0.11750E-01
        -0.10771E-01
        -0.11750E-01
        -0.10771E-01
        -0.11750E-01
        -0.10771E-01
        -0.11750E-01
        -0.10771E-01
        -0.11750E-01
        -0.10771E-01
        -0.11750E-01
        -0.10771E-01
        -0.11750E-01
        -0.10771E-01
        -0.11750E-01
        -0.10771E-01
        -0.11750E-01
        -0.10771E-01
        -0.11750E-01
        -0.97917E-02
        -0.97917E-02
        -0.97917E-02
        -0.97917E-02
        -0.97917E-02
        -0.97917E-02
        -0.97917E-02
        -0.97917E-02
        -0.97917E-02
        -0.97917E-02
        -0.97917E-02
        -0.97917E-02
        -0.97917E-02
        -0.97917E-02
        -0.97917E-02
        -0.97917E-02
        -0.97917E-02
        -0.97917E-02
        -0.97917E-02
        -0.97917E-02
        -0.97917E-02
        -0.97917E-02
        -0.97917E-02
        -0.97917E-02
        -0.97917E-02
        -0.97917E-02
        -0.97917E-02
        -0.97917E-02
        -0.97917E-02
        -0.97917E-02
        -0.97917E-02
        -0.97917E-02
        -0.97917E-02
        -0.97917E-02
        -0.97917E-02
        -0.97917E-02
        -0.97917E-02
        -0.97917E-02
        -0.97917E-02
        -0.97917E-02
        -0.97917E-02
        -0.97917E-02
        -0.97917E-02
        -0.97917E-02
        -0.97917E-02
        -0.97917E-02
        -0.97917E-02
        -0.97917E-02
        -0.97917E-02
        -0.97917E-02
        -0.97917E-02
        -0.97917E-02
        -0.97917E-02
        -0.97917E-02
        -0.97917E-02
        -0.97917E-02
        -0.97917E-02
        -0.97917E-02
        -0.97917E-02
        -0.97917E-02
        -0.97917E-02
        -0.97917E-02
        -0.97917E-02
        -0.97917E-02
        -0.97917E-02
        -0.97917E-02
        -0.97917E-02
        -0.97917E-02
        -0.97917E-02
        -0.97917E-02
        -0.97917E-02
        -0.97917E-02
        -0.97917E-02
        -0.97917E-02
        -0.97917E-02
        -0.97917E-02
        -0.97917E-02
        -0.97917E-02
        -0.88125E-02
        -0.88125E-02
        -0.88125E-02
        -0.88125E-02
        -0.88125E-02
        -0.88125E-02
        -0.88125E-02
        -0.88125E-02
        -0.88125E-02
        -0.88125E-02
        -0.88125E-02
        -0.88125E-02
        -0.88125E-02
        -0.88125E-02
        -0.88125E-02
        -0.88125E-02
        -0.88125E-02
        -0.88125E-02
        -0.88125E-02
        -0.88125E-02
        -0.88125E-02
        -0.88125E-02
        -0.88125E-02
        -0.88125E-02
        -0.88125E-02
        -0.88125E-02
        -0.88125E-02
        -0.88125E-02
        -0.88125E-02
        -0.88125E-02
        -0.88125E-02
        -0.88125E-02
        -0.88125E-02
        -0.88125E-02
        -0.88125E-02
        -0.88125E-02
        -0.88125E-02
        -0.88125E-02
        -0.88125E-02
        -0.88125E-02
        -0.88125E-02
        -0.88125E-02
        -0.88125E-02
        -0.88125E-02
        -0.88125E-02
        -0.88125E-02
        -0.88125E-02
        -0.88125E-02
        -0.88125E-02
        -0.88125E-02
        -0.88125E-02
        -0.88125E-02
        -0.88125E-02
        -0.88125E-02
        -0.88125E-02
        -0.88125E-02
        -0.88125E-02
        -0.88125E-02
        -0.88125E-02
        -0.88125E-02
        -0.88125E-02
        -0.88125E-02
        -0.88125E-02
        -0.88125E-02
        -0.88125E-02
        -0.88125E-02
        -0.88125E-02
        -0.88125E-02
        -0.88125E-02
        -0.88125E-02
        -0.88125E-02
        -0.88125E-02
        -0.88125E-02
        -0.88125E-02
        -0.88125E-02
        -0.88125E-02
        -0.88125E-02
        -0.88125E-02
        -0.78333E-02
        -0.78333E-02
        -0.78333E-02
        -0.78333E-02
        -0.78333E-02
        -0.78333E-02
        -0.78333E-02
        -0.78333E-02
        -0.78333E-02
        -0.78333E-02
        -0.78333E-02
        -0.78333E-02
        -0.78333E-02
        -0.78333E-02
        -0.78333E-02
        -0.78333E-02
        -0.78333E-02
        -0.78333E-02
        -0.78333E-02
        -0.78333E-02
        -0.78333E-02
        -0.78333E-02
        -0.78333E-02
        -0.78333E-02
        -0.78333E-02
        -0.78333E-02
        -0.78333E-02
        -0.78333E-02
        -0.78333E-02
        -0.78333E-02
        -0.78333E-02
        -0.78333E-02
        -0.78333E-02
        -0.78333E-02
        -0.78333E-02
        -0.78333E-02
        -0.78333E-02
        -0.78333E-02
        -0.78333E-02
        -0.78333E-02
        -0.78333E-02
        -0.78333E-02
        -0.78333E-02
        -0.78333E-02
        -0.78333E-02
        -0.78333E-02
        -0.78333E-02
        -0.78333E-02
        -0.78333E-02
        -0.78333E-02
        -0.78333E-02
        -0.78333E-02
        -0.78333E-02
        -0.78333E-02
        -0.78333E-02
        -0.78333E-02
        -0.78333E-02
        -0.78333E-02
        -0.78333E-02
        -0.78333E-02
        -0.78333E-02
        -0.78333E-02
        -0.78333E-02
        -0.78333E-02
        -0.78333E-02
        -0.78333E-02
        -0.78333E-02
        -0.78333E-02
        -0.78333E-02
        -0.78333E-02
        -0.78333E-02
        -0.78333E-02
        -0.78333E-02
        -0.78333E-02
        -0.78333E-02
        -0.78333E-02
        -0.78333E-02
        -0.78333E-02
        -0.68542E-02
        -0.68542E-02
        -0.68542E-02
        -0.68542E-02
        -0.68542E-02
        -0.68542E-02
        -0.68542E-02
        -0.68542E-02
        -0.68542E-02
        -0.68542E-02
        -0.68542E-02
        -0.68542E-02
        -0.68542E-02
        -0.68542E-02
        -0.68542E-02
        -0.68542E-02
        -0.68542E-02
        -0.68542E-02
        -0.68542E-02
        -0.68542E-02
        -0.68542E-02
        -0.68542E-02
        -0.68542E-02
        -0.68542E-02
        -0.68542E-02
        -0.68542E-02
        -0.68542E-02
        -0.68542E-02
        -0.68542E-02
        -0.68542E-02
        -0.68542E-02
        -0.68542E-02
        -0.68542E-02
        -0.68542E-02
        -0.68542E-02
        -0.68542E-02
        -0.68542E-02
        -0.68542E-02
        -0.68542E-02
        -0.68542E-02
        -0.68542E-02
        -0.68542E-02
        -0.68542E-02
        -0.68542E-02
        -0.68542E-02
        -0.68542E-02
        -0.68542E-02
        -0.68542E-02
        -0.68542E-02
        -0.68542E-02
        -0.68542E-02
        -0.68542E-02
        -0.68542E-02
        -0.68542E-02
        -0.68542E-02
        -0.68542E-02
        -0.68542E-02
        -0.68542E-02
        -0.68542E-02
        -0.68542E-02
        -0.68542E-02
        -0.68542E-02
        -0.68542E-02
        -0.68542E-02
        -0.68542E-02
        -0.68542E-02
        -0.68542E-02
        -0.68542E-02
        -0.68542E-02
        -0.68542E-02
        -0.68542E-02
        -0.68542E-02
        -0.68542E-02
        -0.68542E-02
        -0.68542E-02
        -0.68542E-02
        -0.68542E-02
        -0.68542E-02
        -0.58750E-02
        -0.58750E-02
        -0.58750E-02
        -0.58750E-02
        -0.58750E-02
        -0.58750E-02
        -0.58750E-02
        -0.58750E-02
        -0.58750E-02
        -0.58750E-02
        -0.58750E-02
        -0.58750E-02
        -0.58750E-02
        -0.58750E-02
        -0.58750E-02
        -0.58750E-02
        -0.58750E-02
        -0.58750E-02
        -0.58750E-02
        -0.58750E-02
        -0.58750E-02
        -0.58750E-02
        -0.58750E-02
        -0.58750E-02
        -0.58750E-02
        -0.58750E-02
        -0.58750E-02
        -0.58750E-02
        -0.58750E-02
        -0.58750E-02
        -0.58750E-02
        -0.58750E-02
        -0.58750E-02
        -0.58750E-02
        -0.58750E-02
        -0.58750E-02
        -0.58750E-02
        -0.58750E-02
        -0.58750E-02
        -0.58750E-02
        -0.58750E-02
        -0.58750E-02
        -0.58750E-02
        -0.58750E-02
        -0.58750E-02
        -0.58750E-02
        -0.58750E-02
        -0.58750E-02
        -0.58750E-02
        -0.58750E-02
        -0.58750E-02
        -0.58750E-02
        -0.58750E-02
        -0.58750E-02
        -0.58750E-02
        -0.58750E-02
        -0.58750E-02
        -0.58750E-02
        -0.58750E-02
        -0.58750E-02
        -0.58750E-02
        -0.58750E-02
        -0.58750E-02
        -0.58750E-02
        -0.58750E-02
        -0.58750E-02
        -0.58750E-02
        -0.58750E-02
        -0.58750E-02
        -0.58750E-02
        -0.58750E-02
        -0.58750E-02
        -0.58750E-02
        -0.58750E-02
        -0.58750E-02
        -0.58750E-02
        -0.58750E-02
        -0.58750E-02
        -0.48958E-02
        -0.48958E-02
        -0.48958E-02
        -0.48958E-02
        -0.48958E-02
        -0.48958E-02
        -0.48958E-02
        -0.48958E-02
        -0.48958E-02
        -0.48958E-02
        -0.48958E-02
        -0.48958E-02
        -0.48958E-02
        -0.48958E-02
        -0.48958E-02
        -0.48958E-02
        -0.48958E-02
        -0.48958E-02
        -0.48958E-02
        -0.48958E-02
        -0.48958E-02
        -0.48958E-02
        -0.48958E-02
        -0.48958E-02
        -0.48958E-02
        -0.48958E-02
        -0.48958E-02
        -0.48958E-02
        -0.48958E-02
        -0.48958E-02
        -0.48958E-02
        -0.48958E-02
        -0.48958E-02
        -0.48958E-02
        -0.48958E-02
        -0.48958E-02
        -0.48958E-02
        -0.48958E-02
        -0.48958E-02
        -0.48958E-02
        -0.48958E-02
        -0.48958E-02
        -0.48958E-02
        -0.48958E-02
        -0.48958E-02
        -0.48958E-02
        -0.48958E-02
        -0.48958E-02
        -0.48958E-02
        -0.48958E-02
        -0.48958E-02
        -0.48958E-02
        -0.48958E-02
        -0.48958E-02
        -0.48958E-02
        -0.48958E-02
        -0.48958E-02
        -0.48958E-02
        -0.48958E-02
        -0.48958E-02
        -0.48958E-02
        -0.48958E-02
        -0.48958E-02
        -0.48958E-02
        -0.48958E-02
        -0.48958E-02
        -0.48958E-02
        -0.48958E-02
        -0.48958E-02
        -0.48958E-02
        -0.48958E-02
        -0.48958E-02
        -0.48958E-02
        -0.48958E-02
        -0.48958E-02
        -0.48958E-02
        -0.48958E-02
        -0.48958E-02
        -0.39167E-02
        -0.39167E-02
        -0.39167E-02
        -0.39167E-02
        -0.39167E-02
        -0.39167E-02
        -0.39167E-02
        -0.39167E-02
        -0.39167E-02
        -0.39167E-02
        -0.39167E-02
        -0.39167E-02
        -0.39167E-02
        -0.39167E-02
        -0.39167E-02
        -0.39167E-02
        -0.39167E-02
        -0.39167E-02
        -0.39167E-02
        -0.39167E-02
        -0.39167E-02
        -0.39167E-02
        -0.39167E-02
        -0.39167E-02
        -0.39167E-02
        -0.39167E-02
        -0.39167E-02
        -0.39167E-02
        -0.39167E-02
        -0.39167E-02
        -0.39167E-02
        -0.39167E-02
        -0.39167E-02
        -0.39167E-02
        -0.39167E-02
        -0.39167E-02
        -0.39167E-02
        -0.39167E-02
        -0.39167E-02
        -0.39167E-02
        -0.39167E-02
        -0.39167E-02
        -0.39167E-02
        -0.39167E-02
        -0.39167E-02
        -0.39167E-02
        -0.39167E-02
        -0.39167E-02
        -0.39167E-02
        -0.39167E-02
        -0.39167E-02
        -0.39167E-02
        -0.39167E-02
        -0.39167E-02
        -0.39167E-02
        -0.39167E-02
        -0.39167E-02
        -0.39167E-02
        -0.39167E-02
        -0.39167E-02
        -0.39167E-02
        -0.39167E-02
        -0.39167E-02
        -0.39167E-02
        -0.39167E-02
        -0.39167E-02
        -0.39167E-02
        -0.39167E-02
        -0.39167E-02
        -0.39167E-02
        -0.39167E-02
        -0.39167E-02
        -0.39167E-02
        -0.39167E-02
        -0.39167E-02
        -0.39167E-02
        -0.39167E-02
        -0.39167E-02
        -0.29375E-02
        -0.29375E-02
        -0.29375E-02
        -0.29375E-02
        -0.29375E-02
        -0.29375E-02
        -0.29375E-02
        -0.29375E-02
        -0.29375E-02
        -0.29375E-02
        -0.29375E-02
        -0.29375E-02
        -0.29375E-02
        -0.29375E-02
        -0.29375E-02
        -0.29375E-02
        -0.29375E-02
        -0.29375E-02
        -0.29375E-02
        -0.29375E-02
        -0.29375E-02
        -0.29375E-02
        -0.29375E-02
        -0.29375E-02
        -0.29375E-02
        -0.29375E-02
        -0.29375E-02
        -0.29375E-02
        -0.29375E-02
        -0.29375E-02
        -0.29375E-02
        -0.29375E-02
        -0.29375E-02
        -0.29375E-02
        -0.29375E-02
        -0.29375E-02
        -0.29375E-02
        -0.29375E-02
        -0.29375E-02
        -0.29375E-02
        -0.29375E-02
        -0.29375E-02
        -0.29375E-02
        -0.29375E-02
        -0.29375E-02
        -0.29375E-02
        -0.29375E-02
        -0.29375E-02
        -0.29375E-02
        -0.29375E-02
        -0.29375E-02
        -0.29375E-02
        -0.29375E-02
        -0.29375E-02
        -0.29375E-02
        -0.29375E-02
        -0.29375E-02
        -0.29375E-02
        -0.29375E-02
        -0.29375E-02
        -0.29375E-02
        -0.29375E-02
        -0.29375E-02
        -0.29375E-02
        -0.29375E-02
        -0.29375E-02
        -0.29375E-02
        -0.29375E-02
        -0.29375E-02
        -0.29375E-02
        -0.29375E-02
        -0.29375E-02
        -0.29375E-02
        -0.29375E-02
        -0.29375E-02
        -0.29375E-02
        -0.29375E-02
        -0.29375E-02
        -0.19583E-02
        -0.19583E-02
        -0.19583E-02
        -0.19583E-02
        -0.19583E-02
        -0.19583E-02
        -0.19583E-02
        -0.19583E-02
        -0.19583E-02
        -0.19583E-02
        -0.19583E-02
        -0.19583E-02
        -0.19583E-02
        -0.19583E-02
        -0.19583E-02
        -0.19583E-02
        -0.19583E-02
        -0.19583E-02
        -0.19583E-02
        -0.19583E-02
        -0.19583E-02
        -0.19583E-02
        -0.19583E-02
        -0.19583E-02
        -0.19583E-02
        -0.19583E-02
        -0.19583E-02
        -0.19583E-02
        -0.19583E-02
        -0.19583E-02
        -0.19583E-02
        -0.19583E-02
        -0.19583E-02
        -0.19583E-02
        -0.19583E-02
        -0.19583E-02
        -0.19583E-02
        -0.19583E-02
        -0.19583E-02
        -0.19583E-02
        -0.19583E-02
        -0.19583E-02
        -0.19583E-02
        -0.19583E-02
        -0.19583E-02
        -0.19583E-02
        -0.19583E-02
        -0.19583E-02
        -0.19583E-02
        -0.19583E-02
        -0.19583E-02
        -0.19583E-02
        -0.19583E-02
        -0.19583E-02
        -0.19583E-02
        -0.19583E-02
        -0.19583E-02
        -0.19583E-02
        -0.19583E-02
        -0.19583E-02
        -0.19583E-02
        -0.19583E-02
        -0.19583E-02
        -0.19583E-02
        -0.19583E-02
        -0.19583E-02
        -0.19583E-02
        -0.19583E-02
        -0.19583E-02
        -0.19583E-02
        -0.19583E-02
        -0.19583E-02
        -0.19583E-02
        -0.19583E-02
        -0.19583E-02
        -0.19583E-02
        -0.19583E-02
        -0.19583E-02
        -0.97917E-03
        -0.97917E-03
        -0.97917E-03
        -0.97917E-03
        -0.97917E-03
        -0.97917E-03
        -0.97917E-03
        -0.97917E-03
        -0.97917E-03
        -0.97917E-03
        -0.97917E-03
        -0.97917E-03
        -0.97917E-03
        -0.97917E-03
        -0.97917E-03
        -0.97917E-03
        -0.97917E-03
        -0.97917E-03
        -0.97917E-03
        -0.97917E-03
        -0.97917E-03
        -0.97917E-03
        -0.97917E-03
        -0.97917E-03
        -0.97917E-03
        -0.97917E-03
        -0.97917E-03
        -0.97917E-03
        -0.97917E-03
        -0.97917E-03
        -0.97917E-03
        -0.97917E-03
        -0.97917E-03
        -0.97917E-03
        -0.97917E-03
        -0.97917E-03
        -0.97917E-03
        -0.97917E-03
        -0.97917E-03
        -0.97917E-03
        -0.97917E-03
        -0.97917E-03
        -0.97917E-03
        -0.97917E-03
        -0.97917E-03
        -0.97917E-03
        -0.97917E-03
        -0.97917E-03
        -0.97917E-03
        -0.97917E-03
        -0.97917E-03
        -0.97917E-03
        -0.97917E-03
        -0.97917E-03
        -0.97917E-03
        -0.97917E-03
        -0.97917E-03
        -0.97917E-03
        -0.97917E-03
        -0.97917E-03
        -0.97917E-03
        -0.97917E-03
        -0.97917E-03
        -0.97917E-03
        -0.97917E-03
        -0.97917E-03
        -0.97917E-03
        -0.97917E-03
        -0.97917E-03
        -0.97917E-03
        -0.97917E-03
        -0.97917E-03
        -0.97917E-03
        -0.97917E-03
        -0.97917E-03
        -0.97917E-03
        -0.97917E-03
        -0.97917E-03
         0.38917E-18
         0.44621E-18
         0.34485E-18
         0.23671E-18
         0.26613E-18
         0.16162E-18
         0.53980E-18
         0.50579E-18
         0.36337E-18
         0.48798E-18
         0.60712E-18
         0.67611E-18
         0.60634E-18
         0.60658E-18
         0.70997E-18
         0.20892E-18
         0.35894E-18
         0.21887E-18
         0.27638E-18
         0.38382E-18
         0.29058E-18
         0.40326E-18
         0.18564E-18
         0.19650E-18
         0.48570E-18
         0.12837E-18
         0.60589E-18
         0.60416E-18
         0.60524E-18
         0.49621E-18
         0.61582E-19
         0.32255E-19
         0.73874E-19
         0.78478E-19
         0.34514E-18
         0.42054E-18
         0.51644E-18
         0.72521E-18
         0.72233E-18
         0.70722E-18
         0.69126E-18
         0.61573E-18
         0.51484E-18
         0.91170E-19
         0.30347E-20
        -0.66516E-19
        -0.69988E-19
        -0.68643E-19
        -0.59779E-19
        -0.43507E-19
        -0.29471E-19
         0.53205E-19
         0.86819E-18
         0.00000E+00
         0.86819E-18
         0.86819E-18
         0.00000E+00
         0.00000E+00
         0.00000E+00
         0.17364E-17
         0.17364E-17
         0.17364E-17
         0.43410E-18
         0.43410E-18
         0.43410E-18
         0.00000E+00
         0.00000E+00
         0.00000E+00
         0.00000E+00
         0.00000E+00
         0.21705E-18
        -0.21705E-18
         0.00000E+00
         0.00000E+00
         0.00000E+00
        -0.32557E-18
         0.54262E-19
        -0.40697E-18
         0.97917E-03
         0.97917E-03
         0.97917E-03
         0.97917E-03
         0.97917E-03
         0.97917E-03
         0.97917E-03
         0.97917E-03
         0.97917E-03
         0.97917E-03
         0.97917E-03
         0.97917E-03
         0.97917E-03
         0.97917E-03
         0.97917E-03
         0.97917E-03
         0.97917E-03
         0.97917E-03
         0.97917E-03
         0.97917E-03
         0.97917E-03
         0.97917E-03
         0.97917E-03
         0.97917E-03
         0.97917E-03
         0.97917E-03
         0.97917E-03
         0.97917E-03
         0.97917E-03
         0.97917E-03
         0.97917E-03
         0.97917E-03
         0.97917E-03
         0.97917E-03
         0.97917E-03
         0.97917E-03
         0.97917E-03
         0.97917E-03
         0.97917E-03
         0.97917E-03
         0.97917E-03
         0.97917E-03
         0.97917E-03
         0.97917E-03
         0.97917E-03
         0.97917E-03
         0.97917E-03
         0.97917E-03
         0.97917E-03
         0.97917E-03
         0.97917E-03
         0.97917E-03
         0.97917E-03
         0.97917E-03
         0.97917E-03
         0.97917E-03
         0.97917E-03
         0.97917E-03
         0.97917E-03
         0.97917E-03
         0.97917E-03
         0.97917E-03
         0.97917E-03
         0.97917E-03
         0.97917E-03
         0.97917E-03
         0.97917E-03
         0.97917E-03
         0.97917E-03
         0.97917E-03
         0.97917E-03
         0.97917E-03
         0.97917E-03
         0.97917E-03
         0.97917E-03
         0.97917E-03
         0.97917E-03
         0.97917E-03
         0.19583E-02
         0.19583E-02
         0.19583E-02
         0.19583E-02
         0.19583E-02
         0.19583E-02
         0.19583E-02
         0.19583E-02
         0.19583E-02
         0.19583E-02
         0.19583E-02
         0.19583E-02
         0.19583E-02
         0.19583E-02
         0.19583E-02
         0.19583E-02
         0.19583E-02
         0.19583E-02
         0.19583E-02
         0.19583E-02
         0.19583E-02
         0.19583E-02
         0.19583E-02
         0.19583E-02
         0.19583E-02
         0.19583E-02
         0.19583E-02
         0.19583E-02
         0.19583E-02
         0.19583E-02
         0.19583E-02
         0.19583E-02
         0.19583E-02
         0.19583E-02
         0.19583E-02
         0.19583E-02
         0.19583E-02
         0.19583E-02
         0.19583E-02
         0.19583E-02
         0.19583E-02
         0.19583E-02
         0.19583E-02
         0.19583E-02
         0.19583E-02
         0.19583E-02
         0.19583E-02
         0.19583E-02
         0.19583E-02
         0.19583E-02
         0.19583E-02
         0.19583E-02
         0.19583E-02
         0.19583E-02
         0.19583E-02
         0.19583E-02
         0.19583E-02
         0.19583E-02
         0.19583E-02
         0.19583E-02
         0.19583E-02
         0.19583E-02
         0.19583E-02
         0.19583E-02
         0.19583E-02
         0.19583E-02
         0.19583E-02
         0.19583E-02
         0.19583E-02
         0.19583E-02
         0.19583E-02
         0.19583E-02
         0.19583E-02
         0.19583E-02
         0.19583E-02
         0.19583E-02
         0.19583E-02
         0.19583E-02
         0.29375E-02
         0.29375E-02
         0.29375E-02
         0.29375E-02
         0.29375E-02
         0.29375E-02
         0.29375E-02
         0.29375E-02
         0.29375E-02
         0.29375E-02
         0.29375E-02
         0.29375E-02
         0.29375E-02
         0.29375E-02
         0.29375E-02
         0.29375E-02
         0.29375E-02
         0.29375E-02
         0.29375E-02
         0.29375E-02
         0.29375E-02
         0.29375E-02
         0.29375E-02
         0.29375E-02
         0.29375E-02
         0.29375E-02
         0.29375E-02
         0.29375E-02
         0.29375E-02
         0.29375E-02
         0.29375E-02
         0.29375E-02
         0.29375E-02
         0.29375E-02
         0.29375E-02
         0.29375E-02
         0.29375E-02
         0.29375E-02
         0.29375E-02
         0.29375E-02
         0.29375E-02
         0.29375E-02
         0.29375E-02
         0.29375E-02
         0.29375E-02
         0.29375E-02
         0.29375E-02
         0.29375E-02
         0.29375E-02
         0.29375E-02
         0.29375E-02
         0.29375E-02
         0.29375E-02
         0.29375E-02
         0.29375E-02
         0.29375E-02
         0.29375E-02
         0.29375E-02
         0.29375E-02
         0.29375E-02
         0.29375E-02
         0.29375E-02
         0.29375E-02
         0.29375E-02
         0.29375E-02
         0.29375E-02
         0.29375E-02
         0.29375E-02
         0.29375E-02
         0.29375E-02
         0.29375E-02
         0.29375E-02
         0.29375E-02
         0.29375E-02
         0.29375E-02
         0.29375E-02
         0.29375E-02
         0.29375E-02
         0.39167E-02
         0.39167E-02
         0.39167E-02
         0.39167E-02
         0.39167E-02
         0.39167E-02
         0.39167E-02
         0.39167E-02
         0.39167E-02
         0.39167E-02
         0.39167E-02
         0.39167E-02
         0.39167E-02
         0.39167E-02
         0.39167E-02
         0.39167E-02
         0.39167E-02
         0.39167E-02
         0.39167E-02
         0.39167E-02
         0.39167E-02
         0.39167E-02
         0.39167E-02
         0.39167E-02
         0.39167E-02
         0.39167E-02
         0.39167E-02
         0.39167E-02
         0.39167E-02
         0.39167E-02
         0.39167E-02
         0.39167E-02
         0.39167E-02
         0.39167E-02
         0.39167E-02
         0.39167E-02
         0.39167E-02
         0.39167E-02
         0.39167E-02
         0.39167E-02
         0.39167E-02
         0.39167E-02
         0.39167E-02
         0.39167E-02
         0.39167E-02
         0.39167E-02
         0.39167E-02
         0.39167E-02
         0.39167E-02
         0.39167E-02
         0.39167E-02
         0.39167E-02
         0.39167E-02
         0.39167E-02
         0.39167E-02
         0.39167E-02
         0.39167E-02
         0.39167E-02
         0.39167E-02
         0.39167E-02
         0.39167E-02
         0.39167E-02
         0.39167E-02
         0.39167E-02
         0.39167E-02
         0.39167E-02
         0.39167E-02
         0.39167E-02
         0.39167E-02
         0.39167E-02
         0.39167E-02
         0.39167E-02
         0.39167E-02
         0.39167E-02
         0.39167E-02
         0.39167E-02
         0.39167E-02
         0.39167E-02
         0.48958E-02
         0.48958E-02
         0.48958E-02
         0.48958E-02
         0.48958E-02
         0.48958E-02
         0.48958E-02
         0.48958E-02
         0.48958E-02
         0.48958E-02
         0.48958E-02
         0.48958E-02
         0.48958E-02
         0.48958E-02
         0.48958E-02
         0.48958E-02
         0.48958E-02
         0.48958E-02
         0.48958E-02
         0.48958E-02
         0.48958E-02
         0.48958E-02
         0.48958E-02
         0.48958E-02
         0.48958E-02
         0.48958E-02
         0.48958E-02
         0.48958E-02
         0.48958E-02
         0.48958E-02
         0.48958E-02
         0.48958E-02
         0.48958E-02
         0.48958E-02
         0.48958E-02
         0.48958E-02
         0.48958E-02
         0.48958E-02
         0.48958E-02
         0.48958E-02
         0.48958E-02
         0.48958E-02
         0.48958E-02
         0.48958E-02
         0.48958E-02
         0.48958E-02
         0.48958E-02
         0.48958E-02
         0.48958E-02
         0.48958E-02
         0.48958E-02
         0.48958E-02
         0.48958E-02
         0.48958E-02
         0.48958E-02
         0.48958E-02
         0.48958E-02
         0.48958E-02
         0.48958E-02
         0.48958E-02
         0.48958E-02
         0.48958E-02
         0.48958E-02
         0.48958E-02
         0.48958E-02
         0.48958E-02
         0.48958E-02
         0.48958E-02
         0.48958E-02
         0.48958E-02
         0.48958E-02
         0.48958E-02
         0.48958E-02
         0.48958E-02
         0.48958E-02
         0.48958E-02
         0.48958E-02
         0.48958E-02
         0.58750E-02
         0.58750E-02
         0.58750E-02
         0.58750E-02
         0.58750E-02
         0.58750E-02
         0.58750E-02
         0.58750E-02
         0.58750E-02
         0.58750E-02
         0.58750E-02
         0.58750E-02
         0.58750E-02
         0.58750E-02
         0.58750E-02
         0.58750E-02
         0.58750E-02
         0.58750E-02
         0.58750E-02
         0.58750E-02
         0.58750E-02
         0.58750E-02
         0.58750E-02
         0.58750E-02
         0.58750E-02
         0.58750E-02
         0.58750E-02
         0.58750E-02
         0.58750E-02
         0.58750E-02
         0.58750E-02
         0.58750E-02
         0.58750E-02
         0.58750E-02
         0.58750E-02
         0.58750E-02
         0.58750E-02
         0.58750E-02
         0.58750E-02
         0.58750E-02
         0.58750E-02
         0.58750E-02
         0.58750E-02
         0.58750E-02
         0.58750E-02
         0.58750E-02
         0.58750E-02
         0.58750E-02
         0.58750E-02
         0.58750E-02
         0.58750E-02
         0.58750E-02
         0.58750E-02
         0.58750E-02
         0.58750E-02
         0.58750E-02
         0.58750E-02
         0.58750E-02
         0.58750E-02
         0.58750E-02
         0.58750E-02
         0.58750E-02
         0.58750E-02
         0.58750E-02
         0.58750E-02
         0.58750E-02
         0.58750E-02
         0.58750E-02
         0.58750E-02
         0.58750E-02
         0.58750E-02
         0.58750E-02
         0.58750E-02
         0.58750E-02
         0.58750E-02
         0.58750E-02
         0.58750E-02
         0.58750E-02
         0.68542E-02
         0.68542E-02
         0.68542E-02
         0.68542E-02
         0.68542E-02
         0.68542E-02
         0.68542E-02
         0.68542E-02
         0.68542E-02
         0.68542E-02
         0.68542E-02
         0.68542E-02
         0.68542E-02
         0.68542E-02
         0.68542E-02
         0.68542E-02
         0.68542E-02
         0.68542E-02
         0.68542E-02
         0.68542E-02
         0.68542E-02
         0.68542E-02
         0.68542E-02
         0.68542E-02
         0.68542E-02
         0.68542E-02
         0.68542E-02
         0.68542E-02
         0.68542E-02
         0.68542E-02
         0.68542E-02
         0.68542E-02
         0.68542E-02
         0.68542E-02
         0.68542E-02
         0.68542E-02
         0.68542E-02
         0.68542E-02
         0.68542E-02
         0.68542E-02
         0.68542E-02
         0.68542E-02
         0.68542E-02
         0.68542E-02
         0.68542E-02
         0.68542E-02
         0.68542E-02
         0.68542E-02
         0.68542E-02
         0.68542E-02
         0.68542E-02
         0.68542E-02
         0.68542E-02
         0.68542E-02
         0.68542E-02
         0.68542E-02
         0.68542E-02
         0.68542E-02
         0.68542E-02
         0.68542E-02
         0.68542E-02
         0.68542E-02
         0.68542E-02
         0.68542E-02
         0.68542E-02
         0.68542E-02
         0.68542E-02
         0.68542E-02
         0.68542E-02
         0.68542E-02
         0.68542E-02
         0.68542E-02
         0.68542E-02
         0.68542E-02
         0.68542E-02
         0.68542E-02
         0.68542E-02
         0.68542E-02
         0.78333E-02
         0.78333E-02
         0.78333E-02
         0.78333E-02
         0.78333E-02
         0.78333E-02
         0.78333E-02
         0.78333E-02
         0.78333E-02
         0.78333E-02
         0.78333E-02
         0.78333E-02
         0.78333E-02
         0.78333E-02
         0.78333E-02
         0.78333E-02
         0.78333E-02
         0.78333E-02
         0.78333E-02
         0.78333E-02
         0.78333E-02
         0.78333E-02
         0.78333E-02
         0.78333E-02
         0.78333E-02
         0.78333E-02
         0.78333E-02
         0.78333E-02
         0.78333E-02
         0.78333E-02
         0.78333E-02
         0.78333E-02
         0.78333E-02
         0.78333E-02
         0.78333E-02
         0.78333E-02
         0.78333E-02
         0.78333E-02
         0.78333E-02
         0.78333E-02
         0.78333E-02
         0.78333E-02
         0.78333E-02
         0.78333E-02
         0.78333E-02
         0.78333E-02
         0.78333E-02
         0.78333E-02
         0.78333E-02
         0.78333E-02
         0.78333E-02
         0.78333E-02
         0.78333E-02
         0.78333E-02
         0.78333E-02
         0.78333E-02
         0.78333E-02
         0.78333E-02
         0.78333E-02
         0.78333E-02
         0.78333E-02
         0.78333E-02
         0.78333E-02
         0.78333E-02
         0.78333E-02
         0.78333E-02
         0.78333E-02
         0.78333E-02
         0.78333E-02
         0.78333E-02
         0.78333E-02
         0.78333E-02
         0.78333E-02
         0.78333E-02
         0.78333E-02
         0.78333E-02
         0.78333E-02
         0.78333E-02
         0.88125E-02
         0.88125E-02
         0.88125E-02
         0.88125E-02
         0.88125E-02
         0.88125E-02
         0.88125E-02
         0.88125E-02
         0.88125E-02
         0.88125E-02
         0.88125E-02
         0.88125E-02
         0.88125E-02
         0.88125E-02
         0.88125E-02
         0.88125E-02
         0.88125E-02
         0.88125E-02
         0.88125E-02
         0.88125E-02
         0.88125E-02
         0.88125E-02
         0.88125E-02
         0.88125E-02
         0.88125E-02
         0.88125E-02
         0.88125E-02
         0.88125E-02
         0.88125E-02
         0.88125E-02
         0.88125E-02
         0.88125E-02
         0.88125E-02
         0.88125E-02
         0.88125E-02
         0.88125E-02
         0.88125E-02
         0.88125E-02
         0.88125E-02
         0.88125E-02
         0.88125E-02
         0.88125E-02
         0.88125E-02
         0.88125E-02
         0.88125E-02
         0.88125E-02
         0.88125E-02
         0.88125E-02
         0.88125E-02
         0.88125E-02
         0.88125E-02
         0.88125E-02
         0.88125E-02
         0.88125E-02
         0.88125E-02
         0.88125E-02
         0.88125E-02
         0.88125E-02
         0.88125E-02
         0.88125E-02
         0.88125E-02
         0.88125E-02
         0.88125E-02
         0.88125E-02
         0.88125E-02
         0.88125E-02
         0.88125E-02
         0.88125E-02
         0.88125E-02
         0.88125E-02
         0.88125E-02
         0.88125E-02
         0.88125E-02
         0.88125E-02
         0.88125E-02
         0.88125E-02
         0.88125E-02
         0.88125E-02
         0.97917E-02
         0.97917E-02
         0.97917E-02
         0.97917E-02
         0.97917E-02
         0.97917E-02
         0.97917E-02
         0.97917E-02
         0.97917E-02
         0.97917E-02
         0.97917E-02
         0.97917E-02
         0.97917E-02
         0.97917E-02
         0.97917E-02
         0.97917E-02
         0.97917E-02
         0.97917E-02
         0.97917E-02
         0.97917E-02
         0.97917E-02
         0.97917E-02
         0.97917E-02
         0.97917E-02
         0.97917E-02
         0.97917E-02
         0.97917E-02
         0.97917E-02
         0.97917E-02
         0.97917E-02
         0.97917E-02
         0.97917E-02
         0.97917E-02
         0.97917E-02
         0.97917E-02
         0.97917E-02
         0.97917E-02
         0.97917E-02
         0.97917E-02
         0.97917E-02
         0.97917E-02
         0.97917E-02
         0.97917E-02
         0.97917E-02
         0.97917E-02
         0.97917E-02
         0.97917E-02
         0.97917E-02
         0.97917E-02
         0.97917E-02
         0.97917E-02
         0.97917E-02
         0.97917E-02
         0.97917E-02
         0.97917E-02
         0.97917E-02
         0.97917E-02
         0.97917E-02
         0.97917E-02
         0.97917E-02
         0.97917E-02
         0.97917E-02
         0.97917E-02
         0.97917E-02
         0.97917E-02
         0.97917E-02
         0.97917E-02
         0.97917E-02
         0.97917E-02
         0.97917E-02
         0.97917E-02
         0.97917E-02
         0.97917E-02
         0.97917E-02
         0.97917E-02
         0.97917E-02
         0.97917E-02
         0.97917E-02
         0.10771E-01
         0.10771E-01
         0.10771E-01
         0.10771E-01
         0.10771E-01
         0.10771E-01
         0.10771E-01
         0.10771E-01
         0.10771E-01
         0.10771E-01
         0.10771E-01
         0.10771E-01
         0.10771E-01
         0.10771E-01
         0.10771E-01
         0.10771E-01
         0.10771E-01
         0.10771E-01
         0.10771E-01
         0.10771E-01
         0.10771E-01
         0.10771E-01
         0.10771E-01
         0.10771E-01
         0.10771E-01
         0.10771E-01
         0.10771E-01
         0.10771E-01
         0.10771E-01
         0.10771E-01
         0.10771E-01
         0.10771E-01
         0.10771E-01
         0.10771E-01
         0.10771E-01
         0.10771E-01
         0.10771E-01
         0.10771E-01
         0.10771E-01
         0.10771E-01
         0.10771E-01
         0.10771E-01
         0.10771E-01
         0.10771E-01
         0.10771E-01
         0.10771E-01
         0.10771E-01
         0.10771E-01
         0.10771E-01
         0.10771E-01
         0.10771E-01
         0.10771E-01
         0.10771E-01
         0.10771E-01
         0.10771E-01
         0.10771E-01
         0.10771E-01
         0.10771E-01
         0.10771E-01
         0.10771E-01
         0.10771E-01
         0.10771E-01
         0.10771E-01
         0.10771E-01
         0.10771E-01
         0.10771E-01
         0.10771E-01
         0.10771E-01
         0.10771E-01
         0.10771E-01
         0.10771E-01
         0.10771E-01
         0.10771E-01
         0.10771E-01
         0.10771E-01
         0.10771E-01
         0.10771E-01
         0.10771E-01
         0.11750E-01
         0.11750E-01
         0.11750E-01
         0.11750E-01
         0.11750E-01
         0.11750E-01
         0.11750E-01
         0.11750E-01
         0.11750E-01
         0.11750E-01
         0.11750E-01
         0.11750E-01
         0.11750E-01
         0.11750E-01
         0.11750E-01
         0.11750E-01
         0.11750E-01
         0.11750E-01
         0.11750E-01
         0.11750E-01
         0.11750E-01
         0.11750E-01
         0.11750E-01
         0.11750E-01
         0.11750E-01
         0.11750E-01
         0.11750E-01
         0.11750E-01
         0.11750E-01
         0.11750E-01
         0.11750E-01
         0.11750E-01
         0.11750E-01
         0.11750E-01
         0.11750E-01
         0.11750E-01
         0.11750E-01
         0.11750E-01
         0.11750E-01
         0.11750E-01
         0.11750E-01
         0.11750E-01
         0.11750E-01
         0.11750E-01
         0.11750E-01
         0.11750E-01
         0.11750E-01
         0.11750E-01
         0.11750E-01
         0.11750E-01
         0.11750E-01
         0.11750E-01
         0.11750E-01
         0.11750E-01
         0.11750E-01
         0.11750E-01
         0.11750E-01
         0.11750E-01
         0.11750E-01
         0.11750E-01
         0.11750E-01
         0.11750E-01
         0.11750E-01
         0.11750E-01
         0.11750E-01
         0.11750E-01
         0.11750E-01
         0.11750E-01
         0.11750E-01
         0.11750E-01
         0.11750E-01
         0.11750E-01
         0.11750E-01
         0.11750E-01
         0.11750E-01
         0.11750E-01
         0.11750E-01
         0.11750E-01
  
SCALARS                init_velocity_x  double 1
LOOKUP_TABLE default
         0.00000E+00
         0.00000E+00
         0.00000E+00
         0.00000E+00
         0.00000E+00
         0.00000E+00
         0.00000E+00
         0.00000E+00
         0.00000E+00
         0.00000E+00
         0.00000E+00
         0.00000E+00
         0.00000E+00
         0.00000E+00
         0.00000E+00
         0.00000E+00
         0.00000E+00
         0.00000E+00
         0.00000E+00
         0.00000E+00
         0.00000E+00
         0.00000E+00
         0.00000E+00
         0.00000E+00
         0.00000E+00
         0.00000E+00
         0.00000E+00
         0.00000E+00
         0.00000E+00
         0.00000E+00
         0.00000E+00
         0.00000E+00
         0.00000E+00
         0.00000E+00
         0.00000E+00
         0.00000E+00
         0.00000E+00
         0.00000E+00
         0.00000E+00
         0.00000E+00
         0.00000E+00
         0.00000E+00
         0.00000E+00
         0.00000E+00
         0.00000E+00
         0.00000E+00
         0.00000E+00
         0.00000E+00
         0.00000E+00
         0.00000E+00
         0.00000E+00
         0.00000E+00
         0.00000E+00
         0.00000E+00
         0.00000E+00
         0.00000E+00
         0.00000E+00
         0.00000E+00
         0.00000E+00
         0.00000E+00
         0.00000E+00
         0.00000E+00
         0.00000E+00
         0.00000E+00
         0.00000E+00
         0.00000E+00
         0.00000E+00
         0.00000E+00
         0.00000E+00
         0.00000E+00
         0.00000E+00
         0.00000E+00
         0.00000E+00
         0.00000E+00
         0.00000E+00
         0.00000E+00
         0.00000E+00
         0.00000E+00
         0.00000E+00
         0.00000E+00
         0.00000E+00
         0.00000E+00
         0.00000E+00
         0.00000E+00
         0.00000E+00
         0.00000E+00
         0.00000E+00
         0.00000E+00
         0.00000E+00
         0.00000E+00
         0.00000E+00
         0.00000E+00
         0.00000E+00
         0.00000E+00
         0.00000E+00
         0.00000E+00
         0.00000E+00
         0.00000E+00
         0.00000E+00
         0.00000E+00
         0.00000E+00
         0.00000E+00
         0.00000E+00
         0.00000E+00
         0.00000E+00
         0.00000E+00
         0.00000E+00
         0.00000E+00
         0.00000E+00
         0.00000E+00
         0.00000E+00
         0.00000E+00
         0.00000E+00
         0.00000E+00
         0.00000E+00
         0.00000E+00
         0.00000E+00
         0.00000E+00
         0.00000E+00
         0.00000E+00
         0.00000E+00
         0.00000E+00
         0.00000E+00
         0.00000E+00
         0.00000E+00
         0.00000E+00
         0.00000E+00
         0.00000E+00
         0.00000E+00
         0.00000E+00
         0.00000E+00
         0.00000E+00
         0.00000E+00
         0.00000E+00
         0.00000E+00
         0.00000E+00
         0.00000E+00
         0.00000E+00
         0.00000E+00
         0.00000E+00
         0.00000E+00
         0.00000E+00
         0.00000E+00
         0.00000E+00
         0.00000E+00
         0.00000E+00
         0.00000E+00
         0.00000E+00
         0.00000E+00
         0.00000E+00
         0.00000E+00
         0.00000E+00
         0.00000E+00
         0.00000E+00
         0.00000E+00
         0.00000E+00
         0.00000E+00
         0.00000E+00
         0.00000E+00
         0.00000E+00
         0.00000E+00
         0.00000E+00
         0.00000E+00
         0.00000E+00
         0.00000E+00
         0.00000E+00
         0.00000E+00
         0.00000E+00
         0.00000E+00
         0.00000E+00
         0.00000E+00
         0.00000E+00
         0.00000E+00
         0.00000E+00
         0.00000E+00
         0.00000E+00
         0.00000E+00
         0.00000E+00
         0.00000E+00
         0.00000E+00
         0.00000E+00
         0.00000E+00
         0.00000E+00
         0.00000E+00
         0.00000E+00
         0.00000E+00
         0.00000E+00
         0.00000E+00
         0.00000E+00
         0.00000E+00
         0.00000E+00
         0.00000E+00
         0.00000E+00
         0.00000E+00
         0.00000E+00
         0.00000E+00
         0.00000E+00
         0.00000E+00
         0.00000E+00
         0.00000E+00
         0.00000E+00
         0.00000E+00
         0.00000E+00
         0.00000E+00
         0.00000E+00
         0.00000E+00
         0.00000E+00
         0.00000E+00
         0.00000E+00
         0.00000E+00
         0.00000E+00
         0.00000E+00
         0.00000E+00
         0.00000E+00
         0.00000E+00
         0.00000E+00
         0.00000E+00
         0.00000E+00
         0.00000E+00
         0.00000E+00
         0.00000E+00
         0.00000E+00
         0.00000E+00
         0.00000E+00
         0.00000E+00
         0.00000E+00
         0.00000E+00
         0.00000E+00
         0.00000E+00
         0.00000E+00
         0.00000E+00
         0.00000E+00
         0.00000E+00
         0.00000E+00
         0.00000E+00
         0.00000E+00
         0.00000E+00
         0.00000E+00
         0.00000E+00
         0.00000E+00
         0.00000E+00
         0.00000E+00
         0.00000E+00
         0.00000E+00
         0.00000E+00
         0.00000E+00
         0.00000E+00
         0.00000E+00
         0.00000E+00
         0.00000E+00
         0.00000E+00
         0.00000E+00
         0.00000E+00
         0.00000E+00
         0.00000E+00
         0.00000E+00
         0.00000E+00
         0.00000E+00
         0.00000E+00
         0.00000E+00
         0.00000E+00
         0.00000E+00
         0.00000E+00
         0.00000E+00
         0.00000E+00
         0.00000E+00
         0.00000E+00
         0.00000E+00
         0.00000E+00
         0.00000E+00
         0.00000E+00
         0.00000E+00
         0.00000E+00
         0.00000E+00
         0.00000E+00
         0.00000E+00
         0.00000E+00
         0.00000E+00
         0.00000E+00
         0.00000E+00
         0.00000E+00
         0.00000E+00
         0.00000E+00
         0.00000E+00
         0.00000E+00
         0.00000E+00
         0.00000E+00
         0.00000E+00
         0.00000E+00
         0.00000E+00
         0.00000E+00
         0.00000E+00
         0.00000E+00
         0.00000E+00
         0.00000E+00
         0.00000E+00
         0.00000E+00
         0.00000E+00
         0.00000E+00
         0.00000E+00
         0.00000E+00
         0.00000E+00
         0.00000E+00
         0.00000E+00
         0.00000E+00
         0.00000E+00
         0.00000E+00
         0.00000E+00
         0.00000E+00
         0.00000E+00
         0.00000E+00
         0.00000E+00
         0.00000E+00
         0.00000E+00
         0.00000E+00
         0.00000E+00
         0.00000E+00
         0.00000E+00
         0.00000E+00
         0.00000E+00
         0.00000E+00
         0.00000E+00
         0.00000E+00
         0.00000E+00
         0.00000E+00
         0.00000E+00
         0.00000E+00
         0.00000E+00
         0.00000E+00
         0.00000E+00
         0.00000E+00
         0.00000E+00
         0.00000E+00
         0.00000E+00
         0.00000E+00
         0.00000E+00
         0.00000E+00
         0.00000E+00
         0.00000E+00
         0.00000E+00
         0.00000E+00
         0.00000E+00
         0.00000E+00
         0.00000E+00
         0.00000E+00
         0.00000E+00
         0.00000E+00
         0.00000E+00
         0.00000E+00
         0.00000E+00
         0.00000E+00
         0.00000E+00
         0.00000E+00
         0.00000E+00
         0.00000E+00
         0.00000E+00
         0.00000E+00
         0.00000E+00
         0.00000E+00
         0.00000E+00
         0.00000E+00
         0.00000E+00
         0.00000E+00
         0.00000E+00
         0.00000E+00
         0.00000E+00
         0.00000E+00
         0.00000E+00
         0.00000E+00
         0.00000E+00
         0.00000E+00
         0.00000E+00
         0.00000E+00
         0.00000E+00
         0.00000E+00
         0.00000E+00
         0.00000E+00
         0.00000E+00
         0.00000E+00
         0.00000E+00
         0.00000E+00
         0.00000E+00
         0.00000E+00
         0.00000E+00
         0.00000E+00
         0.00000E+00
         0.00000E+00
         0.00000E+00
         0.00000E+00
         0.00000E+00
         0.00000E+00
         0.00000E+00
         0.00000E+00
         0.00000E+00
         0.00000E+00
         0.00000E+00
         0.00000E+00
         0.00000E+00
         0.00000E+00
         0.00000E+00
         0.00000E+00
         0.00000E+00
         0.00000E+00
         0.00000E+00
         0.00000E+00
         0.00000E+00
         0.00000E+00
         0.00000E+00
         0.00000E+00
         0.00000E+00
         0.00000E+00
         0.00000E+00
         0.00000E+00
         0.00000E+00
         0.00000E+00
         0.00000E+00
         0.00000E+00
         0.00000E+00
         0.00000E+00
         0.00000E+00
         0.00000E+00
         0.00000E+00
         0.00000E+00
         0.00000E+00
         0.00000E+00
         0.00000E+00
         0.00000E+00
         0.00000E+00
         0.00000E+00
         0.00000E+00
         0.00000E+00
         0.00000E+00
         0.00000E+00
         0.00000E+00
         0.00000E+00
         0.00000E+00
         0.00000E+00
         0.00000E+00
         0.00000E+00
         0.00000E+00
         0.00000E+00
         0.00000E+00
         0.00000E+00
         0.00000E+00
         0.00000E+00
         0.00000E+00
         0.00000E+00
         0.00000E+00
         0.00000E+00
         0.00000E+00
         0.00000E+00
         0.00000E+00
         0.00000E+00
         0.00000E+00
         0.00000E+00
         0.00000E+00
         0.00000E+00
         0.00000E+00
         0.00000E+00
         0.00000E+00
         0.00000E+00
         0.00000E+00
         0.00000E+00
         0.00000E+00
         0.00000E+00
         0.00000E+00
         0.00000E+00
         0.00000E+00
         0.00000E+00
         0.00000E+00
         0.00000E+00
         0.00000E+00
         0.00000E+00
         0.00000E+00
         0.00000E+00
         0.00000E+00
         0.00000E+00
         0.00000E+00
         0.00000E+00
         0.00000E+00
         0.00000E+00
         0.00000E+00
         0.00000E+00
         0.00000E+00
         0.00000E+00
         0.00000E+00
         0.00000E+00
         0.00000E+00
         0.00000E+00
         0.00000E+00
         0.00000E+00
         0.00000E+00
         0.00000E+00
         0.00000E+00
         0.00000E+00
         0.00000E+00
         0.00000E+00
         0.00000E+00
         0.00000E+00
         0.00000E+00
         0.00000E+00
         0.00000E+00
         0.00000E+00
         0.00000E+00
         0.00000E+00
         0.00000E+00
         0.00000E+00
         0.00000E+00
         0.00000E+00
         0.00000E+00
         0.00000E+00
         0.00000E+00
         0.00000E+00
         0.00000E+00
         0.00000E+00
         0.00000E+00
         0.00000E+00
         0.00000E+00
         0.00000E+00
         0.00000E+00
         0.00000E+00
         0.00000E+00
         0.00000E+00
         0.00000E+00
         0.00000E+00
         0.00000E+00
         0.00000E+00
         0.00000E+00
         0.00000E+00
         0.00000E+00
         0.00000E+00
         0.00000E+00
         0.00000E+00
         0.00000E+00
         0.00000E+00
         0.00000E+00
         0.00000E+00
         0.00000E+00
         0.00000E+00
         0.00000E+00
         0.00000E+00
         0.00000E+00
         0.00000E+00
         0.00000E+00
         0.00000E+00
         0.00000E+00
         0.00000E+00
         0.00000E+00
         0.00000E+00
         0.00000E+00
         0.00000E+00
         0.00000E+00
         0.00000E+00
         0.00000E+00
         0.00000E+00
         0.00000E+00
         0.00000E+00
         0.00000E+00
         0.00000E+00
         0.00000E+00
         0.00000E+00
         0.00000E+00
         0.00000E+00
         0.00000E+00
         0.00000E+00
         0.00000E+00
         0.00000E+00
         0.00000E+00
         0.00000E+00
         0.00000E+00
         0.00000E+00
         0.00000E+00
         0.00000E+00
         0.00000E+00
         0.00000E+00
         0.00000E+00
         0.00000E+00
         0.00000E+00
         0.00000E+00
         0.00000E+00
         0.00000E+00
         0.00000E+00
         0.00000E+00
         0.00000E+00
         0.00000E+00
         0.00000E+00
         0.00000E+00
         0.00000E+00
         0.00000E+00
         0.00000E+00
         0.00000E+00
         0.00000E+00
         0.00000E+00
         0.00000E+00
         0.00000E+00
         0.00000E+00
         0.00000E+00
         0.00000E+00
         0.00000E+00
         0.00000E+00
         0.00000E+00
         0.00000E+00
         0.00000E+00
         0.00000E+00
         0.00000E+00
         0.00000E+00
         0.00000E+00
         0.00000E+00
         0.00000E+00
         0.00000E+00
         0.00000E+00
         0.00000E+00
         0.00000E+00
         0.00000E+00
         0.00000E+00
         0.00000E+00
         0.00000E+00
         0.00000E+00
         0.00000E+00
         0.00000E+00
         0.00000E+00
         0.00000E+00
         0.00000E+00
         0.00000E+00
         0.00000E+00
         0.00000E+00
         0.00000E+00
         0.00000E+00
         0.00000E+00
         0.00000E+00
         0.00000E+00
         0.00000E+00
         0.00000E+00
         0.00000E+00
         0.00000E+00
         0.00000E+00
         0.00000E+00
         0.00000E+00
         0.00000E+00
         0.00000E+00
         0.00000E+00
         0.00000E+00
         0.00000E+00
         0.00000E+00
         0.00000E+00
         0.00000E+00
         0.00000E+00
         0.00000E+00
         0.00000E+00
         0.00000E+00
         0.00000E+00
         0.00000E+00
         0.00000E+00
         0.00000E+00
         0.00000E+00
         0.00000E+00
         0.00000E+00
         0.00000E+00
         0.00000E+00
         0.00000E+00
         0.00000E+00
         0.00000E+00
         0.00000E+00
         0.00000E+00
         0.00000E+00
         0.00000E+00
         0.00000E+00
         0.00000E+00
         0.00000E+00
         0.00000E+00
         0.00000E+00
         0.00000E+00
         0.00000E+00
         0.00000E+00
         0.00000E+00
         0.00000E+00
         0.00000E+00
         0.00000E+00
         0.00000E+00
         0.00000E+00
         0.00000E+00
         0.00000E+00
         0.00000E+00
         0.00000E+00
         0.00000E+00
         0.00000E+00
         0.00000E+00
         0.00000E+00
         0.00000E+00
         0.00000E+00
         0.00000E+00
         0.00000E+00
         0.00000E+00
         0.00000E+00
         0.00000E+00
         0.00000E+00
         0.00000E+00
         0.00000E+00
         0.00000E+00
         0.00000E+00
         0.00000E+00
         0.00000E+00
         0.00000E+00
         0.00000E+00
         0.00000E+00
         0.00000E+00
         0.00000E+00
         0.00000E+00
         0.00000E+00
         0.00000E+00
         0.00000E+00
         0.00000E+00
         0.00000E+00
         0.00000E+00
         0.00000E+00
         0.00000E+00
         0.00000E+00
         0.00000E+00
         0.00000E+00
         0.00000E+00
         0.00000E+00
         0.00000E+00
         0.00000E+00
         0.00000E+00
         0.00000E+00
         0.00000E+00
         0.00000E+00
         0.00000E+00
         0.00000E+00
         0.00000E+00
         0.00000E+00
         0.00000E+00
         0.00000E+00
         0.00000E+00
         0.00000E+00
         0.00000E+00
         0.00000E+00
         0.00000E+00
         0.00000E+00
         0.00000E+00
         0.00000E+00
         0.00000E+00
         0.00000E+00
         0.00000E+00
         0.00000E+00
         0.00000E+00
         0.00000E+00
         0.00000E+00
         0.00000E+00
         0.00000E+00
         0.00000E+00
         0.00000E+00
         0.00000E+00
         0.00000E+00
         0.00000E+00
         0.00000E+00
         0.00000E+00
         0.00000E+00
         0.00000E+00
         0.00000E+00
         0.00000E+00
         0.00000E+00
         0.00000E+00
         0.00000E+00
         0.00000E+00
         0.00000E+00
         0.00000E+00
         0.00000E+00
         0.00000E+00
         0.00000E+00
         0.00000E+00
         0.00000E+00
         0.00000E+00
         0.00000E+00
         0.00000E+00
         0.00000E+00
         0.00000E+00
         0.00000E+00
         0.00000E+00
         0.00000E+00
         0.00000E+00
         0.00000E+00
         0.00000E+00
         0.00000E+00
         0.00000E+00
         0.00000E+00
         0.00000E+00
         0.00000E+00
         0.00000E+00
         0.00000E+00
         0.00000E+00
         0.00000E+00
         0.00000E+00
         0.00000E+00
         0.00000E+00
         0.00000E+00
         0.00000E+00
         0.00000E+00
         0.00000E+00
         0.00000E+00
         0.00000E+00
         0.00000E+00
         0.00000E+00
         0.00000E+00
         0.00000E+00
         0.00000E+00
         0.00000E+00
         0.00000E+00
         0.00000E+00
         0.00000E+00
         0.00000E+00
         0.00000E+00
         0.00000E+00
         0.00000E+00
         0.00000E+00
         0.00000E+00
         0.00000E+00
         0.00000E+00
         0.00000E+00
         0.00000E+00
         0.00000E+00
         0.00000E+00
         0.00000E+00
         0.00000E+00
         0.00000E+00
         0.00000E+00
         0.00000E+00
         0.00000E+00
         0.00000E+00
         0.00000E+00
         0.00000E+00
         0.00000E+00
         0.00000E+00
         0.00000E+00
         0.00000E+00
         0.00000E+00
         0.00000E+00
         0.00000E+00
         0.00000E+00
         0.00000E+00
         0.00000E+00
         0.00000E+00
         0.00000E+00
         0.00000E+00
         0.00000E+00
         0.00000E+00
         0.00000E+00
         0.00000E+00
         0.00000E+00
         0.00000E+00
         0.00000E+00
         0.00000E+00
         0.00000E+00
         0.00000E+00
         0.00000E+00
         0.00000E+00
         0.00000E+00
         0.00000E+00
         0.00000E+00
         0.00000E+00
         0.00000E+00
         0.00000E+00
         0.00000E+00
         0.00000E+00
         0.00000E+00
         0.00000E+00
         0.00000E+00
         0.00000E+00
         0.00000E+00
         0.00000E+00
         0.00000E+00
         0.00000E+00
         0.00000E+00
         0.00000E+00
         0.00000E+00
         0.00000E+00
         0.00000E+00
         0.00000E+00
         0.00000E+00
         0.00000E+00
         0.00000E+00
         0.00000E+00
         0.00000E+00
         0.00000E+00
         0.00000E+00
         0.00000E+00
         0.00000E+00
         0.00000E+00
         0.00000E+00
         0.00000E+00
         0.00000E+00
         0.00000E+00
         0.00000E+00
         0.00000E+00
         0.00000E+00
         0.00000E+00
         0.00000E+00
         0.00000E+00
         0.00000E+00
         0.00000E+00
         0.00000E+00
         0.00000E+00
         0.00000E+00
         0.00000E+00
         0.00000E+00
         0.00000E+00
         0.00000E+00
         0.00000E+00
         0.00000E+00
         0.00000E+00
         0.00000E+00
         0.00000E+00
         0.00000E+00
         0.00000E+00
         0.00000E+00
         0.00000E+00
         0.00000E+00
         0.00000E+00
         0.00000E+00
         0.00000E+00
         0.00000E+00
         0.00000E+00
         0.00000E+00
         0.00000E+00
         0.00000E+00
         0.00000E+00
         0.00000E+00
         0.00000E+00
         0.00000E+00
         0.00000E+00
         0.00000E+00
         0.00000E+00
         0.00000E+00
         0.00000E+00
         0.00000E+00
         0.00000E+00
         0.00000E+00
         0.00000E+00
         0.00000E+00
         0.00000E+00
         0.00000E+00
         0.00000E+00
         0.00000E+00
         0.00000E+00
         0.00000E+00
         0.00000E+00
         0.00000E+00
         0.00000E+00
         0.00000E+00
         0.00000E+00
         0.00000E+00
         0.00000E+00
         0.00000E+00
         0.00000E+00
         0.00000E+00
         0.00000E+00
         0.00000E+00
         0.00000E+00
         0.00000E+00
         0.00000E+00
         0.00000E+00
         0.00000E+00
         0.00000E+00
         0.00000E+00
         0.00000E+00
         0.00000E+00
         0.00000E+00
         0.00000E+00
         0.00000E+00
         0.00000E+00
         0.00000E+00
         0.00000E+00
         0.00000E+00
         0.00000E+00
         0.00000E+00
         0.00000E+00
         0.00000E+00
         0.00000E+00
         0.00000E+00
         0.00000E+00
         0.00000E+00
         0.00000E+00
         0.00000E+00
         0.00000E+00
         0.00000E+00
         0.00000E+00
         0.00000E+00
         0.00000E+00
         0.00000E+00
         0.00000E+00
         0.00000E+00
         0.00000E+00
         0.00000E+00
         0.00000E+00
         0.00000E+00
         0.00000E+00
         0.00000E+00
         0.00000E+00
         0.00000E+00
         0.00000E+00
         0.00000E+00
         0.00000E+00
         0.00000E+00
         0.00000E+00
         0.00000E+00
         0.00000E+00
         0.00000E+00
         0.00000E+00
         0.00000E+00
         0.00000E+00
         0.00000E+00
         0.00000E+00
         0.00000E+00
         0.00000E+00
         0.00000E+00
         0.00000E+00
         0.00000E+00
         0.00000E+00
         0.00000E+00
         0.00000E+00
         0.00000E+00
         0.00000E+00
         0.00000E+00
         0.00000E+00
         0.00000E+00
         0.00000E+00
         0.00000E+00
         0.00000E+00
         0.00000E+00
         0.00000E+00
         0.00000E+00
         0.00000E+00
         0.00000E+00
         0.00000E+00
         0.00000E+00
         0.00000E+00
         0.00000E+00
         0.00000E+00
         0.00000E+00
         0.00000E+00
         0.00000E+00
         0.00000E+00
         0.00000E+00
         0.00000E+00
         0.00000E+00
         0.00000E+00
         0.00000E+00
         0.00000E+00
         0.00000E+00
         0.00000E+00
         0.00000E+00
         0.00000E+00
         0.00000E+00
         0.00000E+00
         0.00000E+00
         0.00000E+00
         0.00000E+00
         0.00000E+00
         0.00000E+00
         0.00000E+00
         0.00000E+00
         0.00000E+00
         0.00000E+00
         0.00000E+00
         0.00000E+00
         0.00000E+00
         0.00000E+00
         0.00000E+00
         0.00000E+00
         0.00000E+00
         0.00000E+00
         0.00000E+00
         0.00000E+00
         0.00000E+00
         0.00000E+00
         0.00000E+00
         0.00000E+00
         0.00000E+00
         0.00000E+00
         0.00000E+00
         0.00000E+00
         0.00000E+00
         0.00000E+00
         0.00000E+00
         0.00000E+00
         0.00000E+00
         0.00000E+00
         0.00000E+00
         0.00000E+00
         0.00000E+00
         0.00000E+00
         0.00000E+00
         0.00000E+00
         0.00000E+00
         0.00000E+00
         0.00000E+00
         0.00000E+00
         0.00000E+00
         0.00000E+00
         0.00000E+00
         0.00000E+00
         0.00000E+00
         0.00000E+00
         0.00000E+00
         0.00000E+00
         0.00000E+00
         0.00000E+00
         0.00000E+00
         0.00000E+00
         0.00000E+00
         0.00000E+00
         0.00000E+00
         0.00000E+00
         0.00000E+00
         0.00000E+00
         0.00000E+00
         0.00000E+00
         0.00000E+00
         0.00000E+00
         0.00000E+00
         0.00000E+00
         0.00000E+00
         0.00000E+00
         0.00000E+00
         0.00000E+00
         0.00000E+00
         0.00000E+00
         0.00000E+00
         0.00000E+00
         0.00000E+00
         0.00000E+00
         0.00000E+00
         0.00000E+00
         0.00000E+00
         0.00000E+00
         0.00000E+00
         0.00000E+00
         0.00000E+00
         0.00000E+00
         0.00000E+00
         0.00000E+00
         0.00000E+00
         0.00000E+00
         0.00000E+00
         0.00000E+00
         0.00000E+00
         0.00000E+00
         0.00000E+00
         0.00000E+00
         0.00000E+00
         0.00000E+00
         0.00000E+00
         0.00000E+00
         0.00000E+00
         0.00000E+00
         0.00000E+00
         0.00000E+00
         0.00000E+00
         0.00000E+00
         0.00000E+00
         0.00000E+00
         0.00000E+00
         0.00000E+00
         0.00000E+00
         0.00000E+00
         0.00000E+00
         0.00000E+00
         0.00000E+00
         0.00000E+00
         0.00000E+00
         0.00000E+00
         0.00000E+00
         0.00000E+00
         0.00000E+00
         0.00000E+00
         0.00000E+00
         0.00000E+00
         0.00000E+00
         0.00000E+00
         0.00000E+00
         0.00000E+00
         0.00000E+00
         0.00000E+00
         0.00000E+00
         0.00000E+00
         0.00000E+00
         0.00000E+00
         0.00000E+00
         0.00000E+00
         0.00000E+00
         0.00000E+00
         0.00000E+00
         0.00000E+00
         0.00000E+00
         0.00000E+00
         0.00000E+00
         0.00000E+00
         0.00000E+00
         0.00000E+00
         0.00000E+00
         0.00000E+00
         0.00000E+00
         0.00000E+00
         0.00000E+00
         0.00000E+00
         0.00000E+00
         0.00000E+00
         0.00000E+00
         0.00000E+00
         0.00000E+00
         0.00000E+00
         0.00000E+00
         0.00000E+00
         0.00000E+00
         0.00000E+00
         0.00000E+00
         0.00000E+00
         0.00000E+00
         0.00000E+00
         0.00000E+00
         0.00000E+00
         0.00000E+00
         0.00000E+00
         0.00000E+00
         0.00000E+00
         0.00000E+00
         0.00000E+00
         0.00000E+00
         0.00000E+00
         0.00000E+00
         0.00000E+00
         0.00000E+00
         0.00000E+00
         0.00000E+00
         0.00000E+00
         0.00000E+00
         0.00000E+00
         0.00000E+00
         0.00000E+00
         0.00000E+00
         0.00000E+00
         0.00000E+00
         0.00000E+00
         0.00000E+00
         0.00000E+00
         0.00000E+00
         0.00000E+00
         0.00000E+00
         0.00000E+00
         0.00000E+00
         0.00000E+00
         0.00000E+00
         0.00000E+00
         0.00000E+00
         0.00000E+00
         0.00000E+00
         0.00000E+00
         0.00000E+00
         0.00000E+00
         0.00000E+00
         0.00000E+00
         0.00000E+00
         0.00000E+00
         0.00000E+00
         0.00000E+00
         0.00000E+00
         0.00000E+00
         0.00000E+00
         0.00000E+00
         0.00000E+00
         0.00000E+00
         0.00000E+00
         0.00000E+00
         0.00000E+00
         0.00000E+00
         0.00000E+00
         0.00000E+00
         0.00000E+00
         0.00000E+00
         0.00000E+00
         0.00000E+00
         0.00000E+00
         0.00000E+00
         0.00000E+00
         0.00000E+00
         0.00000E+00
         0.00000E+00
         0.00000E+00
         0.00000E+00
         0.00000E+00
         0.00000E+00
         0.00000E+00
         0.00000E+00
         0.00000E+00
         0.00000E+00
         0.00000E+00
         0.00000E+00
         0.00000E+00
         0.00000E+00
         0.00000E+00
         0.00000E+00
         0.00000E+00
         0.00000E+00
         0.00000E+00
         0.00000E+00
         0.00000E+00
         0.00000E+00
         0.00000E+00
         0.00000E+00
         0.00000E+00
         0.00000E+00
         0.00000E+00
         0.00000E+00
         0.00000E+00
         0.00000E+00
         0.00000E+00
         0.00000E+00
         0.00000E+00
         0.00000E+00
         0.00000E+00
         0.00000E+00
         0.00000E+00
         0.00000E+00
         0.00000E+00
         0.00000E+00
         0.00000E+00
         0.00000E+00
         0.00000E+00
         0.00000E+00
         0.00000E+00
         0.00000E+00
         0.00000E+00
         0.00000E+00
         0.00000E+00
         0.00000E+00
         0.00000E+00
         0.00000E+00
         0.00000E+00
         0.00000E+00
         0.00000E+00
         0.00000E+00
         0.00000E+00
         0.00000E+00
         0.00000E+00
         0.00000E+00
         0.00000E+00
         0.00000E+00
         0.00000E+00
         0.00000E+00
         0.00000E+00
         0.00000E+00
         0.00000E+00
         0.00000E+00
         0.00000E+00
         0.00000E+00
         0.00000E+00
         0.00000E+00
         0.00000E+00
         0.00000E+00
         0.00000E+00
         0.00000E+00
         0.00000E+00
         0.00000E+00
         0.00000E+00
         0.00000E+00
         0.00000E+00
         0.00000E+00
         0.00000E+00
         0.00000E+00
         0.00000E+00
         0.00000E+00
         0.00000E+00
         0.00000E+00
         0.00000E+00
         0.00000E+00
         0.00000E+00
         0.00000E+00
         0.00000E+00
         0.00000E+00
         0.00000E+00
         0.00000E+00
         0.00000E+00
         0.00000E+00
         0.00000E+00
         0.00000E+00
         0.00000E+00
         0.00000E+00
         0.00000E+00
         0.00000E+00
         0.00000E+00
         0.00000E+00
         0.00000E+00
         0.00000E+00
         0.00000E+00
         0.00000E+00
         0.00000E+00
         0.00000E+00
         0.00000E+00
         0.00000E+00
         0.00000E+00
         0.00000E+00
         0.00000E+00
         0.00000E+00
         0.00000E+00
         0.00000E+00
         0.00000E+00
         0.00000E+00
         0.00000E+00
         0.00000E+00
         0.00000E+00
         0.00000E+00
         0.00000E+00
         0.00000E+00
         0.00000E+00
         0.00000E+00
         0.00000E+00
         0.00000E+00
         0.00000E+00
         0.00000E+00
         0.00000E+00
         0.00000E+00
         0.00000E+00
         0.00000E+00
         0.00000E+00
         0.00000E+00
         0.00000E+00
         0.00000E+00
         0.00000E+00
         0.00000E+00
         0.00000E+00
         0.00000E+00
         0.00000E+00
         0.00000E+00
         0.00000E+00
         0.00000E+00
         0.00000E+00
         0.00000E+00
         0.00000E+00
         0.00000E+00
         0.00000E+00
         0.00000E+00
         0.00000E+00
         0.00000E+00
         0.00000E+00
         0.00000E+00
         0.00000E+00
         0.00000E+00
         0.00000E+00
         0.00000E+00
         0.00000E+00
         0.00000E+00
         0.00000E+00
         0.00000E+00
         0.00000E+00
         0.00000E+00
         0.00000E+00
         0.00000E+00
         0.00000E+00
         0.00000E+00
         0.00000E+00
         0.00000E+00
         0.00000E+00
         0.00000E+00
         0.00000E+00
         0.00000E+00
         0.00000E+00
         0.00000E+00
         0.00000E+00
         0.00000E+00
         0.00000E+00
         0.00000E+00
         0.00000E+00
         0.00000E+00
         0.00000E+00
         0.00000E+00
         0.00000E+00
         0.00000E+00
         0.00000E+00
         0.00000E+00
         0.00000E+00
         0.00000E+00
         0.00000E+00
         0.00000E+00
         0.00000E+00
         0.00000E+00
         0.00000E+00
         0.00000E+00
         0.00000E+00
         0.00000E+00
         0.00000E+00
         0.00000E+00
         0.00000E+00
         0.00000E+00
         0.00000E+00
         0.00000E+00
         0.00000E+00
         0.00000E+00
         0.00000E+00
         0.00000E+00
         0.00000E+00
         0.00000E+00
         0.00000E+00
         0.00000E+00
         0.00000E+00
         0.00000E+00
         0.00000E+00
         0.00000E+00
         0.00000E+00
         0.00000E+00
         0.00000E+00
         0.00000E+00
         0.00000E+00
         0.00000E+00
         0.00000E+00
         0.00000E+00
         0.00000E+00
         0.00000E+00
         0.00000E+00
         0.00000E+00
         0.00000E+00
         0.00000E+00
         0.00000E+00
         0.00000E+00
         0.00000E+00
         0.00000E+00
         0.00000E+00
         0.00000E+00
         0.00000E+00
         0.00000E+00
         0.00000E+00
         0.00000E+00
         0.00000E+00
         0.00000E+00
         0.00000E+00
         0.00000E+00
         0.00000E+00
         0.00000E+00
         0.00000E+00
         0.00000E+00
         0.00000E+00
         0.00000E+00
         0.00000E+00
         0.00000E+00
         0.00000E+00
         0.00000E+00
         0.00000E+00
         0.00000E+00
         0.00000E+00
         0.00000E+00
         0.00000E+00
         0.00000E+00
         0.00000E+00
         0.00000E+00
         0.00000E+00
         0.00000E+00
         0.00000E+00
         0.00000E+00
         0.00000E+00
         0.00000E+00
         0.00000E+00
         0.00000E+00
         0.00000E+00
         0.00000E+00
         0.00000E+00
         0.00000E+00
         0.00000E+00
         0.00000E+00
         0.00000E+00
         0.00000E+00
         0.00000E+00
         0.00000E+00
         0.00000E+00
         0.00000E+00
         0.00000E+00
         0.00000E+00
         0.00000E+00
         0.00000E+00
         0.00000E+00
         0.00000E+00
         0.00000E+00
         0.00000E+00
         0.00000E+00
         0.00000E+00
         0.00000E+00
         0.00000E+00
         0.00000E+00
         0.00000E+00
         0.00000E+00
         0.00000E+00
         0.00000E+00
         0.00000E+00
         0.00000E+00
         0.00000E+00
         0.00000E+00
         0.00000E+00
         0.00000E+00
         0.00000E+00
         0.00000E+00
         0.00000E+00
         0.00000E+00
         0.00000E+00
         0.00000E+00
         0.00000E+00
         0.00000E+00
         0.00000E+00
         0.00000E+00
         0.00000E+00
         0.00000E+00
         0.00000E+00
         0.00000E+00
         0.00000E+00
         0.00000E+00
         0.00000E+00
         0.00000E+00
         0.00000E+00
         0.00000E+00
         0.00000E+00
         0.00000E+00
         0.00000E+00
         0.00000E+00
         0.00000E+00
         0.00000E+00
         0.00000E+00
         0.00000E+00
         0.00000E+00
         0.00000E+00
         0.00000E+00
         0.00000E+00
         0.00000E+00
         0.00000E+00
         0.00000E+00
         0.00000E+00
         0.00000E+00
         0.00000E+00
         0.00000E+00
         0.00000E+00
         0.00000E+00
         0.00000E+00
         0.00000E+00
         0.00000E+00
         0.00000E+00
         0.00000E+00
         0.00000E+00
         0.00000E+00
         0.00000E+00
         0.00000E+00
         0.00000E+00
         0.00000E+00
         0.00000E+00
         0.00000E+00
         0.00000E+00
         0.00000E+00
         0.00000E+00
         0.00000E+00
         0.00000E+00
         0.00000E+00
         0.00000E+00
         0.00000E+00
         0.00000E+00
         0.00000E+00
         0.00000E+00
         0.00000E+00
         0.00000E+00
         0.00000E+00
         0.00000E+00
         0.00000E+00
         0.00000E+00
         0.00000E+00
         0.00000E+00
         0.00000E+00
         0.00000E+00
         0.00000E+00
         0.00000E+00
         0.00000E+00
         0.00000E+00
         0.00000E+00
         0.00000E+00
         0.00000E+00
         0.00000E+00
         0.00000E+00
         0.00000E+00
         0.00000E+00
         0.00000E+00
         0.00000E+00
         0.00000E+00
         0.00000E+00
         0.00000E+00
         0.00000E+00
         0.00000E+00
         0.00000E+00
         0.00000E+00
         0.00000E+00
         0.00000E+00
         0.00000E+00
         0.00000E+00
         0.00000E+00
         0.00000E+00
         0.00000E+00
         0.00000E+00
         0.00000E+00
         0.00000E+00
         0.00000E+00
         0.00000E+00
         0.00000E+00
         0.00000E+00
         0.00000E+00
         0.00000E+00
         0.00000E+00
         0.00000E+00
         0.00000E+00
         0.00000E+00
         0.00000E+00
         0.00000E+00
         0.00000E+00
         0.00000E+00
         0.00000E+00
         0.00000E+00
         0.00000E+00
         0.00000E+00
         0.00000E+00
         0.00000E+00
         0.00000E+00
         0.00000E+00
         0.00000E+00
         0.00000E+00
         0.00000E+00
         0.00000E+00
         0.00000E+00
         0.00000E+00
         0.00000E+00
         0.00000E+00
         0.00000E+00
         0.00000E+00
         0.00000E+00
         0.00000E+00
         0.00000E+00
         0.00000E+00
         0.00000E+00
         0.00000E+00
         0.00000E+00
         0.00000E+00
         0.00000E+00
         0.00000E+00
         0.00000E+00
         0.00000E+00
         0.00000E+00
         0.00000E+00
         0.00000E+00
         0.00000E+00
         0.00000E+00
         0.00000E+00
         0.00000E+00
         0.00000E+00
         0.00000E+00
         0.00000E+00
         0.00000E+00
         0.00000E+00
         0.00000E+00
         0.00000E+00
         0.00000E+00
         0.00000E+00
         0.00000E+00
         0.00000E+00
         0.00000E+00
         0.00000E+00
         0.00000E+00
         0.00000E+00
         0.00000E+00
         0.00000E+00
         0.00000E+00
         0.00000E+00
         0.00000E+00
         0.00000E+00
         0.00000E+00
         0.00000E+00
         0.00000E+00
         0.00000E+00
         0.00000E+00
         0.00000E+00
         0.00000E+00
         0.00000E+00
         0.00000E+00
         0.00000E+00
         0.00000E+00
         0.00000E+00
         0.00000E+00
         0.00000E+00
         0.00000E+00
         0.00000E+00
         0.00000E+00
         0.00000E+00
         0.00000E+00
         0.00000E+00
         0.00000E+00
         0.00000E+00
         0.00000E+00
         0.00000E+00
         0.00000E+00
         0.00000E+00
         0.00000E+00
         0.00000E+00
         0.00000E+00
         0.00000E+00
         0.00000E+00
         0.00000E+00
         0.00000E+00
         0.00000E+00
         0.00000E+00
         0.00000E+00
         0.00000E+00
         0.00000E+00
         0.00000E+00
         0.00000E+00
         0.00000E+00
         0.00000E+00
         0.00000E+00
         0.00000E+00
         0.00000E+00
         0.00000E+00
         0.00000E+00
         0.00000E+00
         0.00000E+00
         0.00000E+00
         0.00000E+00
         0.00000E+00
         0.00000E+00
         0.00000E+00
         0.00000E+00
         0.00000E+00
         0.00000E+00
         0.00000E+00
         0.00000E+00
         0.00000E+00
         0.00000E+00
         0.00000E+00
         0.00000E+00
         0.00000E+00
         0.00000E+00
         0.00000E+00
         0.00000E+00
         0.00000E+00
         0.00000E+00
         0.00000E+00
         0.00000E+00
         0.00000E+00
         0.00000E+00
         0.00000E+00
         0.00000E+00
         0.00000E+00
         0.00000E+00
         0.00000E+00
         0.00000E+00
         0.00000E+00
         0.00000E+00
         0.00000E+00
         0.00000E+00
         0.00000E+00
         0.00000E+00
         0.00000E+00
         0.00000E+00
         0.00000E+00
         0.00000E+00
         0.00000E+00
         0.00000E+00
         0.00000E+00
         0.00000E+00
         0.00000E+00
         0.00000E+00
         0.00000E+00
         0.00000E+00
         0.00000E+00
         0.00000E+00
         0.00000E+00
         0.00000E+00
         0.00000E+00
         0.00000E+00
         0.00000E+00
         0.00000E+00
         0.00000E+00
         0.00000E+00
         0.00000E+00
         0.00000E+00
         0.00000E+00
         0.00000E+00
         0.00000E+00
         0.00000E+00
         0.00000E+00
         0.00000E+00
         0.00000E+00
         0.00000E+00
         0.00000E+00
         0.00000E+00
         0.00000E+00
         0.00000E+00
         0.00000E+00
         0.00000E+00
         0.00000E+00
         0.00000E+00
         0.00000E+00
         0.00000E+00
         0.00000E+00
         0.00000E+00
         0.00000E+00
         0.00000E+00
         0.00000E+00
         0.00000E+00
         0.00000E+00
         0.00000E+00
         0.00000E+00
         0.00000E+00
         0.00000E+00
         0.00000E+00
         0.00000E+00
         0.00000E+00
         0.00000E+00
         0.00000E+00
         0.00000E+00
         0.00000E+00
         0.00000E+00
         0.00000E+00
         0.00000E+00
         0.00000E+00
         0.00000E+00
         0.00000E+00
         0.00000E+00
         0.00000E+00
         0.00000E+00
         0.00000E+00
         0.00000E+00
         0.00000E+00
         0.00000E+00
         0.00000E+00
         0.00000E+00
         0.00000E+00
         0.00000E+00
         0.00000E+00
         0.00000E+00
         0.00000E+00
         0.00000E+00
         0.00000E+00
         0.00000E+00
         0.00000E+00
         0.00000E+00
         0.00000E+00
         0.00000E+00
         0.00000E+00
         0.00000E+00
         0.00000E+00
         0.00000E+00
         0.00000E+00
  
SCALARS                init_velocity_y  double 1
LOOKUP_TABLE default
         0.00000E+00
         0.00000E+00
         0.00000E+00
         0.00000E+00
         0.00000E+00
         0.00000E+00
         0.00000E+00
         0.00000E+00
         0.00000E+00
         0.00000E+00
         0.00000E+00
         0.00000E+00
         0.00000E+00
         0.00000E+00
         0.00000E+00
         0.00000E+00
         0.00000E+00
         0.00000E+00
         0.00000E+00
         0.00000E+00
         0.00000E+00
         0.00000E+00
         0.00000E+00
         0.00000E+00
         0.00000E+00
         0.00000E+00
         0.00000E+00
         0.00000E+00
         0.00000E+00
         0.00000E+00
         0.00000E+00
         0.00000E+00
         0.00000E+00
         0.00000E+00
         0.00000E+00
         0.00000E+00
         0.00000E+00
         0.00000E+00
         0.00000E+00
         0.00000E+00
         0.00000E+00
         0.00000E+00
         0.00000E+00
         0.00000E+00
         0.00000E+00
         0.00000E+00
         0.00000E+00
         0.00000E+00
         0.00000E+00
         0.00000E+00
         0.00000E+00
         0.00000E+00
         0.00000E+00
         0.00000E+00
         0.00000E+00
         0.00000E+00
         0.00000E+00
         0.00000E+00
         0.00000E+00
         0.00000E+00
         0.00000E+00
         0.00000E+00
         0.00000E+00
         0.00000E+00
         0.00000E+00
         0.00000E+00
         0.00000E+00
         0.00000E+00
         0.00000E+00
         0.00000E+00
         0.00000E+00
         0.00000E+00
         0.00000E+00
         0.00000E+00
         0.00000E+00
         0.00000E+00
         0.00000E+00
         0.00000E+00
         0.00000E+00
         0.00000E+00
         0.00000E+00
         0.00000E+00
         0.00000E+00
         0.00000E+00
         0.00000E+00
         0.00000E+00
         0.00000E+00
         0.00000E+00
         0.00000E+00
         0.00000E+00
         0.00000E+00
         0.00000E+00
         0.00000E+00
         0.00000E+00
         0.00000E+00
         0.00000E+00
         0.00000E+00
         0.00000E+00
         0.00000E+00
         0.00000E+00
         0.00000E+00
         0.00000E+00
         0.00000E+00
         0.00000E+00
         0.00000E+00
         0.00000E+00
         0.00000E+00
         0.00000E+00
         0.00000E+00
         0.00000E+00
         0.00000E+00
         0.00000E+00
         0.00000E+00
         0.00000E+00
         0.00000E+00
         0.00000E+00
         0.00000E+00
         0.00000E+00
         0.00000E+00
         0.00000E+00
         0.00000E+00
         0.00000E+00
         0.00000E+00
         0.00000E+00
         0.00000E+00
         0.00000E+00
         0.00000E+00
         0.00000E+00
         0.00000E+00
         0.00000E+00
         0.00000E+00
         0.00000E+00
         0.00000E+00
         0.00000E+00
         0.00000E+00
         0.00000E+00
         0.00000E+00
         0.00000E+00
         0.00000E+00
         0.00000E+00
         0.00000E+00
         0.00000E+00
         0.00000E+00
         0.00000E+00
         0.00000E+00
         0.00000E+00
         0.00000E+00
         0.00000E+00
         0.00000E+00
         0.00000E+00
         0.00000E+00
         0.00000E+00
         0.00000E+00
         0.00000E+00
         0.00000E+00
         0.00000E+00
         0.00000E+00
         0.00000E+00
         0.00000E+00
         0.00000E+00
         0.00000E+00
         0.00000E+00
         0.00000E+00
         0.00000E+00
         0.00000E+00
         0.00000E+00
         0.00000E+00
         0.00000E+00
         0.00000E+00
         0.00000E+00
         0.00000E+00
         0.00000E+00
         0.00000E+00
         0.00000E+00
         0.00000E+00
         0.00000E+00
         0.00000E+00
         0.00000E+00
         0.00000E+00
         0.00000E+00
         0.00000E+00
         0.00000E+00
         0.00000E+00
         0.00000E+00
         0.00000E+00
         0.00000E+00
         0.00000E+00
         0.00000E+00
         0.00000E+00
         0.00000E+00
         0.00000E+00
         0.00000E+00
         0.00000E+00
         0.00000E+00
         0.00000E+00
         0.00000E+00
         0.00000E+00
         0.00000E+00
         0.00000E+00
         0.00000E+00
         0.00000E+00
         0.00000E+00
         0.00000E+00
         0.00000E+00
         0.00000E+00
         0.00000E+00
         0.00000E+00
         0.00000E+00
         0.00000E+00
         0.00000E+00
         0.00000E+00
         0.00000E+00
         0.00000E+00
         0.00000E+00
         0.00000E+00
         0.00000E+00
         0.00000E+00
         0.00000E+00
         0.00000E+00
         0.00000E+00
         0.00000E+00
         0.00000E+00
         0.00000E+00
         0.00000E+00
         0.00000E+00
         0.00000E+00
         0.00000E+00
         0.00000E+00
         0.00000E+00
         0.00000E+00
         0.00000E+00
         0.00000E+00
         0.00000E+00
         0.00000E+00
         0.00000E+00
         0.00000E+00
         0.00000E+00
         0.00000E+00
         0.00000E+00
         0.00000E+00
         0.00000E+00
         0.00000E+00
         0.00000E+00
         0.00000E+00
         0.00000E+00
         0.00000E+00
         0.00000E+00
         0.00000E+00
         0.00000E+00
         0.00000E+00
         0.00000E+00
         0.00000E+00
         0.00000E+00
         0.00000E+00
         0.00000E+00
         0.00000E+00
         0.00000E+00
         0.00000E+00
         0.00000E+00
         0.00000E+00
         0.00000E+00
         0.00000E+00
         0.00000E+00
         0.00000E+00
         0.00000E+00
         0.00000E+00
         0.00000E+00
         0.00000E+00
         0.00000E+00
         0.00000E+00
         0.00000E+00
         0.00000E+00
         0.00000E+00
         0.00000E+00
         0.00000E+00
         0.00000E+00
         0.00000E+00
         0.00000E+00
         0.00000E+00
         0.00000E+00
         0.00000E+00
         0.00000E+00
         0.00000E+00
         0.00000E+00
         0.00000E+00
         0.00000E+00
         0.00000E+00
         0.00000E+00
         0.00000E+00
         0.00000E+00
         0.00000E+00
         0.00000E+00
         0.00000E+00
         0.00000E+00
         0.00000E+00
         0.00000E+00
         0.00000E+00
         0.00000E+00
         0.00000E+00
         0.00000E+00
         0.00000E+00
         0.00000E+00
         0.00000E+00
         0.00000E+00
         0.00000E+00
         0.00000E+00
         0.00000E+00
         0.00000E+00
         0.00000E+00
         0.00000E+00
         0.00000E+00
         0.00000E+00
         0.00000E+00
         0.00000E+00
         0.00000E+00
         0.00000E+00
         0.00000E+00
         0.00000E+00
         0.00000E+00
         0.00000E+00
         0.00000E+00
         0.00000E+00
         0.00000E+00
         0.00000E+00
         0.00000E+00
         0.00000E+00
         0.00000E+00
         0.00000E+00
         0.00000E+00
         0.00000E+00
         0.00000E+00
         0.00000E+00
         0.00000E+00
         0.00000E+00
         0.00000E+00
         0.00000E+00
         0.00000E+00
         0.00000E+00
         0.00000E+00
         0.00000E+00
         0.00000E+00
         0.00000E+00
         0.00000E+00
         0.00000E+00
         0.00000E+00
         0.00000E+00
         0.00000E+00
         0.00000E+00
         0.00000E+00
         0.00000E+00
         0.00000E+00
         0.00000E+00
         0.00000E+00
         0.00000E+00
         0.00000E+00
         0.00000E+00
         0.00000E+00
         0.00000E+00
         0.00000E+00
         0.00000E+00
         0.00000E+00
         0.00000E+00
         0.00000E+00
         0.00000E+00
         0.00000E+00
         0.00000E+00
         0.00000E+00
         0.00000E+00
         0.00000E+00
         0.00000E+00
         0.00000E+00
         0.00000E+00
         0.00000E+00
         0.00000E+00
         0.00000E+00
         0.00000E+00
         0.00000E+00
         0.00000E+00
         0.00000E+00
         0.00000E+00
         0.00000E+00
         0.00000E+00
         0.00000E+00
         0.00000E+00
         0.00000E+00
         0.00000E+00
         0.00000E+00
         0.00000E+00
         0.00000E+00
         0.00000E+00
         0.00000E+00
         0.00000E+00
         0.00000E+00
         0.00000E+00
         0.00000E+00
         0.00000E+00
         0.00000E+00
         0.00000E+00
         0.00000E+00
         0.00000E+00
         0.00000E+00
         0.00000E+00
         0.00000E+00
         0.00000E+00
         0.00000E+00
         0.00000E+00
         0.00000E+00
         0.00000E+00
         0.00000E+00
         0.00000E+00
         0.00000E+00
         0.00000E+00
         0.00000E+00
         0.00000E+00
         0.00000E+00
         0.00000E+00
         0.00000E+00
         0.00000E+00
         0.00000E+00
         0.00000E+00
         0.00000E+00
         0.00000E+00
         0.00000E+00
         0.00000E+00
         0.00000E+00
         0.00000E+00
         0.00000E+00
         0.00000E+00
         0.00000E+00
         0.00000E+00
         0.00000E+00
         0.00000E+00
         0.00000E+00
         0.00000E+00
         0.00000E+00
         0.00000E+00
         0.00000E+00
         0.00000E+00
         0.00000E+00
         0.00000E+00
         0.00000E+00
         0.00000E+00
         0.00000E+00
         0.00000E+00
         0.00000E+00
         0.00000E+00
         0.00000E+00
         0.00000E+00
         0.00000E+00
         0.00000E+00
         0.00000E+00
         0.00000E+00
         0.00000E+00
         0.00000E+00
         0.00000E+00
         0.00000E+00
         0.00000E+00
         0.00000E+00
         0.00000E+00
         0.00000E+00
         0.00000E+00
         0.00000E+00
         0.00000E+00
         0.00000E+00
         0.00000E+00
         0.00000E+00
         0.00000E+00
         0.00000E+00
         0.00000E+00
         0.00000E+00
         0.00000E+00
         0.00000E+00
         0.00000E+00
         0.00000E+00
         0.00000E+00
         0.00000E+00
         0.00000E+00
         0.00000E+00
         0.00000E+00
         0.00000E+00
         0.00000E+00
         0.00000E+00
         0.00000E+00
         0.00000E+00
         0.00000E+00
         0.00000E+00
         0.00000E+00
         0.00000E+00
         0.00000E+00
         0.00000E+00
         0.00000E+00
         0.00000E+00
         0.00000E+00
         0.00000E+00
         0.00000E+00
         0.00000E+00
         0.00000E+00
         0.00000E+00
         0.00000E+00
         0.00000E+00
         0.00000E+00
         0.00000E+00
         0.00000E+00
         0.00000E+00
         0.00000E+00
         0.00000E+00
         0.00000E+00
         0.00000E+00
         0.00000E+00
         0.00000E+00
         0.00000E+00
         0.00000E+00
         0.00000E+00
         0.00000E+00
         0.00000E+00
         0.00000E+00
         0.00000E+00
         0.00000E+00
         0.00000E+00
         0.00000E+00
         0.00000E+00
         0.00000E+00
         0.00000E+00
         0.00000E+00
         0.00000E+00
         0.00000E+00
         0.00000E+00
         0.00000E+00
         0.00000E+00
         0.00000E+00
         0.00000E+00
         0.00000E+00
         0.00000E+00
         0.00000E+00
         0.00000E+00
         0.00000E+00
         0.00000E+00
         0.00000E+00
         0.00000E+00
         0.00000E+00
         0.00000E+00
         0.00000E+00
         0.00000E+00
         0.00000E+00
         0.00000E+00
         0.00000E+00
         0.00000E+00
         0.00000E+00
         0.00000E+00
         0.00000E+00
         0.00000E+00
         0.00000E+00
         0.00000E+00
         0.00000E+00
         0.00000E+00
         0.00000E+00
         0.00000E+00
         0.00000E+00
         0.00000E+00
         0.00000E+00
         0.00000E+00
         0.00000E+00
         0.00000E+00
         0.00000E+00
         0.00000E+00
         0.00000E+00
         0.00000E+00
         0.00000E+00
         0.00000E+00
         0.00000E+00
         0.00000E+00
         0.00000E+00
         0.00000E+00
         0.00000E+00
         0.00000E+00
         0.00000E+00
         0.00000E+00
         0.00000E+00
         0.00000E+00
         0.00000E+00
         0.00000E+00
         0.00000E+00
         0.00000E+00
         0.00000E+00
         0.00000E+00
         0.00000E+00
         0.00000E+00
         0.00000E+00
         0.00000E+00
         0.00000E+00
         0.00000E+00
         0.00000E+00
         0.00000E+00
         0.00000E+00
         0.00000E+00
         0.00000E+00
         0.00000E+00
         0.00000E+00
         0.00000E+00
         0.00000E+00
         0.00000E+00
         0.00000E+00
         0.00000E+00
         0.00000E+00
         0.00000E+00
         0.00000E+00
         0.00000E+00
         0.00000E+00
         0.00000E+00
         0.00000E+00
         0.00000E+00
         0.00000E+00
         0.00000E+00
         0.00000E+00
         0.00000E+00
         0.00000E+00
         0.00000E+00
         0.00000E+00
         0.00000E+00
         0.00000E+00
         0.00000E+00
         0.00000E+00
         0.00000E+00
         0.00000E+00
         0.00000E+00
         0.00000E+00
         0.00000E+00
         0.00000E+00
         0.00000E+00
         0.00000E+00
         0.00000E+00
         0.00000E+00
         0.00000E+00
         0.00000E+00
         0.00000E+00
         0.00000E+00
         0.00000E+00
         0.00000E+00
         0.00000E+00
         0.00000E+00
         0.00000E+00
         0.00000E+00
         0.00000E+00
         0.00000E+00
         0.00000E+00
         0.00000E+00
         0.00000E+00
         0.00000E+00
         0.00000E+00
         0.00000E+00
         0.00000E+00
         0.00000E+00
         0.00000E+00
         0.00000E+00
         0.00000E+00
         0.00000E+00
         0.00000E+00
         0.00000E+00
         0.00000E+00
         0.00000E+00
         0.00000E+00
         0.00000E+00
         0.00000E+00
         0.00000E+00
         0.00000E+00
         0.00000E+00
         0.00000E+00
         0.00000E+00
         0.00000E+00
         0.00000E+00
         0.00000E+00
         0.00000E+00
         0.00000E+00
         0.00000E+00
         0.00000E+00
         0.00000E+00
         0.00000E+00
         0.00000E+00
         0.00000E+00
         0.00000E+00
         0.00000E+00
         0.00000E+00
         0.00000E+00
         0.00000E+00
         0.00000E+00
         0.00000E+00
         0.00000E+00
         0.00000E+00
         0.00000E+00
         0.00000E+00
         0.00000E+00
         0.00000E+00
         0.00000E+00
         0.00000E+00
         0.00000E+00
         0.00000E+00
         0.00000E+00
         0.00000E+00
         0.00000E+00
         0.00000E+00
         0.00000E+00
         0.00000E+00
         0.00000E+00
         0.00000E+00
         0.00000E+00
         0.00000E+00
         0.00000E+00
         0.00000E+00
         0.00000E+00
         0.00000E+00
         0.00000E+00
         0.00000E+00
         0.00000E+00
         0.00000E+00
         0.00000E+00
         0.00000E+00
         0.00000E+00
         0.00000E+00
         0.00000E+00
         0.00000E+00
         0.00000E+00
         0.00000E+00
         0.00000E+00
         0.00000E+00
         0.00000E+00
         0.00000E+00
         0.00000E+00
         0.00000E+00
         0.00000E+00
         0.00000E+00
         0.00000E+00
         0.00000E+00
         0.00000E+00
         0.00000E+00
         0.00000E+00
         0.00000E+00
         0.00000E+00
         0.00000E+00
         0.00000E+00
         0.00000E+00
         0.00000E+00
         0.00000E+00
         0.00000E+00
         0.00000E+00
         0.00000E+00
         0.00000E+00
         0.00000E+00
         0.00000E+00
         0.00000E+00
         0.00000E+00
         0.00000E+00
         0.00000E+00
         0.00000E+00
         0.00000E+00
         0.00000E+00
         0.00000E+00
         0.00000E+00
         0.00000E+00
         0.00000E+00
         0.00000E+00
         0.00000E+00
         0.00000E+00
         0.00000E+00
         0.00000E+00
         0.00000E+00
         0.00000E+00
         0.00000E+00
         0.00000E+00
         0.00000E+00
         0.00000E+00
         0.00000E+00
         0.00000E+00
         0.00000E+00
         0.00000E+00
         0.00000E+00
         0.00000E+00
         0.00000E+00
         0.00000E+00
         0.00000E+00
         0.00000E+00
         0.00000E+00
         0.00000E+00
         0.00000E+00
         0.00000E+00
         0.00000E+00
         0.00000E+00
         0.00000E+00
         0.00000E+00
         0.00000E+00
         0.00000E+00
         0.00000E+00
         0.00000E+00
         0.00000E+00
         0.00000E+00
         0.00000E+00
         0.00000E+00
         0.00000E+00
         0.00000E+00
         0.00000E+00
         0.00000E+00
         0.00000E+00
         0.00000E+00
         0.00000E+00
         0.00000E+00
         0.00000E+00
         0.00000E+00
         0.00000E+00
         0.00000E+00
         0.00000E+00
         0.00000E+00
         0.00000E+00
         0.00000E+00
         0.00000E+00
         0.00000E+00
         0.00000E+00
         0.00000E+00
         0.00000E+00
         0.00000E+00
         0.00000E+00
         0.00000E+00
         0.00000E+00
         0.00000E+00
         0.00000E+00
         0.00000E+00
         0.00000E+00
         0.00000E+00
         0.00000E+00
         0.00000E+00
         0.00000E+00
         0.00000E+00
         0.00000E+00
         0.00000E+00
         0.00000E+00
         0.00000E+00
         0.00000E+00
         0.00000E+00
         0.00000E+00
         0.00000E+00
         0.00000E+00
         0.00000E+00
         0.00000E+00
         0.00000E+00
         0.00000E+00
         0.00000E+00
         0.00000E+00
         0.00000E+00
         0.00000E+00
         0.00000E+00
         0.00000E+00
         0.00000E+00
         0.00000E+00
         0.00000E+00
         0.00000E+00
         0.00000E+00
         0.00000E+00
         0.00000E+00
         0.00000E+00
         0.00000E+00
         0.00000E+00
         0.00000E+00
         0.00000E+00
         0.00000E+00
         0.00000E+00
         0.00000E+00
         0.00000E+00
         0.00000E+00
         0.00000E+00
         0.00000E+00
         0.00000E+00
         0.00000E+00
         0.00000E+00
         0.00000E+00
         0.00000E+00
         0.00000E+00
         0.00000E+00
         0.00000E+00
         0.00000E+00
         0.00000E+00
         0.00000E+00
         0.00000E+00
         0.00000E+00
         0.00000E+00
         0.00000E+00
         0.00000E+00
         0.00000E+00
         0.00000E+00
         0.00000E+00
         0.00000E+00
         0.00000E+00
         0.00000E+00
         0.00000E+00
         0.00000E+00
         0.00000E+00
         0.00000E+00
         0.00000E+00
         0.00000E+00
         0.00000E+00
         0.00000E+00
         0.00000E+00
         0.00000E+00
         0.00000E+00
         0.00000E+00
         0.00000E+00
         0.00000E+00
         0.00000E+00
         0.00000E+00
         0.00000E+00
         0.00000E+00
         0.00000E+00
         0.00000E+00
         0.00000E+00
         0.00000E+00
         0.00000E+00
         0.00000E+00
         0.00000E+00
         0.00000E+00
         0.00000E+00
         0.00000E+00
         0.00000E+00
         0.00000E+00
         0.00000E+00
         0.00000E+00
         0.00000E+00
         0.00000E+00
         0.00000E+00
         0.00000E+00
         0.00000E+00
         0.00000E+00
         0.00000E+00
         0.00000E+00
         0.00000E+00
         0.00000E+00
         0.00000E+00
         0.00000E+00
         0.00000E+00
         0.00000E+00
         0.00000E+00
         0.00000E+00
         0.00000E+00
         0.00000E+00
         0.00000E+00
         0.00000E+00
         0.00000E+00
         0.00000E+00
         0.00000E+00
         0.00000E+00
         0.00000E+00
         0.00000E+00
         0.00000E+00
         0.00000E+00
         0.00000E+00
         0.00000E+00
         0.00000E+00
         0.00000E+00
         0.00000E+00
         0.00000E+00
         0.00000E+00
         0.00000E+00
         0.00000E+00
         0.00000E+00
         0.00000E+00
         0.00000E+00
         0.00000E+00
         0.00000E+00
         0.00000E+00
         0.00000E+00
         0.00000E+00
         0.00000E+00
         0.00000E+00
         0.00000E+00
         0.00000E+00
         0.00000E+00
         0.00000E+00
         0.00000E+00
         0.00000E+00
         0.00000E+00
         0.00000E+00
         0.00000E+00
         0.00000E+00
         0.00000E+00
         0.00000E+00
         0.00000E+00
         0.00000E+00
         0.00000E+00
         0.00000E+00
         0.00000E+00
         0.00000E+00
         0.00000E+00
         0.00000E+00
         0.00000E+00
         0.00000E+00
         0.00000E+00
         0.00000E+00
         0.00000E+00
         0.00000E+00
         0.00000E+00
         0.00000E+00
         0.00000E+00
         0.00000E+00
         0.00000E+00
         0.00000E+00
         0.00000E+00
         0.00000E+00
         0.00000E+00
         0.00000E+00
         0.00000E+00
         0.00000E+00
         0.00000E+00
         0.00000E+00
         0.00000E+00
         0.00000E+00
         0.00000E+00
         0.00000E+00
         0.00000E+00
         0.00000E+00
         0.00000E+00
         0.00000E+00
         0.00000E+00
         0.00000E+00
         0.00000E+00
         0.00000E+00
         0.00000E+00
         0.00000E+00
         0.00000E+00
         0.00000E+00
         0.00000E+00
         0.00000E+00
         0.00000E+00
         0.00000E+00
         0.00000E+00
         0.00000E+00
         0.00000E+00
         0.00000E+00
         0.00000E+00
         0.00000E+00
         0.00000E+00
         0.00000E+00
         0.00000E+00
         0.00000E+00
         0.00000E+00
         0.00000E+00
         0.00000E+00
         0.00000E+00
         0.00000E+00
         0.00000E+00
         0.00000E+00
         0.00000E+00
         0.00000E+00
         0.00000E+00
         0.00000E+00
         0.00000E+00
         0.00000E+00
         0.00000E+00
         0.00000E+00
         0.00000E+00
         0.00000E+00
         0.00000E+00
         0.00000E+00
         0.00000E+00
         0.00000E+00
         0.00000E+00
         0.00000E+00
         0.00000E+00
         0.00000E+00
         0.00000E+00
         0.00000E+00
         0.00000E+00
         0.00000E+00
         0.00000E+00
         0.00000E+00
         0.00000E+00
         0.00000E+00
         0.00000E+00
         0.00000E+00
         0.00000E+00
         0.00000E+00
         0.00000E+00
         0.00000E+00
         0.00000E+00
         0.00000E+00
         0.00000E+00
         0.00000E+00
         0.00000E+00
         0.00000E+00
         0.00000E+00
         0.00000E+00
         0.00000E+00
         0.00000E+00
         0.00000E+00
         0.00000E+00
         0.00000E+00
         0.00000E+00
         0.00000E+00
         0.00000E+00
         0.00000E+00
         0.00000E+00
         0.00000E+00
         0.00000E+00
         0.00000E+00
         0.00000E+00
         0.00000E+00
         0.00000E+00
         0.00000E+00
         0.00000E+00
         0.00000E+00
         0.00000E+00
         0.00000E+00
         0.00000E+00
         0.00000E+00
         0.00000E+00
         0.00000E+00
         0.00000E+00
         0.00000E+00
         0.00000E+00
         0.00000E+00
         0.00000E+00
         0.00000E+00
         0.00000E+00
         0.00000E+00
         0.00000E+00
         0.00000E+00
         0.00000E+00
         0.00000E+00
         0.00000E+00
         0.00000E+00
         0.00000E+00
         0.00000E+00
         0.00000E+00
         0.00000E+00
         0.00000E+00
         0.00000E+00
         0.00000E+00
         0.00000E+00
         0.00000E+00
         0.00000E+00
         0.00000E+00
         0.00000E+00
         0.00000E+00
         0.00000E+00
         0.00000E+00
         0.00000E+00
         0.00000E+00
         0.00000E+00
         0.00000E+00
         0.00000E+00
         0.00000E+00
         0.00000E+00
         0.00000E+00
         0.00000E+00
         0.00000E+00
         0.00000E+00
         0.00000E+00
         0.00000E+00
         0.00000E+00
         0.00000E+00
         0.00000E+00
         0.00000E+00
         0.00000E+00
         0.00000E+00
         0.00000E+00
         0.00000E+00
         0.00000E+00
         0.00000E+00
         0.00000E+00
         0.00000E+00
         0.00000E+00
         0.00000E+00
         0.00000E+00
         0.00000E+00
         0.00000E+00
         0.00000E+00
         0.00000E+00
         0.00000E+00
         0.00000E+00
         0.00000E+00
         0.00000E+00
         0.00000E+00
         0.00000E+00
         0.00000E+00
         0.00000E+00
         0.00000E+00
         0.00000E+00
         0.00000E+00
         0.00000E+00
         0.00000E+00
         0.00000E+00
         0.00000E+00
         0.00000E+00
         0.00000E+00
         0.00000E+00
         0.00000E+00
         0.00000E+00
         0.00000E+00
         0.00000E+00
         0.00000E+00
         0.00000E+00
         0.00000E+00
         0.00000E+00
         0.00000E+00
         0.00000E+00
         0.00000E+00
         0.00000E+00
         0.00000E+00
         0.00000E+00
         0.00000E+00
         0.00000E+00
         0.00000E+00
         0.00000E+00
         0.00000E+00
         0.00000E+00
         0.00000E+00
         0.00000E+00
         0.00000E+00
         0.00000E+00
         0.00000E+00
         0.00000E+00
         0.00000E+00
         0.00000E+00
         0.00000E+00
         0.00000E+00
         0.00000E+00
         0.00000E+00
         0.00000E+00
         0.00000E+00
         0.00000E+00
         0.00000E+00
         0.00000E+00
         0.00000E+00
         0.00000E+00
         0.00000E+00
         0.00000E+00
         0.00000E+00
         0.00000E+00
         0.00000E+00
         0.00000E+00
         0.00000E+00
         0.00000E+00
         0.00000E+00
         0.00000E+00
         0.00000E+00
         0.00000E+00
         0.00000E+00
         0.00000E+00
         0.00000E+00
         0.00000E+00
         0.00000E+00
         0.00000E+00
         0.00000E+00
         0.00000E+00
         0.00000E+00
         0.00000E+00
         0.00000E+00
         0.00000E+00
         0.00000E+00
         0.00000E+00
         0.00000E+00
         0.00000E+00
         0.00000E+00
         0.00000E+00
         0.00000E+00
         0.00000E+00
         0.00000E+00
         0.00000E+00
         0.00000E+00
         0.00000E+00
         0.00000E+00
         0.00000E+00
         0.00000E+00
         0.00000E+00
         0.00000E+00
         0.00000E+00
         0.00000E+00
         0.00000E+00
         0.00000E+00
         0.00000E+00
         0.00000E+00
         0.00000E+00
         0.00000E+00
         0.00000E+00
         0.00000E+00
         0.00000E+00
         0.00000E+00
         0.00000E+00
         0.00000E+00
         0.00000E+00
         0.00000E+00
         0.00000E+00
         0.00000E+00
         0.00000E+00
         0.00000E+00
         0.00000E+00
         0.00000E+00
         0.00000E+00
         0.00000E+00
         0.00000E+00
         0.00000E+00
         0.00000E+00
         0.00000E+00
         0.00000E+00
         0.00000E+00
         0.00000E+00
         0.00000E+00
         0.00000E+00
         0.00000E+00
         0.00000E+00
         0.00000E+00
         0.00000E+00
         0.00000E+00
         0.00000E+00
         0.00000E+00
         0.00000E+00
         0.00000E+00
         0.00000E+00
         0.00000E+00
         0.00000E+00
         0.00000E+00
         0.00000E+00
         0.00000E+00
         0.00000E+00
         0.00000E+00
         0.00000E+00
         0.00000E+00
         0.00000E+00
         0.00000E+00
         0.00000E+00
         0.00000E+00
         0.00000E+00
         0.00000E+00
         0.00000E+00
         0.00000E+00
         0.00000E+00
         0.00000E+00
         0.00000E+00
         0.00000E+00
         0.00000E+00
         0.00000E+00
         0.00000E+00
         0.00000E+00
         0.00000E+00
         0.00000E+00
         0.00000E+00
         0.00000E+00
         0.00000E+00
         0.00000E+00
         0.00000E+00
         0.00000E+00
         0.00000E+00
         0.00000E+00
         0.00000E+00
         0.00000E+00
         0.00000E+00
         0.00000E+00
         0.00000E+00
         0.00000E+00
         0.00000E+00
         0.00000E+00
         0.00000E+00
         0.00000E+00
         0.00000E+00
         0.00000E+00
         0.00000E+00
         0.00000E+00
         0.00000E+00
         0.00000E+00
         0.00000E+00
         0.00000E+00
         0.00000E+00
         0.00000E+00
         0.00000E+00
         0.00000E+00
         0.00000E+00
         0.00000E+00
         0.00000E+00
         0.00000E+00
         0.00000E+00
         0.00000E+00
         0.00000E+00
         0.00000E+00
         0.00000E+00
         0.00000E+00
         0.00000E+00
         0.00000E+00
         0.00000E+00
         0.00000E+00
         0.00000E+00
         0.00000E+00
         0.00000E+00
         0.00000E+00
         0.00000E+00
         0.00000E+00
         0.00000E+00
         0.00000E+00
         0.00000E+00
         0.00000E+00
         0.00000E+00
         0.00000E+00
         0.00000E+00
         0.00000E+00
         0.00000E+00
         0.00000E+00
         0.00000E+00
         0.00000E+00
         0.00000E+00
         0.00000E+00
         0.00000E+00
         0.00000E+00
         0.00000E+00
         0.00000E+00
         0.00000E+00
         0.00000E+00
         0.00000E+00
         0.00000E+00
         0.00000E+00
         0.00000E+00
         0.00000E+00
         0.00000E+00
         0.00000E+00
         0.00000E+00
         0.00000E+00
         0.00000E+00
         0.00000E+00
         0.00000E+00
         0.00000E+00
         0.00000E+00
         0.00000E+00
         0.00000E+00
         0.00000E+00
         0.00000E+00
         0.00000E+00
         0.00000E+00
         0.00000E+00
         0.00000E+00
         0.00000E+00
         0.00000E+00
         0.00000E+00
         0.00000E+00
         0.00000E+00
         0.00000E+00
         0.00000E+00
         0.00000E+00
         0.00000E+00
         0.00000E+00
         0.00000E+00
         0.00000E+00
         0.00000E+00
         0.00000E+00
         0.00000E+00
         0.00000E+00
         0.00000E+00
         0.00000E+00
         0.00000E+00
         0.00000E+00
         0.00000E+00
         0.00000E+00
         0.00000E+00
         0.00000E+00
         0.00000E+00
         0.00000E+00
         0.00000E+00
         0.00000E+00
         0.00000E+00
         0.00000E+00
         0.00000E+00
         0.00000E+00
         0.00000E+00
         0.00000E+00
         0.00000E+00
         0.00000E+00
         0.00000E+00
         0.00000E+00
         0.00000E+00
         0.00000E+00
         0.00000E+00
         0.00000E+00
         0.00000E+00
         0.00000E+00
         0.00000E+00
         0.00000E+00
         0.00000E+00
         0.00000E+00
         0.00000E+00
         0.00000E+00
         0.00000E+00
         0.00000E+00
         0.00000E+00
         0.00000E+00
         0.00000E+00
         0.00000E+00
         0.00000E+00
         0.00000E+00
         0.00000E+00
         0.00000E+00
         0.00000E+00
         0.00000E+00
         0.00000E+00
         0.00000E+00
         0.00000E+00
         0.00000E+00
         0.00000E+00
         0.00000E+00
         0.00000E+00
         0.00000E+00
         0.00000E+00
         0.00000E+00
         0.00000E+00
         0.00000E+00
         0.00000E+00
         0.00000E+00
         0.00000E+00
         0.00000E+00
         0.00000E+00
         0.00000E+00
         0.00000E+00
         0.00000E+00
         0.00000E+00
         0.00000E+00
         0.00000E+00
         0.00000E+00
         0.00000E+00
         0.00000E+00
         0.00000E+00
         0.00000E+00
         0.00000E+00
         0.00000E+00
         0.00000E+00
         0.00000E+00
         0.00000E+00
         0.00000E+00
         0.00000E+00
         0.00000E+00
         0.00000E+00
         0.00000E+00
         0.00000E+00
         0.00000E+00
         0.00000E+00
         0.00000E+00
         0.00000E+00
         0.00000E+00
         0.00000E+00
         0.00000E+00
         0.00000E+00
         0.00000E+00
         0.00000E+00
         0.00000E+00
         0.00000E+00
         0.00000E+00
         0.00000E+00
         0.00000E+00
         0.00000E+00
         0.00000E+00
         0.00000E+00
         0.00000E+00
         0.00000E+00
         0.00000E+00
         0.00000E+00
         0.00000E+00
         0.00000E+00
         0.00000E+00
         0.00000E+00
         0.00000E+00
         0.00000E+00
         0.00000E+00
         0.00000E+00
         0.00000E+00
         0.00000E+00
         0.00000E+00
         0.00000E+00
         0.00000E+00
         0.00000E+00
         0.00000E+00
         0.00000E+00
         0.00000E+00
         0.00000E+00
         0.00000E+00
         0.00000E+00
         0.00000E+00
         0.00000E+00
         0.00000E+00
         0.00000E+00
         0.00000E+00
         0.00000E+00
         0.00000E+00
         0.00000E+00
         0.00000E+00
         0.00000E+00
         0.00000E+00
         0.00000E+00
         0.00000E+00
         0.00000E+00
         0.00000E+00
         0.00000E+00
         0.00000E+00
         0.00000E+00
         0.00000E+00
         0.00000E+00
         0.00000E+00
         0.00000E+00
         0.00000E+00
         0.00000E+00
         0.00000E+00
         0.00000E+00
         0.00000E+00
         0.00000E+00
         0.00000E+00
         0.00000E+00
         0.00000E+00
         0.00000E+00
         0.00000E+00
         0.00000E+00
         0.00000E+00
         0.00000E+00
         0.00000E+00
         0.00000E+00
         0.00000E+00
         0.00000E+00
         0.00000E+00
         0.00000E+00
         0.00000E+00
         0.00000E+00
         0.00000E+00
         0.00000E+00
         0.00000E+00
         0.00000E+00
         0.00000E+00
         0.00000E+00
         0.00000E+00
         0.00000E+00
         0.00000E+00
         0.00000E+00
         0.00000E+00
         0.00000E+00
         0.00000E+00
         0.00000E+00
         0.00000E+00
         0.00000E+00
         0.00000E+00
         0.00000E+00
         0.00000E+00
         0.00000E+00
         0.00000E+00
         0.00000E+00
         0.00000E+00
         0.00000E+00
         0.00000E+00
         0.00000E+00
         0.00000E+00
         0.00000E+00
         0.00000E+00
         0.00000E+00
         0.00000E+00
         0.00000E+00
         0.00000E+00
         0.00000E+00
         0.00000E+00
         0.00000E+00
         0.00000E+00
         0.00000E+00
         0.00000E+00
         0.00000E+00
         0.00000E+00
         0.00000E+00
         0.00000E+00
         0.00000E+00
         0.00000E+00
         0.00000E+00
         0.00000E+00
         0.00000E+00
         0.00000E+00
         0.00000E+00
         0.00000E+00
         0.00000E+00
         0.00000E+00
         0.00000E+00
         0.00000E+00
         0.00000E+00
         0.00000E+00
         0.00000E+00
         0.00000E+00
         0.00000E+00
         0.00000E+00
         0.00000E+00
         0.00000E+00
         0.00000E+00
         0.00000E+00
         0.00000E+00
         0.00000E+00
         0.00000E+00
         0.00000E+00
         0.00000E+00
         0.00000E+00
         0.00000E+00
         0.00000E+00
         0.00000E+00
         0.00000E+00
         0.00000E+00
         0.00000E+00
         0.00000E+00
         0.00000E+00
         0.00000E+00
         0.00000E+00
         0.00000E+00
         0.00000E+00
         0.00000E+00
         0.00000E+00
         0.00000E+00
         0.00000E+00
         0.00000E+00
         0.00000E+00
         0.00000E+00
         0.00000E+00
         0.00000E+00
         0.00000E+00
         0.00000E+00
         0.00000E+00
         0.00000E+00
         0.00000E+00
         0.00000E+00
         0.00000E+00
         0.00000E+00
         0.00000E+00
         0.00000E+00
         0.00000E+00
         0.00000E+00
         0.00000E+00
         0.00000E+00
         0.00000E+00
         0.00000E+00
         0.00000E+00
         0.00000E+00
         0.00000E+00
         0.00000E+00
         0.00000E+00
         0.00000E+00
         0.00000E+00
         0.00000E+00
         0.00000E+00
         0.00000E+00
         0.00000E+00
         0.00000E+00
         0.00000E+00
         0.00000E+00
         0.00000E+00
         0.00000E+00
         0.00000E+00
         0.00000E+00
         0.00000E+00
         0.00000E+00
         0.00000E+00
         0.00000E+00
         0.00000E+00
         0.00000E+00
         0.00000E+00
         0.00000E+00
         0.00000E+00
         0.00000E+00
         0.00000E+00
         0.00000E+00
         0.00000E+00
         0.00000E+00
         0.00000E+00
         0.00000E+00
         0.00000E+00
         0.00000E+00
         0.00000E+00
         0.00000E+00
         0.00000E+00
         0.00000E+00
         0.00000E+00
         0.00000E+00
         0.00000E+00
         0.00000E+00
         0.00000E+00
         0.00000E+00
         0.00000E+00
         0.00000E+00
         0.00000E+00
         0.00000E+00
         0.00000E+00
         0.00000E+00
         0.00000E+00
         0.00000E+00
         0.00000E+00
         0.00000E+00
         0.00000E+00
         0.00000E+00
         0.00000E+00
         0.00000E+00
         0.00000E+00
         0.00000E+00
         0.00000E+00
         0.00000E+00
         0.00000E+00
         0.00000E+00
         0.00000E+00
         0.00000E+00
         0.00000E+00
         0.00000E+00
         0.00000E+00
         0.00000E+00
         0.00000E+00
         0.00000E+00
         0.00000E+00
         0.00000E+00
         0.00000E+00
         0.00000E+00
         0.00000E+00
         0.00000E+00
         0.00000E+00
         0.00000E+00
         0.00000E+00
         0.00000E+00
         0.00000E+00
         0.00000E+00
         0.00000E+00
         0.00000E+00
         0.00000E+00
         0.00000E+00
         0.00000E+00
         0.00000E+00
         0.00000E+00
         0.00000E+00
         0.00000E+00
         0.00000E+00
         0.00000E+00
         0.00000E+00
         0.00000E+00
         0.00000E+00
         0.00000E+00
         0.00000E+00
         0.00000E+00
         0.00000E+00
         0.00000E+00
         0.00000E+00
         0.00000E+00
         0.00000E+00
         0.00000E+00
         0.00000E+00
         0.00000E+00
         0.00000E+00
         0.00000E+00
         0.00000E+00
         0.00000E+00
         0.00000E+00
         0.00000E+00
         0.00000E+00
         0.00000E+00
         0.00000E+00
         0.00000E+00
         0.00000E+00
         0.00000E+00
         0.00000E+00
         0.00000E+00
         0.00000E+00
         0.00000E+00
         0.00000E+00
         0.00000E+00
         0.00000E+00
         0.00000E+00
         0.00000E+00
         0.00000E+00
         0.00000E+00
         0.00000E+00
         0.00000E+00
         0.00000E+00
         0.00000E+00
         0.00000E+00
         0.00000E+00
         0.00000E+00
         0.00000E+00
         0.00000E+00
         0.00000E+00
         0.00000E+00
         0.00000E+00
         0.00000E+00
         0.00000E+00
         0.00000E+00
         0.00000E+00
         0.00000E+00
         0.00000E+00
         0.00000E+00
         0.00000E+00
         0.00000E+00
         0.00000E+00
         0.00000E+00
         0.00000E+00
         0.00000E+00
         0.00000E+00
         0.00000E+00
         0.00000E+00
         0.00000E+00
         0.00000E+00
         0.00000E+00
         0.00000E+00
         0.00000E+00
         0.00000E+00
         0.00000E+00
         0.00000E+00
         0.00000E+00
         0.00000E+00
         0.00000E+00
         0.00000E+00
         0.00000E+00
         0.00000E+00
         0.00000E+00
         0.00000E+00
         0.00000E+00
         0.00000E+00
         0.00000E+00
         0.00000E+00
         0.00000E+00
         0.00000E+00
         0.00000E+00
         0.00000E+00
         0.00000E+00
         0.00000E+00
         0.00000E+00
         0.00000E+00
         0.00000E+00
         0.00000E+00
         0.00000E+00
         0.00000E+00
         0.00000E+00
         0.00000E+00
         0.00000E+00
         0.00000E+00
         0.00000E+00
         0.00000E+00
         0.00000E+00
         0.00000E+00
         0.00000E+00
         0.00000E+00
         0.00000E+00
         0.00000E+00
         0.00000E+00
         0.00000E+00
         0.00000E+00
         0.00000E+00
         0.00000E+00
         0.00000E+00
         0.00000E+00
         0.00000E+00
         0.00000E+00
         0.00000E+00
         0.00000E+00
         0.00000E+00
         0.00000E+00
         0.00000E+00
         0.00000E+00
         0.00000E+00
         0.00000E+00
  
SCALARS                init_velocity_z  double 1
LOOKUP_TABLE default
        -0.37300E+03
        -0.37300E+03
        -0.37300E+03
        -0.37300E+03
        -0.37300E+03
        -0.37300E+03
        -0.37300E+03
        -0.37300E+03
        -0.37300E+03
        -0.37300E+03
        -0.37300E+03
        -0.37300E+03
        -0.37300E+03
        -0.37300E+03
        -0.37300E+03
        -0.37300E+03
        -0.37300E+03
        -0.37300E+03
        -0.37300E+03
        -0.37300E+03
        -0.37300E+03
        -0.37300E+03
        -0.37300E+03
        -0.37300E+03
        -0.37300E+03
        -0.37300E+03
        -0.37300E+03
        -0.37300E+03
        -0.37300E+03
        -0.37300E+03
        -0.37300E+03
        -0.37300E+03
        -0.37300E+03
        -0.37300E+03
        -0.37300E+03
        -0.37300E+03
        -0.37300E+03
        -0.37300E+03
        -0.37300E+03
        -0.37300E+03
        -0.37300E+03
        -0.37300E+03
        -0.37300E+03
        -0.37300E+03
        -0.37300E+03
        -0.37300E+03
        -0.37300E+03
        -0.37300E+03
        -0.37300E+03
        -0.37300E+03
        -0.37300E+03
        -0.37300E+03
        -0.37300E+03
        -0.37300E+03
        -0.37300E+03
        -0.37300E+03
        -0.37300E+03
        -0.37300E+03
        -0.37300E+03
        -0.37300E+03
        -0.37300E+03
        -0.37300E+03
        -0.37300E+03
        -0.37300E+03
        -0.37300E+03
        -0.37300E+03
        -0.37300E+03
        -0.37300E+03
        -0.37300E+03
        -0.37300E+03
        -0.37300E+03
        -0.37300E+03
        -0.37300E+03
        -0.37300E+03
        -0.37300E+03
        -0.37300E+03
        -0.37300E+03
        -0.37300E+03
        -0.37300E+03
        -0.37300E+03
        -0.37300E+03
        -0.37300E+03
        -0.37300E+03
        -0.37300E+03
        -0.37300E+03
        -0.37300E+03
        -0.37300E+03
        -0.37300E+03
        -0.37300E+03
        -0.37300E+03
        -0.37300E+03
        -0.37300E+03
        -0.37300E+03
        -0.37300E+03
        -0.37300E+03
        -0.37300E+03
        -0.37300E+03
        -0.37300E+03
        -0.37300E+03
        -0.37300E+03
        -0.37300E+03
        -0.37300E+03
        -0.37300E+03
        -0.37300E+03
        -0.37300E+03
        -0.37300E+03
        -0.37300E+03
        -0.37300E+03
        -0.37300E+03
        -0.37300E+03
        -0.37300E+03
        -0.37300E+03
        -0.37300E+03
        -0.37300E+03
        -0.37300E+03
        -0.37300E+03
        -0.37300E+03
        -0.37300E+03
        -0.37300E+03
        -0.37300E+03
        -0.37300E+03
        -0.37300E+03
        -0.37300E+03
        -0.37300E+03
        -0.37300E+03
        -0.37300E+03
        -0.37300E+03
        -0.37300E+03
        -0.37300E+03
        -0.37300E+03
        -0.37300E+03
        -0.37300E+03
        -0.37300E+03
        -0.37300E+03
        -0.37300E+03
        -0.37300E+03
        -0.37300E+03
        -0.37300E+03
        -0.37300E+03
        -0.37300E+03
        -0.37300E+03
        -0.37300E+03
        -0.37300E+03
        -0.37300E+03
        -0.37300E+03
        -0.37300E+03
        -0.37300E+03
        -0.37300E+03
        -0.37300E+03
        -0.37300E+03
        -0.37300E+03
        -0.37300E+03
        -0.37300E+03
        -0.37300E+03
        -0.37300E+03
        -0.37300E+03
        -0.37300E+03
        -0.37300E+03
        -0.37300E+03
        -0.37300E+03
        -0.37300E+03
        -0.37300E+03
        -0.37300E+03
        -0.37300E+03
        -0.37300E+03
        -0.37300E+03
        -0.37300E+03
        -0.37300E+03
        -0.37300E+03
        -0.37300E+03
        -0.37300E+03
        -0.37300E+03
        -0.37300E+03
        -0.37300E+03
        -0.37300E+03
        -0.37300E+03
        -0.37300E+03
        -0.37300E+03
        -0.37300E+03
        -0.37300E+03
        -0.37300E+03
        -0.37300E+03
        -0.37300E+03
        -0.37300E+03
        -0.37300E+03
        -0.37300E+03
        -0.37300E+03
        -0.37300E+03
        -0.37300E+03
        -0.37300E+03
        -0.37300E+03
        -0.37300E+03
        -0.37300E+03
        -0.37300E+03
        -0.37300E+03
        -0.37300E+03
        -0.37300E+03
        -0.37300E+03
        -0.37300E+03
        -0.37300E+03
        -0.37300E+03
        -0.37300E+03
        -0.37300E+03
        -0.37300E+03
        -0.37300E+03
        -0.37300E+03
        -0.37300E+03
        -0.37300E+03
        -0.37300E+03
        -0.37300E+03
        -0.37300E+03
        -0.37300E+03
        -0.37300E+03
        -0.37300E+03
        -0.37300E+03
        -0.37300E+03
        -0.37300E+03
        -0.37300E+03
        -0.37300E+03
        -0.37300E+03
        -0.37300E+03
        -0.37300E+03
        -0.37300E+03
        -0.37300E+03
        -0.37300E+03
        -0.37300E+03
        -0.37300E+03
        -0.37300E+03
        -0.37300E+03
        -0.37300E+03
        -0.37300E+03
        -0.37300E+03
        -0.37300E+03
        -0.37300E+03
        -0.37300E+03
        -0.37300E+03
        -0.37300E+03
        -0.37300E+03
        -0.37300E+03
        -0.37300E+03
        -0.37300E+03
        -0.37300E+03
        -0.37300E+03
        -0.37300E+03
        -0.37300E+03
        -0.37300E+03
        -0.37300E+03
        -0.37300E+03
        -0.37300E+03
        -0.37300E+03
        -0.37300E+03
        -0.37300E+03
        -0.37300E+03
        -0.37300E+03
        -0.37300E+03
        -0.37300E+03
        -0.37300E+03
        -0.37300E+03
        -0.37300E+03
        -0.37300E+03
        -0.37300E+03
        -0.37300E+03
        -0.37300E+03
        -0.37300E+03
        -0.37300E+03
        -0.37300E+03
        -0.37300E+03
        -0.37300E+03
        -0.37300E+03
        -0.37300E+03
        -0.37300E+03
        -0.37300E+03
        -0.37300E+03
        -0.37300E+03
        -0.37300E+03
        -0.37300E+03
        -0.37300E+03
        -0.37300E+03
        -0.37300E+03
        -0.37300E+03
        -0.37300E+03
        -0.37300E+03
        -0.37300E+03
        -0.37300E+03
        -0.37300E+03
        -0.37300E+03
        -0.37300E+03
        -0.37300E+03
        -0.37300E+03
        -0.37300E+03
        -0.37300E+03
        -0.37300E+03
        -0.37300E+03
        -0.37300E+03
        -0.37300E+03
        -0.37300E+03
        -0.37300E+03
        -0.37300E+03
        -0.37300E+03
        -0.37300E+03
        -0.37300E+03
        -0.37300E+03
        -0.37300E+03
        -0.37300E+03
        -0.37300E+03
        -0.37300E+03
        -0.37300E+03
        -0.37300E+03
        -0.37300E+03
        -0.37300E+03
        -0.37300E+03
        -0.37300E+03
        -0.37300E+03
        -0.37300E+03
        -0.37300E+03
        -0.37300E+03
        -0.37300E+03
        -0.37300E+03
        -0.37300E+03
        -0.37300E+03
        -0.37300E+03
        -0.37300E+03
        -0.37300E+03
        -0.37300E+03
        -0.37300E+03
        -0.37300E+03
        -0.37300E+03
        -0.37300E+03
        -0.37300E+03
        -0.37300E+03
        -0.37300E+03
        -0.37300E+03
        -0.37300E+03
        -0.37300E+03
        -0.37300E+03
        -0.37300E+03
        -0.37300E+03
        -0.37300E+03
        -0.37300E+03
        -0.37300E+03
        -0.37300E+03
        -0.37300E+03
        -0.37300E+03
        -0.37300E+03
        -0.37300E+03
        -0.37300E+03
        -0.37300E+03
        -0.37300E+03
        -0.37300E+03
        -0.37300E+03
        -0.37300E+03
        -0.37300E+03
        -0.37300E+03
        -0.37300E+03
        -0.37300E+03
        -0.37300E+03
        -0.37300E+03
        -0.37300E+03
        -0.37300E+03
        -0.37300E+03
        -0.37300E+03
        -0.37300E+03
        -0.37300E+03
        -0.37300E+03
        -0.37300E+03
        -0.37300E+03
        -0.37300E+03
        -0.37300E+03
        -0.37300E+03
        -0.37300E+03
        -0.37300E+03
        -0.37300E+03
        -0.37300E+03
        -0.37300E+03
        -0.37300E+03
        -0.37300E+03
        -0.37300E+03
        -0.37300E+03
        -0.37300E+03
        -0.37300E+03
        -0.37300E+03
        -0.37300E+03
        -0.37300E+03
        -0.37300E+03
        -0.37300E+03
        -0.37300E+03
        -0.37300E+03
        -0.37300E+03
        -0.37300E+03
        -0.37300E+03
        -0.37300E+03
        -0.37300E+03
        -0.37300E+03
        -0.37300E+03
        -0.37300E+03
        -0.37300E+03
        -0.37300E+03
        -0.37300E+03
        -0.37300E+03
        -0.37300E+03
        -0.37300E+03
        -0.37300E+03
        -0.37300E+03
        -0.37300E+03
        -0.37300E+03
        -0.37300E+03
        -0.37300E+03
        -0.37300E+03
        -0.37300E+03
        -0.37300E+03
        -0.37300E+03
        -0.37300E+03
        -0.37300E+03
        -0.37300E+03
        -0.37300E+03
        -0.37300E+03
        -0.37300E+03
        -0.37300E+03
        -0.37300E+03
        -0.37300E+03
        -0.37300E+03
        -0.37300E+03
        -0.37300E+03
        -0.37300E+03
        -0.37300E+03
        -0.37300E+03
        -0.37300E+03
        -0.37300E+03
        -0.37300E+03
        -0.37300E+03
        -0.37300E+03
        -0.37300E+03
        -0.37300E+03
        -0.37300E+03
        -0.37300E+03
        -0.37300E+03
        -0.37300E+03
        -0.37300E+03
        -0.37300E+03
        -0.37300E+03
        -0.37300E+03
        -0.37300E+03
        -0.37300E+03
        -0.37300E+03
        -0.37300E+03
        -0.37300E+03
        -0.37300E+03
        -0.37300E+03
        -0.37300E+03
        -0.37300E+03
        -0.37300E+03
        -0.37300E+03
        -0.37300E+03
        -0.37300E+03
        -0.37300E+03
        -0.37300E+03
        -0.37300E+03
        -0.37300E+03
        -0.37300E+03
        -0.37300E+03
        -0.37300E+03
        -0.37300E+03
        -0.37300E+03
        -0.37300E+03
        -0.37300E+03
        -0.37300E+03
        -0.37300E+03
        -0.37300E+03
        -0.37300E+03
        -0.37300E+03
        -0.37300E+03
        -0.37300E+03
        -0.37300E+03
        -0.37300E+03
        -0.37300E+03
        -0.37300E+03
        -0.37300E+03
        -0.37300E+03
        -0.37300E+03
        -0.37300E+03
        -0.37300E+03
        -0.37300E+03
        -0.37300E+03
        -0.37300E+03
        -0.37300E+03
        -0.37300E+03
        -0.37300E+03
        -0.37300E+03
        -0.37300E+03
        -0.37300E+03
        -0.37300E+03
        -0.37300E+03
        -0.37300E+03
        -0.37300E+03
        -0.37300E+03
        -0.37300E+03
        -0.37300E+03
        -0.37300E+03
        -0.37300E+03
        -0.37300E+03
        -0.37300E+03
        -0.37300E+03
        -0.37300E+03
        -0.37300E+03
        -0.37300E+03
        -0.37300E+03
        -0.37300E+03
        -0.37300E+03
        -0.37300E+03
        -0.37300E+03
        -0.37300E+03
        -0.37300E+03
        -0.37300E+03
        -0.37300E+03
        -0.37300E+03
        -0.37300E+03
        -0.37300E+03
        -0.37300E+03
        -0.37300E+03
        -0.37300E+03
        -0.37300E+03
        -0.37300E+03
        -0.37300E+03
        -0.37300E+03
        -0.37300E+03
        -0.37300E+03
        -0.37300E+03
        -0.37300E+03
        -0.37300E+03
        -0.37300E+03
        -0.37300E+03
        -0.37300E+03
        -0.37300E+03
        -0.37300E+03
        -0.37300E+03
        -0.37300E+03
        -0.37300E+03
        -0.37300E+03
        -0.37300E+03
        -0.37300E+03
        -0.37300E+03
        -0.37300E+03
        -0.37300E+03
        -0.37300E+03
        -0.37300E+03
        -0.37300E+03
        -0.37300E+03
        -0.37300E+03
        -0.37300E+03
        -0.37300E+03
        -0.37300E+03
        -0.37300E+03
        -0.37300E+03
        -0.37300E+03
        -0.37300E+03
        -0.37300E+03
        -0.37300E+03
        -0.37300E+03
        -0.37300E+03
        -0.37300E+03
        -0.37300E+03
        -0.37300E+03
        -0.37300E+03
        -0.37300E+03
        -0.37300E+03
        -0.37300E+03
        -0.37300E+03
        -0.37300E+03
        -0.37300E+03
        -0.37300E+03
        -0.37300E+03
        -0.37300E+03
        -0.37300E+03
        -0.37300E+03
        -0.37300E+03
        -0.37300E+03
        -0.37300E+03
        -0.37300E+03
        -0.37300E+03
        -0.37300E+03
        -0.37300E+03
        -0.37300E+03
        -0.37300E+03
        -0.37300E+03
        -0.37300E+03
        -0.37300E+03
        -0.37300E+03
        -0.37300E+03
        -0.37300E+03
        -0.37300E+03
        -0.37300E+03
        -0.37300E+03
        -0.37300E+03
        -0.37300E+03
        -0.37300E+03
        -0.37300E+03
        -0.37300E+03
        -0.37300E+03
        -0.37300E+03
        -0.37300E+03
        -0.37300E+03
        -0.37300E+03
        -0.37300E+03
        -0.37300E+03
        -0.37300E+03
        -0.37300E+03
        -0.37300E+03
        -0.37300E+03
        -0.37300E+03
        -0.37300E+03
        -0.37300E+03
        -0.37300E+03
        -0.37300E+03
        -0.37300E+03
        -0.37300E+03
        -0.37300E+03
        -0.37300E+03
        -0.37300E+03
        -0.37300E+03
        -0.37300E+03
        -0.37300E+03
        -0.37300E+03
        -0.37300E+03
        -0.37300E+03
        -0.37300E+03
        -0.37300E+03
        -0.37300E+03
        -0.37300E+03
        -0.37300E+03
        -0.37300E+03
        -0.37300E+03
        -0.37300E+03
        -0.37300E+03
        -0.37300E+03
        -0.37300E+03
        -0.37300E+03
        -0.37300E+03
        -0.37300E+03
        -0.37300E+03
        -0.37300E+03
        -0.37300E+03
        -0.37300E+03
        -0.37300E+03
        -0.37300E+03
        -0.37300E+03
        -0.37300E+03
        -0.37300E+03
        -0.37300E+03
        -0.37300E+03
        -0.37300E+03
        -0.37300E+03
        -0.37300E+03
        -0.37300E+03
        -0.37300E+03
        -0.37300E+03
        -0.37300E+03
        -0.37300E+03
        -0.37300E+03
        -0.37300E+03
        -0.37300E+03
        -0.37300E+03
        -0.37300E+03
        -0.37300E+03
        -0.37300E+03
        -0.37300E+03
        -0.37300E+03
        -0.37300E+03
        -0.37300E+03
        -0.37300E+03
        -0.37300E+03
        -0.37300E+03
        -0.37300E+03
        -0.37300E+03
        -0.37300E+03
        -0.37300E+03
        -0.37300E+03
        -0.37300E+03
        -0.37300E+03
        -0.37300E+03
        -0.37300E+03
        -0.37300E+03
        -0.37300E+03
        -0.37300E+03
        -0.37300E+03
        -0.37300E+03
        -0.37300E+03
        -0.37300E+03
        -0.37300E+03
        -0.37300E+03
        -0.37300E+03
        -0.37300E+03
        -0.37300E+03
        -0.37300E+03
        -0.37300E+03
        -0.37300E+03
        -0.37300E+03
        -0.37300E+03
        -0.37300E+03
        -0.37300E+03
        -0.37300E+03
        -0.37300E+03
        -0.37300E+03
        -0.37300E+03
        -0.37300E+03
        -0.37300E+03
        -0.37300E+03
        -0.37300E+03
        -0.37300E+03
        -0.37300E+03
        -0.37300E+03
        -0.37300E+03
        -0.37300E+03
        -0.37300E+03
        -0.37300E+03
        -0.37300E+03
        -0.37300E+03
        -0.37300E+03
        -0.37300E+03
        -0.37300E+03
        -0.37300E+03
        -0.37300E+03
        -0.37300E+03
        -0.37300E+03
        -0.37300E+03
        -0.37300E+03
        -0.37300E+03
        -0.37300E+03
        -0.37300E+03
        -0.37300E+03
        -0.37300E+03
        -0.37300E+03
        -0.37300E+03
        -0.37300E+03
        -0.37300E+03
        -0.37300E+03
        -0.37300E+03
        -0.37300E+03
        -0.37300E+03
        -0.37300E+03
        -0.37300E+03
        -0.37300E+03
        -0.37300E+03
        -0.37300E+03
        -0.37300E+03
        -0.37300E+03
        -0.37300E+03
        -0.37300E+03
        -0.37300E+03
        -0.37300E+03
        -0.37300E+03
        -0.37300E+03
        -0.37300E+03
        -0.37300E+03
        -0.37300E+03
        -0.37300E+03
        -0.37300E+03
        -0.37300E+03
        -0.37300E+03
        -0.37300E+03
        -0.37300E+03
        -0.37300E+03
        -0.37300E+03
        -0.37300E+03
        -0.37300E+03
        -0.37300E+03
        -0.37300E+03
        -0.37300E+03
        -0.37300E+03
        -0.37300E+03
        -0.37300E+03
        -0.37300E+03
        -0.37300E+03
        -0.37300E+03
        -0.37300E+03
        -0.37300E+03
        -0.37300E+03
        -0.37300E+03
        -0.37300E+03
        -0.37300E+03
        -0.37300E+03
        -0.37300E+03
        -0.37300E+03
        -0.37300E+03
        -0.37300E+03
        -0.37300E+03
        -0.37300E+03
        -0.37300E+03
        -0.37300E+03
        -0.37300E+03
        -0.37300E+03
        -0.37300E+03
        -0.37300E+03
        -0.37300E+03
        -0.37300E+03
        -0.37300E+03
        -0.37300E+03
        -0.37300E+03
        -0.37300E+03
        -0.37300E+03
        -0.37300E+03
        -0.37300E+03
        -0.37300E+03
        -0.37300E+03
        -0.37300E+03
        -0.37300E+03
        -0.37300E+03
        -0.37300E+03
        -0.37300E+03
        -0.37300E+03
        -0.37300E+03
        -0.37300E+03
        -0.37300E+03
        -0.37300E+03
        -0.37300E+03
        -0.37300E+03
        -0.37300E+03
        -0.37300E+03
        -0.37300E+03
        -0.37300E+03
        -0.37300E+03
        -0.37300E+03
        -0.37300E+03
        -0.37300E+03
        -0.37300E+03
        -0.37300E+03
        -0.37300E+03
        -0.37300E+03
        -0.37300E+03
        -0.37300E+03
        -0.37300E+03
        -0.37300E+03
        -0.37300E+03
        -0.37300E+03
        -0.37300E+03
        -0.37300E+03
        -0.37300E+03
        -0.37300E+03
        -0.37300E+03
        -0.37300E+03
        -0.37300E+03
        -0.37300E+03
        -0.37300E+03
        -0.37300E+03
        -0.37300E+03
        -0.37300E+03
        -0.37300E+03
        -0.37300E+03
        -0.37300E+03
        -0.37300E+03
        -0.37300E+03
        -0.37300E+03
        -0.37300E+03
        -0.37300E+03
        -0.37300E+03
        -0.37300E+03
        -0.37300E+03
        -0.37300E+03
        -0.37300E+03
        -0.37300E+03
        -0.37300E+03
        -0.37300E+03
        -0.37300E+03
        -0.37300E+03
        -0.37300E+03
        -0.37300E+03
        -0.37300E+03
        -0.37300E+03
        -0.37300E+03
        -0.37300E+03
        -0.37300E+03
        -0.37300E+03
        -0.37300E+03
        -0.37300E+03
        -0.37300E+03
        -0.37300E+03
        -0.37300E+03
        -0.37300E+03
        -0.37300E+03
        -0.37300E+03
        -0.37300E+03
        -0.37300E+03
        -0.37300E+03
        -0.37300E+03
        -0.37300E+03
        -0.37300E+03
        -0.37300E+03
        -0.37300E+03
        -0.37300E+03
        -0.37300E+03
        -0.37300E+03
        -0.37300E+03
        -0.37300E+03
        -0.37300E+03
        -0.37300E+03
        -0.37300E+03
        -0.37300E+03
        -0.37300E+03
        -0.37300E+03
        -0.37300E+03
        -0.37300E+03
        -0.37300E+03
        -0.37300E+03
        -0.37300E+03
        -0.37300E+03
        -0.37300E+03
        -0.37300E+03
        -0.37300E+03
        -0.37300E+03
        -0.37300E+03
        -0.37300E+03
        -0.37300E+03
        -0.37300E+03
        -0.37300E+03
        -0.37300E+03
        -0.37300E+03
        -0.37300E+03
        -0.37300E+03
        -0.37300E+03
        -0.37300E+03
        -0.37300E+03
        -0.37300E+03
        -0.37300E+03
        -0.37300E+03
        -0.37300E+03
        -0.37300E+03
        -0.37300E+03
        -0.37300E+03
        -0.37300E+03
        -0.37300E+03
        -0.37300E+03
        -0.37300E+03
        -0.37300E+03
        -0.37300E+03
        -0.37300E+03
        -0.37300E+03
        -0.37300E+03
        -0.37300E+03
        -0.37300E+03
        -0.37300E+03
        -0.37300E+03
        -0.37300E+03
        -0.37300E+03
        -0.37300E+03
        -0.37300E+03
        -0.37300E+03
        -0.37300E+03
        -0.37300E+03
        -0.37300E+03
        -0.37300E+03
        -0.37300E+03
        -0.37300E+03
        -0.37300E+03
        -0.37300E+03
        -0.37300E+03
        -0.37300E+03
        -0.37300E+03
        -0.37300E+03
        -0.37300E+03
        -0.37300E+03
        -0.37300E+03
        -0.37300E+03
        -0.37300E+03
        -0.37300E+03
        -0.37300E+03
        -0.37300E+03
        -0.37300E+03
        -0.37300E+03
        -0.37300E+03
        -0.37300E+03
        -0.37300E+03
        -0.37300E+03
        -0.37300E+03
        -0.37300E+03
        -0.37300E+03
        -0.37300E+03
        -0.37300E+03
        -0.37300E+03
        -0.37300E+03
        -0.37300E+03
        -0.37300E+03
        -0.37300E+03
        -0.37300E+03
        -0.37300E+03
        -0.37300E+03
        -0.37300E+03
        -0.37300E+03
        -0.37300E+03
        -0.37300E+03
        -0.37300E+03
        -0.37300E+03
        -0.37300E+03
        -0.37300E+03
        -0.37300E+03
        -0.37300E+03
        -0.37300E+03
        -0.37300E+03
        -0.37300E+03
        -0.37300E+03
        -0.37300E+03
        -0.37300E+03
        -0.37300E+03
        -0.37300E+03
        -0.37300E+03
        -0.37300E+03
        -0.37300E+03
        -0.37300E+03
        -0.37300E+03
        -0.37300E+03
        -0.37300E+03
        -0.37300E+03
        -0.37300E+03
        -0.37300E+03
        -0.37300E+03
        -0.37300E+03
        -0.37300E+03
        -0.37300E+03
        -0.37300E+03
        -0.37300E+03
        -0.37300E+03
        -0.37300E+03
        -0.37300E+03
        -0.37300E+03
        -0.37300E+03
        -0.37300E+03
        -0.37300E+03
        -0.37300E+03
        -0.37300E+03
        -0.37300E+03
        -0.37300E+03
        -0.37300E+03
        -0.37300E+03
        -0.37300E+03
        -0.37300E+03
        -0.37300E+03
        -0.37300E+03
        -0.37300E+03
        -0.37300E+03
        -0.37300E+03
        -0.37300E+03
        -0.37300E+03
        -0.37300E+03
        -0.37300E+03
        -0.37300E+03
        -0.37300E+03
        -0.37300E+03
        -0.37300E+03
        -0.37300E+03
        -0.37300E+03
        -0.37300E+03
        -0.37300E+03
        -0.37300E+03
        -0.37300E+03
        -0.37300E+03
        -0.37300E+03
        -0.37300E+03
        -0.37300E+03
        -0.37300E+03
        -0.37300E+03
        -0.37300E+03
        -0.37300E+03
        -0.37300E+03
        -0.37300E+03
        -0.37300E+03
        -0.37300E+03
        -0.37300E+03
        -0.37300E+03
        -0.37300E+03
        -0.37300E+03
        -0.37300E+03
        -0.37300E+03
        -0.37300E+03
        -0.37300E+03
        -0.37300E+03
        -0.37300E+03
        -0.37300E+03
        -0.37300E+03
        -0.37300E+03
        -0.37300E+03
        -0.37300E+03
        -0.37300E+03
        -0.37300E+03
        -0.37300E+03
        -0.37300E+03
        -0.37300E+03
        -0.37300E+03
        -0.37300E+03
        -0.37300E+03
        -0.37300E+03
        -0.37300E+03
        -0.37300E+03
        -0.37300E+03
        -0.37300E+03
        -0.37300E+03
        -0.37300E+03
        -0.37300E+03
        -0.37300E+03
        -0.37300E+03
        -0.37300E+03
        -0.37300E+03
        -0.37300E+03
        -0.37300E+03
        -0.37300E+03
        -0.37300E+03
        -0.37300E+03
        -0.37300E+03
        -0.37300E+03
        -0.37300E+03
        -0.37300E+03
        -0.37300E+03
        -0.37300E+03
        -0.37300E+03
        -0.37300E+03
        -0.37300E+03
        -0.37300E+03
        -0.37300E+03
        -0.37300E+03
        -0.37300E+03
        -0.37300E+03
        -0.37300E+03
        -0.37300E+03
        -0.37300E+03
        -0.37300E+03
        -0.37300E+03
        -0.37300E+03
        -0.37300E+03
        -0.37300E+03
        -0.37300E+03
        -0.37300E+03
        -0.37300E+03
        -0.37300E+03
        -0.37300E+03
        -0.37300E+03
        -0.37300E+03
        -0.37300E+03
        -0.37300E+03
        -0.37300E+03
        -0.37300E+03
        -0.37300E+03
        -0.37300E+03
        -0.37300E+03
        -0.37300E+03
        -0.37300E+03
        -0.37300E+03
        -0.37300E+03
        -0.37300E+03
        -0.37300E+03
        -0.37300E+03
        -0.37300E+03
        -0.37300E+03
        -0.37300E+03
        -0.37300E+03
        -0.37300E+03
        -0.37300E+03
        -0.37300E+03
        -0.37300E+03
        -0.37300E+03
        -0.37300E+03
        -0.37300E+03
        -0.37300E+03
        -0.37300E+03
        -0.37300E+03
        -0.37300E+03
        -0.37300E+03
        -0.37300E+03
        -0.37300E+03
        -0.37300E+03
        -0.37300E+03
        -0.37300E+03
        -0.37300E+03
        -0.37300E+03
        -0.37300E+03
        -0.37300E+03
        -0.37300E+03
        -0.37300E+03
        -0.37300E+03
        -0.37300E+03
        -0.37300E+03
        -0.37300E+03
        -0.37300E+03
        -0.37300E+03
        -0.37300E+03
        -0.37300E+03
        -0.37300E+03
        -0.37300E+03
        -0.37300E+03
        -0.37300E+03
        -0.37300E+03
        -0.37300E+03
        -0.37300E+03
        -0.37300E+03
        -0.37300E+03
        -0.37300E+03
        -0.37300E+03
        -0.37300E+03
        -0.37300E+03
        -0.37300E+03
        -0.37300E+03
        -0.37300E+03
        -0.37300E+03
        -0.37300E+03
        -0.37300E+03
        -0.37300E+03
        -0.37300E+03
        -0.37300E+03
        -0.37300E+03
        -0.37300E+03
        -0.37300E+03
        -0.37300E+03
        -0.37300E+03
        -0.37300E+03
        -0.37300E+03
        -0.37300E+03
        -0.37300E+03
        -0.37300E+03
        -0.37300E+03
        -0.37300E+03
        -0.37300E+03
        -0.37300E+03
        -0.37300E+03
        -0.37300E+03
        -0.37300E+03
        -0.37300E+03
        -0.37300E+03
        -0.37300E+03
        -0.37300E+03
        -0.37300E+03
        -0.37300E+03
        -0.37300E+03
        -0.37300E+03
        -0.37300E+03
        -0.37300E+03
        -0.37300E+03
        -0.37300E+03
        -0.37300E+03
        -0.37300E+03
        -0.37300E+03
        -0.37300E+03
        -0.37300E+03
        -0.37300E+03
        -0.37300E+03
        -0.37300E+03
        -0.37300E+03
        -0.37300E+03
        -0.37300E+03
        -0.37300E+03
        -0.37300E+03
        -0.37300E+03
        -0.37300E+03
        -0.37300E+03
        -0.37300E+03
        -0.37300E+03
        -0.37300E+03
        -0.37300E+03
        -0.37300E+03
        -0.37300E+03
        -0.37300E+03
        -0.37300E+03
        -0.37300E+03
        -0.37300E+03
        -0.37300E+03
        -0.37300E+03
        -0.37300E+03
        -0.37300E+03
        -0.37300E+03
        -0.37300E+03
        -0.37300E+03
        -0.37300E+03
        -0.37300E+03
        -0.37300E+03
        -0.37300E+03
        -0.37300E+03
        -0.37300E+03
        -0.37300E+03
        -0.37300E+03
        -0.37300E+03
        -0.37300E+03
        -0.37300E+03
        -0.37300E+03
        -0.37300E+03
        -0.37300E+03
        -0.37300E+03
        -0.37300E+03
        -0.37300E+03
        -0.37300E+03
        -0.37300E+03
        -0.37300E+03
        -0.37300E+03
        -0.37300E+03
        -0.37300E+03
        -0.37300E+03
        -0.37300E+03
        -0.37300E+03
        -0.37300E+03
        -0.37300E+03
        -0.37300E+03
        -0.37300E+03
        -0.37300E+03
        -0.37300E+03
        -0.37300E+03
        -0.37300E+03
        -0.37300E+03
        -0.37300E+03
        -0.37300E+03
        -0.37300E+03
        -0.37300E+03
        -0.37300E+03
        -0.37300E+03
        -0.37300E+03
        -0.37300E+03
        -0.37300E+03
        -0.37300E+03
        -0.37300E+03
        -0.37300E+03
        -0.37300E+03
        -0.37300E+03
        -0.37300E+03
        -0.37300E+03
        -0.37300E+03
        -0.37300E+03
        -0.37300E+03
        -0.37300E+03
        -0.37300E+03
        -0.37300E+03
        -0.37300E+03
        -0.37300E+03
        -0.37300E+03
        -0.37300E+03
        -0.37300E+03
        -0.37300E+03
        -0.37300E+03
        -0.37300E+03
        -0.37300E+03
        -0.37300E+03
        -0.37300E+03
        -0.37300E+03
        -0.37300E+03
        -0.37300E+03
        -0.37300E+03
        -0.37300E+03
        -0.37300E+03
        -0.37300E+03
        -0.37300E+03
        -0.37300E+03
        -0.37300E+03
        -0.37300E+03
        -0.37300E+03
        -0.37300E+03
        -0.37300E+03
        -0.37300E+03
        -0.37300E+03
        -0.37300E+03
        -0.37300E+03
        -0.37300E+03
        -0.37300E+03
        -0.37300E+03
        -0.37300E+03
        -0.37300E+03
        -0.37300E+03
        -0.37300E+03
        -0.37300E+03
        -0.37300E+03
        -0.37300E+03
        -0.37300E+03
        -0.37300E+03
        -0.37300E+03
        -0.37300E+03
        -0.37300E+03
        -0.37300E+03
        -0.37300E+03
        -0.37300E+03
        -0.37300E+03
        -0.37300E+03
        -0.37300E+03
        -0.37300E+03
        -0.37300E+03
        -0.37300E+03
        -0.37300E+03
        -0.37300E+03
        -0.37300E+03
        -0.37300E+03
        -0.37300E+03
        -0.37300E+03
        -0.37300E+03
        -0.37300E+03
        -0.37300E+03
        -0.37300E+03
        -0.37300E+03
        -0.37300E+03
        -0.37300E+03
        -0.37300E+03
        -0.37300E+03
        -0.37300E+03
        -0.37300E+03
        -0.37300E+03
        -0.37300E+03
        -0.37300E+03
        -0.37300E+03
        -0.37300E+03
        -0.37300E+03
        -0.37300E+03
        -0.37300E+03
        -0.37300E+03
        -0.37300E+03
        -0.37300E+03
        -0.37300E+03
        -0.37300E+03
        -0.37300E+03
        -0.37300E+03
        -0.37300E+03
        -0.37300E+03
        -0.37300E+03
        -0.37300E+03
        -0.37300E+03
        -0.37300E+03
        -0.37300E+03
        -0.37300E+03
        -0.37300E+03
        -0.37300E+03
        -0.37300E+03
        -0.37300E+03
        -0.37300E+03
        -0.37300E+03
        -0.37300E+03
        -0.37300E+03
        -0.37300E+03
        -0.37300E+03
        -0.37300E+03
        -0.37300E+03
        -0.37300E+03
        -0.37300E+03
        -0.37300E+03
        -0.37300E+03
        -0.37300E+03
        -0.37300E+03
        -0.37300E+03
        -0.37300E+03
        -0.37300E+03
        -0.37300E+03
        -0.37300E+03
        -0.37300E+03
        -0.37300E+03
        -0.37300E+03
        -0.37300E+03
        -0.37300E+03
        -0.37300E+03
        -0.37300E+03
        -0.37300E+03
        -0.37300E+03
        -0.37300E+03
        -0.37300E+03
        -0.37300E+03
        -0.37300E+03
        -0.37300E+03
        -0.37300E+03
        -0.37300E+03
        -0.37300E+03
        -0.37300E+03
        -0.37300E+03
        -0.37300E+03
        -0.37300E+03
        -0.37300E+03
        -0.37300E+03
        -0.37300E+03
        -0.37300E+03
        -0.37300E+03
        -0.37300E+03
        -0.37300E+03
        -0.37300E+03
        -0.37300E+03
        -0.37300E+03
        -0.37300E+03
        -0.37300E+03
        -0.37300E+03
        -0.37300E+03
        -0.37300E+03
        -0.37300E+03
        -0.37300E+03
        -0.37300E+03
        -0.37300E+03
        -0.37300E+03
        -0.37300E+03
        -0.37300E+03
        -0.37300E+03
        -0.37300E+03
        -0.37300E+03
        -0.37300E+03
        -0.37300E+03
        -0.37300E+03
        -0.37300E+03
        -0.37300E+03
        -0.37300E+03
        -0.37300E+03
        -0.37300E+03
        -0.37300E+03
        -0.37300E+03
        -0.37300E+03
        -0.37300E+03
        -0.37300E+03
        -0.37300E+03
        -0.37300E+03
        -0.37300E+03
        -0.37300E+03
        -0.37300E+03
        -0.37300E+03
        -0.37300E+03
        -0.37300E+03
        -0.37300E+03
        -0.37300E+03
        -0.37300E+03
        -0.37300E+03
        -0.37300E+03
        -0.37300E+03
        -0.37300E+03
        -0.37300E+03
        -0.37300E+03
        -0.37300E+03
        -0.37300E+03
        -0.37300E+03
        -0.37300E+03
        -0.37300E+03
        -0.37300E+03
        -0.37300E+03
        -0.37300E+03
        -0.37300E+03
        -0.37300E+03
        -0.37300E+03
        -0.37300E+03
        -0.37300E+03
        -0.37300E+03
        -0.37300E+03
        -0.37300E+03
        -0.37300E+03
        -0.37300E+03
        -0.37300E+03
        -0.37300E+03
        -0.37300E+03
        -0.37300E+03
        -0.37300E+03
        -0.37300E+03
        -0.37300E+03
        -0.37300E+03
        -0.37300E+03
        -0.37300E+03
        -0.37300E+03
        -0.37300E+03
        -0.37300E+03
        -0.37300E+03
        -0.37300E+03
        -0.37300E+03
        -0.37300E+03
        -0.37300E+03
        -0.37300E+03
        -0.37300E+03
        -0.37300E+03
        -0.37300E+03
        -0.37300E+03
        -0.37300E+03
        -0.37300E+03
        -0.37300E+03
        -0.37300E+03
        -0.37300E+03
        -0.37300E+03
        -0.37300E+03
        -0.37300E+03
        -0.37300E+03
        -0.37300E+03
        -0.37300E+03
        -0.37300E+03
        -0.37300E+03
        -0.37300E+03
        -0.37300E+03
        -0.37300E+03
        -0.37300E+03
        -0.37300E+03
        -0.37300E+03
        -0.37300E+03
        -0.37300E+03
        -0.37300E+03
        -0.37300E+03
        -0.37300E+03
        -0.37300E+03
        -0.37300E+03
        -0.37300E+03
        -0.37300E+03
        -0.37300E+03
        -0.37300E+03
        -0.37300E+03
        -0.37300E+03
        -0.37300E+03
        -0.37300E+03
        -0.37300E+03
        -0.37300E+03
        -0.37300E+03
        -0.37300E+03
        -0.37300E+03
        -0.37300E+03
        -0.37300E+03
        -0.37300E+03
        -0.37300E+03
        -0.37300E+03
        -0.37300E+03
        -0.37300E+03
        -0.37300E+03
        -0.37300E+03
        -0.37300E+03
        -0.37300E+03
        -0.37300E+03
        -0.37300E+03
        -0.37300E+03
        -0.37300E+03
        -0.37300E+03
        -0.37300E+03
        -0.37300E+03
        -0.37300E+03
        -0.37300E+03
        -0.37300E+03
        -0.37300E+03
        -0.37300E+03
        -0.37300E+03
        -0.37300E+03
        -0.37300E+03
        -0.37300E+03
        -0.37300E+03
        -0.37300E+03
        -0.37300E+03
        -0.37300E+03
        -0.37300E+03
        -0.37300E+03
        -0.37300E+03
        -0.37300E+03
        -0.37300E+03
        -0.37300E+03
        -0.37300E+03
        -0.37300E+03
        -0.37300E+03
        -0.37300E+03
        -0.37300E+03
        -0.37300E+03
        -0.37300E+03
        -0.37300E+03
        -0.37300E+03
        -0.37300E+03
        -0.37300E+03
        -0.37300E+03
        -0.37300E+03
        -0.37300E+03
        -0.37300E+03
        -0.37300E+03
        -0.37300E+03
        -0.37300E+03
        -0.37300E+03
        -0.37300E+03
        -0.37300E+03
        -0.37300E+03
        -0.37300E+03
        -0.37300E+03
        -0.37300E+03
        -0.37300E+03
        -0.37300E+03
        -0.37300E+03
        -0.37300E+03
        -0.37300E+03
        -0.37300E+03
        -0.37300E+03
        -0.37300E+03
        -0.37300E+03
        -0.37300E+03
        -0.37300E+03
        -0.37300E+03
        -0.37300E+03
        -0.37300E+03
        -0.37300E+03
        -0.37300E+03
        -0.37300E+03
        -0.37300E+03
        -0.37300E+03
        -0.37300E+03
        -0.37300E+03
        -0.37300E+03
        -0.37300E+03
        -0.37300E+03
        -0.37300E+03
        -0.37300E+03
        -0.37300E+03
        -0.37300E+03
        -0.37300E+03
        -0.37300E+03
        -0.37300E+03
        -0.37300E+03
        -0.37300E+03
        -0.37300E+03
        -0.37300E+03
        -0.37300E+03
        -0.37300E+03
        -0.37300E+03
        -0.37300E+03
        -0.37300E+03
        -0.37300E+03
        -0.37300E+03
        -0.37300E+03
        -0.37300E+03
        -0.37300E+03
        -0.37300E+03
        -0.37300E+03
        -0.37300E+03
        -0.37300E+03
        -0.37300E+03
        -0.37300E+03
        -0.37300E+03
        -0.37300E+03
        -0.37300E+03
        -0.37300E+03
        -0.37300E+03
        -0.37300E+03
        -0.37300E+03
        -0.37300E+03
        -0.37300E+03
        -0.37300E+03
        -0.37300E+03
        -0.37300E+03
        -0.37300E+03
        -0.37300E+03
        -0.37300E+03
        -0.37300E+03
        -0.37300E+03
        -0.37300E+03
        -0.37300E+03
        -0.37300E+03
        -0.37300E+03
        -0.37300E+03
        -0.37300E+03
        -0.37300E+03
        -0.37300E+03
        -0.37300E+03
        -0.37300E+03
        -0.37300E+03
        -0.37300E+03
        -0.37300E+03
        -0.37300E+03
        -0.37300E+03
        -0.37300E+03
        -0.37300E+03
        -0.37300E+03
        -0.37300E+03
        -0.37300E+03
        -0.37300E+03
        -0.37300E+03
        -0.37300E+03
        -0.37300E+03
        -0.37300E+03
        -0.37300E+03
        -0.37300E+03
        -0.37300E+03
        -0.37300E+03
        -0.37300E+03
        -0.37300E+03
        -0.37300E+03
        -0.37300E+03
        -0.37300E+03
        -0.37300E+03
        -0.37300E+03
        -0.37300E+03
        -0.37300E+03
        -0.37300E+03
        -0.37300E+03
        -0.37300E+03
        -0.37300E+03
        -0.37300E+03
        -0.37300E+03
        -0.37300E+03
        -0.37300E+03
        -0.37300E+03
        -0.37300E+03
        -0.37300E+03
        -0.37300E+03
        -0.37300E+03
        -0.37300E+03
        -0.37300E+03
        -0.37300E+03
        -0.37300E+03
        -0.37300E+03
        -0.37300E+03
        -0.37300E+03
        -0.37300E+03
        -0.37300E+03
        -0.37300E+03
        -0.37300E+03
        -0.37300E+03
        -0.37300E+03
        -0.37300E+03
        -0.37300E+03
        -0.37300E+03
        -0.37300E+03
        -0.37300E+03
        -0.37300E+03
        -0.37300E+03
        -0.37300E+03
        -0.37300E+03
        -0.37300E+03
        -0.37300E+03
        -0.37300E+03
        -0.37300E+03
        -0.37300E+03
        -0.37300E+03
        -0.37300E+03
        -0.37300E+03
        -0.37300E+03
        -0.37300E+03
        -0.37300E+03
        -0.37300E+03
        -0.37300E+03
        -0.37300E+03
        -0.37300E+03
        -0.37300E+03
        -0.37300E+03
        -0.37300E+03
        -0.37300E+03
        -0.37300E+03
        -0.37300E+03
        -0.37300E+03
        -0.37300E+03
        -0.37300E+03
        -0.37300E+03
        -0.37300E+03
        -0.37300E+03
        -0.37300E+03
        -0.37300E+03
        -0.37300E+03
        -0.37300E+03
        -0.37300E+03
        -0.37300E+03
        -0.37300E+03
        -0.37300E+03
        -0.37300E+03
        -0.37300E+03
        -0.37300E+03
        -0.37300E+03
        -0.37300E+03
        -0.37300E+03
        -0.37300E+03
        -0.37300E+03
        -0.37300E+03
        -0.37300E+03
        -0.37300E+03
        -0.37300E+03
        -0.37300E+03
        -0.37300E+03
        -0.37300E+03
        -0.37300E+03
        -0.37300E+03
        -0.37300E+03
        -0.37300E+03
        -0.37300E+03
        -0.37300E+03
        -0.37300E+03
        -0.37300E+03
        -0.37300E+03
        -0.37300E+03
        -0.37300E+03
        -0.37300E+03
        -0.37300E+03
        -0.37300E+03
        -0.37300E+03
        -0.37300E+03
        -0.37300E+03
        -0.37300E+03
        -0.37300E+03
        -0.37300E+03
        -0.37300E+03
        -0.37300E+03
        -0.37300E+03
        -0.37300E+03
        -0.37300E+03
        -0.37300E+03
        -0.37300E+03
        -0.37300E+03
        -0.37300E+03
        -0.37300E+03
        -0.37300E+03
        -0.37300E+03
        -0.37300E+03
        -0.37300E+03
        -0.37300E+03
        -0.37300E+03
        -0.37300E+03
        -0.37300E+03
        -0.37300E+03
        -0.37300E+03
        -0.37300E+03
        -0.37300E+03
        -0.37300E+03
        -0.37300E+03
        -0.37300E+03
        -0.37300E+03
        -0.37300E+03
        -0.37300E+03
        -0.37300E+03
        -0.37300E+03
        -0.37300E+03
        -0.37300E+03
        -0.37300E+03
        -0.37300E+03
        -0.37300E+03
        -0.37300E+03
        -0.37300E+03
        -0.37300E+03
        -0.37300E+03
        -0.37300E+03
        -0.37300E+03
        -0.37300E+03
        -0.37300E+03
        -0.37300E+03
        -0.37300E+03
        -0.37300E+03
        -0.37300E+03
        -0.37300E+03
        -0.37300E+03
        -0.37300E+03
        -0.37300E+03
        -0.37300E+03
        -0.37300E+03
        -0.37300E+03
        -0.37300E+03
        -0.37300E+03
        -0.37300E+03
        -0.37300E+03
        -0.37300E+03
        -0.37300E+03
        -0.37300E+03
        -0.37300E+03
        -0.37300E+03
        -0.37300E+03
        -0.37300E+03
        -0.37300E+03
        -0.37300E+03
        -0.37300E+03
        -0.37300E+03
        -0.37300E+03
        -0.37300E+03
        -0.37300E+03
        -0.37300E+03
        -0.37300E+03
        -0.37300E+03
        -0.37300E+03
        -0.37300E+03
        -0.37300E+03
        -0.37300E+03
        -0.37300E+03
        -0.37300E+03
        -0.37300E+03
  
SCALARS              normalized_window  double 1
LOOKUP_TABLE default
         0.27500E+01
         0.27500E+01
         0.27500E+01
         0.27500E+01
         0.27500E+01
         0.27500E+01
         0.27500E+01
         0.27500E+01
         0.27500E+01
         0.27500E+01
         0.27500E+01
         0.27500E+01
         0.27500E+01
         0.27500E+01
         0.27500E+01
         0.27500E+01
         0.27500E+01
         0.27500E+01
         0.27500E+01
         0.27500E+01
         0.27500E+01
         0.27500E+01
         0.27500E+01
         0.27500E+01
         0.27500E+01
         0.27500E+01
         0.27500E+01
         0.27500E+01
         0.27500E+01
         0.27500E+01
         0.27500E+01
         0.27500E+01
         0.27500E+01
         0.27500E+01
         0.27500E+01
         0.27500E+01
         0.27500E+01
         0.27500E+01
         0.27500E+01
         0.27500E+01
         0.27500E+01
         0.27500E+01
         0.27500E+01
         0.27500E+01
         0.27500E+01
         0.27500E+01
         0.27500E+01
         0.27500E+01
         0.27500E+01
         0.27500E+01
         0.27500E+01
         0.27500E+01
         0.27500E+01
         0.27500E+01
         0.27500E+01
         0.27500E+01
         0.27500E+01
         0.27500E+01
         0.27500E+01
         0.27500E+01
         0.27500E+01
         0.27500E+01
         0.27500E+01
         0.27500E+01
         0.27500E+01
         0.27500E+01
         0.27500E+01
         0.27500E+01
         0.27500E+01
         0.27500E+01
         0.27500E+01
         0.27500E+01
         0.27500E+01
         0.27500E+01
         0.27500E+01
         0.27500E+01
         0.27500E+01
         0.27500E+01
         0.27500E+01
         0.27500E+01
         0.27500E+01
         0.27500E+01
         0.27500E+01
         0.27500E+01
         0.27500E+01
         0.27500E+01
         0.27500E+01
         0.27500E+01
         0.27500E+01
         0.27500E+01
         0.27500E+01
         0.27500E+01
         0.27500E+01
         0.27500E+01
         0.27500E+01
         0.27500E+01
         0.27500E+01
         0.27500E+01
         0.27500E+01
         0.27500E+01
         0.27500E+01
         0.27500E+01
         0.27500E+01
         0.27500E+01
         0.27500E+01
         0.27500E+01
         0.27500E+01
         0.27500E+01
         0.27500E+01
         0.27500E+01
         0.27500E+01
         0.27500E+01
         0.27500E+01
         0.27500E+01
         0.27500E+01
         0.27500E+01
         0.27500E+01
         0.27500E+01
         0.27500E+01
         0.27500E+01
         0.27500E+01
         0.27500E+01
         0.27500E+01
         0.27500E+01
         0.27500E+01
         0.27500E+01
         0.27500E+01
         0.27500E+01
         0.27500E+01
         0.27500E+01
         0.27500E+01
         0.27500E+01
         0.27500E+01
         0.27500E+01
         0.27500E+01
         0.27500E+01
         0.27500E+01
         0.27500E+01
         0.27500E+01
         0.27500E+01
         0.27500E+01
         0.27500E+01
         0.27500E+01
         0.27500E+01
         0.27500E+01
         0.27500E+01
         0.27500E+01
         0.27500E+01
         0.27500E+01
         0.27500E+01
         0.27500E+01
         0.27500E+01
         0.27500E+01
         0.27500E+01
         0.27500E+01
         0.27500E+01
         0.27500E+01
         0.27500E+01
         0.27500E+01
         0.27500E+01
         0.27500E+01
         0.27500E+01
         0.27500E+01
         0.27500E+01
         0.27500E+01
         0.27500E+01
         0.27500E+01
         0.27500E+01
         0.27500E+01
         0.27500E+01
         0.27500E+01
         0.27500E+01
         0.27500E+01
         0.27500E+01
         0.27500E+01
         0.27500E+01
         0.27500E+01
         0.27500E+01
         0.27500E+01
         0.27500E+01
         0.27500E+01
         0.27500E+01
         0.27500E+01
         0.27500E+01
         0.27500E+01
         0.27500E+01
         0.27500E+01
         0.27500E+01
         0.27500E+01
         0.27500E+01
         0.27500E+01
         0.27500E+01
         0.27500E+01
         0.27500E+01
         0.27500E+01
         0.27500E+01
         0.27500E+01
         0.27500E+01
         0.27500E+01
         0.27500E+01
         0.27500E+01
         0.27500E+01
         0.27500E+01
         0.27500E+01
         0.27500E+01
         0.27500E+01
         0.27500E+01
         0.27500E+01
         0.27500E+01
         0.27500E+01
         0.27500E+01
         0.27500E+01
         0.27500E+01
         0.27500E+01
         0.27500E+01
         0.27500E+01
         0.27500E+01
         0.27500E+01
         0.27500E+01
         0.27500E+01
         0.27500E+01
         0.27500E+01
         0.27500E+01
         0.27500E+01
         0.27500E+01
         0.27500E+01
         0.27500E+01
         0.27500E+01
         0.27500E+01
         0.27500E+01
         0.27500E+01
         0.27500E+01
         0.27500E+01
         0.27500E+01
         0.27500E+01
         0.27500E+01
         0.27500E+01
         0.27500E+01
         0.27500E+01
         0.27500E+01
         0.27500E+01
         0.27500E+01
         0.27500E+01
         0.27500E+01
         0.27500E+01
         0.27500E+01
         0.27500E+01
         0.27500E+01
         0.27500E+01
         0.27500E+01
         0.27500E+01
         0.27500E+01
         0.27500E+01
         0.27500E+01
         0.27500E+01
         0.27500E+01
         0.27500E+01
         0.27500E+01
         0.27500E+01
         0.27500E+01
         0.27500E+01
         0.27500E+01
         0.27500E+01
         0.27500E+01
         0.27500E+01
         0.27500E+01
         0.27500E+01
         0.27500E+01
         0.27500E+01
         0.27500E+01
         0.27500E+01
         0.27500E+01
         0.27500E+01
         0.27500E+01
         0.27500E+01
         0.27500E+01
         0.27500E+01
         0.27500E+01
         0.27500E+01
         0.27500E+01
         0.27500E+01
         0.27500E+01
         0.27500E+01
         0.27500E+01
         0.27500E+01
         0.27500E+01
         0.27500E+01
         0.27500E+01
         0.27500E+01
         0.27500E+01
         0.27500E+01
         0.27500E+01
         0.27500E+01
         0.27500E+01
         0.27500E+01
         0.27500E+01
         0.27500E+01
         0.27500E+01
         0.27500E+01
         0.27500E+01
         0.27500E+01
         0.27500E+01
         0.27500E+01
         0.27500E+01
         0.27500E+01
         0.27500E+01
         0.27500E+01
         0.27500E+01
         0.27500E+01
         0.27500E+01
         0.27500E+01
         0.27500E+01
         0.27500E+01
         0.27500E+01
         0.27500E+01
         0.27500E+01
         0.27500E+01
         0.27500E+01
         0.27500E+01
         0.27500E+01
         0.27500E+01
         0.27500E+01
         0.27500E+01
         0.27500E+01
         0.27500E+01
         0.27500E+01
         0.27500E+01
         0.27500E+01
         0.27500E+01
         0.27500E+01
         0.27500E+01
         0.27500E+01
         0.27500E+01
         0.27500E+01
         0.27500E+01
         0.27500E+01
         0.27500E+01
         0.27500E+01
         0.27500E+01
         0.27500E+01
         0.27500E+01
         0.27500E+01
         0.27500E+01
         0.27500E+01
         0.27500E+01
         0.27500E+01
         0.27500E+01
         0.27500E+01
         0.27500E+01
         0.27500E+01
         0.27500E+01
         0.27500E+01
         0.27500E+01
         0.27500E+01
         0.27500E+01
         0.27500E+01
         0.27500E+01
         0.27500E+01
         0.27500E+01
         0.27500E+01
         0.27500E+01
         0.27500E+01
         0.27500E+01
         0.27500E+01
         0.27500E+01
         0.27500E+01
         0.27500E+01
         0.27500E+01
         0.27500E+01
         0.27500E+01
         0.27500E+01
         0.27500E+01
         0.27500E+01
         0.27500E+01
         0.27500E+01
         0.27500E+01
         0.27500E+01
         0.27500E+01
         0.27500E+01
         0.27500E+01
         0.27500E+01
         0.27500E+01
         0.27500E+01
         0.27500E+01
         0.27500E+01
         0.27500E+01
         0.27500E+01
         0.27500E+01
         0.27500E+01
         0.27500E+01
         0.27500E+01
         0.27500E+01
         0.27500E+01
         0.27500E+01
         0.27500E+01
         0.27500E+01
         0.27500E+01
         0.27500E+01
         0.27500E+01
         0.27500E+01
         0.27500E+01
         0.27500E+01
         0.27500E+01
         0.27500E+01
         0.27500E+01
         0.27500E+01
         0.27500E+01
         0.27500E+01
         0.27500E+01
         0.27500E+01
         0.27500E+01
         0.27500E+01
         0.27500E+01
         0.27500E+01
         0.27500E+01
         0.27500E+01
         0.27500E+01
         0.27500E+01
         0.27500E+01
         0.27500E+01
         0.27500E+01
         0.27500E+01
         0.27500E+01
         0.27500E+01
         0.27500E+01
         0.27500E+01
         0.27500E+01
         0.27500E+01
         0.27500E+01
         0.27500E+01
         0.27500E+01
         0.27500E+01
         0.27500E+01
         0.27500E+01
         0.27500E+01
         0.27500E+01
         0.27500E+01
         0.27500E+01
         0.27500E+01
         0.27500E+01
         0.27500E+01
         0.27500E+01
         0.27500E+01
         0.27500E+01
         0.27500E+01
         0.27500E+01
         0.27500E+01
         0.27500E+01
         0.27500E+01
         0.27500E+01
         0.27500E+01
         0.27500E+01
         0.27500E+01
         0.27500E+01
         0.27500E+01
         0.27500E+01
         0.27500E+01
         0.27500E+01
         0.27500E+01
         0.27500E+01
         0.27500E+01
         0.27500E+01
         0.27500E+01
         0.27500E+01
         0.27500E+01
         0.27500E+01
         0.27500E+01
         0.27500E+01
         0.27500E+01
         0.27500E+01
         0.27500E+01
         0.27500E+01
         0.27500E+01
         0.27500E+01
         0.27500E+01
         0.27500E+01
         0.27500E+01
         0.27500E+01
         0.27500E+01
         0.27500E+01
         0.27500E+01
         0.27500E+01
         0.27500E+01
         0.27500E+01
         0.27500E+01
         0.27500E+01
         0.27500E+01
         0.27500E+01
         0.27500E+01
         0.27500E+01
         0.27500E+01
         0.27500E+01
         0.27500E+01
         0.27500E+01
         0.27500E+01
         0.27500E+01
         0.27500E+01
         0.27500E+01
         0.27500E+01
         0.27500E+01
         0.27500E+01
         0.27500E+01
         0.27500E+01
         0.27500E+01
         0.27500E+01
         0.27500E+01
         0.27500E+01
         0.27500E+01
         0.27500E+01
         0.27500E+01
         0.27500E+01
         0.27500E+01
         0.27500E+01
         0.27500E+01
         0.27500E+01
         0.27500E+01
         0.27500E+01
         0.27500E+01
         0.27500E+01
         0.27500E+01
         0.27500E+01
         0.27500E+01
         0.27500E+01
         0.27500E+01
         0.27500E+01
         0.27500E+01
         0.27500E+01
         0.27500E+01
         0.27500E+01
         0.27500E+01
         0.27500E+01
         0.27500E+01
         0.27500E+01
         0.27500E+01
         0.27500E+01
         0.27500E+01
         0.27500E+01
         0.27500E+01
         0.27500E+01
         0.27500E+01
         0.27500E+01
         0.27500E+01
         0.27500E+01
         0.27500E+01
         0.27500E+01
         0.27500E+01
         0.27500E+01
         0.27500E+01
         0.27500E+01
         0.27500E+01
         0.27500E+01
         0.27500E+01
         0.27500E+01
         0.27500E+01
         0.27500E+01
         0.27500E+01
         0.27500E+01
         0.27500E+01
         0.27500E+01
         0.27500E+01
         0.27500E+01
         0.27500E+01
         0.27500E+01
         0.27500E+01
         0.27500E+01
         0.27500E+01
         0.27500E+01
         0.27500E+01
         0.27500E+01
         0.27500E+01
         0.27500E+01
         0.27500E+01
         0.27500E+01
         0.27500E+01
         0.27500E+01
         0.27500E+01
         0.27500E+01
         0.27500E+01
         0.27500E+01
         0.27500E+01
         0.27500E+01
         0.27500E+01
         0.27500E+01
         0.27500E+01
         0.27500E+01
         0.27500E+01
         0.27500E+01
         0.27500E+01
         0.27500E+01
         0.27500E+01
         0.27500E+01
         0.27500E+01
         0.27500E+01
         0.27500E+01
         0.27500E+01
         0.27500E+01
         0.27500E+01
         0.27500E+01
         0.27500E+01
         0.27500E+01
         0.27500E+01
         0.27500E+01
         0.27500E+01
         0.27500E+01
         0.27500E+01
         0.27500E+01
         0.27500E+01
         0.27500E+01
         0.27500E+01
         0.27500E+01
         0.27500E+01
         0.27500E+01
         0.27500E+01
         0.27500E+01
         0.27500E+01
         0.27500E+01
         0.27500E+01
         0.27500E+01
         0.27500E+01
         0.27500E+01
         0.27500E+01
         0.27500E+01
         0.27500E+01
         0.27500E+01
         0.27500E+01
         0.27500E+01
         0.27500E+01
         0.27500E+01
         0.27500E+01
         0.27500E+01
         0.27500E+01
         0.27500E+01
         0.27500E+01
         0.27500E+01
         0.27500E+01
         0.27500E+01
         0.27500E+01
         0.27500E+01
         0.27500E+01
         0.27500E+01
         0.27500E+01
         0.27500E+01
         0.27500E+01
         0.27500E+01
         0.27500E+01
         0.27500E+01
         0.27500E+01
         0.27500E+01
         0.27500E+01
         0.27500E+01
         0.27500E+01
         0.27500E+01
         0.27500E+01
         0.27500E+01
         0.27500E+01
         0.27500E+01
         0.27500E+01
         0.27500E+01
         0.27500E+01
         0.27500E+01
         0.27500E+01
         0.27500E+01
         0.27500E+01
         0.27500E+01
         0.27500E+01
         0.27500E+01
         0.27500E+01
         0.27500E+01
         0.27500E+01
         0.27500E+01
         0.27500E+01
         0.27500E+01
         0.27500E+01
         0.27500E+01
         0.27500E+01
         0.27500E+01
         0.27500E+01
         0.27500E+01
         0.27500E+01
         0.27500E+01
         0.27500E+01
         0.27500E+01
         0.27500E+01
         0.27500E+01
         0.27500E+01
         0.27500E+01
         0.27500E+01
         0.27500E+01
         0.27500E+01
         0.27500E+01
         0.27500E+01
         0.27500E+01
         0.27500E+01
         0.27500E+01
         0.27500E+01
         0.27500E+01
         0.27500E+01
         0.27500E+01
         0.27500E+01
         0.27500E+01
         0.27500E+01
         0.27500E+01
         0.27500E+01
         0.27500E+01
         0.27500E+01
         0.27500E+01
         0.27500E+01
         0.27500E+01
         0.27500E+01
         0.27500E+01
         0.27500E+01
         0.27500E+01
         0.27500E+01
         0.27500E+01
         0.27500E+01
         0.27500E+01
         0.27500E+01
         0.27500E+01
         0.27500E+01
         0.27500E+01
         0.27500E+01
         0.27500E+01
         0.27500E+01
         0.27500E+01
         0.27500E+01
         0.27500E+01
         0.27500E+01
         0.27500E+01
         0.27500E+01
         0.27500E+01
         0.27500E+01
         0.27500E+01
         0.27500E+01
         0.27500E+01
         0.27500E+01
         0.27500E+01
         0.27500E+01
         0.27500E+01
         0.27500E+01
         0.27500E+01
         0.27500E+01
         0.27500E+01
         0.27500E+01
         0.27500E+01
         0.27500E+01
         0.27500E+01
         0.27500E+01
         0.27500E+01
         0.27500E+01
         0.27500E+01
         0.27500E+01
         0.27500E+01
         0.27500E+01
         0.27500E+01
         0.27500E+01
         0.27500E+01
         0.27500E+01
         0.27500E+01
         0.27500E+01
         0.27500E+01
         0.27500E+01
         0.27500E+01
         0.27500E+01
         0.27500E+01
         0.27500E+01
         0.27500E+01
         0.27500E+01
         0.27500E+01
         0.27500E+01
         0.27500E+01
         0.27500E+01
         0.27500E+01
         0.27500E+01
         0.27500E+01
         0.27500E+01
         0.27500E+01
         0.27500E+01
         0.27500E+01
         0.27500E+01
         0.27500E+01
         0.27500E+01
         0.27500E+01
         0.27500E+01
         0.27500E+01
         0.27500E+01
         0.27500E+01
         0.27500E+01
         0.27500E+01
         0.27500E+01
         0.27500E+01
         0.27500E+01
         0.27500E+01
         0.27500E+01
         0.27500E+01
         0.27500E+01
         0.27500E+01
         0.27500E+01
         0.27500E+01
         0.27500E+01
         0.27500E+01
         0.27500E+01
         0.27500E+01
         0.27500E+01
         0.27500E+01
         0.27500E+01
         0.27500E+01
         0.27500E+01
         0.27500E+01
         0.27500E+01
         0.27500E+01
         0.27500E+01
         0.27500E+01
         0.27500E+01
         0.27500E+01
         0.27500E+01
         0.27500E+01
         0.27500E+01
         0.27500E+01
         0.27500E+01
         0.27500E+01
         0.27500E+01
         0.27500E+01
         0.27500E+01
         0.27500E+01
         0.27500E+01
         0.27500E+01
         0.27500E+01
         0.27500E+01
         0.27500E+01
         0.27500E+01
         0.27500E+01
         0.27500E+01
         0.27500E+01
         0.27500E+01
         0.27500E+01
         0.27500E+01
         0.27500E+01
         0.27500E+01
         0.27500E+01
         0.27500E+01
         0.27500E+01
         0.27500E+01
         0.27500E+01
         0.27500E+01
         0.27500E+01
         0.27500E+01
         0.27500E+01
         0.27500E+01
         0.27500E+01
         0.27500E+01
         0.27500E+01
         0.27500E+01
         0.27500E+01
         0.27500E+01
         0.27500E+01
         0.27500E+01
         0.27500E+01
         0.27500E+01
         0.27500E+01
         0.27500E+01
         0.27500E+01
         0.27500E+01
         0.27500E+01
         0.27500E+01
         0.27500E+01
         0.27500E+01
         0.27500E+01
         0.27500E+01
         0.27500E+01
         0.27500E+01
         0.27500E+01
         0.27500E+01
         0.27500E+01
         0.27500E+01
         0.27500E+01
         0.27500E+01
         0.27500E+01
         0.27500E+01
         0.27500E+01
         0.27500E+01
         0.27500E+01
         0.27500E+01
         0.27500E+01
         0.27500E+01
         0.27500E+01
         0.27500E+01
         0.27500E+01
         0.27500E+01
         0.27500E+01
         0.27500E+01
         0.27500E+01
         0.27500E+01
         0.27500E+01
         0.27500E+01
         0.27500E+01
         0.27500E+01
         0.27500E+01
         0.27500E+01
         0.27500E+01
         0.27500E+01
         0.27500E+01
         0.27500E+01
         0.27500E+01
         0.27500E+01
         0.27500E+01
         0.27500E+01
         0.27500E+01
         0.27500E+01
         0.27500E+01
         0.27500E+01
         0.27500E+01
         0.27500E+01
         0.27500E+01
         0.27500E+01
         0.27500E+01
         0.27500E+01
         0.27500E+01
         0.27500E+01
         0.27500E+01
         0.27500E+01
         0.27500E+01
         0.27500E+01
         0.27500E+01
         0.27500E+01
         0.27500E+01
         0.27500E+01
         0.27500E+01
         0.27500E+01
         0.27500E+01
         0.27500E+01
         0.27500E+01
         0.27500E+01
         0.27500E+01
         0.27500E+01
         0.27500E+01
         0.27500E+01
         0.27500E+01
         0.27500E+01
         0.27500E+01
         0.27500E+01
         0.27500E+01
         0.27500E+01
         0.27500E+01
         0.27500E+01
         0.27500E+01
         0.27500E+01
         0.27500E+01
         0.27500E+01
         0.27500E+01
         0.27500E+01
         0.27500E+01
         0.27500E+01
         0.27500E+01
         0.27500E+01
         0.27500E+01
         0.27500E+01
         0.27500E+01
         0.27500E+01
         0.27500E+01
         0.27500E+01
         0.27500E+01
         0.27500E+01
         0.27500E+01
         0.27500E+01
         0.27500E+01
         0.27500E+01
         0.27500E+01
         0.27500E+01
         0.27500E+01
         0.27500E+01
         0.27500E+01
         0.27500E+01
         0.27500E+01
         0.27500E+01
         0.27500E+01
         0.27500E+01
         0.27500E+01
         0.27500E+01
         0.27500E+01
         0.27500E+01
         0.27500E+01
         0.27500E+01
         0.27500E+01
         0.27500E+01
         0.27500E+01
         0.27500E+01
         0.27500E+01
         0.27500E+01
         0.27500E+01
         0.27500E+01
         0.27500E+01
         0.27500E+01
         0.27500E+01
         0.27500E+01
         0.27500E+01
         0.27500E+01
         0.27500E+01
         0.27500E+01
         0.27500E+01
         0.27500E+01
         0.27500E+01
         0.27500E+01
         0.27500E+01
         0.27500E+01
         0.27500E+01
         0.27500E+01
         0.27500E+01
         0.27500E+01
         0.27500E+01
         0.27500E+01
         0.27500E+01
         0.27500E+01
         0.27500E+01
         0.27500E+01
         0.27500E+01
         0.27500E+01
         0.27500E+01
         0.27500E+01
         0.27500E+01
         0.27500E+01
         0.27500E+01
         0.27500E+01
         0.27500E+01
         0.27500E+01
         0.27500E+01
         0.27500E+01
         0.27500E+01
         0.27500E+01
         0.27500E+01
         0.27500E+01
         0.27500E+01
         0.27500E+01
         0.27500E+01
         0.27500E+01
         0.27500E+01
         0.27500E+01
         0.27500E+01
         0.27500E+01
         0.27500E+01
         0.27500E+01
         0.27500E+01
         0.27500E+01
         0.27500E+01
         0.27500E+01
         0.27500E+01
         0.27500E+01
         0.27500E+01
         0.27500E+01
         0.27500E+01
         0.27500E+01
         0.27500E+01
         0.27500E+01
         0.27500E+01
         0.27500E+01
         0.27500E+01
         0.27500E+01
         0.27500E+01
         0.27500E+01
         0.27500E+01
         0.27500E+01
         0.27500E+01
         0.27500E+01
         0.27500E+01
         0.27500E+01
         0.27500E+01
         0.27500E+01
         0.27500E+01
         0.27500E+01
         0.27500E+01
         0.27500E+01
         0.27500E+01
         0.27500E+01
         0.27500E+01
         0.27500E+01
         0.27500E+01
         0.27500E+01
         0.27500E+01
         0.27500E+01
         0.27500E+01
         0.27500E+01
         0.27500E+01
         0.27500E+01
         0.27500E+01
         0.27500E+01
         0.27500E+01
         0.27500E+01
         0.27500E+01
         0.27500E+01
         0.27500E+01
         0.27500E+01
         0.27500E+01
         0.27500E+01
         0.27500E+01
         0.27500E+01
         0.27500E+01
         0.27500E+01
         0.27500E+01
         0.27500E+01
         0.27500E+01
         0.27500E+01
         0.27500E+01
         0.27500E+01
         0.27500E+01
         0.27500E+01
         0.27500E+01
         0.27500E+01
         0.27500E+01
         0.27500E+01
         0.27500E+01
         0.27500E+01
         0.27500E+01
         0.27500E+01
         0.27500E+01
         0.27500E+01
         0.27500E+01
         0.27500E+01
         0.27500E+01
         0.27500E+01
         0.27500E+01
         0.27500E+01
         0.27500E+01
         0.27500E+01
         0.27500E+01
         0.27500E+01
         0.27500E+01
         0.27500E+01
         0.27500E+01
         0.27500E+01
         0.27500E+01
         0.27500E+01
         0.27500E+01
         0.27500E+01
         0.27500E+01
         0.27500E+01
         0.27500E+01
         0.27500E+01
         0.27500E+01
         0.27500E+01
         0.27500E+01
         0.27500E+01
         0.27500E+01
         0.27500E+01
         0.27500E+01
         0.27500E+01
         0.27500E+01
         0.27500E+01
         0.27500E+01
         0.27500E+01
         0.27500E+01
         0.27500E+01
         0.27500E+01
         0.27500E+01
         0.27500E+01
         0.27500E+01
         0.27500E+01
         0.27500E+01
         0.27500E+01
         0.27500E+01
         0.27500E+01
         0.27500E+01
         0.27500E+01
         0.27500E+01
         0.27500E+01
         0.27500E+01
         0.27500E+01
         0.27500E+01
         0.27500E+01
         0.27500E+01
         0.27500E+01
         0.27500E+01
         0.27500E+01
         0.27500E+01
         0.27500E+01
         0.27500E+01
         0.27500E+01
         0.27500E+01
         0.27500E+01
         0.27500E+01
         0.27500E+01
         0.27500E+01
         0.27500E+01
         0.27500E+01
         0.27500E+01
         0.27500E+01
         0.27500E+01
         0.27500E+01
         0.27500E+01
         0.27500E+01
         0.27500E+01
         0.27500E+01
         0.27500E+01
         0.27500E+01
         0.27500E+01
         0.27500E+01
         0.27500E+01
         0.27500E+01
         0.27500E+01
         0.27500E+01
         0.27500E+01
         0.27500E+01
         0.27500E+01
         0.27500E+01
         0.27500E+01
         0.27500E+01
         0.27500E+01
         0.27500E+01
         0.27500E+01
         0.27500E+01
         0.27500E+01
         0.27500E+01
         0.27500E+01
         0.27500E+01
         0.27500E+01
         0.27500E+01
         0.27500E+01
         0.27500E+01
         0.27500E+01
         0.27500E+01
         0.27500E+01
         0.27500E+01
         0.27500E+01
         0.27500E+01
         0.27500E+01
         0.27500E+01
         0.27500E+01
         0.27500E+01
         0.27500E+01
         0.27500E+01
         0.27500E+01
         0.27500E+01
         0.27500E+01
         0.27500E+01
         0.27500E+01
         0.27500E+01
         0.27500E+01
         0.27500E+01
         0.27500E+01
         0.27500E+01
         0.27500E+01
         0.27500E+01
         0.27500E+01
         0.27500E+01
         0.27500E+01
         0.27500E+01
         0.27500E+01
         0.27500E+01
         0.27500E+01
         0.27500E+01
         0.27500E+01
         0.27500E+01
         0.27500E+01
         0.27500E+01
         0.27500E+01
         0.27500E+01
         0.27500E+01
         0.27500E+01
         0.27500E+01
         0.27500E+01
         0.27500E+01
         0.27500E+01
         0.27500E+01
         0.27500E+01
         0.27500E+01
         0.27500E+01
         0.27500E+01
         0.27500E+01
         0.27500E+01
         0.27500E+01
         0.27500E+01
         0.27500E+01
         0.27500E+01
         0.27500E+01
         0.27500E+01
         0.27500E+01
         0.27500E+01
         0.27500E+01
         0.27500E+01
         0.27500E+01
         0.27500E+01
         0.27500E+01
         0.27500E+01
         0.27500E+01
         0.27500E+01
         0.27500E+01
         0.27500E+01
         0.27500E+01
         0.27500E+01
         0.27500E+01
         0.27500E+01
         0.27500E+01
         0.27500E+01
         0.27500E+01
         0.27500E+01
         0.27500E+01
         0.27500E+01
         0.27500E+01
         0.27500E+01
         0.27500E+01
         0.27500E+01
         0.27500E+01
         0.27500E+01
         0.27500E+01
         0.27500E+01
         0.27500E+01
         0.27500E+01
         0.27500E+01
         0.27500E+01
         0.27500E+01
         0.27500E+01
         0.27500E+01
         0.27500E+01
         0.27500E+01
         0.27500E+01
         0.27500E+01
         0.27500E+01
         0.27500E+01
         0.27500E+01
         0.27500E+01
         0.27500E+01
         0.27500E+01
         0.27500E+01
         0.27500E+01
         0.27500E+01
         0.27500E+01
         0.27500E+01
         0.27500E+01
         0.27500E+01
         0.27500E+01
         0.27500E+01
         0.27500E+01
         0.27500E+01
         0.27500E+01
         0.27500E+01
         0.27500E+01
         0.27500E+01
         0.27500E+01
         0.27500E+01
         0.27500E+01
         0.27500E+01
         0.27500E+01
         0.27500E+01
         0.27500E+01
         0.27500E+01
         0.27500E+01
         0.27500E+01
         0.27500E+01
         0.27500E+01
         0.27500E+01
         0.27500E+01
         0.27500E+01
         0.27500E+01
         0.27500E+01
         0.27500E+01
         0.27500E+01
         0.27500E+01
         0.27500E+01
         0.27500E+01
         0.27500E+01
         0.27500E+01
         0.27500E+01
         0.27500E+01
         0.27500E+01
         0.27500E+01
         0.27500E+01
         0.27500E+01
         0.27500E+01
         0.27500E+01
         0.27500E+01
         0.27500E+01
         0.27500E+01
         0.27500E+01
         0.27500E+01
         0.27500E+01
         0.27500E+01
         0.27500E+01
         0.27500E+01
         0.27500E+01
         0.27500E+01
         0.27500E+01
         0.27500E+01
         0.27500E+01
         0.27500E+01
         0.27500E+01
         0.27500E+01
         0.27500E+01
         0.27500E+01
         0.27500E+01
         0.27500E+01
         0.27500E+01
         0.27500E+01
         0.27500E+01
         0.27500E+01
         0.27500E+01
         0.27500E+01
         0.27500E+01
         0.27500E+01
         0.27500E+01
         0.27500E+01
         0.27500E+01
         0.27500E+01
         0.27500E+01
         0.27500E+01
         0.27500E+01
         0.27500E+01
         0.27500E+01
         0.27500E+01
         0.27500E+01
         0.27500E+01
         0.27500E+01
         0.27500E+01
         0.27500E+01
         0.27500E+01
         0.27500E+01
         0.27500E+01
         0.27500E+01
         0.27500E+01
         0.27500E+01
         0.27500E+01
         0.27500E+01
         0.27500E+01
         0.27500E+01
         0.27500E+01
         0.27500E+01
         0.27500E+01
         0.27500E+01
         0.27500E+01
         0.27500E+01
         0.27500E+01
         0.27500E+01
         0.27500E+01
         0.27500E+01
         0.27500E+01
         0.27500E+01
         0.27500E+01
         0.27500E+01
         0.27500E+01
         0.27500E+01
         0.27500E+01
         0.27500E+01
         0.27500E+01
         0.27500E+01
         0.27500E+01
         0.27500E+01
         0.27500E+01
         0.27500E+01
         0.27500E+01
         0.27500E+01
         0.27500E+01
         0.27500E+01
         0.27500E+01
         0.27500E+01
         0.27500E+01
         0.27500E+01
         0.27500E+01
         0.27500E+01
         0.27500E+01
         0.27500E+01
         0.27500E+01
         0.27500E+01
         0.27500E+01
         0.27500E+01
         0.27500E+01
         0.27500E+01
         0.27500E+01
         0.27500E+01
         0.27500E+01
         0.27500E+01
         0.27500E+01
         0.27500E+01
         0.27500E+01
         0.27500E+01
         0.27500E+01
         0.27500E+01
         0.27500E+01
         0.27500E+01
         0.27500E+01
         0.27500E+01
         0.27500E+01
         0.27500E+01
         0.27500E+01
         0.27500E+01
         0.27500E+01
         0.27500E+01
         0.27500E+01
         0.27500E+01
         0.27500E+01
         0.27500E+01
         0.27500E+01
         0.27500E+01
         0.27500E+01
         0.27500E+01
         0.27500E+01
         0.27500E+01
         0.27500E+01
         0.27500E+01
         0.27500E+01
         0.27500E+01
         0.27500E+01
         0.27500E+01
         0.27500E+01
         0.27500E+01
         0.27500E+01
         0.27500E+01
         0.27500E+01
         0.27500E+01
         0.27500E+01
         0.27500E+01
         0.27500E+01
         0.27500E+01
         0.27500E+01
         0.27500E+01
         0.27500E+01
         0.27500E+01
         0.27500E+01
         0.27500E+01
         0.27500E+01
         0.27500E+01
         0.27500E+01
         0.27500E+01
         0.27500E+01
         0.27500E+01
         0.27500E+01
         0.27500E+01
         0.27500E+01
         0.27500E+01
         0.27500E+01
         0.27500E+01
         0.27500E+01
         0.27500E+01
         0.27500E+01
         0.27500E+01
         0.27500E+01
         0.27500E+01
         0.27500E+01
         0.27500E+01
         0.27500E+01
         0.27500E+01
         0.27500E+01
         0.27500E+01
         0.27500E+01
         0.27500E+01
         0.27500E+01
         0.27500E+01
         0.27500E+01
         0.27500E+01
         0.27500E+01
         0.27500E+01
         0.27500E+01
         0.27500E+01
         0.27500E+01
         0.27500E+01
         0.27500E+01
         0.27500E+01
         0.27500E+01
         0.27500E+01
         0.27500E+01
         0.27500E+01
         0.27500E+01
         0.27500E+01
         0.27500E+01
         0.27500E+01
         0.27500E+01
         0.27500E+01
         0.27500E+01
         0.27500E+01
         0.27500E+01
         0.27500E+01
         0.27500E+01
         0.27500E+01
         0.27500E+01
         0.27500E+01
         0.27500E+01
         0.27500E+01
         0.27500E+01
         0.27500E+01
         0.27500E+01
         0.27500E+01
         0.27500E+01
         0.27500E+01
         0.27500E+01
         0.27500E+01
         0.27500E+01
         0.27500E+01
         0.27500E+01
         0.27500E+01
         0.27500E+01
         0.27500E+01
         0.27500E+01
         0.27500E+01
         0.27500E+01
         0.27500E+01
         0.27500E+01
         0.27500E+01
         0.27500E+01
         0.27500E+01
         0.27500E+01
         0.27500E+01
         0.27500E+01
         0.27500E+01
         0.27500E+01
         0.27500E+01
         0.27500E+01
         0.27500E+01
         0.27500E+01
         0.27500E+01
         0.27500E+01
         0.27500E+01
         0.27500E+01
         0.27500E+01
         0.27500E+01
         0.27500E+01
         0.27500E+01
         0.27500E+01
         0.27500E+01
         0.27500E+01
         0.27500E+01
         0.27500E+01
         0.27500E+01
         0.27500E+01
         0.27500E+01
         0.27500E+01
         0.27500E+01
         0.27500E+01
         0.27500E+01
         0.27500E+01
         0.27500E+01
         0.27500E+01
         0.27500E+01
         0.27500E+01
         0.27500E+01
         0.27500E+01
         0.27500E+01
         0.27500E+01
         0.27500E+01
         0.27500E+01
         0.27500E+01
         0.27500E+01
         0.27500E+01
         0.27500E+01
         0.27500E+01
         0.27500E+01
         0.27500E+01
         0.27500E+01
         0.27500E+01
         0.27500E+01
         0.27500E+01
         0.27500E+01
         0.27500E+01
         0.27500E+01
         0.27500E+01
         0.27500E+01
         0.27500E+01
         0.27500E+01
         0.27500E+01
         0.27500E+01
         0.27500E+01
         0.27500E+01
         0.27500E+01
         0.27500E+01
         0.27500E+01
         0.27500E+01
         0.27500E+01
         0.27500E+01
         0.27500E+01
         0.27500E+01
         0.27500E+01
         0.27500E+01
         0.27500E+01
         0.27500E+01
         0.27500E+01
         0.27500E+01
         0.27500E+01
         0.27500E+01
         0.27500E+01
         0.27500E+01
         0.27500E+01
         0.27500E+01
         0.27500E+01
         0.27500E+01
         0.27500E+01
         0.27500E+01
         0.27500E+01
         0.27500E+01
         0.27500E+01
         0.27500E+01
         0.27500E+01
         0.27500E+01
         0.27500E+01
         0.27500E+01
         0.27500E+01
         0.27500E+01
         0.27500E+01
         0.27500E+01
         0.27500E+01
         0.27500E+01
         0.27500E+01
         0.27500E+01
         0.27500E+01
         0.27500E+01
         0.27500E+01
         0.27500E+01
         0.27500E+01
         0.27500E+01
         0.27500E+01
         0.27500E+01
         0.27500E+01
         0.27500E+01
         0.27500E+01
         0.27500E+01
         0.27500E+01
         0.27500E+01
         0.27500E+01
         0.27500E+01
         0.27500E+01
         0.27500E+01
         0.27500E+01
         0.27500E+01
         0.27500E+01
         0.27500E+01
         0.27500E+01
         0.27500E+01
         0.27500E+01
         0.27500E+01
         0.27500E+01
         0.27500E+01
         0.27500E+01
         0.27500E+01
         0.27500E+01
         0.27500E+01
         0.27500E+01
         0.27500E+01
         0.27500E+01
         0.27500E+01
         0.27500E+01
         0.27500E+01
         0.27500E+01
         0.27500E+01
         0.27500E+01
         0.27500E+01
         0.27500E+01
         0.27500E+01
         0.27500E+01
         0.27500E+01
         0.27500E+01
         0.27500E+01
         0.27500E+01
         0.27500E+01
         0.27500E+01
         0.27500E+01
         0.27500E+01
         0.27500E+01
         0.27500E+01
         0.27500E+01
         0.27500E+01
         0.27500E+01
         0.27500E+01
         0.27500E+01
         0.27500E+01
         0.27500E+01
         0.27500E+01
         0.27500E+01
         0.27500E+01
         0.27500E+01
         0.27500E+01
         0.27500E+01
         0.27500E+01
         0.27500E+01
         0.27500E+01
         0.27500E+01
         0.27500E+01
         0.27500E+01
         0.27500E+01
         0.27500E+01
         0.27500E+01
         0.27500E+01
         0.27500E+01
         0.27500E+01
         0.27500E+01
         0.27500E+01
         0.27500E+01
         0.27500E+01
         0.27500E+01
         0.27500E+01
         0.27500E+01
         0.27500E+01
         0.27500E+01
         0.27500E+01
         0.27500E+01
         0.27500E+01
         0.27500E+01
         0.27500E+01
         0.27500E+01
         0.27500E+01
         0.27500E+01
         0.27500E+01
         0.27500E+01
         0.27500E+01
         0.27500E+01
         0.27500E+01
         0.27500E+01
         0.27500E+01
         0.27500E+01
         0.27500E+01
         0.27500E+01
         0.27500E+01
         0.27500E+01
         0.27500E+01
         0.27500E+01
         0.27500E+01
         0.27500E+01
         0.27500E+01
         0.27500E+01
         0.27500E+01
         0.27500E+01
         0.27500E+01
         0.27500E+01
         0.27500E+01
         0.27500E+01
         0.27500E+01
         0.27500E+01
         0.27500E+01
         0.27500E+01
         0.27500E+01
         0.27500E+01
         0.27500E+01
         0.27500E+01
         0.27500E+01
         0.27500E+01
         0.27500E+01
         0.27500E+01
         0.27500E+01
         0.27500E+01
         0.27500E+01
         0.27500E+01
         0.27500E+01
         0.27500E+01
         0.27500E+01
         0.27500E+01
         0.27500E+01
         0.27500E+01
         0.27500E+01
         0.27500E+01
         0.27500E+01
         0.27500E+01
         0.27500E+01
         0.27500E+01
         0.27500E+01
         0.27500E+01
         0.27500E+01
         0.27500E+01
         0.27500E+01
         0.27500E+01
         0.27500E+01
         0.27500E+01
         0.27500E+01
         0.27500E+01
         0.27500E+01
         0.27500E+01
         0.27500E+01
         0.27500E+01
         0.27500E+01
         0.27500E+01
         0.27500E+01
         0.27500E+01
         0.27500E+01
         0.27500E+01
         0.27500E+01
         0.27500E+01
         0.27500E+01
         0.27500E+01
         0.27500E+01
         0.27500E+01
         0.27500E+01
         0.27500E+01
         0.27500E+01
         0.27500E+01
         0.27500E+01
         0.27500E+01
         0.27500E+01
         0.27500E+01
         0.27500E+01
         0.27500E+01
         0.27500E+01
         0.27500E+01
         0.27500E+01
         0.27500E+01
         0.27500E+01
         0.27500E+01
         0.27500E+01
         0.27500E+01
         0.27500E+01
         0.27500E+01
         0.27500E+01
         0.27500E+01
         0.27500E+01
         0.27500E+01
         0.27500E+01
         0.27500E+01
         0.27500E+01
         0.27500E+01
         0.27500E+01
         0.27500E+01
         0.27500E+01
         0.27500E+01
         0.27500E+01
         0.27500E+01
         0.27500E+01
         0.27500E+01
         0.27500E+01
         0.27500E+01
         0.27500E+01
         0.27500E+01
         0.27500E+01
         0.27500E+01
         0.27500E+01
         0.27500E+01
         0.27500E+01
         0.27500E+01
         0.27500E+01
         0.27500E+01
         0.27500E+01
         0.27500E+01
         0.27500E+01
         0.27500E+01
         0.27500E+01
         0.27500E+01
         0.27500E+01
         0.27500E+01
         0.27500E+01
         0.27500E+01
         0.27500E+01
         0.27500E+01
         0.27500E+01
         0.27500E+01
         0.27500E+01
         0.27500E+01
         0.27500E+01
         0.27500E+01
         0.27500E+01
         0.27500E+01
         0.27500E+01
         0.27500E+01
         0.27500E+01
         0.27500E+01
         0.27500E+01
         0.27500E+01
         0.27500E+01
         0.27500E+01
         0.27500E+01
         0.27500E+01
  
SCALARS              physical_window_x  double 1
LOOKUP_TABLE default
         0.42419E-02
         0.35201E-02
         0.37624E-02
         0.42419E-02
         0.42417E-02
         0.35201E-02
         0.37618E-02
         0.42417E-02
         0.37624E-02
         0.37624E-02
         0.37618E-02
         0.37618E-02
         0.30086E-02
         0.32069E-02
         0.30084E-02
         0.32067E-02
         0.42419E-02
         0.32069E-02
         0.42417E-02
         0.32067E-02
         0.24180E-02
         0.29942E-02
         0.32396E-02
         0.24180E-02
         0.29933E-02
         0.32385E-02
         0.26608E-02
         0.27190E-02
         0.26608E-02
         0.27190E-02
         0.42687E-02
         0.36511E-02
         0.42687E-02
         0.42687E-02
         0.36511E-02
         0.42687E-02
         0.32069E-02
         0.29739E-02
         0.32066E-02
         0.29739E-02
         0.34652E-02
         0.32621E-02
         0.34652E-02
         0.32621E-02
         0.37123E-02
         0.32069E-02
         0.37123E-02
         0.32066E-02
         0.30844E-02
         0.30844E-02
         0.35191E-02
         0.35189E-02
         0.26925E-02
         0.26925E-02
         0.26925E-02
         0.26925E-02
         0.24643E-02
         0.27651E-02
         0.24643E-02
         0.27651E-02
         0.42687E-02
         0.35191E-02
         0.42687E-02
         0.35189E-02
         0.42687E-02
         0.42687E-02
         0.34658E-02
         0.34648E-02
         0.27274E-02
         0.31799E-02
         0.27273E-02
         0.31796E-02
         0.32396E-02
         0.32385E-02
         0.26964E-02
         0.26960E-02
         0.27828E-02
         0.27828E-02
         0.27828E-02
         0.27828E-02
         0.27004E-02
         0.31883E-02
         0.27003E-02
         0.31880E-02
         0.31883E-02
         0.31880E-02
         0.37123E-02
         0.37123E-02
         0.36245E-02
         0.36245E-02
         0.28253E-02
         0.31642E-02
         0.28253E-02
         0.31636E-02
         0.33485E-02
         0.33485E-02
         0.33485E-02
         0.33485E-02
         0.31978E-02
         0.31969E-02
         0.29849E-02
         0.32843E-02
         0.29849E-02
         0.32843E-02
         0.27274E-02
         0.31109E-02
         0.27273E-02
         0.31109E-02
         0.31799E-02
         0.31796E-02
         0.32396E-02
         0.32385E-02
         0.32396E-02
         0.32385E-02
         0.29942E-02
         0.29933E-02
         0.27190E-02
         0.27190E-02
         0.26964E-02
         0.26960E-02
         0.27828E-02
         0.27828E-02
         0.27828E-02
         0.27828E-02
         0.27004E-02
         0.27003E-02
         0.31883E-02
         0.31880E-02
         0.31883E-02
         0.31880E-02
         0.32621E-02
         0.32621E-02
         0.34652E-02
         0.34652E-02
         0.37123E-02
         0.37123E-02
         0.37123E-02
         0.37123E-02
         0.36245E-02
         0.36245E-02
         0.28253E-02
         0.28253E-02
         0.29097E-02
         0.29087E-02
         0.32389E-02
         0.32378E-02
         0.32389E-02
         0.32378E-02
         0.31978E-02
         0.31969E-02
         0.29849E-02
         0.29849E-02
         0.32843E-02
         0.32843E-02
         0.32843E-02
         0.32843E-02
         0.42420E-02
         0.35201E-02
         0.37629E-02
         0.42420E-02
         0.37629E-02
         0.37629E-02
         0.30087E-02
         0.32071E-02
         0.42420E-02
         0.32071E-02
         0.24178E-02
         0.29952E-02
         0.32407E-02
         0.26596E-02
         0.27191E-02
         0.42679E-02
         0.36502E-02
         0.42679E-02
         0.32071E-02
         0.29727E-02
         0.34648E-02
         0.32622E-02
         0.37119E-02
         0.32071E-02
         0.30833E-02
         0.35193E-02
         0.26910E-02
         0.26910E-02
         0.24638E-02
         0.27644E-02
         0.42679E-02
         0.35193E-02
         0.42679E-02
         0.34670E-02
         0.27274E-02
         0.31802E-02
         0.32407E-02
         0.26968E-02
         0.27828E-02
         0.27828E-02
         0.27005E-02
         0.31885E-02
         0.31885E-02
         0.37119E-02
         0.36244E-02
         0.28250E-02
         0.31647E-02
         0.33484E-02
         0.33484E-02
         0.31986E-02
         0.29848E-02
         0.32841E-02
         0.27274E-02
         0.31099E-02
         0.31802E-02
         0.32407E-02
         0.32407E-02
         0.29952E-02
         0.27191E-02
         0.26968E-02
         0.27828E-02
         0.27828E-02
         0.27005E-02
         0.31885E-02
         0.31885E-02
         0.32622E-02
         0.34648E-02
         0.37119E-02
         0.37119E-02
         0.36244E-02
         0.28250E-02
         0.29106E-02
         0.32401E-02
         0.32401E-02
         0.31986E-02
         0.29848E-02
         0.32841E-02
         0.32841E-02
         0.42421E-02
         0.35201E-02
         0.37634E-02
         0.42421E-02
         0.37634E-02
         0.37634E-02
         0.30089E-02
         0.32073E-02
         0.42421E-02
         0.32073E-02
         0.24177E-02
         0.29961E-02
         0.32418E-02
         0.26584E-02
         0.27191E-02
         0.42670E-02
         0.36493E-02
         0.42670E-02
         0.32073E-02
         0.29714E-02
         0.34644E-02
         0.32623E-02
         0.37115E-02
         0.32073E-02
         0.30822E-02
         0.35195E-02
         0.26896E-02
         0.26896E-02
         0.24633E-02
         0.27638E-02
         0.42670E-02
         0.35195E-02
         0.42670E-02
         0.34681E-02
         0.27275E-02
         0.31805E-02
         0.32418E-02
         0.26972E-02
         0.27828E-02
         0.27828E-02
         0.27006E-02
         0.31888E-02
         0.31888E-02
         0.37115E-02
         0.36243E-02
         0.28247E-02
         0.31652E-02
         0.33483E-02
         0.33483E-02
         0.31995E-02
         0.29847E-02
         0.32839E-02
         0.27275E-02
         0.31090E-02
         0.31805E-02
         0.32418E-02
         0.32418E-02
         0.29961E-02
         0.27191E-02
         0.26972E-02
         0.27828E-02
         0.27828E-02
         0.27006E-02
         0.31888E-02
         0.31888E-02
         0.32623E-02
         0.34644E-02
         0.37115E-02
         0.37115E-02
         0.36243E-02
         0.28247E-02
         0.29116E-02
         0.32412E-02
         0.32412E-02
         0.31995E-02
         0.29847E-02
         0.32839E-02
         0.32839E-02
         0.42423E-02
         0.35200E-02
         0.37639E-02
         0.42423E-02
         0.37639E-02
         0.37639E-02
         0.30091E-02
         0.32075E-02
         0.42423E-02
         0.32075E-02
         0.24176E-02
         0.29970E-02
         0.32428E-02
         0.26572E-02
         0.27192E-02
         0.42662E-02
         0.36483E-02
         0.42662E-02
         0.32075E-02
         0.29702E-02
         0.34639E-02
         0.32624E-02
         0.37111E-02
         0.32075E-02
         0.30811E-02
         0.35197E-02
         0.26881E-02
         0.26881E-02
         0.24628E-02
         0.27631E-02
         0.42662E-02
         0.35197E-02
         0.42662E-02
         0.34692E-02
         0.27276E-02
         0.31808E-02
         0.32428E-02
         0.26975E-02
         0.27828E-02
         0.27828E-02
         0.27007E-02
         0.31890E-02
         0.31890E-02
         0.37111E-02
         0.36242E-02
         0.28243E-02
         0.31658E-02
         0.33482E-02
         0.33482E-02
         0.32003E-02
         0.29846E-02
         0.32837E-02
         0.27276E-02
         0.31081E-02
         0.31808E-02
         0.32428E-02
         0.32428E-02
         0.29970E-02
         0.27192E-02
         0.26975E-02
         0.27828E-02
         0.27828E-02
         0.27007E-02
         0.31890E-02
         0.31890E-02
         0.32624E-02
         0.34639E-02
         0.37111E-02
         0.37111E-02
         0.36242E-02
         0.28243E-02
         0.29125E-02
         0.32423E-02
         0.32423E-02
         0.32003E-02
         0.29846E-02
         0.32837E-02
         0.32837E-02
         0.42424E-02
         0.35200E-02
         0.37644E-02
         0.42424E-02
         0.37644E-02
         0.37644E-02
         0.30093E-02
         0.32077E-02
         0.42424E-02
         0.32077E-02
         0.24174E-02
         0.29979E-02
         0.32439E-02
         0.26559E-02
         0.27192E-02
         0.42653E-02
         0.36474E-02
         0.42653E-02
         0.32077E-02
         0.29690E-02
         0.34635E-02
         0.32624E-02
         0.37108E-02
         0.32077E-02
         0.30799E-02
         0.35199E-02
         0.26867E-02
         0.26867E-02
         0.24623E-02
         0.27625E-02
         0.42653E-02
         0.35199E-02
         0.42653E-02
         0.34703E-02
         0.27276E-02
         0.31812E-02
         0.32439E-02
         0.26979E-02
         0.27828E-02
         0.27828E-02
         0.27008E-02
         0.31893E-02
         0.31893E-02
         0.37108E-02
         0.36241E-02
         0.28240E-02
         0.31663E-02
         0.33481E-02
         0.33481E-02
         0.32012E-02
         0.29844E-02
         0.32835E-02
         0.27276E-02
         0.31071E-02
         0.31812E-02
         0.32439E-02
         0.32439E-02
         0.29979E-02
         0.27192E-02
         0.26979E-02
         0.27828E-02
         0.27828E-02
         0.27008E-02
         0.31893E-02
         0.31893E-02
         0.32624E-02
         0.34635E-02
         0.37108E-02
         0.37108E-02
         0.36241E-02
         0.28240E-02
         0.29135E-02
         0.32434E-02
         0.32434E-02
         0.32012E-02
         0.29844E-02
         0.32835E-02
         0.32835E-02
         0.42425E-02
         0.35200E-02
         0.37649E-02
         0.42425E-02
         0.37649E-02
         0.37649E-02
         0.30095E-02
         0.32079E-02
         0.42425E-02
         0.32079E-02
         0.24173E-02
         0.29989E-02
         0.32450E-02
         0.26547E-02
         0.27193E-02
         0.42645E-02
         0.36465E-02
         0.42645E-02
         0.32079E-02
         0.29677E-02
         0.34631E-02
         0.32625E-02
         0.37104E-02
         0.32079E-02
         0.30788E-02
         0.35201E-02
         0.26852E-02
         0.26852E-02
         0.24618E-02
         0.27618E-02
         0.42645E-02
         0.35201E-02
         0.42645E-02
         0.34715E-02
         0.27277E-02
         0.31815E-02
         0.32450E-02
         0.26983E-02
         0.27828E-02
         0.27828E-02
         0.27009E-02
         0.31895E-02
         0.31895E-02
         0.37104E-02
         0.36239E-02
         0.28237E-02
         0.31668E-02
         0.33480E-02
         0.33480E-02
         0.32020E-02
         0.29843E-02
         0.32833E-02
         0.27277E-02
         0.31062E-02
         0.31815E-02
         0.32450E-02
         0.32450E-02
         0.29989E-02
         0.27193E-02
         0.26983E-02
         0.27828E-02
         0.27828E-02
         0.27009E-02
         0.31895E-02
         0.31895E-02
         0.32625E-02
         0.34631E-02
         0.37104E-02
         0.37104E-02
         0.36239E-02
         0.28237E-02
         0.29145E-02
         0.32445E-02
         0.32445E-02
         0.32020E-02
         0.29843E-02
         0.32833E-02
         0.32833E-02
         0.42427E-02
         0.35200E-02
         0.37654E-02
         0.42427E-02
         0.37654E-02
         0.37654E-02
         0.30097E-02
         0.32081E-02
         0.42427E-02
         0.32081E-02
         0.24171E-02
         0.29998E-02
         0.32461E-02
         0.26535E-02
         0.27193E-02
         0.42636E-02
         0.36455E-02
         0.42636E-02
         0.32081E-02
         0.29665E-02
         0.34626E-02
         0.32626E-02
         0.37100E-02
         0.32081E-02
         0.30777E-02
         0.35203E-02
         0.26838E-02
         0.26838E-02
         0.24613E-02
         0.27611E-02
         0.42636E-02
         0.35203E-02
         0.42636E-02
         0.34726E-02
         0.27278E-02
         0.31818E-02
         0.32461E-02
         0.26987E-02
         0.27827E-02
         0.27827E-02
         0.27010E-02
         0.31898E-02
         0.31898E-02
         0.37100E-02
         0.36238E-02
         0.28234E-02
         0.31673E-02
         0.33479E-02
         0.33479E-02
         0.32029E-02
         0.29842E-02
         0.32831E-02
         0.27278E-02
         0.31052E-02
         0.31818E-02
         0.32461E-02
         0.32461E-02
         0.29998E-02
         0.27193E-02
         0.26987E-02
         0.27827E-02
         0.27827E-02
         0.27010E-02
         0.31898E-02
         0.31898E-02
         0.32626E-02
         0.34626E-02
         0.37100E-02
         0.37100E-02
         0.36238E-02
         0.28234E-02
         0.29154E-02
         0.32457E-02
         0.32457E-02
         0.32029E-02
         0.29842E-02
         0.32831E-02
         0.32831E-02
         0.42428E-02
         0.35199E-02
         0.37660E-02
         0.42428E-02
         0.37660E-02
         0.37660E-02
         0.30099E-02
         0.32083E-02
         0.42428E-02
         0.32083E-02
         0.24170E-02
         0.30007E-02
         0.32471E-02
         0.26523E-02
         0.27194E-02
         0.42628E-02
         0.36446E-02
         0.42628E-02
         0.32083E-02
         0.29652E-02
         0.34622E-02
         0.32627E-02
         0.37096E-02
         0.32083E-02
         0.30766E-02
         0.35205E-02
         0.26823E-02
         0.26823E-02
         0.24608E-02
         0.27605E-02
         0.42628E-02
         0.35205E-02
         0.42628E-02
         0.34737E-02
         0.27279E-02
         0.31821E-02
         0.32471E-02
         0.26991E-02
         0.27827E-02
         0.27827E-02
         0.27011E-02
         0.31900E-02
         0.31900E-02
         0.37096E-02
         0.36237E-02
         0.28231E-02
         0.31679E-02
         0.33478E-02
         0.33478E-02
         0.32038E-02
         0.29841E-02
         0.32829E-02
         0.27279E-02
         0.31043E-02
         0.31821E-02
         0.32471E-02
         0.32471E-02
         0.30007E-02
         0.27194E-02
         0.26991E-02
         0.27827E-02
         0.27827E-02
         0.27011E-02
         0.31900E-02
         0.31900E-02
         0.32627E-02
         0.34622E-02
         0.37096E-02
         0.37096E-02
         0.36237E-02
         0.28231E-02
         0.29164E-02
         0.32468E-02
         0.32468E-02
         0.32038E-02
         0.29841E-02
         0.32829E-02
         0.32829E-02
         0.42429E-02
         0.35199E-02
         0.37665E-02
         0.42429E-02
         0.37665E-02
         0.37665E-02
         0.30101E-02
         0.32085E-02
         0.42429E-02
         0.32085E-02
         0.24168E-02
         0.30017E-02
         0.32482E-02
         0.26510E-02
         0.27194E-02
         0.42619E-02
         0.36437E-02
         0.42619E-02
         0.32085E-02
         0.29640E-02
         0.34618E-02
         0.32627E-02
         0.37092E-02
         0.32085E-02
         0.30755E-02
         0.35207E-02
         0.26808E-02
         0.26808E-02
         0.24603E-02
         0.27599E-02
         0.42619E-02
         0.35207E-02
         0.42619E-02
         0.34748E-02
         0.27279E-02
         0.31824E-02
         0.32482E-02
         0.26994E-02
         0.27827E-02
         0.27827E-02
         0.27012E-02
         0.31902E-02
         0.31902E-02
         0.37092E-02
         0.36236E-02
         0.28227E-02
         0.31684E-02
         0.33477E-02
         0.33477E-02
         0.32046E-02
         0.29840E-02
         0.32827E-02
         0.27279E-02
         0.31034E-02
         0.31824E-02
         0.32482E-02
         0.32482E-02
         0.30017E-02
         0.27194E-02
         0.26994E-02
         0.27827E-02
         0.27827E-02
         0.27012E-02
         0.31902E-02
         0.31902E-02
         0.32627E-02
         0.34618E-02
         0.37092E-02
         0.37092E-02
         0.36236E-02
         0.28227E-02
         0.29173E-02
         0.32479E-02
         0.32479E-02
         0.32046E-02
         0.29840E-02
         0.32827E-02
         0.32827E-02
         0.42431E-02
         0.35199E-02
         0.37670E-02
         0.42431E-02
         0.37670E-02
         0.37670E-02
         0.30102E-02
         0.32087E-02
         0.42431E-02
         0.32087E-02
         0.24167E-02
         0.30026E-02
         0.32493E-02
         0.26498E-02
         0.27194E-02
         0.42611E-02
         0.36427E-02
         0.42611E-02
         0.32087E-02
         0.29628E-02
         0.34613E-02
         0.32628E-02
         0.37089E-02
         0.32087E-02
         0.30744E-02
         0.35209E-02
         0.26794E-02
         0.26794E-02
         0.24598E-02
         0.27592E-02
         0.42611E-02
         0.35209E-02
         0.42611E-02
         0.34759E-02
         0.27280E-02
         0.31827E-02
         0.32493E-02
         0.26998E-02
         0.27827E-02
         0.27827E-02
         0.27013E-02
         0.31905E-02
         0.31905E-02
         0.37089E-02
         0.36235E-02
         0.28224E-02
         0.31689E-02
         0.33476E-02
         0.33476E-02
         0.32055E-02
         0.29839E-02
         0.32825E-02
         0.27280E-02
         0.31024E-02
         0.31827E-02
         0.32493E-02
         0.32493E-02
         0.30026E-02
         0.27194E-02
         0.26998E-02
         0.27827E-02
         0.27827E-02
         0.27013E-02
         0.31905E-02
         0.31905E-02
         0.32628E-02
         0.34613E-02
         0.37089E-02
         0.37089E-02
         0.36235E-02
         0.28224E-02
         0.29183E-02
         0.32490E-02
         0.32490E-02
         0.32055E-02
         0.29839E-02
         0.32825E-02
         0.32825E-02
         0.42432E-02
         0.35199E-02
         0.37675E-02
         0.42432E-02
         0.37675E-02
         0.37675E-02
         0.30104E-02
         0.32089E-02
         0.42432E-02
         0.32089E-02
         0.24166E-02
         0.30035E-02
         0.32504E-02
         0.26486E-02
         0.27195E-02
         0.42603E-02
         0.36418E-02
         0.42603E-02
         0.32089E-02
         0.29615E-02
         0.34609E-02
         0.32629E-02
         0.37085E-02
         0.32089E-02
         0.30732E-02
         0.35211E-02
         0.26779E-02
         0.26779E-02
         0.24593E-02
         0.27585E-02
         0.42603E-02
         0.35211E-02
         0.42603E-02
         0.34771E-02
         0.27281E-02
         0.31830E-02
         0.32504E-02
         0.27002E-02
         0.27827E-02
         0.27827E-02
         0.27014E-02
         0.31907E-02
         0.31907E-02
         0.37085E-02
         0.36233E-02
         0.28221E-02
         0.31694E-02
         0.33475E-02
         0.33475E-02
         0.32063E-02
         0.29838E-02
         0.32823E-02
         0.27281E-02
         0.31015E-02
         0.31830E-02
         0.32504E-02
         0.32504E-02
         0.30035E-02
         0.27195E-02
         0.27002E-02
         0.27827E-02
         0.27827E-02
         0.27014E-02
         0.31907E-02
         0.31907E-02
         0.32629E-02
         0.34609E-02
         0.37085E-02
         0.37085E-02
         0.36233E-02
         0.28221E-02
         0.29193E-02
         0.32501E-02
         0.32501E-02
         0.32063E-02
         0.29838E-02
         0.32823E-02
         0.32823E-02
         0.42433E-02
         0.35199E-02
         0.37680E-02
         0.42433E-02
         0.37680E-02
         0.37680E-02
         0.30106E-02
         0.32091E-02
         0.42433E-02
         0.32091E-02
         0.24164E-02
         0.30045E-02
         0.32514E-02
         0.26474E-02
         0.27195E-02
         0.42594E-02
         0.36409E-02
         0.42594E-02
         0.32091E-02
         0.29603E-02
         0.34605E-02
         0.32630E-02
         0.37081E-02
         0.32091E-02
         0.30721E-02
         0.35213E-02
         0.26765E-02
         0.26765E-02
         0.24588E-02
         0.27579E-02
         0.42594E-02
         0.35213E-02
         0.42594E-02
         0.34782E-02
         0.27281E-02
         0.31833E-02
         0.32514E-02
         0.27006E-02
         0.27826E-02
         0.27826E-02
         0.27015E-02
         0.31910E-02
         0.31910E-02
         0.37081E-02
         0.36232E-02
         0.28218E-02
         0.31700E-02
         0.33474E-02
         0.33474E-02
         0.32072E-02
         0.29836E-02
         0.32821E-02
         0.27281E-02
         0.31005E-02
         0.31833E-02
         0.32514E-02
         0.32514E-02
         0.30045E-02
         0.27195E-02
         0.27006E-02
         0.27826E-02
         0.27826E-02
         0.27015E-02
         0.31910E-02
         0.31910E-02
         0.32630E-02
         0.34605E-02
         0.37081E-02
         0.37081E-02
         0.36232E-02
         0.28218E-02
         0.29202E-02
         0.32512E-02
         0.32512E-02
         0.32072E-02
         0.29836E-02
         0.32821E-02
         0.32821E-02
         0.42435E-02
         0.35199E-02
         0.37685E-02
         0.42435E-02
         0.37685E-02
         0.37685E-02
         0.30108E-02
         0.32093E-02
         0.42435E-02
         0.32093E-02
         0.24163E-02
         0.30054E-02
         0.32525E-02
         0.26461E-02
         0.27196E-02
         0.42586E-02
         0.36399E-02
         0.42586E-02
         0.32093E-02
         0.29591E-02
         0.34601E-02
         0.32630E-02
         0.37077E-02
         0.32093E-02
         0.30710E-02
         0.35215E-02
         0.26750E-02
         0.26750E-02
         0.24583E-02
         0.27572E-02
         0.42586E-02
         0.35215E-02
         0.42586E-02
         0.34793E-02
         0.27282E-02
         0.31836E-02
         0.32525E-02
         0.27010E-02
         0.27826E-02
         0.27826E-02
         0.27016E-02
         0.31912E-02
         0.31912E-02
         0.37077E-02
         0.36231E-02
         0.28215E-02
         0.31705E-02
         0.33473E-02
         0.33473E-02
         0.32080E-02
         0.29835E-02
         0.32819E-02
         0.27282E-02
         0.30996E-02
         0.31836E-02
         0.32525E-02
         0.32525E-02
         0.30054E-02
         0.27196E-02
         0.27010E-02
         0.27826E-02
         0.27826E-02
         0.27016E-02
         0.31912E-02
         0.31912E-02
         0.32630E-02
         0.34601E-02
         0.37077E-02
         0.37077E-02
         0.36231E-02
         0.28215E-02
         0.29212E-02
         0.32524E-02
         0.32524E-02
         0.32080E-02
         0.29835E-02
         0.32819E-02
         0.32819E-02
         0.42436E-02
         0.35198E-02
         0.37690E-02
         0.42436E-02
         0.37690E-02
         0.37690E-02
         0.30110E-02
         0.32095E-02
         0.42436E-02
         0.32095E-02
         0.24162E-02
         0.30064E-02
         0.32536E-02
         0.26449E-02
         0.27196E-02
         0.42577E-02
         0.36390E-02
         0.42577E-02
         0.32096E-02
         0.29578E-02
         0.34596E-02
         0.32631E-02
         0.37074E-02
         0.32096E-02
         0.30699E-02
         0.35217E-02
         0.26735E-02
         0.26735E-02
         0.24578E-02
         0.27566E-02
         0.42577E-02
         0.35217E-02
         0.42577E-02
         0.34804E-02
         0.27283E-02
         0.31839E-02
         0.32536E-02
         0.27013E-02
         0.27826E-02
         0.27826E-02
         0.27017E-02
         0.31915E-02
         0.31915E-02
         0.37074E-02
         0.36230E-02
         0.28211E-02
         0.31710E-02
         0.33472E-02
         0.33472E-02
         0.32089E-02
         0.29834E-02
         0.32817E-02
         0.27283E-02
         0.30986E-02
         0.31839E-02
         0.32536E-02
         0.32536E-02
         0.30064E-02
         0.27196E-02
         0.27013E-02
         0.27826E-02
         0.27826E-02
         0.27017E-02
         0.31915E-02
         0.31915E-02
         0.32631E-02
         0.34596E-02
         0.37074E-02
         0.37074E-02
         0.36230E-02
         0.28211E-02
         0.29221E-02
         0.32535E-02
         0.32535E-02
         0.32089E-02
         0.29834E-02
         0.32817E-02
         0.32817E-02
         0.42437E-02
         0.35198E-02
         0.37695E-02
         0.42437E-02
         0.37695E-02
         0.37695E-02
         0.30112E-02
         0.32097E-02
         0.42437E-02
         0.32097E-02
         0.24160E-02
         0.30073E-02
         0.32547E-02
         0.26437E-02
         0.27197E-02
         0.42569E-02
         0.36381E-02
         0.42569E-02
         0.32098E-02
         0.29566E-02
         0.34592E-02
         0.32632E-02
         0.37070E-02
         0.32098E-02
         0.30688E-02
         0.35219E-02
         0.26721E-02
         0.26721E-02
         0.24573E-02
         0.27560E-02
         0.42569E-02
         0.35219E-02
         0.42569E-02
         0.34815E-02
         0.27284E-02
         0.31843E-02
         0.32547E-02
         0.27017E-02
         0.27826E-02
         0.27826E-02
         0.27018E-02
         0.31917E-02
         0.31917E-02
         0.37070E-02
         0.36229E-02
         0.28208E-02
         0.31716E-02
         0.33471E-02
         0.33471E-02
         0.32097E-02
         0.29833E-02
         0.32815E-02
         0.27284E-02
         0.30977E-02
         0.31843E-02
         0.32547E-02
         0.32547E-02
         0.30073E-02
         0.27197E-02
         0.27017E-02
         0.27826E-02
         0.27826E-02
         0.27018E-02
         0.31917E-02
         0.31917E-02
         0.32632E-02
         0.34592E-02
         0.37070E-02
         0.37070E-02
         0.36229E-02
         0.28208E-02
         0.29231E-02
         0.32546E-02
         0.32546E-02
         0.32097E-02
         0.29833E-02
         0.32815E-02
         0.32815E-02
         0.42439E-02
         0.35198E-02
         0.37701E-02
         0.42439E-02
         0.37701E-02
         0.37701E-02
         0.30113E-02
         0.32099E-02
         0.42439E-02
         0.32099E-02
         0.24159E-02
         0.30082E-02
         0.32558E-02
         0.26425E-02
         0.27197E-02
         0.42560E-02
         0.36371E-02
         0.42560E-02
         0.32100E-02
         0.29554E-02
         0.34588E-02
         0.32633E-02
         0.37066E-02
         0.32100E-02
         0.30677E-02
         0.35221E-02
         0.26706E-02
         0.26706E-02
         0.24568E-02
         0.27553E-02
         0.42560E-02
         0.35221E-02
         0.42560E-02
         0.34827E-02
         0.27284E-02
         0.31846E-02
         0.32558E-02
         0.27021E-02
         0.27826E-02
         0.27826E-02
         0.27019E-02
         0.31920E-02
         0.31920E-02
         0.37066E-02
         0.36227E-02
         0.28205E-02
         0.31721E-02
         0.33470E-02
         0.33470E-02
         0.32106E-02
         0.29831E-02
         0.32813E-02
         0.27284E-02
         0.30968E-02
         0.31846E-02
         0.32558E-02
         0.32558E-02
         0.30082E-02
         0.27197E-02
         0.27021E-02
         0.27826E-02
         0.27826E-02
         0.27019E-02
         0.31920E-02
         0.31920E-02
         0.32633E-02
         0.34588E-02
         0.37066E-02
         0.37066E-02
         0.36227E-02
         0.28205E-02
         0.29241E-02
         0.32557E-02
         0.32557E-02
         0.32106E-02
         0.29831E-02
         0.32813E-02
         0.32813E-02
         0.42440E-02
         0.35198E-02
         0.37706E-02
         0.42440E-02
         0.37706E-02
         0.37706E-02
         0.30115E-02
         0.32101E-02
         0.42440E-02
         0.32101E-02
         0.24158E-02
         0.30091E-02
         0.32568E-02
         0.26412E-02
         0.27198E-02
         0.42552E-02
         0.36362E-02
         0.42552E-02
         0.32102E-02
         0.29541E-02
         0.34583E-02
         0.32633E-02
         0.37062E-02
         0.32102E-02
         0.30665E-02
         0.35223E-02
         0.26692E-02
         0.26692E-02
         0.24563E-02
         0.27546E-02
         0.42552E-02
         0.35223E-02
         0.42552E-02
         0.34838E-02
         0.27285E-02
         0.31849E-02
         0.32568E-02
         0.27025E-02
         0.27826E-02
         0.27826E-02
         0.27020E-02
         0.31922E-02
         0.31922E-02
         0.37062E-02
         0.36226E-02
         0.28202E-02
         0.31726E-02
         0.33469E-02
         0.33469E-02
         0.32114E-02
         0.29830E-02
         0.32811E-02
         0.27285E-02
         0.30958E-02
         0.31849E-02
         0.32568E-02
         0.32568E-02
         0.30091E-02
         0.27198E-02
         0.27025E-02
         0.27826E-02
         0.27826E-02
         0.27020E-02
         0.31922E-02
         0.31922E-02
         0.32633E-02
         0.34583E-02
         0.37062E-02
         0.37062E-02
         0.36226E-02
         0.28202E-02
         0.29250E-02
         0.32568E-02
         0.32568E-02
         0.32114E-02
         0.29830E-02
         0.32811E-02
         0.32811E-02
         0.42441E-02
         0.35198E-02
         0.37711E-02
         0.42441E-02
         0.37711E-02
         0.37711E-02
         0.30117E-02
         0.32103E-02
         0.42441E-02
         0.32103E-02
         0.24156E-02
         0.30101E-02
         0.32579E-02
         0.26400E-02
         0.27198E-02
         0.42543E-02
         0.36353E-02
         0.42543E-02
         0.32104E-02
         0.29529E-02
         0.34579E-02
         0.32634E-02
         0.37058E-02
         0.32104E-02
         0.30654E-02
         0.35225E-02
         0.26677E-02
         0.26677E-02
         0.24558E-02
         0.27540E-02
         0.42543E-02
         0.35225E-02
         0.42543E-02
         0.34849E-02
         0.27286E-02
         0.31852E-02
         0.32579E-02
         0.27029E-02
         0.27826E-02
         0.27826E-02
         0.27021E-02
         0.31924E-02
         0.31924E-02
         0.37058E-02
         0.36225E-02
         0.28198E-02
         0.31731E-02
         0.33468E-02
         0.33468E-02
         0.32123E-02
         0.29829E-02
         0.32809E-02
         0.27286E-02
         0.30949E-02
         0.31852E-02
         0.32579E-02
         0.32579E-02
         0.30101E-02
         0.27198E-02
         0.27029E-02
         0.27826E-02
         0.27826E-02
         0.27021E-02
         0.31924E-02
         0.31924E-02
         0.32634E-02
         0.34579E-02
         0.37058E-02
         0.37058E-02
         0.36225E-02
         0.28198E-02
         0.29260E-02
         0.32579E-02
         0.32579E-02
         0.32123E-02
         0.29829E-02
         0.32809E-02
         0.32809E-02
         0.42443E-02
         0.35197E-02
         0.37716E-02
         0.42443E-02
         0.37716E-02
         0.37716E-02
         0.30119E-02
         0.32105E-02
         0.42443E-02
         0.32105E-02
         0.24155E-02
         0.30110E-02
         0.32590E-02
         0.26388E-02
         0.27199E-02
         0.42535E-02
         0.36343E-02
         0.42535E-02
         0.32106E-02
         0.29517E-02
         0.34575E-02
         0.32635E-02
         0.37055E-02
         0.32106E-02
         0.30643E-02
         0.35227E-02
         0.26663E-02
         0.26663E-02
         0.24553E-02
         0.27533E-02
         0.42535E-02
         0.35227E-02
         0.42535E-02
         0.34860E-02
         0.27286E-02
         0.31855E-02
         0.32590E-02
         0.27032E-02
         0.27826E-02
         0.27826E-02
         0.27022E-02
         0.31927E-02
         0.31927E-02
         0.37055E-02
         0.36224E-02
         0.28195E-02
         0.31737E-02
         0.33467E-02
         0.33467E-02
         0.32132E-02
         0.29828E-02
         0.32807E-02
         0.27286E-02
         0.30939E-02
         0.31855E-02
         0.32590E-02
         0.32590E-02
         0.30110E-02
         0.27199E-02
         0.27032E-02
         0.27826E-02
         0.27826E-02
         0.27022E-02
         0.31927E-02
         0.31927E-02
         0.32635E-02
         0.34575E-02
         0.37055E-02
         0.37055E-02
         0.36224E-02
         0.28195E-02
         0.29269E-02
         0.32591E-02
         0.32591E-02
         0.32132E-02
         0.29828E-02
         0.32807E-02
         0.32807E-02
         0.42444E-02
         0.35197E-02
         0.37721E-02
         0.42444E-02
         0.37721E-02
         0.37721E-02
         0.30121E-02
         0.32107E-02
         0.42444E-02
         0.32107E-02
         0.24154E-02
         0.30119E-02
         0.32601E-02
         0.26376E-02
         0.27199E-02
         0.42527E-02
         0.36334E-02
         0.42527E-02
         0.32108E-02
         0.29504E-02
         0.34571E-02
         0.32636E-02
         0.37051E-02
         0.32108E-02
         0.30632E-02
         0.35229E-02
         0.26648E-02
         0.26648E-02
         0.24552E-02
         0.27527E-02
         0.42527E-02
         0.35229E-02
         0.42527E-02
         0.34871E-02
         0.27287E-02
         0.31858E-02
         0.32601E-02
         0.27036E-02
         0.27825E-02
         0.27825E-02
         0.27023E-02
         0.31929E-02
         0.31929E-02
         0.37051E-02
         0.36223E-02
         0.28192E-02
         0.31742E-02
         0.33466E-02
         0.33466E-02
         0.32140E-02
         0.29827E-02
         0.32805E-02
         0.27287E-02
         0.30930E-02
         0.31858E-02
         0.32601E-02
         0.32601E-02
         0.30119E-02
         0.27199E-02
         0.27036E-02
         0.27825E-02
         0.27825E-02
         0.27023E-02
         0.31929E-02
         0.31929E-02
         0.32636E-02
         0.34571E-02
         0.37051E-02
         0.37051E-02
         0.36223E-02
         0.28192E-02
         0.29279E-02
         0.32602E-02
         0.32602E-02
         0.32140E-02
         0.29827E-02
         0.32805E-02
         0.32805E-02
         0.42445E-02
         0.35197E-02
         0.37726E-02
         0.42445E-02
         0.37726E-02
         0.37726E-02
         0.30123E-02
         0.32108E-02
         0.42445E-02
         0.32108E-02
         0.24152E-02
         0.30129E-02
         0.32611E-02
         0.26363E-02
         0.27200E-02
         0.42518E-02
         0.36325E-02
         0.42518E-02
         0.32110E-02
         0.29492E-02
         0.34566E-02
         0.32636E-02
         0.37047E-02
         0.32110E-02
         0.30621E-02
         0.35231E-02
         0.26633E-02
         0.26633E-02
         0.24554E-02
         0.27520E-02
         0.42518E-02
         0.35231E-02
         0.42518E-02
         0.34882E-02
         0.27288E-02
         0.31861E-02
         0.32611E-02
         0.27040E-02
         0.27825E-02
         0.27825E-02
         0.27024E-02
         0.31932E-02
         0.31932E-02
         0.37047E-02
         0.36222E-02
         0.28189E-02
         0.31747E-02
         0.33465E-02
         0.33465E-02
         0.32149E-02
         0.29826E-02
         0.32803E-02
         0.27288E-02
         0.30921E-02
         0.31861E-02
         0.32611E-02
         0.32611E-02
         0.30129E-02
         0.27200E-02
         0.27040E-02
         0.27825E-02
         0.27825E-02
         0.27024E-02
         0.31932E-02
         0.31932E-02
         0.32636E-02
         0.34566E-02
         0.37047E-02
         0.37047E-02
         0.36222E-02
         0.28189E-02
         0.29289E-02
         0.32613E-02
         0.32613E-02
         0.32149E-02
         0.29826E-02
         0.32803E-02
         0.32803E-02
         0.42447E-02
         0.35196E-02
         0.37732E-02
         0.42447E-02
         0.37732E-02
         0.37732E-02
         0.30125E-02
         0.32111E-02
         0.42447E-02
         0.32111E-02
         0.24151E-02
         0.30138E-02
         0.32622E-02
         0.26351E-02
         0.27200E-02
         0.42510E-02
         0.36315E-02
         0.42510E-02
         0.32112E-02
         0.29480E-02
         0.34562E-02
         0.32637E-02
         0.37043E-02
         0.32112E-02
         0.30610E-02
         0.35233E-02
         0.26619E-02
         0.26619E-02
         0.24557E-02
         0.27514E-02
         0.42510E-02
         0.35233E-02
         0.42510E-02
         0.34894E-02
         0.27289E-02
         0.31864E-02
         0.32622E-02
         0.27044E-02
         0.27825E-02
         0.27825E-02
         0.27025E-02
         0.31934E-02
         0.31934E-02
         0.37043E-02
         0.36220E-02
         0.28186E-02
         0.31753E-02
         0.33464E-02
         0.33464E-02
         0.32157E-02
         0.29824E-02
         0.32801E-02
         0.27289E-02
         0.30911E-02
         0.31864E-02
         0.32622E-02
         0.32622E-02
         0.30138E-02
         0.27200E-02
         0.27044E-02
         0.27825E-02
         0.27825E-02
         0.27025E-02
         0.31934E-02
         0.31934E-02
         0.32637E-02
         0.34562E-02
         0.37043E-02
         0.37043E-02
         0.36220E-02
         0.28186E-02
         0.29298E-02
         0.32624E-02
         0.32624E-02
         0.32157E-02
         0.29824E-02
         0.32801E-02
         0.32801E-02
         0.42448E-02
         0.35196E-02
         0.37737E-02
         0.42448E-02
         0.37737E-02
         0.37737E-02
         0.30126E-02
         0.32112E-02
         0.42448E-02
         0.32112E-02
         0.24150E-02
         0.30147E-02
         0.32633E-02
         0.26339E-02
         0.27200E-02
         0.42501E-02
         0.36306E-02
         0.42501E-02
         0.32114E-02
         0.29467E-02
         0.34558E-02
         0.32638E-02
         0.37039E-02
         0.32114E-02
         0.30598E-02
         0.35235E-02
         0.26604E-02
         0.26604E-02
         0.24559E-02
         0.27507E-02
         0.42501E-02
         0.35235E-02
         0.42501E-02
         0.34905E-02
         0.27289E-02
         0.31867E-02
         0.32633E-02
         0.27048E-02
         0.27825E-02
         0.27825E-02
         0.27026E-02
         0.31937E-02
         0.31937E-02
         0.37039E-02
         0.36219E-02
         0.28183E-02
         0.31758E-02
         0.33463E-02
         0.33463E-02
         0.32166E-02
         0.29823E-02
         0.32799E-02
         0.27289E-02
         0.30902E-02
         0.31867E-02
         0.32633E-02
         0.32633E-02
         0.30147E-02
         0.27200E-02
         0.27048E-02
         0.27825E-02
         0.27825E-02
         0.27026E-02
         0.31937E-02
         0.31937E-02
         0.32638E-02
         0.34558E-02
         0.37039E-02
         0.37039E-02
         0.36219E-02
         0.28183E-02
         0.29308E-02
         0.32635E-02
         0.32635E-02
         0.32166E-02
         0.29823E-02
         0.32799E-02
         0.32799E-02
         0.42448E-02
         0.35196E-02
         0.37737E-02
         0.42448E-02
         0.37737E-02
         0.37737E-02
         0.30126E-02
         0.32112E-02
         0.42448E-02
         0.32112E-02
         0.24148E-02
         0.30147E-02
         0.32633E-02
         0.26327E-02
         0.27200E-02
         0.42493E-02
         0.36297E-02
         0.42493E-02
         0.32114E-02
         0.29455E-02
         0.34553E-02
         0.32638E-02
         0.37036E-02
         0.32114E-02
         0.30587E-02
         0.35235E-02
         0.26590E-02
         0.26590E-02
         0.24559E-02
         0.27501E-02
         0.42493E-02
         0.35235E-02
         0.42493E-02
         0.34905E-02
         0.27289E-02
         0.31867E-02
         0.32633E-02
         0.27048E-02
         0.27825E-02
         0.27825E-02
         0.27026E-02
         0.31937E-02
         0.31937E-02
         0.37036E-02
         0.36218E-02
         0.28180E-02
         0.31758E-02
         0.33462E-02
         0.33462E-02
         0.32166E-02
         0.29822E-02
         0.32797E-02
         0.27289E-02
         0.30892E-02
         0.31867E-02
         0.32633E-02
         0.32633E-02
         0.30147E-02
         0.27200E-02
         0.27048E-02
         0.27825E-02
         0.27825E-02
         0.27026E-02
         0.31937E-02
         0.31937E-02
         0.32638E-02
         0.34553E-02
         0.37036E-02
         0.37036E-02
         0.36218E-02
         0.28180E-02
         0.29308E-02
         0.32635E-02
         0.32635E-02
         0.32166E-02
         0.29822E-02
         0.32797E-02
         0.32797E-02
  
SCALARS              physical_window_y  double 1
LOOKUP_TABLE default
         0.43155E-02
         0.43155E-02
         0.43155E-02
         0.43155E-02
         0.43155E-02
         0.43155E-02
         0.43155E-02
         0.43155E-02
         0.34883E-02
         0.34883E-02
         0.34882E-02
         0.34882E-02
         0.32826E-02
         0.32142E-02
         0.32826E-02
         0.32142E-02
         0.37863E-02
         0.31884E-02
         0.37863E-02
         0.31884E-02
         0.27172E-02
         0.33887E-02
         0.37164E-02
         0.27172E-02
         0.33887E-02
         0.37164E-02
         0.27582E-02
         0.28966E-02
         0.27582E-02
         0.28954E-02
         0.37007E-02
         0.35859E-02
         0.37863E-02
         0.37007E-02
         0.35824E-02
         0.37863E-02
         0.29875E-02
         0.29875E-02
         0.29867E-02
         0.29867E-02
         0.28561E-02
         0.26860E-02
         0.28556E-02
         0.26852E-02
         0.29518E-02
         0.28068E-02
         0.29517E-02
         0.28066E-02
         0.29975E-02
         0.29949E-02
         0.37007E-02
         0.37007E-02
         0.28693E-02
         0.28693E-02
         0.28693E-02
         0.28693E-02
         0.27602E-02
         0.26193E-02
         0.27602E-02
         0.26193E-02
         0.37007E-02
         0.37007E-02
         0.37007E-02
         0.37007E-02
         0.37685E-02
         0.37665E-02
         0.37685E-02
         0.37665E-02
         0.30230E-02
         0.37003E-02
         0.30229E-02
         0.37003E-02
         0.37164E-02
         0.37164E-02
         0.31934E-02
         0.31921E-02
         0.32777E-02
         0.32771E-02
         0.32777E-02
         0.32771E-02
         0.27006E-02
         0.25920E-02
         0.27006E-02
         0.25920E-02
         0.25916E-02
         0.25916E-02
         0.29715E-02
         0.29715E-02
         0.29715E-02
         0.29715E-02
         0.26477E-02
         0.29102E-02
         0.26477E-02
         0.29102E-02
         0.34085E-02
         0.34085E-02
         0.35350E-02
         0.35350E-02
         0.35350E-02
         0.35350E-02
         0.29766E-02
         0.32272E-02
         0.29763E-02
         0.32254E-02
         0.29087E-02
         0.29835E-02
         0.29087E-02
         0.29825E-02
         0.37003E-02
         0.37003E-02
         0.37164E-02
         0.37164E-02
         0.37164E-02
         0.37164E-02
         0.33887E-02
         0.33887E-02
         0.28966E-02
         0.28954E-02
         0.31934E-02
         0.31921E-02
         0.32777E-02
         0.32771E-02
         0.32777E-02
         0.32771E-02
         0.27006E-02
         0.27006E-02
         0.25920E-02
         0.25920E-02
         0.25916E-02
         0.25916E-02
         0.26860E-02
         0.26852E-02
         0.28561E-02
         0.28556E-02
         0.29518E-02
         0.29517E-02
         0.29715E-02
         0.29715E-02
         0.29715E-02
         0.29715E-02
         0.26477E-02
         0.26477E-02
         0.27685E-02
         0.27685E-02
         0.34085E-02
         0.34085E-02
         0.35350E-02
         0.35350E-02
         0.35350E-02
         0.35350E-02
         0.29766E-02
         0.29763E-02
         0.31381E-02
         0.31368E-02
         0.31381E-02
         0.31368E-02
         0.43153E-02
         0.43153E-02
         0.43153E-02
         0.43153E-02
         0.34883E-02
         0.34883E-02
         0.32812E-02
         0.32132E-02
         0.37858E-02
         0.31880E-02
         0.27155E-02
         0.33883E-02
         0.37163E-02
         0.27535E-02
         0.28978E-02
         0.37004E-02
         0.35894E-02
         0.37858E-02
         0.29882E-02
         0.29882E-02
         0.28566E-02
         0.26867E-02
         0.29519E-02
         0.28071E-02
         0.30001E-02
         0.37004E-02
         0.28667E-02
         0.28667E-02
         0.27589E-02
         0.26183E-02
         0.37004E-02
         0.37004E-02
         0.37706E-02
         0.37706E-02
         0.30232E-02
         0.36991E-02
         0.37163E-02
         0.31947E-02
         0.32784E-02
         0.32784E-02
         0.27006E-02
         0.25920E-02
         0.25909E-02
         0.29715E-02
         0.29715E-02
         0.26476E-02
         0.29101E-02
         0.34078E-02
         0.35344E-02
         0.35344E-02
         0.29769E-02
         0.32290E-02
         0.29059E-02
         0.29845E-02
         0.36991E-02
         0.37163E-02
         0.37163E-02
         0.33883E-02
         0.28978E-02
         0.31947E-02
         0.32784E-02
         0.32784E-02
         0.27006E-02
         0.25920E-02
         0.25909E-02
         0.26867E-02
         0.28566E-02
         0.29519E-02
         0.29715E-02
         0.29715E-02
         0.26476E-02
         0.27685E-02
         0.34078E-02
         0.35344E-02
         0.35344E-02
         0.29769E-02
         0.31395E-02
         0.31395E-02
         0.43150E-02
         0.43150E-02
         0.43150E-02
         0.43150E-02
         0.34884E-02
         0.34884E-02
         0.32798E-02
         0.32122E-02
         0.37853E-02
         0.31876E-02
         0.27137E-02
         0.33879E-02
         0.37162E-02
         0.27488E-02
         0.28990E-02
         0.37001E-02
         0.35930E-02
         0.37853E-02
         0.29889E-02
         0.29889E-02
         0.28571E-02
         0.26875E-02
         0.29521E-02
         0.28074E-02
         0.30027E-02
         0.37001E-02
         0.28641E-02
         0.28641E-02
         0.27576E-02
         0.26173E-02
         0.37001E-02
         0.37001E-02
         0.37727E-02
         0.37727E-02
         0.30234E-02
         0.36979E-02
         0.37162E-02
         0.31960E-02
         0.32790E-02
         0.32790E-02
         0.27006E-02
         0.25920E-02
         0.25902E-02
         0.29715E-02
         0.29715E-02
         0.26476E-02
         0.29100E-02
         0.34071E-02
         0.35339E-02
         0.35339E-02
         0.29772E-02
         0.32307E-02
         0.29032E-02
         0.29855E-02
         0.36979E-02
         0.37162E-02
         0.37162E-02
         0.33879E-02
         0.28990E-02
         0.31960E-02
         0.32790E-02
         0.32790E-02
         0.27006E-02
         0.25920E-02
         0.25902E-02
         0.26875E-02
         0.28571E-02
         0.29521E-02
         0.29715E-02
         0.29715E-02
         0.26476E-02
         0.27684E-02
         0.34071E-02
         0.35339E-02
         0.35339E-02
         0.29772E-02
         0.31408E-02
         0.31408E-02
         0.43148E-02
         0.43148E-02
         0.43148E-02
         0.43148E-02
         0.34885E-02
         0.34885E-02
         0.32783E-02
         0.32112E-02
         0.37849E-02
         0.31872E-02
         0.27120E-02
         0.33875E-02
         0.37161E-02
         0.27441E-02
         0.29003E-02
         0.36998E-02
         0.35965E-02
         0.37849E-02
         0.29896E-02
         0.29896E-02
         0.28575E-02
         0.26882E-02
         0.29522E-02
         0.28077E-02
         0.30053E-02
         0.36998E-02
         0.28615E-02
         0.28615E-02
         0.27563E-02
         0.26163E-02
         0.36998E-02
         0.36998E-02
         0.37747E-02
         0.37747E-02
         0.30236E-02
         0.36967E-02
         0.37161E-02
         0.31973E-02
         0.32796E-02
         0.32796E-02
         0.27006E-02
         0.25920E-02
         0.25895E-02
         0.29714E-02
         0.29714E-02
         0.26475E-02
         0.29099E-02
         0.34063E-02
         0.35333E-02
         0.35333E-02
         0.29775E-02
         0.32325E-02
         0.29004E-02
         0.29865E-02
         0.36967E-02
         0.37161E-02
         0.37161E-02
         0.33875E-02
         0.29003E-02
         0.31973E-02
         0.32796E-02
         0.32796E-02
         0.27006E-02
         0.25920E-02
         0.25895E-02
         0.26882E-02
         0.28575E-02
         0.29522E-02
         0.29714E-02
         0.29714E-02
         0.26475E-02
         0.27684E-02
         0.34063E-02
         0.35333E-02
         0.35333E-02
         0.29775E-02
         0.31422E-02
         0.31422E-02
         0.43145E-02
         0.43145E-02
         0.43145E-02
         0.43145E-02
         0.34886E-02
         0.34886E-02
         0.32769E-02
         0.32102E-02
         0.37844E-02
         0.31868E-02
         0.27103E-02
         0.33871E-02
         0.37160E-02
         0.27394E-02
         0.29015E-02
         0.36995E-02
         0.36000E-02
         0.37844E-02
         0.29903E-02
         0.29903E-02
         0.28580E-02
         0.26890E-02
         0.29523E-02
         0.28079E-02
         0.30079E-02
         0.36995E-02
         0.28589E-02
         0.28589E-02
         0.27550E-02
         0.26152E-02
         0.36995E-02
         0.36995E-02
         0.37768E-02
         0.37768E-02
         0.30238E-02
         0.36956E-02
         0.37160E-02
         0.31986E-02
         0.32802E-02
         0.32802E-02
         0.27006E-02
         0.25920E-02
         0.25887E-02
         0.29714E-02
         0.29714E-02
         0.26475E-02
         0.29098E-02
         0.34056E-02
         0.35327E-02
         0.35327E-02
         0.29778E-02
         0.32342E-02
         0.28977E-02
         0.29875E-02
         0.36956E-02
         0.37160E-02
         0.37160E-02
         0.33871E-02
         0.29015E-02
         0.31986E-02
         0.32802E-02
         0.32802E-02
         0.27006E-02
         0.25920E-02
         0.25887E-02
         0.26890E-02
         0.28580E-02
         0.29523E-02
         0.29714E-02
         0.29714E-02
         0.26475E-02
         0.27683E-02
         0.34056E-02
         0.35327E-02
         0.35327E-02
         0.29778E-02
         0.31435E-02
         0.31435E-02
         0.43143E-02
         0.43143E-02
         0.43143E-02
         0.43143E-02
         0.34887E-02
         0.34887E-02
         0.32755E-02
         0.32091E-02
         0.37839E-02
         0.31864E-02
         0.27086E-02
         0.33867E-02
         0.37159E-02
         0.27347E-02
         0.29027E-02
         0.36991E-02
         0.36036E-02
         0.37839E-02
         0.29920E-02
         0.29920E-02
         0.28585E-02
         0.26897E-02
         0.29525E-02
         0.28082E-02
         0.30105E-02
         0.36991E-02
         0.28563E-02
         0.28563E-02
         0.27537E-02
         0.26142E-02
         0.36991E-02
         0.36991E-02
         0.37789E-02
         0.37789E-02
         0.30240E-02
         0.36944E-02
         0.37159E-02
         0.31999E-02
         0.32808E-02
         0.32808E-02
         0.27006E-02
         0.25920E-02
         0.25880E-02
         0.29714E-02
         0.29714E-02
         0.26474E-02
         0.29097E-02
         0.34049E-02
         0.35322E-02
         0.35322E-02
         0.29781E-02
         0.32360E-02
         0.28949E-02
         0.29885E-02
         0.36944E-02
         0.37159E-02
         0.37159E-02
         0.33867E-02
         0.29027E-02
         0.31999E-02
         0.32808E-02
         0.32808E-02
         0.27006E-02
         0.25920E-02
         0.25880E-02
         0.26897E-02
         0.28585E-02
         0.29525E-02
         0.29714E-02
         0.29714E-02
         0.26474E-02
         0.27683E-02
         0.34049E-02
         0.35322E-02
         0.35322E-02
         0.29781E-02
         0.31449E-02
         0.31449E-02
         0.43140E-02
         0.43140E-02
         0.43140E-02
         0.43140E-02
         0.34888E-02
         0.34888E-02
         0.32740E-02
         0.32081E-02
         0.37834E-02
         0.31860E-02
         0.27069E-02
         0.33863E-02
         0.37158E-02
         0.27299E-02
         0.29039E-02
         0.36988E-02
         0.36071E-02
         0.37834E-02
         0.29946E-02
         0.29946E-02
         0.28589E-02
         0.26905E-02
         0.29526E-02
         0.28085E-02
         0.30131E-02
         0.36988E-02
         0.28538E-02
         0.28538E-02
         0.27524E-02
         0.26132E-02
         0.36988E-02
         0.36988E-02
         0.37809E-02
         0.37809E-02
         0.30241E-02
         0.36932E-02
         0.37158E-02
         0.32012E-02
         0.32814E-02
         0.32814E-02
         0.27006E-02
         0.25920E-02
         0.25873E-02
         0.29714E-02
         0.29714E-02
         0.26473E-02
         0.29097E-02
         0.34041E-02
         0.35316E-02
         0.35316E-02
         0.29784E-02
         0.32378E-02
         0.28921E-02
         0.29895E-02
         0.36932E-02
         0.37158E-02
         0.37158E-02
         0.33863E-02
         0.29039E-02
         0.32012E-02
         0.32814E-02
         0.32814E-02
         0.27006E-02
         0.25920E-02
         0.25873E-02
         0.26905E-02
         0.28589E-02
         0.29526E-02
         0.29714E-02
         0.29714E-02
         0.26473E-02
         0.27683E-02
         0.34041E-02
         0.35316E-02
         0.35316E-02
         0.29784E-02
         0.31463E-02
         0.31463E-02
         0.43138E-02
         0.43138E-02
         0.43138E-02
         0.43138E-02
         0.34888E-02
         0.34888E-02
         0.32726E-02
         0.32071E-02
         0.37830E-02
         0.31856E-02
         0.27051E-02
         0.33859E-02
         0.37157E-02
         0.27252E-02
         0.29051E-02
         0.36985E-02
         0.36106E-02
         0.37830E-02
         0.29972E-02
         0.29972E-02
         0.28594E-02
         0.26912E-02
         0.29528E-02
         0.28087E-02
         0.30156E-02
         0.36985E-02
         0.28512E-02
         0.28512E-02
         0.27512E-02
         0.26122E-02
         0.36985E-02
         0.36985E-02
         0.37830E-02
         0.37830E-02
         0.30243E-02
         0.36920E-02
         0.37157E-02
         0.32025E-02
         0.32821E-02
         0.32821E-02
         0.27006E-02
         0.25920E-02
         0.25866E-02
         0.29714E-02
         0.29714E-02
         0.26473E-02
         0.29096E-02
         0.34034E-02
         0.35310E-02
         0.35310E-02
         0.29787E-02
         0.32396E-02
         0.28894E-02
         0.29905E-02
         0.36920E-02
         0.37157E-02
         0.37157E-02
         0.33859E-02
         0.29051E-02
         0.32025E-02
         0.32821E-02
         0.32821E-02
         0.27006E-02
         0.25920E-02
         0.25866E-02
         0.26912E-02
         0.28594E-02
         0.29528E-02
         0.29714E-02
         0.29714E-02
         0.26473E-02
         0.27682E-02
         0.34034E-02
         0.35310E-02
         0.35310E-02
         0.29787E-02
         0.31476E-02
         0.31476E-02
         0.43135E-02
         0.43135E-02
         0.43135E-02
         0.43135E-02
         0.34889E-02
         0.34889E-02
         0.32712E-02
         0.32061E-02
         0.37825E-02
         0.31852E-02
         0.27034E-02
         0.33856E-02
         0.37156E-02
         0.27205E-02
         0.29063E-02
         0.36982E-02
         0.36142E-02
         0.37851E-02
         0.29998E-02
         0.29998E-02
         0.28599E-02
         0.26920E-02
         0.29529E-02
         0.28090E-02
         0.30182E-02
         0.36982E-02
         0.28486E-02
         0.28486E-02
         0.27499E-02
         0.26112E-02
         0.36982E-02
         0.36982E-02
         0.37851E-02
         0.37851E-02
         0.30245E-02
         0.36908E-02
         0.37156E-02
         0.32038E-02
         0.32827E-02
         0.32827E-02
         0.27006E-02
         0.25920E-02
         0.25859E-02
         0.29714E-02
         0.29714E-02
         0.26472E-02
         0.29095E-02
         0.34027E-02
         0.35304E-02
         0.35304E-02
         0.29790E-02
         0.32413E-02
         0.28866E-02
         0.29915E-02
         0.36908E-02
         0.37156E-02
         0.37156E-02
         0.33856E-02
         0.29063E-02
         0.32038E-02
         0.32827E-02
         0.32827E-02
         0.27006E-02
         0.25920E-02
         0.25859E-02
         0.26920E-02
         0.28599E-02
         0.29529E-02
         0.29714E-02
         0.29714E-02
         0.26472E-02
         0.27682E-02
         0.34027E-02
         0.35304E-02
         0.35304E-02
         0.29790E-02
         0.31490E-02
         0.31490E-02
         0.43133E-02
         0.43133E-02
         0.43133E-02
         0.43133E-02
         0.34890E-02
         0.34890E-02
         0.32698E-02
         0.32051E-02
         0.37820E-02
         0.31848E-02
         0.27017E-02
         0.33851E-02
         0.37155E-02
         0.27158E-02
         0.29075E-02
         0.36979E-02
         0.36177E-02
         0.37871E-02
         0.30024E-02
         0.30024E-02
         0.28603E-02
         0.26927E-02
         0.29530E-02
         0.28093E-02
         0.30208E-02
         0.36979E-02
         0.28460E-02
         0.28460E-02
         0.27486E-02
         0.26101E-02
         0.36979E-02
         0.36979E-02
         0.37871E-02
         0.37871E-02
         0.30247E-02
         0.36896E-02
         0.37155E-02
         0.32051E-02
         0.32833E-02
         0.32833E-02
         0.27006E-02
         0.25920E-02
         0.25851E-02
         0.29714E-02
         0.29714E-02
         0.26472E-02
         0.29094E-02
         0.34019E-02
         0.35299E-02
         0.35299E-02
         0.29793E-02
         0.32431E-02
         0.28838E-02
         0.29925E-02
         0.36896E-02
         0.37155E-02
         0.37155E-02
         0.33851E-02
         0.29075E-02
         0.32051E-02
         0.32833E-02
         0.32833E-02
         0.27006E-02
         0.25920E-02
         0.25851E-02
         0.26927E-02
         0.28603E-02
         0.29530E-02
         0.29714E-02
         0.29714E-02
         0.26472E-02
         0.27681E-02
         0.34019E-02
         0.35299E-02
         0.35299E-02
         0.29793E-02
         0.31503E-02
         0.31503E-02
         0.43130E-02
         0.43130E-02
         0.43130E-02
         0.43130E-02
         0.34891E-02
         0.34891E-02
         0.32683E-02
         0.32041E-02
         0.37816E-02
         0.31844E-02
         0.27000E-02
         0.33848E-02
         0.37154E-02
         0.27111E-02
         0.29087E-02
         0.36976E-02
         0.36213E-02
         0.37892E-02
         0.30050E-02
         0.30050E-02
         0.28608E-02
         0.26935E-02
         0.29532E-02
         0.28096E-02
         0.30234E-02
         0.36976E-02
         0.28434E-02
         0.28434E-02
         0.27472E-02
         0.26091E-02
         0.36976E-02
         0.36976E-02
         0.37892E-02
         0.37892E-02
         0.30249E-02
         0.36885E-02
         0.37154E-02
         0.32064E-02
         0.32839E-02
         0.32839E-02
         0.27006E-02
         0.25920E-02
         0.25844E-02
         0.29714E-02
         0.29714E-02
         0.26471E-02
         0.29094E-02
         0.34012E-02
         0.35293E-02
         0.35293E-02
         0.29797E-02
         0.32449E-02
         0.28811E-02
         0.29935E-02
         0.36885E-02
         0.37154E-02
         0.37154E-02
         0.33848E-02
         0.29087E-02
         0.32064E-02
         0.32839E-02
         0.32839E-02
         0.27006E-02
         0.25920E-02
         0.25844E-02
         0.26935E-02
         0.28608E-02
         0.29532E-02
         0.29714E-02
         0.29714E-02
         0.26471E-02
         0.27681E-02
         0.34012E-02
         0.35293E-02
         0.35293E-02
         0.29797E-02
         0.31517E-02
         0.31517E-02
         0.43128E-02
         0.43128E-02
         0.43128E-02
         0.43128E-02
         0.34892E-02
         0.34892E-02
         0.32669E-02
         0.32031E-02
         0.37811E-02
         0.31840E-02
         0.26982E-02
         0.33844E-02
         0.37152E-02
         0.27063E-02
         0.29099E-02
         0.36973E-02
         0.36248E-02
         0.37913E-02
         0.30076E-02
         0.30076E-02
         0.28613E-02
         0.26942E-02
         0.29533E-02
         0.28099E-02
         0.30260E-02
         0.36973E-02
         0.28408E-02
         0.28408E-02
         0.27460E-02
         0.26081E-02
         0.36973E-02
         0.36973E-02
         0.37913E-02
         0.37913E-02
         0.30250E-02
         0.36873E-02
         0.37152E-02
         0.32077E-02
         0.32845E-02
         0.32845E-02
         0.27006E-02
         0.25920E-02
         0.25837E-02
         0.29714E-02
         0.29714E-02
         0.26471E-02
         0.29093E-02
         0.34005E-02
         0.35287E-02
         0.35287E-02
         0.29800E-02
         0.32467E-02
         0.28783E-02
         0.29945E-02
         0.36873E-02
         0.37152E-02
         0.37152E-02
         0.33844E-02
         0.29099E-02
         0.32077E-02
         0.32845E-02
         0.32845E-02
         0.27006E-02
         0.25920E-02
         0.25837E-02
         0.26942E-02
         0.28613E-02
         0.29533E-02
         0.29714E-02
         0.29714E-02
         0.26471E-02
         0.27681E-02
         0.34005E-02
         0.35287E-02
         0.35287E-02
         0.29800E-02
         0.31530E-02
         0.31530E-02
         0.43125E-02
         0.43125E-02
         0.43125E-02
         0.43125E-02
         0.34893E-02
         0.34893E-02
         0.32655E-02
         0.32021E-02
         0.37806E-02
         0.31836E-02
         0.26965E-02
         0.33840E-02
         0.37151E-02
         0.27016E-02
         0.29111E-02
         0.36969E-02
         0.36283E-02
         0.37933E-02
         0.30102E-02
         0.30102E-02
         0.28617E-02
         0.26950E-02
         0.29535E-02
         0.28101E-02
         0.30286E-02
         0.36969E-02
         0.28382E-02
         0.28382E-02
         0.27447E-02
         0.26071E-02
         0.36969E-02
         0.36969E-02
         0.37933E-02
         0.37933E-02
         0.30252E-02
         0.36861E-02
         0.37151E-02
         0.32090E-02
         0.32852E-02
         0.32852E-02
         0.27006E-02
         0.25920E-02
         0.25830E-02
         0.29714E-02
         0.29714E-02
         0.26470E-02
         0.29092E-02
         0.33997E-02
         0.35282E-02
         0.35282E-02
         0.29803E-02
         0.32484E-02
         0.28755E-02
         0.29955E-02
         0.36861E-02
         0.37151E-02
         0.37151E-02
         0.33840E-02
         0.29111E-02
         0.32090E-02
         0.32852E-02
         0.32852E-02
         0.27006E-02
         0.25920E-02
         0.25830E-02
         0.26950E-02
         0.28617E-02
         0.29535E-02
         0.29714E-02
         0.29714E-02
         0.26470E-02
         0.27680E-02
         0.33997E-02
         0.35282E-02
         0.35282E-02
         0.29803E-02
         0.31544E-02
         0.31544E-02
         0.43123E-02
         0.43123E-02
         0.43123E-02
         0.43123E-02
         0.34893E-02
         0.34893E-02
         0.32640E-02
         0.32011E-02
         0.37801E-02
         0.31832E-02
         0.26948E-02
         0.33836E-02
         0.37150E-02
         0.26969E-02
         0.29123E-02
         0.36966E-02
         0.36319E-02
         0.37954E-02
         0.30128E-02
         0.30128E-02
         0.28622E-02
         0.26957E-02
         0.29536E-02
         0.28104E-02
         0.30312E-02
         0.36966E-02
         0.28357E-02
         0.28357E-02
         0.27434E-02
         0.26061E-02
         0.36966E-02
         0.36966E-02
         0.37954E-02
         0.37954E-02
         0.30254E-02
         0.36849E-02
         0.37150E-02
         0.32103E-02
         0.32858E-02
         0.32858E-02
         0.27006E-02
         0.25920E-02
         0.25823E-02
         0.29714E-02
         0.29714E-02
         0.26470E-02
         0.29091E-02
         0.33990E-02
         0.35276E-02
         0.35276E-02
         0.29806E-02
         0.32502E-02
         0.28728E-02
         0.29965E-02
         0.36849E-02
         0.37150E-02
         0.37150E-02
         0.33836E-02
         0.29123E-02
         0.32103E-02
         0.32858E-02
         0.32858E-02
         0.27006E-02
         0.25920E-02
         0.25823E-02
         0.26957E-02
         0.28622E-02
         0.29536E-02
         0.29714E-02
         0.29714E-02
         0.26470E-02
         0.27680E-02
         0.33990E-02
         0.35276E-02
         0.35276E-02
         0.29806E-02
         0.31557E-02
         0.31557E-02
         0.43120E-02
         0.43120E-02
         0.43120E-02
         0.43120E-02
         0.34894E-02
         0.34894E-02
         0.32626E-02
         0.32001E-02
         0.37797E-02
         0.31828E-02
         0.26931E-02
         0.33832E-02
         0.37149E-02
         0.26922E-02
         0.29135E-02
         0.36963E-02
         0.36354E-02
         0.37975E-02
         0.30154E-02
         0.30154E-02
         0.28627E-02
         0.26965E-02
         0.29537E-02
         0.28107E-02
         0.30338E-02
         0.36963E-02
         0.28331E-02
         0.28331E-02
         0.27421E-02
         0.26051E-02
         0.36963E-02
         0.36963E-02
         0.37975E-02
         0.37975E-02
         0.30256E-02
         0.36838E-02
         0.37149E-02
         0.32116E-02
         0.32864E-02
         0.32864E-02
         0.27006E-02
         0.25920E-02
         0.25815E-02
         0.29714E-02
         0.29714E-02
         0.26469E-02
         0.29090E-02
         0.33983E-02
         0.35270E-02
         0.35270E-02
         0.29809E-02
         0.32519E-02
         0.28700E-02
         0.29975E-02
         0.36838E-02
         0.37149E-02
         0.37149E-02
         0.33832E-02
         0.29135E-02
         0.32116E-02
         0.32864E-02
         0.32864E-02
         0.27006E-02
         0.25920E-02
         0.25815E-02
         0.26965E-02
         0.28627E-02
         0.29537E-02
         0.29714E-02
         0.29714E-02
         0.26469E-02
         0.27680E-02
         0.33983E-02
         0.35270E-02
         0.35270E-02
         0.29809E-02
         0.31571E-02
         0.31571E-02
         0.43118E-02
         0.43118E-02
         0.43118E-02
         0.43118E-02
         0.34895E-02
         0.34895E-02
         0.32612E-02
         0.31990E-02
         0.37792E-02
         0.31824E-02
         0.26913E-02
         0.33828E-02
         0.37148E-02
         0.26875E-02
         0.29148E-02
         0.36960E-02
         0.36390E-02
         0.37995E-02
         0.30180E-02
         0.30180E-02
         0.28631E-02
         0.26972E-02
         0.29539E-02
         0.28110E-02
         0.30364E-02
         0.36960E-02
         0.28305E-02
         0.28305E-02
         0.27408E-02
         0.26040E-02
         0.36960E-02
         0.36960E-02
         0.37995E-02
         0.37995E-02
         0.30258E-02
         0.36826E-02
         0.37148E-02
         0.32129E-02
         0.32870E-02
         0.32870E-02
         0.27006E-02
         0.25920E-02
         0.25808E-02
         0.29713E-02
         0.29713E-02
         0.26468E-02
         0.29089E-02
         0.33975E-02
         0.35264E-02
         0.35264E-02
         0.29812E-02
         0.32537E-02
         0.28672E-02
         0.29985E-02
         0.36826E-02
         0.37148E-02
         0.37148E-02
         0.33828E-02
         0.29148E-02
         0.32129E-02
         0.32870E-02
         0.32870E-02
         0.27006E-02
         0.25920E-02
         0.25808E-02
         0.26972E-02
         0.28631E-02
         0.29539E-02
         0.29713E-02
         0.29713E-02
         0.26468E-02
         0.27679E-02
         0.33975E-02
         0.35264E-02
         0.35264E-02
         0.29812E-02
         0.31585E-02
         0.31585E-02
         0.43115E-02
         0.43115E-02
         0.43115E-02
         0.43115E-02
         0.34896E-02
         0.34896E-02
         0.32597E-02
         0.31980E-02
         0.37787E-02
         0.31820E-02
         0.26896E-02
         0.33824E-02
         0.37147E-02
         0.26827E-02
         0.29160E-02
         0.36957E-02
         0.36425E-02
         0.38016E-02
         0.30206E-02
         0.30206E-02
         0.28636E-02
         0.26980E-02
         0.29540E-02
         0.28112E-02
         0.30390E-02
         0.36957E-02
         0.28279E-02
         0.28279E-02
         0.27395E-02
         0.26030E-02
         0.36957E-02
         0.36957E-02
         0.38016E-02
         0.38016E-02
         0.30260E-02
         0.36814E-02
         0.37147E-02
         0.32141E-02
         0.32876E-02
         0.32876E-02
         0.27006E-02
         0.25920E-02
         0.25801E-02
         0.29713E-02
         0.29713E-02
         0.26468E-02
         0.29089E-02
         0.33968E-02
         0.35259E-02
         0.35259E-02
         0.29815E-02
         0.32555E-02
         0.28645E-02
         0.29995E-02
         0.36814E-02
         0.37147E-02
         0.37147E-02
         0.33824E-02
         0.29160E-02
         0.32141E-02
         0.32876E-02
         0.32876E-02
         0.27006E-02
         0.25920E-02
         0.25801E-02
         0.26980E-02
         0.28636E-02
         0.29540E-02
         0.29713E-02
         0.29713E-02
         0.26468E-02
         0.27679E-02
         0.33968E-02
         0.35259E-02
         0.35259E-02
         0.29815E-02
         0.31598E-02
         0.31598E-02
         0.43113E-02
         0.43113E-02
         0.43113E-02
         0.43113E-02
         0.34897E-02
         0.34897E-02
         0.32583E-02
         0.31970E-02
         0.37783E-02
         0.31816E-02
         0.26879E-02
         0.33820E-02
         0.37146E-02
         0.26780E-02
         0.29172E-02
         0.36954E-02
         0.36460E-02
         0.38037E-02
         0.30232E-02
         0.30232E-02
         0.28641E-02
         0.26987E-02
         0.29542E-02
         0.28115E-02
         0.30416E-02
         0.36954E-02
         0.28253E-02
         0.28253E-02
         0.27382E-02
         0.26020E-02
         0.36954E-02
         0.36954E-02
         0.38037E-02
         0.38037E-02
         0.30261E-02
         0.36802E-02
         0.37146E-02
         0.32154E-02
         0.32882E-02
         0.32882E-02
         0.27006E-02
         0.25921E-02
         0.25794E-02
         0.29713E-02
         0.29713E-02
         0.26467E-02
         0.29088E-02
         0.33961E-02
         0.35253E-02
         0.35253E-02
         0.29818E-02
         0.32573E-02
         0.28617E-02
         0.30005E-02
         0.36802E-02
         0.37146E-02
         0.37146E-02
         0.33820E-02
         0.29172E-02
         0.32154E-02
         0.32882E-02
         0.32882E-02
         0.27006E-02
         0.25921E-02
         0.25794E-02
         0.26987E-02
         0.28641E-02
         0.29542E-02
         0.29713E-02
         0.29713E-02
         0.26467E-02
         0.27678E-02
         0.33961E-02
         0.35253E-02
         0.35253E-02
         0.29818E-02
         0.31612E-02
         0.31612E-02
         0.43110E-02
         0.43110E-02
         0.43110E-02
         0.43110E-02
         0.34898E-02
         0.34898E-02
         0.32569E-02
         0.31960E-02
         0.37778E-02
         0.31812E-02
         0.26862E-02
         0.33816E-02
         0.37145E-02
         0.26733E-02
         0.29184E-02
         0.36950E-02
         0.36495E-02
         0.38057E-02
         0.30258E-02
         0.30258E-02
         0.28645E-02
         0.26995E-02
         0.29543E-02
         0.28118E-02
         0.30442E-02
         0.36950E-02
         0.28227E-02
         0.28227E-02
         0.27369E-02
         0.26010E-02
         0.36950E-02
         0.36950E-02
         0.38057E-02
         0.38057E-02
         0.30263E-02
         0.36790E-02
         0.37145E-02
         0.32167E-02
         0.32889E-02
         0.32889E-02
         0.27006E-02
         0.25921E-02
         0.25787E-02
         0.29713E-02
         0.29713E-02
         0.26467E-02
         0.29087E-02
         0.33953E-02
         0.35247E-02
         0.35247E-02
         0.29821E-02
         0.32590E-02
         0.28589E-02
         0.30015E-02
         0.36790E-02
         0.37145E-02
         0.37145E-02
         0.33816E-02
         0.29184E-02
         0.32167E-02
         0.32889E-02
         0.32889E-02
         0.27006E-02
         0.25921E-02
         0.25787E-02
         0.26995E-02
         0.28645E-02
         0.29543E-02
         0.29713E-02
         0.29713E-02
         0.26467E-02
         0.27678E-02
         0.33953E-02
         0.35247E-02
         0.35247E-02
         0.29821E-02
         0.31625E-02
         0.31625E-02
         0.43108E-02
         0.43108E-02
         0.43108E-02
         0.43108E-02
         0.34898E-02
         0.34898E-02
         0.32555E-02
         0.31950E-02
         0.37773E-02
         0.31808E-02
         0.26845E-02
         0.33812E-02
         0.37144E-02
         0.26686E-02
         0.29196E-02
         0.36948E-02
         0.36531E-02
         0.38078E-02
         0.30285E-02
         0.30285E-02
         0.28650E-02
         0.27002E-02
         0.29544E-02
         0.28120E-02
         0.30467E-02
         0.36948E-02
         0.28201E-02
         0.28201E-02
         0.27356E-02
         0.26000E-02
         0.36948E-02
         0.36948E-02
         0.38078E-02
         0.38078E-02
         0.30265E-02
         0.36779E-02
         0.37144E-02
         0.32181E-02
         0.32895E-02
         0.32895E-02
         0.27006E-02
         0.25921E-02
         0.25779E-02
         0.29713E-02
         0.29713E-02
         0.26466E-02
         0.29086E-02
         0.33946E-02
         0.35242E-02
         0.35242E-02
         0.29824E-02
         0.32608E-02
         0.28562E-02
         0.30025E-02
         0.36779E-02
         0.37144E-02
         0.37144E-02
         0.33812E-02
         0.29196E-02
         0.32181E-02
         0.32895E-02
         0.32895E-02
         0.27006E-02
         0.25921E-02
         0.25779E-02
         0.27002E-02
         0.28650E-02
         0.29544E-02
         0.29713E-02
         0.29713E-02
         0.26466E-02
         0.27678E-02
         0.33946E-02
         0.35242E-02
         0.35242E-02
         0.29824E-02
         0.31639E-02
         0.31639E-02
         0.43105E-02
         0.43105E-02
         0.43105E-02
         0.43105E-02
         0.34899E-02
         0.34899E-02
         0.32540E-02
         0.31940E-02
         0.37768E-02
         0.31804E-02
         0.26827E-02
         0.33808E-02
         0.37143E-02
         0.26639E-02
         0.29208E-02
         0.36944E-02
         0.36566E-02
         0.38099E-02
         0.30311E-02
         0.30311E-02
         0.28655E-02
         0.27010E-02
         0.29546E-02
         0.28123E-02
         0.30493E-02
         0.36944E-02
         0.28175E-02
         0.28175E-02
         0.27343E-02
         0.25990E-02
         0.36944E-02
         0.36944E-02
         0.38099E-02
         0.38099E-02
         0.30267E-02
         0.36767E-02
         0.37143E-02
         0.32193E-02
         0.32901E-02
         0.32901E-02
         0.27006E-02
         0.25921E-02
         0.25772E-02
         0.29713E-02
         0.29713E-02
         0.26466E-02
         0.29085E-02
         0.33939E-02
         0.35236E-02
         0.35236E-02
         0.29827E-02
         0.32626E-02
         0.28534E-02
         0.30035E-02
         0.36767E-02
         0.37143E-02
         0.37143E-02
         0.33808E-02
         0.29208E-02
         0.32193E-02
         0.32901E-02
         0.32901E-02
         0.27006E-02
         0.25921E-02
         0.25772E-02
         0.27010E-02
         0.28655E-02
         0.29546E-02
         0.29713E-02
         0.29713E-02
         0.26466E-02
         0.27677E-02
         0.33939E-02
         0.35236E-02
         0.35236E-02
         0.29827E-02
         0.31652E-02
         0.31652E-02
         0.43103E-02
         0.43103E-02
         0.43103E-02
         0.43103E-02
         0.34900E-02
         0.34900E-02
         0.32526E-02
         0.31930E-02
         0.37764E-02
         0.31800E-02
         0.26810E-02
         0.33804E-02
         0.37142E-02
         0.26591E-02
         0.29220E-02
         0.36941E-02
         0.36602E-02
         0.38119E-02
         0.30337E-02
         0.30337E-02
         0.28660E-02
         0.27017E-02
         0.29547E-02
         0.28126E-02
         0.30519E-02
         0.36941E-02
         0.28150E-02
         0.28150E-02
         0.27330E-02
         0.25979E-02
         0.36941E-02
         0.36941E-02
         0.38119E-02
         0.38119E-02
         0.30269E-02
         0.36755E-02
         0.37142E-02
         0.32206E-02
         0.32907E-02
         0.32907E-02
         0.27006E-02
         0.25921E-02
         0.25765E-02
         0.29713E-02
         0.29713E-02
         0.26465E-02
         0.29085E-02
         0.33931E-02
         0.35230E-02
         0.35230E-02
         0.29830E-02
         0.32643E-02
         0.28507E-02
         0.30045E-02
         0.36755E-02
         0.37142E-02
         0.37142E-02
         0.33804E-02
         0.29220E-02
         0.32206E-02
         0.32907E-02
         0.32907E-02
         0.27006E-02
         0.25921E-02
         0.25765E-02
         0.27017E-02
         0.28660E-02
         0.29547E-02
         0.29713E-02
         0.29713E-02
         0.26465E-02
         0.27677E-02
         0.33931E-02
         0.35230E-02
         0.35230E-02
         0.29830E-02
         0.31666E-02
         0.31666E-02
         0.43100E-02
         0.43100E-02
         0.43100E-02
         0.43100E-02
         0.34901E-02
         0.34901E-02
         0.32512E-02
         0.31920E-02
         0.37759E-02
         0.31796E-02
         0.26793E-02
         0.33800E-02
         0.37141E-02
         0.26544E-02
         0.29232E-02
         0.36938E-02
         0.36637E-02
         0.38140E-02
         0.30363E-02
         0.30363E-02
         0.28664E-02
         0.27025E-02
         0.29548E-02
         0.28129E-02
         0.30545E-02
         0.36938E-02
         0.28124E-02
         0.28124E-02
         0.27317E-02
         0.25969E-02
         0.36938E-02
         0.36938E-02
         0.38140E-02
         0.38140E-02
         0.30271E-02
         0.36743E-02
         0.37141E-02
         0.32219E-02
         0.32913E-02
         0.32913E-02
         0.27006E-02
         0.25921E-02
         0.25758E-02
         0.29713E-02
         0.29713E-02
         0.26465E-02
         0.29084E-02
         0.33924E-02
         0.35224E-02
         0.35224E-02
         0.29833E-02
         0.32661E-02
         0.28479E-02
         0.30055E-02
         0.36743E-02
         0.37141E-02
         0.37141E-02
         0.33800E-02
         0.29232E-02
         0.32219E-02
         0.32913E-02
         0.32913E-02
         0.27006E-02
         0.25921E-02
         0.25758E-02
         0.27025E-02
         0.28664E-02
         0.29548E-02
         0.29713E-02
         0.29713E-02
         0.26465E-02
         0.27677E-02
         0.33924E-02
         0.35224E-02
         0.35224E-02
         0.29833E-02
         0.31680E-02
         0.31680E-02
         0.43098E-02
         0.43098E-02
         0.43098E-02
         0.43098E-02
         0.34901E-02
         0.34901E-02
         0.32498E-02
         0.31910E-02
         0.37754E-02
         0.31792E-02
         0.26776E-02
         0.33796E-02
         0.37140E-02
         0.26497E-02
         0.29232E-02
         0.36935E-02
         0.36637E-02
         0.38140E-02
         0.30363E-02
         0.30363E-02
         0.28664E-02
         0.27025E-02
         0.29548E-02
         0.28129E-02
         0.30545E-02
         0.36935E-02
         0.28098E-02
         0.28098E-02
         0.27304E-02
         0.25959E-02
         0.36935E-02
         0.36935E-02
         0.38140E-02
         0.38140E-02
         0.30271E-02
         0.36731E-02
         0.37140E-02
         0.32219E-02
         0.32913E-02
         0.32913E-02
         0.27006E-02
         0.25921E-02
         0.25751E-02
         0.29713E-02
         0.29713E-02
         0.26464E-02
         0.29083E-02
         0.33916E-02
         0.35219E-02
         0.35219E-02
         0.29833E-02
         0.32661E-02
         0.28451E-02
         0.30055E-02
         0.36731E-02
         0.37140E-02
         0.37140E-02
         0.33796E-02
         0.29232E-02
         0.32219E-02
         0.32913E-02
         0.32913E-02
         0.27006E-02
         0.25921E-02
         0.25751E-02
         0.27025E-02
         0.28664E-02
         0.29548E-02
         0.29713E-02
         0.29713E-02
         0.26464E-02
         0.27676E-02
         0.33916E-02
         0.35219E-02
         0.35219E-02
         0.29833E-02
         0.31680E-02
         0.31680E-02
  
SCALARS              physical_window_z  double 1
LOOKUP_TABLE default
         0.26928E-02
         0.26928E-02
         0.26928E-02
         0.26928E-02
         0.26928E-02
         0.26928E-02
         0.26928E-02
         0.26928E-02
         0.26928E-02
         0.26928E-02
         0.26928E-02
         0.26928E-02
         0.26928E-02
         0.26928E-02
         0.26928E-02
         0.26928E-02
         0.26928E-02
         0.26928E-02
         0.26928E-02
         0.26928E-02
         0.26928E-02
         0.26928E-02
         0.26928E-02
         0.26928E-02
         0.26928E-02
         0.26928E-02
         0.26928E-02
         0.26928E-02
         0.26928E-02
         0.26928E-02
         0.26928E-02
         0.26928E-02
         0.26928E-02
         0.26928E-02
         0.26928E-02
         0.26928E-02
         0.26928E-02
         0.26928E-02
         0.26928E-02
         0.26928E-02
         0.26928E-02
         0.26928E-02
         0.26928E-02
         0.26928E-02
         0.26928E-02
         0.26928E-02
         0.26928E-02
         0.26928E-02
         0.26928E-02
         0.26928E-02
         0.26928E-02
         0.26928E-02
         0.26928E-02
         0.26928E-02
         0.26928E-02
         0.26928E-02
         0.26928E-02
         0.26928E-02
         0.26928E-02
         0.26928E-02
         0.26928E-02
         0.26928E-02
         0.26928E-02
         0.26928E-02
         0.26928E-02
         0.26928E-02
         0.26928E-02
         0.26928E-02
         0.26928E-02
         0.26928E-02
         0.26928E-02
         0.26928E-02
         0.26928E-02
         0.26928E-02
         0.26928E-02
         0.26928E-02
         0.26928E-02
         0.26928E-02
         0.26928E-02
         0.26928E-02
         0.26928E-02
         0.26928E-02
         0.26928E-02
         0.26928E-02
         0.26928E-02
         0.26928E-02
         0.26928E-02
         0.26928E-02
         0.26928E-02
         0.26928E-02
         0.26928E-02
         0.26928E-02
         0.26928E-02
         0.26928E-02
         0.26928E-02
         0.26928E-02
         0.26928E-02
         0.26928E-02
         0.26928E-02
         0.26928E-02
         0.26928E-02
         0.26928E-02
         0.26928E-02
         0.26928E-02
         0.26928E-02
         0.26928E-02
         0.26928E-02
         0.26928E-02
         0.26928E-02
         0.26928E-02
         0.26928E-02
         0.26928E-02
         0.26928E-02
         0.26928E-02
         0.26928E-02
         0.26928E-02
         0.26928E-02
         0.26928E-02
         0.26928E-02
         0.26928E-02
         0.26928E-02
         0.26928E-02
         0.26928E-02
         0.26928E-02
         0.26928E-02
         0.26928E-02
         0.26928E-02
         0.26928E-02
         0.26928E-02
         0.26928E-02
         0.26928E-02
         0.26928E-02
         0.26928E-02
         0.26928E-02
         0.26928E-02
         0.26928E-02
         0.26928E-02
         0.26928E-02
         0.26928E-02
         0.26928E-02
         0.26928E-02
         0.26928E-02
         0.26928E-02
         0.26928E-02
         0.26928E-02
         0.26928E-02
         0.26928E-02
         0.26928E-02
         0.26928E-02
         0.26928E-02
         0.26928E-02
         0.26928E-02
         0.26928E-02
         0.26928E-02
         0.26928E-02
         0.26928E-02
         0.26927E-02
         0.26927E-02
         0.26927E-02
         0.26927E-02
         0.26927E-02
         0.26927E-02
         0.26927E-02
         0.26927E-02
         0.26927E-02
         0.26927E-02
         0.26927E-02
         0.26927E-02
         0.26927E-02
         0.26927E-02
         0.26927E-02
         0.26927E-02
         0.26927E-02
         0.26927E-02
         0.26927E-02
         0.26927E-02
         0.26927E-02
         0.26927E-02
         0.26927E-02
         0.26927E-02
         0.26927E-02
         0.26927E-02
         0.26927E-02
         0.26927E-02
         0.26927E-02
         0.26927E-02
         0.26927E-02
         0.26927E-02
         0.26927E-02
         0.26927E-02
         0.26927E-02
         0.26927E-02
         0.26927E-02
         0.26927E-02
         0.26927E-02
         0.26927E-02
         0.26927E-02
         0.26927E-02
         0.26927E-02
         0.26927E-02
         0.26927E-02
         0.26927E-02
         0.26927E-02
         0.26927E-02
         0.26927E-02
         0.26927E-02
         0.26927E-02
         0.26927E-02
         0.26927E-02
         0.26927E-02
         0.26927E-02
         0.26927E-02
         0.26927E-02
         0.26927E-02
         0.26927E-02
         0.26927E-02
         0.26927E-02
         0.26927E-02
         0.26927E-02
         0.26927E-02
         0.26927E-02
         0.26927E-02
         0.26927E-02
         0.26927E-02
         0.26927E-02
         0.26927E-02
         0.26927E-02
         0.26927E-02
         0.26927E-02
         0.26927E-02
         0.26927E-02
         0.26927E-02
         0.26927E-02
         0.26927E-02
         0.26927E-02
         0.26927E-02
         0.26927E-02
         0.26927E-02
         0.26927E-02
         0.26927E-02
         0.26927E-02
         0.26927E-02
         0.26927E-02
         0.26927E-02
         0.26927E-02
         0.26927E-02
         0.26927E-02
         0.26927E-02
         0.26927E-02
         0.26927E-02
         0.26927E-02
         0.26927E-02
         0.26927E-02
         0.26927E-02
         0.26927E-02
         0.26927E-02
         0.26927E-02
         0.26927E-02
         0.26927E-02
         0.26927E-02
         0.26927E-02
         0.26927E-02
         0.26927E-02
         0.26927E-02
         0.26927E-02
         0.26927E-02
         0.26927E-02
         0.26927E-02
         0.26927E-02
         0.26927E-02
         0.26927E-02
         0.26927E-02
         0.26927E-02
         0.26927E-02
         0.26927E-02
         0.26927E-02
         0.26927E-02
         0.26927E-02
         0.26927E-02
         0.26927E-02
         0.26927E-02
         0.26927E-02
         0.26927E-02
         0.26927E-02
         0.26927E-02
         0.26927E-02
         0.26927E-02
         0.26927E-02
         0.26927E-02
         0.26927E-02
         0.26927E-02
         0.26927E-02
         0.26927E-02
         0.26927E-02
         0.26927E-02
         0.26927E-02
         0.26927E-02
         0.26927E-02
         0.26927E-02
         0.26927E-02
         0.26927E-02
         0.26927E-02
         0.26927E-02
         0.26927E-02
         0.26927E-02
         0.26927E-02
         0.26927E-02
         0.26927E-02
         0.26927E-02
         0.26927E-02
         0.26927E-02
         0.26927E-02
         0.26927E-02
         0.26927E-02
         0.26927E-02
         0.26927E-02
         0.26927E-02
         0.26927E-02
         0.26927E-02
         0.26927E-02
         0.26927E-02
         0.26927E-02
         0.26927E-02
         0.26927E-02
         0.26927E-02
         0.26927E-02
         0.26927E-02
         0.26927E-02
         0.26927E-02
         0.26927E-02
         0.26927E-02
         0.26927E-02
         0.26927E-02
         0.26927E-02
         0.26927E-02
         0.26927E-02
         0.26927E-02
         0.26927E-02
         0.26927E-02
         0.26927E-02
         0.26927E-02
         0.26927E-02
         0.26927E-02
         0.26927E-02
         0.26927E-02
         0.26927E-02
         0.26927E-02
         0.26927E-02
         0.26927E-02
         0.26927E-02
         0.26927E-02
         0.26927E-02
         0.26927E-02
         0.26927E-02
         0.26927E-02
         0.26927E-02
         0.26927E-02
         0.26927E-02
         0.26927E-02
         0.26927E-02
         0.26927E-02
         0.26927E-02
         0.26927E-02
         0.26927E-02
         0.26927E-02
         0.26927E-02
         0.26927E-02
         0.26927E-02
         0.26927E-02
         0.26927E-02
         0.26927E-02
         0.26927E-02
         0.26927E-02
         0.26927E-02
         0.26927E-02
         0.26927E-02
         0.26927E-02
         0.26927E-02
         0.26927E-02
         0.26927E-02
         0.26927E-02
         0.26927E-02
         0.26927E-02
         0.26927E-02
         0.26927E-02
         0.26927E-02
         0.26927E-02
         0.26927E-02
         0.26927E-02
         0.26927E-02
         0.26927E-02
         0.26927E-02
         0.26927E-02
         0.26927E-02
         0.26927E-02
         0.26927E-02
         0.26927E-02
         0.26927E-02
         0.26927E-02
         0.26927E-02
         0.26927E-02
         0.26927E-02
         0.26927E-02
         0.26927E-02
         0.26927E-02
         0.26927E-02
         0.26927E-02
         0.26927E-02
         0.26927E-02
         0.26927E-02
         0.26927E-02
         0.26927E-02
         0.26927E-02
         0.26927E-02
         0.26927E-02
         0.26927E-02
         0.26927E-02
         0.26927E-02
         0.26927E-02
         0.26927E-02
         0.26927E-02
         0.26927E-02
         0.26927E-02
         0.26927E-02
         0.26927E-02
         0.26927E-02
         0.26927E-02
         0.26927E-02
         0.26927E-02
         0.26927E-02
         0.26927E-02
         0.26927E-02
         0.26927E-02
         0.26927E-02
         0.26927E-02
         0.26927E-02
         0.26927E-02
         0.26927E-02
         0.26927E-02
         0.26927E-02
         0.26927E-02
         0.26927E-02
         0.26927E-02
         0.26927E-02
         0.26927E-02
         0.26927E-02
         0.26927E-02
         0.26927E-02
         0.26927E-02
         0.26927E-02
         0.26927E-02
         0.26927E-02
         0.26927E-02
         0.26927E-02
         0.26927E-02
         0.26927E-02
         0.26927E-02
         0.26927E-02
         0.26927E-02
         0.26927E-02
         0.26927E-02
         0.26927E-02
         0.26927E-02
         0.26927E-02
         0.26927E-02
         0.26927E-02
         0.26927E-02
         0.26927E-02
         0.26927E-02
         0.26927E-02
         0.26927E-02
         0.26927E-02
         0.26927E-02
         0.26927E-02
         0.26927E-02
         0.26927E-02
         0.26927E-02
         0.26927E-02
         0.26927E-02
         0.26927E-02
         0.26927E-02
         0.26927E-02
         0.26927E-02
         0.26927E-02
         0.26927E-02
         0.26927E-02
         0.26927E-02
         0.26927E-02
         0.26927E-02
         0.26927E-02
         0.26927E-02
         0.26927E-02
         0.26927E-02
         0.26927E-02
         0.26927E-02
         0.26927E-02
         0.26927E-02
         0.26927E-02
         0.26927E-02
         0.26927E-02
         0.26927E-02
         0.26927E-02
         0.26927E-02
         0.26927E-02
         0.26927E-02
         0.26927E-02
         0.26927E-02
         0.26927E-02
         0.26927E-02
         0.26927E-02
         0.26927E-02
         0.26927E-02
         0.26927E-02
         0.26927E-02
         0.26927E-02
         0.26927E-02
         0.26927E-02
         0.26927E-02
         0.26927E-02
         0.26927E-02
         0.26927E-02
         0.26927E-02
         0.26927E-02
         0.26927E-02
         0.26927E-02
         0.26927E-02
         0.26927E-02
         0.26927E-02
         0.26927E-02
         0.26927E-02
         0.26927E-02
         0.26927E-02
         0.26927E-02
         0.26927E-02
         0.26927E-02
         0.26927E-02
         0.26927E-02
         0.26927E-02
         0.26927E-02
         0.26927E-02
         0.26927E-02
         0.26927E-02
         0.26927E-02
         0.26927E-02
         0.26927E-02
         0.26927E-02
         0.26927E-02
         0.26927E-02
         0.26927E-02
         0.26927E-02
         0.26927E-02
         0.26927E-02
         0.26927E-02
         0.26927E-02
         0.26927E-02
         0.26927E-02
         0.26927E-02
         0.26927E-02
         0.26927E-02
         0.26927E-02
         0.26927E-02
         0.26927E-02
         0.26927E-02
         0.26927E-02
         0.26927E-02
         0.26927E-02
         0.26927E-02
         0.26927E-02
         0.26927E-02
         0.26927E-02
         0.26927E-02
         0.26927E-02
         0.26927E-02
         0.26927E-02
         0.26927E-02
         0.26927E-02
         0.26927E-02
         0.26927E-02
         0.26927E-02
         0.26927E-02
         0.26927E-02
         0.26927E-02
         0.26927E-02
         0.26927E-02
         0.26927E-02
         0.26927E-02
         0.26927E-02
         0.26927E-02
         0.26927E-02
         0.26927E-02
         0.26927E-02
         0.26927E-02
         0.26927E-02
         0.26927E-02
         0.26927E-02
         0.26927E-02
         0.26927E-02
         0.26927E-02
         0.26927E-02
         0.26927E-02
         0.26927E-02
         0.26927E-02
         0.26927E-02
         0.26927E-02
         0.26927E-02
         0.26927E-02
         0.26927E-02
         0.26927E-02
         0.26927E-02
         0.26927E-02
         0.26927E-02
         0.26927E-02
         0.26927E-02
         0.26927E-02
         0.26927E-02
         0.26927E-02
         0.26927E-02
         0.26927E-02
         0.26927E-02
         0.26927E-02
         0.26927E-02
         0.26927E-02
         0.26927E-02
         0.26927E-02
         0.26927E-02
         0.26927E-02
         0.26927E-02
         0.26927E-02
         0.26927E-02
         0.26927E-02
         0.26927E-02
         0.26927E-02
         0.26927E-02
         0.26927E-02
         0.26927E-02
         0.26927E-02
         0.26927E-02
         0.26927E-02
         0.26927E-02
         0.26927E-02
         0.26927E-02
         0.26927E-02
         0.26927E-02
         0.26927E-02
         0.26927E-02
         0.26927E-02
         0.26927E-02
         0.26927E-02
         0.26927E-02
         0.26927E-02
         0.26927E-02
         0.26927E-02
         0.26927E-02
         0.26927E-02
         0.26927E-02
         0.26927E-02
         0.26927E-02
         0.26927E-02
         0.26927E-02
         0.26927E-02
         0.26927E-02
         0.26927E-02
         0.26927E-02
         0.26927E-02
         0.26927E-02
         0.26927E-02
         0.26927E-02
         0.26927E-02
         0.26927E-02
         0.26927E-02
         0.26927E-02
         0.26927E-02
         0.26927E-02
         0.26927E-02
         0.26927E-02
         0.26927E-02
         0.26927E-02
         0.26927E-02
         0.26927E-02
         0.26927E-02
         0.26927E-02
         0.26927E-02
         0.26927E-02
         0.26927E-02
         0.26927E-02
         0.26927E-02
         0.26927E-02
         0.26927E-02
         0.26927E-02
         0.26927E-02
         0.26927E-02
         0.26927E-02
         0.26927E-02
         0.26927E-02
         0.26927E-02
         0.26927E-02
         0.26927E-02
         0.26927E-02
         0.26927E-02
         0.26927E-02
         0.26927E-02
         0.26927E-02
         0.26927E-02
         0.26927E-02
         0.26927E-02
         0.26927E-02
         0.26927E-02
         0.26927E-02
         0.26927E-02
         0.26927E-02
         0.26927E-02
         0.26927E-02
         0.26927E-02
         0.26927E-02
         0.26927E-02
         0.26927E-02
         0.26927E-02
         0.26927E-02
         0.26927E-02
         0.26927E-02
         0.26927E-02
         0.26927E-02
         0.26927E-02
         0.26927E-02
         0.26927E-02
         0.26927E-02
         0.26927E-02
         0.26927E-02
         0.26927E-02
         0.26927E-02
         0.26927E-02
         0.26927E-02
         0.26927E-02
         0.26927E-02
         0.26927E-02
         0.26927E-02
         0.26927E-02
         0.26927E-02
         0.26927E-02
         0.26927E-02
         0.26927E-02
         0.26927E-02
         0.26927E-02
         0.26927E-02
         0.26927E-02
         0.26927E-02
         0.26927E-02
         0.26927E-02
         0.26927E-02
         0.26927E-02
         0.26927E-02
         0.26927E-02
         0.26927E-02
         0.26927E-02
         0.26927E-02
         0.26927E-02
         0.26927E-02
         0.26927E-02
         0.26927E-02
         0.26927E-02
         0.26927E-02
         0.26927E-02
         0.26927E-02
         0.26927E-02
         0.26927E-02
         0.26927E-02
         0.26927E-02
         0.26927E-02
         0.26927E-02
         0.26927E-02
         0.26927E-02
         0.26927E-02
         0.26927E-02
         0.26927E-02
         0.26927E-02
         0.26927E-02
         0.26927E-02
         0.26927E-02
         0.26927E-02
         0.26927E-02
         0.26927E-02
         0.26927E-02
         0.26927E-02
         0.26927E-02
         0.26927E-02
         0.26927E-02
         0.26927E-02
         0.26927E-02
         0.26927E-02
         0.26927E-02
         0.26927E-02
         0.26927E-02
         0.26927E-02
         0.26927E-02
         0.26927E-02
         0.26927E-02
         0.26927E-02
         0.26927E-02
         0.26927E-02
         0.26927E-02
         0.26927E-02
         0.26927E-02
         0.26927E-02
         0.26927E-02
         0.26927E-02
         0.26927E-02
         0.26927E-02
         0.26927E-02
         0.26927E-02
         0.26927E-02
         0.26927E-02
         0.26927E-02
         0.26927E-02
         0.26927E-02
         0.26927E-02
         0.26927E-02
         0.26927E-02
         0.26927E-02
         0.26927E-02
         0.26927E-02
         0.26927E-02
         0.26927E-02
         0.26927E-02
         0.26927E-02
         0.26927E-02
         0.26927E-02
         0.26927E-02
         0.26927E-02
         0.26927E-02
         0.26927E-02
         0.26927E-02
         0.26927E-02
         0.26927E-02
         0.26927E-02
         0.26927E-02
         0.26927E-02
         0.26927E-02
         0.26927E-02
         0.26927E-02
         0.26927E-02
         0.26927E-02
         0.26927E-02
         0.26927E-02
         0.26927E-02
         0.26927E-02
         0.26927E-02
         0.26927E-02
         0.26927E-02
         0.26927E-02
         0.26927E-02
         0.26927E-02
         0.26927E-02
         0.26927E-02
         0.26927E-02
         0.26927E-02
         0.26927E-02
         0.26927E-02
         0.26927E-02
         0.26927E-02
         0.26927E-02
         0.26927E-02
         0.26927E-02
         0.26927E-02
         0.26927E-02
         0.26927E-02
         0.26927E-02
         0.26927E-02
         0.26927E-02
         0.26927E-02
         0.26927E-02
         0.26927E-02
         0.26927E-02
         0.26927E-02
         0.26927E-02
         0.26927E-02
         0.26927E-02
         0.26927E-02
         0.26927E-02
         0.26927E-02
         0.26927E-02
         0.26927E-02
         0.26927E-02
         0.26927E-02
         0.26927E-02
         0.26927E-02
         0.26927E-02
         0.26927E-02
         0.26927E-02
         0.26927E-02
         0.26927E-02
         0.26927E-02
         0.26927E-02
         0.26927E-02
         0.26927E-02
         0.26927E-02
         0.26927E-02
         0.26927E-02
         0.26927E-02
         0.26927E-02
         0.26927E-02
         0.26927E-02
         0.26927E-02
         0.26927E-02
         0.26927E-02
         0.26927E-02
         0.26927E-02
         0.26927E-02
         0.26927E-02
         0.26927E-02
         0.26927E-02
         0.26927E-02
         0.26927E-02
         0.26927E-02
         0.26927E-02
         0.26927E-02
         0.26927E-02
         0.26927E-02
         0.26927E-02
         0.26927E-02
         0.26927E-02
         0.26927E-02
         0.26927E-02
         0.26927E-02
         0.26927E-02
         0.26927E-02
         0.26927E-02
         0.26927E-02
         0.26927E-02
         0.26927E-02
         0.26927E-02
         0.26927E-02
         0.26927E-02
         0.26927E-02
         0.26927E-02
         0.26927E-02
         0.26927E-02
         0.26927E-02
         0.26927E-02
         0.26927E-02
         0.26927E-02
         0.26927E-02
         0.26927E-02
         0.26927E-02
         0.26927E-02
         0.26927E-02
         0.26927E-02
         0.26927E-02
         0.26927E-02
         0.26927E-02
         0.26927E-02
         0.26927E-02
         0.26927E-02
         0.26927E-02
         0.26927E-02
         0.26927E-02
         0.26927E-02
         0.26927E-02
         0.26927E-02
         0.26927E-02
         0.26927E-02
         0.26927E-02
         0.26927E-02
         0.26927E-02
         0.26927E-02
         0.26927E-02
         0.26927E-02
         0.26927E-02
         0.26927E-02
         0.26927E-02
         0.26927E-02
         0.26927E-02
         0.26927E-02
         0.26927E-02
         0.26927E-02
         0.26927E-02
         0.26927E-02
         0.26927E-02
         0.26927E-02
         0.26927E-02
         0.26927E-02
         0.26927E-02
         0.26927E-02
         0.26927E-02
         0.26927E-02
         0.26927E-02
         0.26927E-02
         0.26927E-02
         0.26927E-02
         0.26927E-02
         0.26927E-02
         0.26927E-02
         0.26927E-02
         0.26927E-02
         0.26927E-02
         0.26927E-02
         0.26927E-02
         0.26927E-02
         0.26927E-02
         0.26927E-02
         0.26927E-02
         0.26927E-02
         0.26927E-02
         0.26927E-02
         0.26927E-02
         0.26927E-02
         0.26927E-02
         0.26927E-02
         0.26927E-02
         0.26927E-02
         0.26927E-02
         0.26927E-02
         0.26927E-02
         0.26927E-02
         0.26927E-02
         0.26927E-02
         0.26927E-02
         0.26927E-02
         0.26927E-02
         0.26927E-02
         0.26927E-02
         0.26927E-02
         0.26927E-02
         0.26927E-02
         0.26927E-02
         0.26927E-02
         0.26927E-02
         0.26927E-02
         0.26927E-02
         0.26927E-02
         0.26927E-02
         0.26927E-02
         0.26927E-02
         0.26927E-02
         0.26927E-02
         0.26927E-02
         0.26927E-02
         0.26927E-02
         0.26927E-02
         0.26927E-02
         0.26927E-02
         0.26927E-02
         0.26927E-02
         0.26927E-02
         0.26927E-02
         0.26927E-02
         0.26927E-02
         0.26927E-02
         0.26927E-02
         0.26927E-02
         0.26927E-02
         0.26927E-02
         0.26927E-02
         0.26927E-02
         0.26927E-02
         0.26927E-02
         0.26927E-02
         0.26927E-02
         0.26927E-02
         0.26927E-02
         0.26927E-02
         0.26927E-02
         0.26927E-02
         0.26927E-02
         0.26927E-02
         0.26927E-02
         0.26927E-02
         0.26927E-02
         0.26927E-02
         0.26927E-02
         0.26927E-02
         0.26927E-02
         0.26927E-02
         0.26927E-02
         0.26927E-02
         0.26927E-02
         0.26927E-02
         0.26927E-02
         0.26927E-02
         0.26927E-02
         0.26927E-02
         0.26927E-02
         0.26927E-02
         0.26927E-02
         0.26927E-02
         0.26927E-02
         0.26927E-02
         0.26927E-02
         0.26927E-02
         0.26927E-02
         0.26927E-02
         0.26927E-02
         0.26927E-02
         0.26927E-02
         0.26927E-02
         0.26927E-02
         0.26927E-02
         0.26927E-02
         0.26927E-02
         0.26927E-02
         0.26927E-02
         0.26927E-02
         0.26927E-02
         0.26927E-02
         0.26927E-02
         0.26927E-02
         0.26927E-02
         0.26927E-02
         0.26927E-02
         0.26927E-02
         0.26927E-02
         0.26927E-02
         0.26927E-02
         0.26927E-02
         0.26927E-02
         0.26927E-02
         0.26927E-02
         0.26927E-02
         0.26927E-02
         0.26927E-02
         0.26927E-02
         0.26927E-02
         0.26927E-02
         0.26927E-02
         0.26927E-02
         0.26927E-02
         0.26927E-02
         0.26927E-02
         0.26927E-02
         0.26927E-02
         0.26927E-02
         0.26927E-02
         0.26927E-02
         0.26927E-02
         0.26927E-02
         0.26927E-02
         0.26927E-02
         0.26927E-02
         0.26927E-02
         0.26927E-02
         0.26927E-02
         0.26927E-02
         0.26927E-02
         0.26927E-02
         0.26927E-02
         0.26927E-02
         0.26927E-02
         0.26927E-02
         0.26927E-02
         0.26927E-02
         0.26927E-02
         0.26927E-02
         0.26927E-02
         0.26927E-02
         0.26927E-02
         0.26927E-02
         0.26927E-02
         0.26927E-02
         0.26927E-02
         0.26927E-02
         0.26927E-02
         0.26927E-02
         0.26927E-02
         0.26927E-02
         0.26927E-02
         0.26927E-02
         0.26927E-02
         0.26927E-02
         0.26927E-02
         0.26927E-02
         0.26927E-02
         0.26927E-02
         0.26927E-02
         0.26927E-02
         0.26927E-02
         0.26927E-02
         0.26927E-02
         0.26927E-02
         0.26927E-02
         0.26927E-02
         0.26927E-02
         0.26927E-02
         0.26927E-02
         0.26927E-02
         0.26927E-02
         0.26927E-02
         0.26927E-02
         0.26927E-02
         0.26927E-02
         0.26927E-02
         0.26927E-02
         0.26927E-02
         0.26927E-02
         0.26927E-02
         0.26927E-02
         0.26927E-02
         0.26927E-02
         0.26927E-02
         0.26927E-02
         0.26927E-02
         0.26927E-02
         0.26927E-02
         0.26927E-02
         0.26927E-02
         0.26927E-02
         0.26927E-02
         0.26927E-02
         0.26927E-02
         0.26927E-02
         0.26927E-02
         0.26927E-02
         0.26927E-02
         0.26927E-02
         0.26927E-02
         0.26927E-02
         0.26927E-02
         0.26927E-02
         0.26927E-02
         0.26927E-02
         0.26927E-02
         0.26927E-02
         0.26927E-02
         0.26927E-02
         0.26927E-02
         0.26927E-02
         0.26927E-02
         0.26927E-02
         0.26927E-02
         0.26927E-02
         0.26927E-02
         0.26927E-02
         0.26927E-02
         0.26927E-02
         0.26927E-02
         0.26927E-02
         0.26927E-02
         0.26927E-02
         0.26927E-02
         0.26927E-02
         0.26927E-02
         0.26927E-02
         0.26927E-02
         0.26927E-02
         0.26927E-02
         0.26927E-02
         0.26927E-02
         0.26927E-02
         0.26927E-02
         0.26927E-02
         0.26927E-02
         0.26927E-02
         0.26927E-02
         0.26927E-02
         0.26927E-02
         0.26927E-02
         0.26927E-02
         0.26927E-02
         0.26927E-02
         0.26927E-02
         0.26927E-02
         0.26927E-02
         0.26927E-02
         0.26927E-02
         0.26927E-02
         0.26927E-02
         0.26927E-02
         0.26927E-02
         0.26927E-02
         0.26927E-02
         0.26927E-02
         0.26927E-02
         0.26927E-02
         0.26927E-02
         0.26927E-02
         0.26927E-02
         0.26927E-02
         0.26927E-02
         0.26927E-02
         0.26927E-02
         0.26927E-02
         0.26927E-02
         0.26927E-02
         0.26927E-02
         0.26927E-02
         0.26927E-02
         0.26927E-02
         0.26927E-02
         0.26927E-02
         0.26927E-02
         0.26927E-02
         0.26927E-02
         0.26927E-02
         0.26927E-02
         0.26927E-02
         0.26927E-02
         0.26927E-02
         0.26927E-02
         0.26927E-02
         0.26927E-02
         0.26927E-02
         0.26927E-02
         0.26927E-02
         0.26927E-02
         0.26927E-02
         0.26927E-02
         0.26927E-02
         0.26927E-02
         0.26927E-02
         0.26927E-02
         0.26927E-02
         0.26927E-02
         0.26927E-02
         0.26927E-02
         0.26927E-02
         0.26927E-02
         0.26927E-02
         0.26927E-02
         0.26927E-02
         0.26927E-02
         0.26927E-02
         0.26927E-02
         0.26927E-02
         0.26927E-02
         0.26927E-02
         0.26927E-02
         0.26927E-02
         0.26927E-02
         0.26927E-02
         0.26927E-02
         0.26927E-02
         0.26927E-02
         0.26927E-02
         0.26927E-02
         0.26927E-02
         0.26927E-02
         0.26927E-02
         0.26927E-02
         0.26927E-02
         0.26927E-02
         0.26927E-02
         0.26927E-02
         0.26927E-02
         0.26927E-02
         0.26927E-02
         0.26927E-02
         0.26927E-02
         0.26927E-02
         0.26927E-02
         0.26927E-02
         0.26927E-02
         0.26927E-02
         0.26927E-02
         0.26927E-02
         0.26927E-02
         0.26927E-02
         0.26927E-02
         0.26927E-02
         0.26927E-02
         0.26927E-02
         0.26927E-02
         0.26927E-02
         0.26927E-02
         0.26927E-02
         0.26927E-02
         0.26927E-02
         0.26927E-02
         0.26927E-02
         0.26927E-02
         0.26927E-02
         0.26927E-02
         0.26927E-02
         0.26927E-02
         0.26927E-02
         0.26927E-02
         0.26927E-02
         0.26927E-02
         0.26927E-02
         0.26927E-02
         0.26927E-02
         0.26927E-02
         0.26927E-02
         0.26927E-02
         0.26927E-02
         0.26927E-02
         0.26927E-02
         0.26927E-02
         0.26927E-02
         0.26927E-02
         0.26927E-02
         0.26927E-02
         0.26927E-02
         0.26927E-02
         0.26927E-02
         0.26927E-02
         0.26927E-02
         0.26927E-02
         0.26927E-02
         0.26927E-02
         0.26927E-02
         0.26927E-02
         0.26927E-02
         0.26927E-02
         0.26927E-02
         0.26927E-02
         0.26927E-02
         0.26927E-02
         0.26927E-02
         0.26927E-02
         0.26927E-02
         0.26927E-02
         0.26927E-02
         0.26927E-02
         0.26927E-02
         0.26927E-02
         0.26927E-02
         0.26927E-02
         0.26927E-02
         0.26927E-02
         0.26927E-02
         0.26927E-02
         0.26927E-02
         0.26927E-02
         0.26927E-02
         0.26927E-02
         0.26927E-02
         0.26927E-02
         0.26927E-02
         0.26927E-02
         0.26927E-02
         0.26927E-02
         0.26927E-02
         0.26927E-02
         0.26927E-02
         0.26927E-02
         0.26927E-02
         0.26927E-02
         0.26927E-02
         0.26927E-02
         0.26927E-02
         0.26927E-02
         0.26927E-02
         0.26927E-02
         0.26927E-02
         0.26927E-02
         0.26927E-02
         0.26927E-02
         0.26927E-02
         0.26927E-02
         0.26927E-02
         0.26927E-02
         0.26927E-02
         0.26927E-02
         0.26927E-02
         0.26927E-02
         0.26927E-02
         0.26927E-02
         0.26927E-02
         0.26927E-02
         0.26927E-02
         0.26927E-02
         0.26927E-02
         0.26927E-02
         0.26927E-02
         0.26927E-02
         0.26927E-02
         0.26927E-02
         0.26927E-02
         0.26927E-02
         0.26927E-02
         0.26927E-02
         0.26927E-02
         0.26927E-02
         0.26927E-02
         0.26927E-02
         0.26927E-02
         0.26927E-02
         0.26927E-02
         0.26927E-02
         0.26927E-02
         0.26927E-02
         0.26927E-02
         0.26927E-02
         0.26927E-02
         0.26927E-02
         0.26927E-02
         0.26927E-02
         0.26927E-02
         0.26927E-02
         0.26927E-02
         0.26927E-02
         0.26927E-02
         0.26927E-02
         0.26927E-02
         0.26927E-02
         0.26927E-02
         0.26927E-02
         0.26927E-02
         0.26927E-02
         0.26927E-02
         0.26927E-02
         0.26927E-02
         0.26927E-02
         0.26927E-02
         0.26927E-02
         0.26927E-02
         0.26927E-02
         0.26927E-02
         0.26927E-02
         0.26927E-02
         0.26927E-02
         0.26927E-02
         0.26927E-02
         0.26927E-02
         0.26927E-02
         0.26927E-02
         0.26927E-02
         0.26927E-02
         0.26927E-02
         0.26927E-02
         0.26927E-02
         0.26927E-02
         0.26927E-02
         0.26927E-02
         0.26927E-02
         0.26927E-02
         0.26927E-02
         0.26927E-02
         0.26927E-02
         0.26927E-02
         0.26927E-02
         0.26927E-02
         0.26927E-02
         0.26927E-02
         0.26927E-02
         0.26927E-02
         0.26927E-02
         0.26927E-02
         0.26927E-02
         0.26927E-02
         0.26927E-02
         0.26927E-02
         0.26927E-02
         0.26927E-02
         0.26927E-02
         0.26927E-02
         0.26927E-02
         0.26927E-02
         0.26927E-02
         0.26927E-02
         0.26927E-02
         0.26927E-02
         0.26927E-02
         0.26927E-02
         0.26927E-02
         0.26927E-02
         0.26927E-02
         0.26927E-02
         0.26927E-02
         0.26927E-02
         0.26927E-02
         0.26927E-02
         0.26927E-02
         0.26927E-02
         0.26927E-02
         0.26927E-02
         0.26927E-02
         0.26927E-02
         0.26927E-02
         0.26927E-02
         0.26927E-02
         0.26927E-02
         0.26927E-02
         0.26927E-02
         0.26927E-02
         0.26927E-02
         0.26927E-02
         0.26927E-02
         0.26927E-02
         0.26927E-02
         0.26927E-02
         0.26927E-02
         0.26927E-02
         0.26927E-02
         0.26927E-02
         0.26927E-02
         0.26927E-02
         0.26927E-02
         0.26927E-02
         0.26927E-02
         0.26927E-02
         0.26927E-02
         0.26927E-02
         0.26927E-02
         0.26927E-02
         0.26927E-02
         0.26927E-02
         0.26927E-02
         0.26927E-02
         0.26927E-02
         0.26927E-02
         0.26927E-02
         0.26927E-02
         0.26927E-02
         0.26927E-02
         0.26927E-02
         0.26927E-02
         0.26927E-02
         0.26927E-02
         0.26927E-02
         0.26927E-02
         0.26927E-02
         0.26927E-02
         0.26927E-02
         0.26927E-02
         0.26927E-02
         0.26927E-02
         0.26927E-02
         0.26927E-02
         0.26927E-02
         0.26927E-02
         0.26927E-02
         0.26927E-02
         0.26927E-02
         0.26927E-02
         0.26927E-02
         0.26927E-02
         0.26927E-02
         0.26927E-02
         0.26927E-02
         0.26927E-02
         0.26927E-02
         0.26927E-02
         0.26927E-02
         0.26927E-02
         0.26927E-02
         0.26927E-02
         0.26927E-02
         0.26927E-02
         0.26927E-02
         0.26927E-02
         0.26927E-02
         0.26927E-02
         0.26927E-02
         0.26927E-02
         0.26927E-02
         0.26927E-02
         0.26927E-02
         0.26927E-02
         0.26927E-02
         0.26927E-02
         0.26927E-02
         0.26927E-02
         0.26927E-02
         0.26927E-02
         0.26927E-02
         0.26927E-02
         0.26927E-02
         0.26927E-02
         0.26927E-02
         0.26927E-02
         0.26927E-02
         0.26927E-02
         0.26927E-02
         0.26927E-02
         0.26927E-02
         0.26927E-02
         0.26927E-02
         0.26927E-02
         0.26927E-02
         0.26927E-02
         0.26927E-02
         0.26927E-02
         0.26927E-02
         0.26927E-02
         0.26927E-02
         0.26927E-02
         0.26927E-02
         0.26927E-02
         0.26927E-02
         0.26927E-02
         0.26927E-02
         0.26927E-02
         0.26927E-02
         0.26927E-02
         0.26927E-02
         0.26927E-02
         0.26927E-02
         0.26927E-02
         0.26927E-02
         0.26927E-02
         0.26927E-02
         0.26927E-02
         0.26927E-02
         0.26927E-02
         0.26927E-02
         0.26927E-02
         0.26927E-02
         0.26927E-02
         0.26927E-02
         0.26927E-02
         0.26927E-02
         0.26927E-02
         0.26927E-02
         0.26927E-02
         0.26927E-02
         0.26927E-02
         0.26927E-02
         0.26927E-02
         0.26927E-02
         0.26927E-02
         0.26927E-02
         0.26927E-02
         0.26927E-02
         0.26927E-02
         0.26927E-02
         0.26927E-02
         0.26927E-02
         0.26927E-02
         0.26927E-02
         0.26927E-02
         0.26927E-02
         0.26927E-02
         0.26927E-02
         0.26927E-02
         0.26927E-02
         0.26927E-02
         0.26927E-02
         0.26927E-02
         0.26927E-02
         0.26927E-02
         0.26927E-02
         0.26927E-02
         0.26927E-02
         0.26927E-02
         0.26927E-02
         0.26927E-02
         0.26927E-02
         0.26927E-02
         0.26927E-02
         0.26927E-02
         0.26927E-02
         0.26927E-02
         0.26927E-02
         0.26927E-02
         0.26927E-02
         0.26927E-02
         0.26927E-02
         0.26927E-02
         0.26927E-02
         0.26927E-02
         0.26927E-02
         0.26927E-02
         0.26927E-02
         0.26927E-02
         0.26927E-02
         0.26927E-02
         0.26927E-02
         0.26927E-02
         0.26927E-02
         0.26927E-02
         0.26927E-02
         0.26927E-02
         0.26927E-02
         0.26927E-02
         0.26927E-02
         0.26927E-02
         0.26927E-02
         0.26927E-02
         0.26927E-02
         0.26927E-02
         0.26927E-02
         0.26927E-02
         0.26927E-02
         0.26927E-02
         0.26927E-02
         0.26927E-02
         0.26927E-02
         0.26927E-02
         0.26927E-02
         0.26927E-02
         0.26927E-02
         0.26927E-02
         0.26927E-02
         0.26927E-02
         0.26927E-02
         0.26927E-02
         0.26927E-02
         0.26927E-02
         0.26927E-02
         0.26927E-02
         0.26927E-02
         0.26927E-02
         0.26927E-02
         0.26927E-02
         0.26927E-02
         0.26928E-02
         0.26928E-02
         0.26928E-02
         0.26928E-02
         0.26928E-02
         0.26928E-02
         0.26928E-02
         0.26928E-02
         0.26928E-02
         0.26928E-02
         0.26928E-02
         0.26928E-02
         0.26928E-02
         0.26928E-02
         0.26928E-02
         0.26928E-02
         0.26928E-02
         0.26928E-02
         0.26928E-02
         0.26928E-02
         0.26928E-02
         0.26928E-02
         0.26928E-02
         0.26928E-02
         0.26928E-02
         0.26928E-02
         0.26928E-02
         0.26928E-02
         0.26928E-02
         0.26928E-02
         0.26928E-02
         0.26928E-02
         0.26928E-02
         0.26928E-02
         0.26928E-02
         0.26928E-02
         0.26928E-02
         0.26928E-02
         0.26928E-02
         0.26928E-02
         0.26928E-02
         0.26928E-02
         0.26928E-02
         0.26928E-02
         0.26928E-02
         0.26928E-02
         0.26928E-02
         0.26928E-02
         0.26928E-02
         0.26928E-02
         0.26928E-02
         0.26928E-02
         0.26928E-02
         0.26928E-02
         0.26928E-02
         0.26928E-02
         0.26928E-02
         0.26928E-02
         0.26928E-02
         0.26928E-02
         0.26928E-02
         0.26928E-02
         0.26928E-02
         0.26928E-02
         0.26928E-02
         0.26928E-02
         0.26928E-02
         0.26928E-02
         0.26928E-02
         0.26928E-02
         0.26928E-02
         0.26928E-02
         0.26928E-02
         0.26928E-02
         0.26928E-02
         0.26928E-02
         0.26928E-02
         0.26928E-02
         0.26928E-02
         0.26928E-02
         0.26928E-02
         0.26928E-02
         0.26928E-02
         0.26928E-02
         0.26928E-02
         0.26928E-02
         0.26928E-02
         0.26928E-02
         0.26928E-02
         0.26928E-02
         0.26928E-02
         0.26928E-02
         0.26928E-02
         0.26928E-02
         0.26928E-02
         0.26928E-02
         0.26928E-02
         0.26928E-02
         0.26928E-02
         0.26928E-02
         0.26928E-02
         0.26928E-02
         0.26928E-02
         0.26928E-02
         0.26928E-02
         0.26928E-02
         0.26928E-02
         0.26928E-02
         0.26928E-02
         0.26928E-02
         0.26928E-02
         0.26928E-02
         0.26928E-02
         0.26928E-02
         0.26928E-02
         0.26928E-02
         0.26928E-02
         0.26928E-02
         0.26928E-02
         0.26928E-02
         0.26928E-02
         0.26928E-02
         0.26928E-02
         0.26928E-02
         0.26928E-02
         0.26928E-02
         0.26928E-02
         0.26928E-02
         0.26928E-02
         0.26928E-02
         0.26928E-02
         0.26928E-02
         0.26928E-02
         0.26928E-02
         0.26928E-02
         0.26928E-02
         0.26928E-02
         0.26928E-02
         0.26928E-02
         0.26928E-02
         0.26928E-02
         0.26928E-02
         0.26928E-02
         0.26928E-02
         0.26928E-02
         0.26928E-02
         0.26928E-02
         0.26928E-02
         0.26928E-02
         0.26928E-02
         0.26928E-02
         0.26928E-02
         0.26928E-02
         0.26928E-02
         0.26928E-02
         0.26928E-02
  
SCALARS                   nodal_volume  double 1
LOOKUP_TABLE default
         0.91140E-09
         0.72412E-09
         0.77574E-09
         0.13316E-08
         0.45570E-09
         0.36211E-09
         0.38787E-09
         0.66566E-09
         0.71537E-09
         0.91211E-09
         0.35767E-09
         0.45600E-09
         0.51195E-09
         0.61532E-09
         0.25605E-09
         0.30776E-09
         0.10101E-08
         0.74536E-09
         0.50500E-09
         0.37281E-09
         0.30273E-09
         0.57012E-09
         0.62699E-09
         0.15144E-09
         0.28509E-09
         0.31352E-09
         0.51329E-09
         0.64933E-09
         0.25683E-09
         0.32471E-09
         0.12026E-08
         0.93909E-09
         0.11935E-08
         0.60122E-09
         0.46945E-09
         0.59663E-09
         0.70296E-09
         0.80270E-09
         0.35149E-09
         0.40134E-09
         0.75859E-09
         0.84013E-09
         0.37932E-09
         0.42007E-09
         0.64542E-09
         0.40086E-09
         0.32274E-09
         0.20045E-09
         0.76288E-09
         0.38153E-09
         0.63346E-09
         0.31675E-09
         0.66583E-09
         0.33318E-09
         0.68008E-09
         0.34022E-09
         0.58930E-09
         0.71738E-09
         0.29472E-09
         0.35874E-09
         0.90938E-09
         0.64302E-09
         0.45469E-09
         0.32154E-09
         0.10152E-08
         0.50747E-09
         0.88120E-09
         0.44042E-09
         0.40077E-09
         0.61872E-09
         0.20039E-09
         0.30940E-09
         0.70206E-09
         0.35106E-09
         0.74172E-09
         0.37089E-09
         0.71539E-09
         0.35770E-09
         0.56226E-09
         0.28113E-09
         0.35349E-09
         0.58452E-09
         0.17675E-09
         0.29229E-09
         0.77354E-09
         0.38679E-09
         0.62469E-09
         0.31238E-09
         0.54957E-09
         0.27483E-09
         0.36009E-09
         0.61365E-09
         0.18007E-09
         0.30685E-09
         0.83268E-09
         0.41635E-09
         0.87287E-09
         0.43642E-09
         0.70438E-09
         0.35217E-09
         0.43365E-09
         0.74413E-09
         0.21683E-09
         0.37198E-09
         0.27660E-09
         0.35144E-09
         0.13833E-09
         0.17573E-09
         0.32921E-09
         0.16465E-09
         0.38764E-09
         0.19382E-09
         0.37797E-09
         0.18897E-09
         0.36707E-09
         0.18352E-09
         0.39112E-09
         0.19552E-09
         0.41268E-09
         0.20627E-09
         0.38876E-09
         0.19433E-09
         0.30402E-09
         0.15200E-09
         0.24796E-09
         0.12398E-09
         0.31999E-09
         0.16000E-09
         0.42608E-09
         0.21303E-09
         0.46805E-09
         0.23401E-09
         0.44933E-09
         0.22466E-09
         0.40550E-09
         0.20276E-09
         0.36826E-09
         0.18414E-09
         0.29911E-09
         0.14956E-09
         0.25178E-09
         0.12591E-09
         0.32888E-09
         0.16445E-09
         0.43529E-09
         0.21765E-09
         0.44963E-09
         0.22482E-09
         0.36384E-09
         0.18194E-09
         0.29543E-09
         0.14774E-09
         0.36126E-09
         0.18063E-09
         0.42771E-09
         0.21386E-09
         0.91143E-09
         0.72396E-09
         0.77579E-09
         0.13322E-08
         0.71547E-09
         0.91237E-09
         0.51167E-09
         0.61494E-09
         0.10105E-08
         0.74486E-09
         0.30244E-09
         0.57001E-09
         0.62694E-09
         0.51257E-09
         0.64918E-09
         0.12029E-08
         0.93950E-09
         0.11941E-08
         0.70298E-09
         0.80279E-09
         0.75855E-09
         0.84015E-09
         0.64535E-09
         0.40081E-09
         0.76254E-09
         0.63339E-09
         0.66483E-09
         0.67941E-09
         0.58904E-09
         0.71721E-09
         0.90946E-09
         0.64293E-09
         0.10157E-08
         0.88199E-09
         0.40076E-09
         0.61859E-09
         0.70195E-09
         0.74166E-09
         0.71543E-09
         0.56228E-09
         0.35349E-09
         0.58443E-09
         0.77349E-09
         0.62459E-09
         0.54943E-09
         0.35999E-09
         0.61359E-09
         0.83268E-09
         0.87299E-09
         0.70451E-09
         0.43366E-09
         0.74449E-09
         0.27651E-09
         0.35143E-09
         0.32904E-09
         0.38765E-09
         0.37805E-09
         0.36714E-09
         0.39129E-09
         0.41297E-09
         0.38899E-09
         0.30408E-09
         0.24798E-09
         0.31999E-09
         0.42613E-09
         0.46815E-09
         0.44938E-09
         0.40548E-09
         0.36823E-09
         0.29908E-09
         0.25174E-09
         0.32885E-09
         0.43527E-09
         0.44962E-09
         0.36376E-09
         0.29536E-09
         0.36130E-09
         0.42769E-09
         0.91151E-09
         0.72383E-09
         0.77587E-09
         0.13329E-08
         0.71560E-09
         0.91267E-09
         0.51142E-09
         0.61459E-09
         0.10109E-08
         0.74439E-09
         0.30216E-09
         0.56992E-09
         0.62691E-09
         0.51187E-09
         0.64906E-09
         0.12033E-08
         0.93995E-09
         0.11947E-08
         0.70302E-09
         0.80291E-09
         0.75853E-09
         0.84020E-09
         0.64530E-09
         0.40078E-09
         0.76223E-09
         0.63335E-09
         0.66385E-09
         0.67875E-09
         0.58880E-09
         0.71706E-09
         0.90957E-09
         0.64286E-09
         0.10162E-08
         0.88281E-09
         0.40076E-09
         0.61849E-09
         0.70188E-09
         0.74162E-09
         0.71550E-09
         0.56232E-09
         0.35350E-09
         0.58436E-09
         0.77347E-09
         0.62452E-09
         0.54931E-09
         0.35990E-09
         0.61355E-09
         0.83270E-09
         0.87315E-09
         0.70467E-09
         0.43368E-09
         0.74487E-09
         0.27643E-09
         0.35143E-09
         0.32889E-09
         0.38767E-09
         0.37814E-09
         0.36723E-09
         0.39147E-09
         0.41328E-09
         0.38923E-09
         0.30416E-09
         0.24800E-09
         0.32001E-09
         0.42620E-09
         0.46826E-09
         0.44944E-09
         0.40548E-09
         0.36821E-09
         0.29906E-09
         0.25171E-09
         0.32883E-09
         0.43527E-09
         0.44963E-09
         0.36369E-09
         0.29530E-09
         0.36135E-09
         0.42769E-09
         0.91156E-09
         0.72368E-09
         0.77594E-09
         0.13335E-08
         0.71571E-09
         0.91295E-09
         0.51115E-09
         0.61422E-09
         0.10112E-08
         0.74389E-09
         0.30187E-09
         0.56982E-09
         0.62686E-09
         0.51116E-09
         0.64892E-09
         0.12036E-08
         0.94038E-09
         0.11953E-08
         0.70304E-09
         0.80300E-09
         0.75850E-09
         0.84023E-09
         0.64523E-09
         0.40073E-09
         0.76190E-09
         0.63330E-09
         0.66285E-09
         0.67809E-09
         0.58855E-09
         0.71689E-09
         0.90966E-09
         0.64278E-09
         0.10168E-08
         0.88361E-09
         0.40076E-09
         0.61837E-09
         0.70178E-09
         0.74156E-09
         0.71554E-09
         0.56234E-09
         0.35350E-09
         0.58428E-09
         0.77343E-09
         0.62442E-09
         0.54918E-09
         0.35981E-09
         0.61349E-09
         0.83271E-09
         0.87328E-09
         0.70481E-09
         0.43369E-09
         0.74524E-09
         0.27634E-09
         0.35142E-09
         0.32873E-09
         0.38768E-09
         0.37823E-09
         0.36731E-09
         0.39163E-09
         0.41358E-09
         0.38945E-09
         0.30422E-09
         0.24802E-09
         0.32001E-09
         0.42625E-09
         0.46837E-09
         0.44949E-09
         0.40546E-09
         0.36819E-09
         0.29904E-09
         0.25167E-09
         0.32881E-09
         0.43526E-09
         0.44963E-09
         0.36362E-09
         0.29523E-09
         0.36139E-09
         0.42768E-09
         0.91161E-09
         0.72353E-09
         0.77600E-09
         0.13341E-08
         0.71583E-09
         0.91323E-09
         0.51088E-09
         0.61386E-09
         0.10116E-08
         0.74341E-09
         0.30158E-09
         0.56972E-09
         0.62682E-09
         0.51045E-09
         0.64879E-09
         0.12040E-08
         0.94081E-09
         0.11959E-08
         0.70307E-09
         0.80310E-09
         0.75847E-09
         0.84027E-09
         0.64517E-09
         0.40069E-09
         0.76158E-09
         0.63325E-09
         0.66186E-09
         0.67742E-09
         0.58831E-09
         0.71673E-09
         0.90975E-09
         0.64270E-09
         0.10173E-08
         0.88441E-09
         0.40075E-09
         0.61825E-09
         0.70169E-09
         0.74151E-09
         0.71559E-09
         0.56237E-09
         0.35350E-09
         0.58420E-09
         0.77339E-09
         0.62433E-09
         0.54905E-09
         0.35972E-09
         0.61344E-09
         0.83272E-09
         0.87341E-09
         0.70496E-09
         0.43370E-09
         0.74562E-09
         0.27626E-09
         0.35142E-09
         0.32857E-09
         0.38770E-09
         0.37832E-09
         0.36739E-09
         0.39181E-09
         0.41387E-09
         0.38968E-09
         0.30429E-09
         0.24804E-09
         0.32002E-09
         0.42631E-09
         0.46847E-09
         0.44954E-09
         0.40545E-09
         0.36816E-09
         0.29901E-09
         0.25163E-09
         0.32878E-09
         0.43525E-09
         0.44963E-09
         0.36354E-09
         0.29517E-09
         0.36144E-09
         0.42766E-09
         0.91167E-09
         0.72338E-09
         0.77607E-09
         0.13348E-08
         0.71594E-09
         0.91351E-09
         0.51062E-09
         0.61349E-09
         0.10119E-08
         0.74292E-09
         0.30129E-09
         0.56962E-09
         0.62678E-09
         0.50974E-09
         0.64865E-09
         0.12044E-08
         0.94125E-09
         0.11965E-08
         0.70310E-09
         0.80321E-09
         0.75844E-09
         0.84031E-09
         0.64511E-09
         0.40065E-09
         0.76125E-09
         0.63320E-09
         0.66087E-09
         0.67676E-09
         0.58806E-09
         0.71657E-09
         0.90984E-09
         0.64263E-09
         0.10179E-08
         0.88522E-09
         0.40075E-09
         0.61813E-09
         0.70160E-09
         0.74146E-09
         0.71564E-09
         0.56240E-09
         0.35350E-09
         0.58412E-09
         0.77336E-09
         0.62425E-09
         0.54892E-09
         0.35963E-09
         0.61339E-09
         0.83274E-09
         0.87355E-09
         0.70511E-09
         0.43371E-09
         0.74599E-09
         0.27618E-09
         0.35141E-09
         0.32841E-09
         0.38771E-09
         0.37841E-09
         0.36747E-09
         0.39198E-09
         0.41417E-09
         0.38992E-09
         0.30436E-09
         0.24806E-09
         0.32003E-09
         0.42637E-09
         0.46858E-09
         0.44960E-09
         0.40544E-09
         0.36814E-09
         0.29899E-09
         0.25159E-09
         0.32876E-09
         0.43525E-09
         0.44963E-09
         0.36347E-09
         0.29511E-09
         0.36148E-09
         0.42766E-09
         0.91171E-09
         0.72323E-09
         0.77613E-09
         0.13354E-08
         0.71606E-09
         0.91379E-09
         0.51035E-09
         0.61313E-09
         0.10123E-08
         0.74243E-09
         0.30101E-09
         0.56952E-09
         0.62674E-09
         0.50903E-09
         0.64851E-09
         0.12047E-08
         0.94167E-09
         0.11971E-08
         0.70312E-09
         0.80331E-09
         0.75840E-09
         0.84034E-09
         0.64504E-09
         0.40061E-09
         0.76092E-09
         0.63314E-09
         0.65988E-09
         0.67609E-09
         0.58781E-09
         0.71641E-09
         0.90993E-09
         0.64255E-09
         0.10184E-08
         0.88601E-09
         0.40075E-09
         0.61801E-09
         0.70151E-09
         0.74140E-09
         0.71569E-09
         0.56243E-09
         0.35350E-09
         0.58404E-09
         0.77332E-09
         0.62416E-09
         0.54879E-09
         0.35953E-09
         0.61334E-09
         0.83274E-09
         0.87368E-09
         0.70525E-09
         0.43372E-09
         0.74636E-09
         0.27609E-09
         0.35141E-09
         0.32825E-09
         0.38772E-09
         0.37849E-09
         0.36754E-09
         0.39215E-09
         0.41447E-09
         0.39014E-09
         0.30443E-09
         0.24808E-09
         0.32004E-09
         0.42642E-09
         0.46868E-09
         0.44965E-09
         0.40543E-09
         0.36812E-09
         0.29897E-09
         0.25155E-09
         0.32874E-09
         0.43524E-09
         0.44963E-09
         0.36340E-09
         0.29504E-09
         0.36153E-09
         0.42764E-09
         0.91176E-09
         0.72308E-09
         0.77620E-09
         0.13360E-08
         0.71617E-09
         0.91407E-09
         0.51008E-09
         0.61276E-09
         0.10126E-08
         0.74195E-09
         0.30072E-09
         0.56942E-09
         0.62670E-09
         0.50832E-09
         0.64838E-09
         0.12051E-08
         0.94210E-09
         0.11977E-08
         0.70314E-09
         0.80341E-09
         0.75837E-09
         0.84038E-09
         0.64498E-09
         0.40056E-09
         0.76060E-09
         0.63309E-09
         0.65888E-09
         0.67542E-09
         0.58756E-09
         0.71624E-09
         0.91002E-09
         0.64247E-09
         0.10189E-08
         0.88682E-09
         0.40074E-09
         0.61790E-09
         0.70142E-09
         0.74135E-09
         0.71574E-09
         0.56245E-09
         0.35351E-09
         0.58396E-09
         0.77328E-09
         0.62407E-09
         0.54866E-09
         0.35944E-09
         0.61329E-09
         0.83275E-09
         0.87382E-09
         0.70539E-09
         0.43373E-09
         0.74673E-09
         0.27601E-09
         0.35140E-09
         0.32809E-09
         0.38774E-09
         0.37858E-09
         0.36762E-09
         0.39232E-09
         0.41477E-09
         0.39037E-09
         0.30450E-09
         0.24810E-09
         0.32005E-09
         0.42648E-09
         0.46879E-09
         0.44970E-09
         0.40541E-09
         0.36809E-09
         0.29894E-09
         0.25151E-09
         0.32871E-09
         0.43523E-09
         0.44963E-09
         0.36333E-09
         0.29497E-09
         0.36157E-09
         0.42763E-09
         0.91182E-09
         0.72293E-09
         0.77627E-09
         0.13367E-08
         0.71629E-09
         0.91436E-09
         0.50982E-09
         0.61240E-09
         0.10130E-08
         0.74146E-09
         0.30043E-09
         0.56932E-09
         0.62666E-09
         0.50762E-09
         0.64825E-09
         0.12054E-08
         0.94253E-09
         0.11983E-08
         0.70317E-09
         0.80351E-09
         0.75834E-09
         0.84041E-09
         0.64491E-09
         0.40053E-09
         0.76028E-09
         0.63304E-09
         0.65790E-09
         0.67476E-09
         0.58731E-09
         0.71609E-09
         0.91012E-09
         0.64239E-09
         0.10195E-08
         0.88762E-09
         0.40074E-09
         0.61778E-09
         0.70133E-09
         0.74130E-09
         0.71579E-09
         0.56249E-09
         0.35351E-09
         0.58388E-09
         0.77324E-09
         0.62398E-09
         0.54853E-09
         0.35935E-09
         0.61324E-09
         0.83277E-09
         0.87396E-09
         0.70554E-09
         0.43375E-09
         0.74711E-09
         0.27592E-09
         0.35140E-09
         0.32793E-09
         0.38775E-09
         0.37867E-09
         0.36770E-09
         0.39249E-09
         0.41507E-09
         0.39061E-09
         0.30457E-09
         0.24812E-09
         0.32006E-09
         0.42654E-09
         0.46890E-09
         0.44975E-09
         0.40540E-09
         0.36807E-09
         0.29892E-09
         0.25148E-09
         0.32869E-09
         0.43522E-09
         0.44963E-09
         0.36325E-09
         0.29491E-09
         0.36162E-09
         0.42762E-09
         0.91187E-09
         0.72278E-09
         0.77633E-09
         0.13373E-08
         0.71640E-09
         0.91463E-09
         0.50955E-09
         0.61204E-09
         0.10134E-08
         0.74098E-09
         0.30015E-09
         0.56922E-09
         0.62662E-09
         0.50691E-09
         0.64811E-09
         0.12058E-08
         0.94296E-09
         0.11989E-08
         0.70320E-09
         0.80361E-09
         0.75831E-09
         0.84045E-09
         0.64485E-09
         0.40048E-09
         0.75995E-09
         0.63298E-09
         0.65690E-09
         0.67409E-09
         0.58706E-09
         0.71592E-09
         0.91020E-09
         0.64231E-09
         0.10200E-08
         0.88843E-09
         0.40074E-09
         0.61766E-09
         0.70124E-09
         0.74124E-09
         0.71584E-09
         0.56251E-09
         0.35351E-09
         0.58380E-09
         0.77320E-09
         0.62389E-09
         0.54840E-09
         0.35926E-09
         0.61318E-09
         0.83277E-09
         0.87409E-09
         0.70568E-09
         0.43376E-09
         0.74748E-09
         0.27584E-09
         0.35139E-09
         0.32777E-09
         0.38777E-09
         0.37876E-09
         0.36778E-09
         0.39266E-09
         0.41536E-09
         0.39084E-09
         0.30464E-09
         0.24814E-09
         0.32006E-09
         0.42659E-09
         0.46900E-09
         0.44980E-09
         0.40539E-09
         0.36805E-09
         0.29890E-09
         0.25144E-09
         0.32867E-09
         0.43521E-09
         0.44963E-09
         0.36318E-09
         0.29485E-09
         0.36166E-09
         0.42761E-09
         0.91192E-09
         0.72263E-09
         0.77640E-09
         0.13380E-08
         0.71652E-09
         0.91491E-09
         0.50928E-09
         0.61167E-09
         0.10137E-08
         0.74049E-09
         0.29986E-09
         0.56912E-09
         0.62657E-09
         0.50620E-09
         0.64797E-09
         0.12061E-08
         0.94339E-09
         0.11995E-08
         0.70322E-09
         0.80371E-09
         0.75827E-09
         0.84048E-09
         0.64478E-09
         0.40044E-09
         0.75962E-09
         0.63293E-09
         0.65591E-09
         0.67343E-09
         0.58681E-09
         0.71576E-09
         0.91029E-09
         0.64223E-09
         0.10205E-08
         0.88923E-09
         0.40073E-09
         0.61754E-09
         0.70114E-09
         0.74119E-09
         0.71588E-09
         0.56254E-09
         0.35351E-09
         0.58372E-09
         0.77316E-09
         0.62380E-09
         0.54827E-09
         0.35917E-09
         0.61313E-09
         0.83278E-09
         0.87422E-09
         0.70582E-09
         0.43377E-09
         0.74785E-09
         0.27575E-09
         0.35138E-09
         0.32761E-09
         0.38778E-09
         0.37885E-09
         0.36786E-09
         0.39283E-09
         0.41566E-09
         0.39107E-09
         0.30470E-09
         0.24816E-09
         0.32007E-09
         0.42665E-09
         0.46911E-09
         0.44985E-09
         0.40538E-09
         0.36802E-09
         0.29887E-09
         0.25140E-09
         0.32864E-09
         0.43520E-09
         0.44963E-09
         0.36310E-09
         0.29478E-09
         0.36170E-09
         0.42760E-09
         0.91198E-09
         0.72248E-09
         0.77646E-09
         0.13386E-08
         0.71663E-09
         0.91520E-09
         0.50901E-09
         0.61131E-09
         0.10141E-08
         0.74000E-09
         0.29957E-09
         0.56902E-09
         0.62653E-09
         0.50549E-09
         0.64784E-09
         0.12065E-08
         0.94382E-09
         0.12002E-08
         0.70325E-09
         0.80381E-09
         0.75824E-09
         0.84052E-09
         0.64472E-09
         0.40040E-09
         0.75929E-09
         0.63288E-09
         0.65492E-09
         0.67276E-09
         0.58657E-09
         0.71560E-09
         0.91038E-09
         0.64216E-09
         0.10211E-08
         0.89003E-09
         0.40073E-09
         0.61742E-09
         0.70105E-09
         0.74114E-09
         0.71593E-09
         0.56257E-09
         0.35351E-09
         0.58364E-09
         0.77313E-09
         0.62371E-09
         0.54814E-09
         0.35908E-09
         0.61308E-09
         0.83280E-09
         0.87436E-09
         0.70597E-09
         0.43378E-09
         0.74823E-09
         0.27567E-09
         0.35138E-09
         0.32745E-09
         0.38779E-09
         0.37893E-09
         0.36794E-09
         0.39300E-09
         0.41596E-09
         0.39130E-09
         0.30477E-09
         0.24818E-09
         0.32008E-09
         0.42671E-09
         0.46921E-09
         0.44991E-09
         0.40537E-09
         0.36800E-09
         0.29885E-09
         0.25136E-09
         0.32862E-09
         0.43520E-09
         0.44963E-09
         0.36303E-09
         0.29472E-09
         0.36175E-09
         0.42759E-09
         0.91203E-09
         0.72233E-09
         0.77653E-09
         0.13392E-08
         0.71675E-09
         0.91547E-09
         0.50875E-09
         0.61094E-09
         0.10144E-08
         0.73952E-09
         0.29928E-09
         0.56892E-09
         0.62649E-09
         0.50478E-09
         0.64770E-09
         0.12068E-08
         0.94424E-09
         0.12008E-08
         0.70327E-09
         0.80391E-09
         0.75821E-09
         0.84055E-09
         0.64465E-09
         0.40035E-09
         0.75896E-09
         0.63282E-09
         0.65393E-09
         0.67210E-09
         0.58632E-09
         0.71543E-09
         0.91047E-09
         0.64208E-09
         0.10216E-08
         0.89084E-09
         0.40073E-09
         0.61730E-09
         0.70096E-09
         0.74108E-09
         0.71598E-09
         0.56259E-09
         0.35351E-09
         0.58356E-09
         0.77309E-09
         0.62362E-09
         0.54801E-09
         0.35898E-09
         0.61303E-09
         0.83281E-09
         0.87449E-09
         0.70611E-09
         0.43379E-09
         0.74860E-09
         0.27558E-09
         0.35137E-09
         0.32729E-09
         0.38781E-09
         0.37902E-09
         0.36802E-09
         0.39317E-09
         0.41625E-09
         0.39153E-09
         0.30484E-09
         0.24820E-09
         0.32009E-09
         0.42677E-09
         0.46932E-09
         0.44996E-09
         0.40536E-09
         0.36798E-09
         0.29883E-09
         0.25132E-09
         0.32859E-09
         0.43519E-09
         0.44963E-09
         0.36296E-09
         0.29465E-09
         0.36179E-09
         0.42758E-09
         0.91208E-09
         0.72218E-09
         0.77659E-09
         0.13399E-08
         0.71686E-09
         0.91576E-09
         0.50848E-09
         0.61058E-09
         0.10148E-08
         0.73903E-09
         0.29900E-09
         0.56882E-09
         0.62645E-09
         0.50408E-09
         0.64757E-09
         0.12072E-08
         0.94467E-09
         0.12014E-08
         0.70330E-09
         0.80401E-09
         0.75818E-09
         0.84059E-09
         0.64459E-09
         0.40031E-09
         0.75864E-09
         0.63277E-09
         0.65294E-09
         0.67143E-09
         0.58607E-09
         0.71527E-09
         0.91057E-09
         0.64200E-09
         0.10221E-08
         0.89164E-09
         0.40072E-09
         0.61719E-09
         0.70087E-09
         0.74103E-09
         0.71603E-09
         0.56262E-09
         0.35352E-09
         0.58348E-09
         0.77305E-09
         0.62354E-09
         0.54788E-09
         0.35889E-09
         0.61298E-09
         0.83282E-09
         0.87463E-09
         0.70626E-09
         0.43380E-09
         0.74897E-09
         0.27550E-09
         0.35137E-09
         0.32713E-09
         0.38782E-09
         0.37911E-09
         0.36810E-09
         0.39334E-09
         0.41655E-09
         0.39176E-09
         0.30491E-09
         0.24822E-09
         0.32010E-09
         0.42682E-09
         0.46942E-09
         0.45001E-09
         0.40534E-09
         0.36796E-09
         0.29881E-09
         0.25128E-09
         0.32857E-09
         0.43518E-09
         0.44963E-09
         0.36288E-09
         0.29459E-09
         0.36184E-09
         0.42757E-09
         0.91214E-09
         0.72204E-09
         0.77666E-09
         0.13405E-08
         0.71698E-09
         0.91604E-09
         0.50822E-09
         0.61022E-09
         0.10151E-08
         0.73855E-09
         0.29871E-09
         0.56872E-09
         0.62641E-09
         0.50337E-09
         0.64743E-09
         0.12075E-08
         0.94510E-09
         0.12020E-08
         0.70333E-09
         0.80411E-09
         0.75815E-09
         0.84063E-09
         0.64453E-09
         0.40027E-09
         0.75831E-09
         0.63272E-09
         0.65196E-09
         0.67077E-09
         0.58582E-09
         0.71511E-09
         0.91066E-09
         0.64192E-09
         0.10227E-08
         0.89245E-09
         0.40072E-09
         0.61707E-09
         0.70078E-09
         0.74098E-09
         0.71608E-09
         0.56265E-09
         0.35352E-09
         0.58340E-09
         0.77301E-09
         0.62345E-09
         0.54775E-09
         0.35880E-09
         0.61293E-09
         0.83283E-09
         0.87476E-09
         0.70641E-09
         0.43382E-09
         0.74935E-09
         0.27541E-09
         0.35136E-09
         0.32697E-09
         0.38784E-09
         0.37920E-09
         0.36818E-09
         0.39352E-09
         0.41685E-09
         0.39199E-09
         0.30498E-09
         0.24824E-09
         0.32011E-09
         0.42688E-09
         0.46953E-09
         0.45007E-09
         0.40533E-09
         0.36793E-09
         0.29878E-09
         0.25124E-09
         0.32855E-09
         0.43517E-09
         0.44963E-09
         0.36281E-09
         0.29452E-09
         0.36188E-09
         0.42756E-09
         0.91219E-09
         0.72188E-09
         0.77672E-09
         0.13412E-08
         0.71709E-09
         0.91632E-09
         0.50795E-09
         0.60986E-09
         0.10155E-08
         0.73806E-09
         0.29842E-09
         0.56862E-09
         0.62636E-09
         0.50266E-09
         0.64730E-09
         0.12079E-08
         0.94552E-09
         0.12026E-08
         0.70335E-09
         0.80421E-09
         0.75811E-09
         0.84066E-09
         0.64446E-09
         0.40023E-09
         0.75798E-09
         0.63267E-09
         0.65096E-09
         0.67010E-09
         0.58557E-09
         0.71494E-09
         0.91074E-09
         0.64184E-09
         0.10232E-08
         0.89325E-09
         0.40072E-09
         0.61695E-09
         0.70069E-09
         0.74092E-09
         0.71612E-09
         0.56268E-09
         0.35352E-09
         0.58332E-09
         0.77297E-09
         0.62336E-09
         0.54762E-09
         0.35871E-09
         0.61287E-09
         0.83284E-09
         0.87489E-09
         0.70655E-09
         0.43383E-09
         0.74972E-09
         0.27533E-09
         0.35136E-09
         0.32681E-09
         0.38785E-09
         0.37929E-09
         0.36825E-09
         0.39369E-09
         0.41715E-09
         0.39222E-09
         0.30505E-09
         0.24826E-09
         0.32011E-09
         0.42694E-09
         0.46963E-09
         0.45011E-09
         0.40532E-09
         0.36791E-09
         0.29876E-09
         0.25120E-09
         0.32853E-09
         0.43516E-09
         0.44962E-09
         0.36274E-09
         0.29445E-09
         0.36192E-09
         0.42755E-09
         0.91224E-09
         0.72173E-09
         0.77679E-09
         0.13418E-08
         0.71720E-09
         0.91660E-09
         0.50768E-09
         0.60949E-09
         0.10158E-08
         0.73758E-09
         0.29814E-09
         0.56852E-09
         0.62632E-09
         0.50195E-09
         0.64716E-09
         0.12082E-08
         0.94595E-09
         0.12032E-08
         0.70337E-09
         0.80431E-09
         0.75808E-09
         0.84069E-09
         0.64440E-09
         0.40018E-09
         0.75766E-09
         0.63262E-09
         0.64998E-09
         0.66943E-09
         0.58532E-09
         0.71478E-09
         0.91083E-09
         0.64176E-09
         0.10238E-08
         0.89406E-09
         0.40071E-09
         0.61683E-09
         0.70059E-09
         0.74087E-09
         0.71617E-09
         0.56270E-09
         0.35352E-09
         0.58324E-09
         0.77294E-09
         0.62327E-09
         0.54749E-09
         0.35861E-09
         0.61282E-09
         0.83284E-09
         0.87503E-09
         0.70669E-09
         0.43384E-09
         0.75009E-09
         0.27524E-09
         0.35135E-09
         0.32665E-09
         0.38786E-09
         0.37937E-09
         0.36833E-09
         0.39386E-09
         0.41745E-09
         0.39245E-09
         0.30512E-09
         0.24828E-09
         0.32012E-09
         0.42699E-09
         0.46974E-09
         0.45017E-09
         0.40531E-09
         0.36788E-09
         0.29873E-09
         0.25117E-09
         0.32850E-09
         0.43515E-09
         0.44962E-09
         0.36266E-09
         0.29439E-09
         0.36197E-09
         0.42754E-09
         0.91230E-09
         0.72159E-09
         0.77686E-09
         0.13425E-08
         0.71732E-09
         0.91688E-09
         0.50742E-09
         0.60913E-09
         0.10162E-08
         0.73710E-09
         0.29785E-09
         0.56842E-09
         0.62628E-09
         0.50125E-09
         0.64703E-09
         0.12086E-08
         0.94638E-09
         0.12038E-08
         0.70340E-09
         0.80441E-09
         0.75805E-09
         0.84073E-09
         0.64433E-09
         0.40014E-09
         0.75733E-09
         0.63257E-09
         0.64899E-09
         0.66877E-09
         0.58508E-09
         0.71462E-09
         0.91093E-09
         0.64169E-09
         0.10243E-08
         0.89487E-09
         0.40071E-09
         0.61671E-09
         0.70051E-09
         0.74082E-09
         0.71622E-09
         0.56273E-09
         0.35352E-09
         0.58316E-09
         0.77290E-09
         0.62318E-09
         0.54737E-09
         0.35852E-09
         0.61277E-09
         0.83286E-09
         0.87517E-09
         0.70684E-09
         0.43385E-09
         0.75047E-09
         0.27516E-09
         0.35135E-09
         0.32649E-09
         0.38788E-09
         0.37946E-09
         0.36841E-09
         0.39403E-09
         0.41775E-09
         0.39268E-09
         0.30519E-09
         0.24830E-09
         0.32013E-09
         0.42705E-09
         0.46985E-09
         0.45022E-09
         0.40530E-09
         0.36786E-09
         0.29871E-09
         0.25113E-09
         0.32848E-09
         0.43515E-09
         0.44962E-09
         0.36259E-09
         0.29433E-09
         0.36201E-09
         0.42753E-09
         0.91235E-09
         0.72143E-09
         0.77692E-09
         0.13431E-08
         0.71743E-09
         0.91716E-09
         0.50715E-09
         0.60877E-09
         0.10165E-08
         0.73661E-09
         0.29757E-09
         0.56832E-09
         0.62624E-09
         0.50054E-09
         0.64689E-09
         0.12089E-08
         0.94680E-09
         0.12044E-08
         0.70342E-09
         0.80450E-09
         0.75802E-09
         0.84076E-09
         0.64427E-09
         0.40010E-09
         0.75700E-09
         0.63251E-09
         0.64800E-09
         0.66810E-09
         0.58482E-09
         0.71445E-09
         0.91101E-09
         0.64161E-09
         0.10248E-08
         0.89567E-09
         0.40071E-09
         0.61659E-09
         0.70041E-09
         0.74077E-09
         0.71627E-09
         0.56276E-09
         0.35352E-09
         0.58308E-09
         0.77286E-09
         0.62309E-09
         0.54723E-09
         0.35843E-09
         0.61272E-09
         0.83287E-09
         0.87530E-09
         0.70698E-09
         0.43386E-09
         0.75084E-09
         0.27507E-09
         0.35134E-09
         0.32633E-09
         0.38789E-09
         0.37955E-09
         0.36849E-09
         0.39420E-09
         0.41804E-09
         0.39291E-09
         0.30525E-09
         0.24832E-09
         0.32014E-09
         0.42711E-09
         0.46995E-09
         0.45027E-09
         0.40528E-09
         0.36784E-09
         0.29869E-09
         0.25109E-09
         0.32845E-09
         0.43514E-09
         0.44962E-09
         0.36252E-09
         0.29426E-09
         0.36206E-09
         0.42751E-09
         0.91240E-09
         0.72128E-09
         0.77698E-09
         0.13437E-08
         0.71755E-09
         0.91744E-09
         0.50688E-09
         0.60841E-09
         0.10169E-08
         0.73612E-09
         0.29728E-09
         0.56822E-09
         0.62619E-09
         0.49984E-09
         0.64676E-09
         0.12093E-08
         0.94723E-09
         0.12050E-08
         0.70345E-09
         0.80460E-09
         0.75798E-09
         0.84080E-09
         0.64420E-09
         0.40006E-09
         0.75667E-09
         0.63246E-09
         0.64701E-09
         0.66744E-09
         0.58457E-09
         0.71429E-09
         0.91110E-09
         0.64153E-09
         0.10254E-08
         0.89648E-09
         0.40070E-09
         0.61647E-09
         0.70032E-09
         0.74071E-09
         0.71632E-09
         0.56279E-09
         0.35353E-09
         0.58300E-09
         0.77282E-09
         0.62300E-09
         0.54710E-09
         0.35834E-09
         0.61266E-09
         0.83288E-09
         0.87543E-09
         0.70713E-09
         0.43387E-09
         0.75122E-09
         0.27499E-09
         0.35133E-09
         0.32617E-09
         0.38790E-09
         0.37964E-09
         0.36857E-09
         0.39437E-09
         0.41834E-09
         0.39314E-09
         0.30532E-09
         0.24834E-09
         0.32014E-09
         0.42716E-09
         0.47005E-09
         0.45032E-09
         0.40527E-09
         0.36781E-09
         0.29866E-09
         0.25105E-09
         0.32843E-09
         0.43513E-09
         0.44962E-09
         0.36244E-09
         0.29419E-09
         0.36210E-09
         0.42750E-09
         0.91246E-09
         0.72114E-09
         0.77705E-09
         0.13444E-08
         0.71767E-09
         0.91773E-09
         0.50662E-09
         0.60805E-09
         0.10173E-08
         0.73564E-09
         0.29700E-09
         0.56812E-09
         0.62616E-09
         0.49914E-09
         0.64663E-09
         0.12097E-08
         0.94766E-09
         0.12056E-08
         0.70348E-09
         0.80471E-09
         0.75796E-09
         0.84084E-09
         0.64414E-09
         0.40002E-09
         0.75635E-09
         0.63241E-09
         0.64603E-09
         0.66678E-09
         0.58433E-09
         0.71413E-09
         0.91120E-09
         0.64146E-09
         0.10259E-08
         0.89729E-09
         0.40070E-09
         0.61636E-09
         0.70023E-09
         0.74067E-09
         0.71637E-09
         0.56282E-09
         0.35353E-09
         0.58293E-09
         0.77279E-09
         0.62291E-09
         0.54698E-09
         0.35825E-09
         0.61261E-09
         0.83289E-09
         0.87557E-09
         0.70728E-09
         0.43389E-09
         0.75160E-09
         0.27491E-09
         0.35133E-09
         0.32601E-09
         0.38792E-09
         0.37972E-09
         0.36865E-09
         0.39454E-09
         0.41864E-09
         0.39337E-09
         0.30539E-09
         0.24836E-09
         0.32015E-09
         0.42722E-09
         0.47016E-09
         0.45038E-09
         0.40526E-09
         0.36779E-09
         0.29864E-09
         0.25101E-09
         0.32841E-09
         0.43512E-09
         0.44962E-09
         0.36237E-09
         0.29413E-09
         0.36215E-09
         0.42750E-09
         0.91249E-09
         0.72097E-09
         0.77710E-09
         0.13450E-08
         0.71777E-09
         0.91799E-09
         0.50634E-09
         0.60767E-09
         0.10176E-08
         0.73514E-09
         0.29670E-09
         0.56801E-09
         0.62610E-09
         0.49842E-09
         0.64648E-09
         0.12100E-08
         0.94806E-09
         0.12062E-08
         0.70349E-09
         0.80479E-09
         0.75791E-09
         0.84086E-09
         0.64406E-09
         0.39997E-09
         0.75600E-09
         0.63234E-09
         0.64503E-09
         0.66610E-09
         0.58407E-09
         0.71395E-09
         0.91127E-09
         0.64136E-09
         0.10264E-08
         0.89808E-09
         0.40069E-09
         0.61622E-09
         0.70012E-09
         0.74060E-09
         0.71641E-09
         0.56283E-09
         0.35352E-09
         0.58283E-09
         0.77273E-09
         0.62281E-09
         0.54684E-09
         0.35815E-09
         0.61255E-09
         0.83288E-09
         0.87569E-09
         0.70741E-09
         0.43389E-09
         0.75195E-09
         0.27482E-09
         0.35132E-09
         0.32584E-09
         0.38793E-09
         0.37980E-09
         0.36872E-09
         0.39470E-09
         0.41893E-09
         0.39360E-09
         0.30545E-09
         0.24837E-09
         0.32016E-09
         0.42727E-09
         0.47026E-09
         0.45042E-09
         0.40524E-09
         0.36776E-09
         0.29861E-09
         0.25097E-09
         0.32838E-09
         0.43510E-09
         0.44961E-09
         0.36229E-09
         0.29406E-09
         0.36218E-09
         0.42748E-09
         0.91256E-09
         0.72083E-09
         0.77718E-09
         0.13457E-08
         0.71789E-09
         0.91829E-09
         0.50608E-09
         0.60732E-09
         0.10180E-08
         0.73467E-09
         0.29642E-09
         0.56792E-09
         0.62607E-09
         0.49772E-09
         0.64636E-09
         0.12103E-08
         0.94850E-09
         0.12068E-08
         0.70352E-09
         0.80490E-09
         0.75789E-09
         0.84091E-09
         0.64401E-09
         0.39993E-09
         0.75569E-09
         0.63230E-09
         0.64405E-09
         0.66544E-09
         0.58382E-09
         0.71379E-09
         0.91137E-09
         0.64129E-09
         0.10270E-08
         0.89890E-09
         0.40069E-09
         0.61611E-09
         0.70004E-09
         0.74056E-09
         0.71646E-09
         0.56287E-09
         0.35353E-09
         0.58276E-09
         0.77271E-09
         0.62273E-09
         0.54672E-09
         0.35806E-09
         0.61251E-09
         0.83291E-09
         0.87583E-09
         0.70756E-09
         0.43391E-09
         0.75234E-09
         0.27474E-09
         0.35132E-09
         0.32569E-09
         0.38794E-09
         0.37990E-09
         0.36881E-09
         0.39488E-09
         0.41923E-09
         0.39383E-09
         0.30553E-09
         0.24840E-09
         0.32017E-09
         0.42734E-09
         0.47037E-09
         0.45048E-09
         0.40524E-09
         0.36774E-09
         0.29859E-09
         0.25093E-09
         0.32836E-09
         0.43510E-09
         0.44962E-09
         0.36222E-09
         0.29400E-09
         0.36223E-09
         0.42747E-09
         0.45631E-09
         0.36039E-09
         0.38862E-09
         0.67302E-09
         0.35899E-09
         0.45923E-09
         0.25298E-09
         0.30358E-09
         0.50909E-09
         0.36723E-09
         0.14815E-09
         0.28394E-09
         0.31303E-09
         0.24869E-09
         0.32316E-09
         0.60528E-09
         0.47437E-09
         0.60357E-09
         0.35178E-09
         0.40249E-09
         0.37895E-09
         0.42048E-09
         0.32200E-09
         0.19996E-09
         0.37777E-09
         0.31615E-09
         0.32179E-09
         0.33257E-09
         0.29186E-09
         0.35687E-09
         0.45572E-09
         0.32064E-09
         0.51365E-09
         0.44967E-09
         0.20035E-09
         0.30804E-09
         0.35001E-09
         0.37028E-09
         0.35826E-09
         0.28145E-09
         0.17677E-09
         0.29137E-09
         0.38636E-09
         0.31135E-09
         0.27333E-09
         0.17901E-09
         0.30625E-09
         0.41647E-09
         0.43797E-09
         0.35383E-09
         0.21697E-09
         0.37628E-09
         0.13735E-09
         0.17566E-09
         0.16281E-09
         0.19398E-09
         0.18998E-09
         0.18443E-09
         0.19749E-09
         0.20970E-09
         0.19698E-09
         0.15279E-09
         0.12421E-09
         0.16009E-09
         0.21369E-09
         0.23522E-09
         0.22526E-09
         0.20262E-09
         0.18387E-09
         0.14930E-09
         0.12546E-09
         0.16418E-09
         0.21756E-09
         0.22482E-09
         0.18110E-09
         0.14699E-09
         0.18113E-09
         0.21374E-09
  
SCALARS               pre_disp_force_x  double 1
LOOKUP_TABLE default
         0.00000E+00
         0.00000E+00
         0.00000E+00
         0.00000E+00
         0.00000E+00
         0.00000E+00
         0.00000E+00
         0.00000E+00
         0.00000E+00
         0.00000E+00
         0.00000E+00
         0.00000E+00
         0.00000E+00
         0.00000E+00
         0.00000E+00
         0.00000E+00
         0.00000E+00
         0.00000E+00
         0.00000E+00
         0.00000E+00
         0.00000E+00
         0.00000E+00
         0.00000E+00
         0.00000E+00
         0.00000E+00
         0.00000E+00
         0.00000E+00
         0.00000E+00
         0.00000E+00
         0.00000E+00
         0.00000E+00
         0.00000E+00
         0.00000E+00
         0.00000E+00
         0.00000E+00
         0.00000E+00
         0.00000E+00
         0.00000E+00
         0.00000E+00
         0.00000E+00
         0.00000E+00
         0.00000E+00
         0.00000E+00
         0.00000E+00
         0.00000E+00
         0.00000E+00
         0.00000E+00
         0.00000E+00
         0.00000E+00
         0.00000E+00
         0.00000E+00
         0.00000E+00
         0.00000E+00
         0.00000E+00
         0.00000E+00
         0.00000E+00
         0.00000E+00
         0.00000E+00
         0.00000E+00
         0.00000E+00
         0.00000E+00
         0.00000E+00
         0.00000E+00
         0.00000E+00
         0.00000E+00
         0.00000E+00
         0.00000E+00
         0.00000E+00
         0.00000E+00
         0.00000E+00
         0.00000E+00
         0.00000E+00
         0.00000E+00
         0.00000E+00
         0.00000E+00
         0.00000E+00
         0.00000E+00
         0.00000E+00
         0.00000E+00
         0.00000E+00
         0.00000E+00
         0.00000E+00
         0.00000E+00
         0.00000E+00
         0.00000E+00
         0.00000E+00
         0.00000E+00
         0.00000E+00
         0.00000E+00
         0.00000E+00
         0.00000E+00
         0.00000E+00
         0.00000E+00
         0.00000E+00
         0.00000E+00
         0.00000E+00
         0.00000E+00
         0.00000E+00
         0.00000E+00
         0.00000E+00
         0.00000E+00
         0.00000E+00
         0.00000E+00
         0.00000E+00
         0.00000E+00
         0.00000E+00
         0.00000E+00
         0.00000E+00
         0.00000E+00
         0.00000E+00
         0.00000E+00
         0.00000E+00
         0.00000E+00
         0.00000E+00
         0.00000E+00
         0.00000E+00
         0.00000E+00
         0.00000E+00
         0.00000E+00
         0.00000E+00
         0.00000E+00
         0.00000E+00
         0.00000E+00
         0.00000E+00
         0.00000E+00
         0.00000E+00
         0.00000E+00
         0.00000E+00
         0.00000E+00
         0.00000E+00
         0.00000E+00
         0.00000E+00
         0.00000E+00
         0.00000E+00
         0.00000E+00
         0.00000E+00
         0.00000E+00
         0.00000E+00
         0.00000E+00
         0.00000E+00
         0.00000E+00
         0.00000E+00
         0.00000E+00
         0.00000E+00
         0.00000E+00
         0.00000E+00
         0.00000E+00
         0.00000E+00
         0.00000E+00
         0.00000E+00
         0.00000E+00
         0.00000E+00
         0.00000E+00
         0.00000E+00
         0.00000E+00
         0.00000E+00
         0.00000E+00
         0.00000E+00
         0.00000E+00
         0.00000E+00
         0.00000E+00
         0.00000E+00
         0.00000E+00
         0.00000E+00
         0.00000E+00
         0.00000E+00
         0.00000E+00
         0.00000E+00
         0.00000E+00
         0.00000E+00
         0.00000E+00
         0.00000E+00
         0.00000E+00
         0.00000E+00
         0.00000E+00
         0.00000E+00
         0.00000E+00
         0.00000E+00
         0.00000E+00
         0.00000E+00
         0.00000E+00
         0.00000E+00
         0.00000E+00
         0.00000E+00
         0.00000E+00
         0.00000E+00
         0.00000E+00
         0.00000E+00
         0.00000E+00
         0.00000E+00
         0.00000E+00
         0.00000E+00
         0.00000E+00
         0.00000E+00
         0.00000E+00
         0.00000E+00
         0.00000E+00
         0.00000E+00
         0.00000E+00
         0.00000E+00
         0.00000E+00
         0.00000E+00
         0.00000E+00
         0.00000E+00
         0.00000E+00
         0.00000E+00
         0.00000E+00
         0.00000E+00
         0.00000E+00
         0.00000E+00
         0.00000E+00
         0.00000E+00
         0.00000E+00
         0.00000E+00
         0.00000E+00
         0.00000E+00
         0.00000E+00
         0.00000E+00
         0.00000E+00
         0.00000E+00
         0.00000E+00
         0.00000E+00
         0.00000E+00
         0.00000E+00
         0.00000E+00
         0.00000E+00
         0.00000E+00
         0.00000E+00
         0.00000E+00
         0.00000E+00
         0.00000E+00
         0.00000E+00
         0.00000E+00
         0.00000E+00
         0.00000E+00
         0.00000E+00
         0.00000E+00
         0.00000E+00
         0.00000E+00
         0.00000E+00
         0.00000E+00
         0.00000E+00
         0.00000E+00
         0.00000E+00
         0.00000E+00
         0.00000E+00
         0.00000E+00
         0.00000E+00
         0.00000E+00
         0.00000E+00
         0.00000E+00
         0.00000E+00
         0.00000E+00
         0.00000E+00
         0.00000E+00
         0.00000E+00
         0.00000E+00
         0.00000E+00
         0.00000E+00
         0.00000E+00
         0.00000E+00
         0.00000E+00
         0.00000E+00
         0.00000E+00
         0.00000E+00
         0.00000E+00
         0.00000E+00
         0.00000E+00
         0.00000E+00
         0.00000E+00
         0.00000E+00
         0.00000E+00
         0.00000E+00
         0.00000E+00
         0.00000E+00
         0.00000E+00
         0.00000E+00
         0.00000E+00
         0.00000E+00
         0.00000E+00
         0.00000E+00
         0.00000E+00
         0.00000E+00
         0.00000E+00
         0.00000E+00
         0.00000E+00
         0.00000E+00
         0.00000E+00
         0.00000E+00
         0.00000E+00
         0.00000E+00
         0.00000E+00
         0.00000E+00
         0.00000E+00
         0.00000E+00
         0.00000E+00
         0.00000E+00
         0.00000E+00
         0.00000E+00
         0.00000E+00
         0.00000E+00
         0.00000E+00
         0.00000E+00
         0.00000E+00
         0.00000E+00
         0.00000E+00
         0.00000E+00
         0.00000E+00
         0.00000E+00
         0.00000E+00
         0.00000E+00
         0.00000E+00
         0.00000E+00
         0.00000E+00
         0.00000E+00
         0.00000E+00
         0.00000E+00
         0.00000E+00
         0.00000E+00
         0.00000E+00
         0.00000E+00
         0.00000E+00
         0.00000E+00
         0.00000E+00
         0.00000E+00
         0.00000E+00
         0.00000E+00
         0.00000E+00
         0.00000E+00
         0.00000E+00
         0.00000E+00
         0.00000E+00
         0.00000E+00
         0.00000E+00
         0.00000E+00
         0.00000E+00
         0.00000E+00
         0.00000E+00
         0.00000E+00
         0.00000E+00
         0.00000E+00
         0.00000E+00
         0.00000E+00
         0.00000E+00
         0.00000E+00
         0.00000E+00
         0.00000E+00
         0.00000E+00
         0.00000E+00
         0.00000E+00
         0.00000E+00
         0.00000E+00
         0.00000E+00
         0.00000E+00
         0.00000E+00
         0.00000E+00
         0.00000E+00
         0.00000E+00
         0.00000E+00
         0.00000E+00
         0.00000E+00
         0.00000E+00
         0.00000E+00
         0.00000E+00
         0.00000E+00
         0.00000E+00
         0.00000E+00
         0.00000E+00
         0.00000E+00
         0.00000E+00
         0.00000E+00
         0.00000E+00
         0.00000E+00
         0.00000E+00
         0.00000E+00
         0.00000E+00
         0.00000E+00
         0.00000E+00
         0.00000E+00
         0.00000E+00
         0.00000E+00
         0.00000E+00
         0.00000E+00
         0.00000E+00
         0.00000E+00
         0.00000E+00
         0.00000E+00
         0.00000E+00
         0.00000E+00
         0.00000E+00
         0.00000E+00
         0.00000E+00
         0.00000E+00
         0.00000E+00
         0.00000E+00
         0.00000E+00
         0.00000E+00
         0.00000E+00
         0.00000E+00
         0.00000E+00
         0.00000E+00
         0.00000E+00
         0.00000E+00
         0.00000E+00
         0.00000E+00
         0.00000E+00
         0.00000E+00
         0.00000E+00
         0.00000E+00
         0.00000E+00
         0.00000E+00
         0.00000E+00
         0.00000E+00
         0.00000E+00
         0.00000E+00
         0.00000E+00
         0.00000E+00
         0.00000E+00
         0.00000E+00
         0.00000E+00
         0.00000E+00
         0.00000E+00
         0.00000E+00
         0.00000E+00
         0.00000E+00
         0.00000E+00
         0.00000E+00
         0.00000E+00
         0.00000E+00
         0.00000E+00
         0.00000E+00
         0.00000E+00
         0.00000E+00
         0.00000E+00
         0.00000E+00
         0.00000E+00
         0.00000E+00
         0.00000E+00
         0.00000E+00
         0.00000E+00
         0.00000E+00
         0.00000E+00
         0.00000E+00
         0.00000E+00
         0.00000E+00
         0.00000E+00
         0.00000E+00
         0.00000E+00
         0.00000E+00
         0.00000E+00
         0.00000E+00
         0.00000E+00
         0.00000E+00
         0.00000E+00
         0.00000E+00
         0.00000E+00
         0.00000E+00
         0.00000E+00
         0.00000E+00
         0.00000E+00
         0.00000E+00
         0.00000E+00
         0.00000E+00
         0.00000E+00
         0.00000E+00
         0.00000E+00
         0.00000E+00
         0.00000E+00
         0.00000E+00
         0.00000E+00
         0.00000E+00
         0.00000E+00
         0.00000E+00
         0.00000E+00
         0.00000E+00
         0.00000E+00
         0.00000E+00
         0.00000E+00
         0.00000E+00
         0.00000E+00
         0.00000E+00
         0.00000E+00
         0.00000E+00
         0.00000E+00
         0.00000E+00
         0.00000E+00
         0.00000E+00
         0.00000E+00
         0.00000E+00
         0.00000E+00
         0.00000E+00
         0.00000E+00
         0.00000E+00
         0.00000E+00
         0.00000E+00
         0.00000E+00
         0.00000E+00
         0.00000E+00
         0.00000E+00
         0.00000E+00
         0.00000E+00
         0.00000E+00
         0.00000E+00
         0.00000E+00
         0.00000E+00
         0.00000E+00
         0.00000E+00
         0.00000E+00
         0.00000E+00
         0.00000E+00
         0.00000E+00
         0.00000E+00
         0.00000E+00
         0.00000E+00
         0.00000E+00
         0.00000E+00
         0.00000E+00
         0.00000E+00
         0.00000E+00
         0.00000E+00
         0.00000E+00
         0.00000E+00
         0.00000E+00
         0.00000E+00
         0.00000E+00
         0.00000E+00
         0.00000E+00
         0.00000E+00
         0.00000E+00
         0.00000E+00
         0.00000E+00
         0.00000E+00
         0.00000E+00
         0.00000E+00
         0.00000E+00
         0.00000E+00
         0.00000E+00
         0.00000E+00
         0.00000E+00
         0.00000E+00
         0.00000E+00
         0.00000E+00
         0.00000E+00
         0.00000E+00
         0.00000E+00
         0.00000E+00
         0.00000E+00
         0.00000E+00
         0.00000E+00
         0.00000E+00
         0.00000E+00
         0.00000E+00
         0.00000E+00
         0.00000E+00
         0.00000E+00
         0.00000E+00
         0.00000E+00
         0.00000E+00
         0.00000E+00
         0.00000E+00
         0.00000E+00
         0.00000E+00
         0.00000E+00
         0.00000E+00
         0.00000E+00
         0.00000E+00
         0.00000E+00
         0.00000E+00
         0.00000E+00
         0.00000E+00
         0.00000E+00
         0.00000E+00
         0.00000E+00
         0.00000E+00
         0.00000E+00
         0.00000E+00
         0.00000E+00
         0.00000E+00
         0.00000E+00
         0.00000E+00
         0.00000E+00
         0.00000E+00
         0.00000E+00
         0.00000E+00
         0.00000E+00
         0.00000E+00
         0.00000E+00
         0.00000E+00
         0.00000E+00
         0.00000E+00
         0.00000E+00
         0.00000E+00
         0.00000E+00
         0.00000E+00
         0.00000E+00
         0.00000E+00
         0.00000E+00
         0.00000E+00
         0.00000E+00
         0.00000E+00
         0.00000E+00
         0.00000E+00
         0.00000E+00
         0.00000E+00
         0.00000E+00
         0.00000E+00
         0.00000E+00
         0.00000E+00
         0.00000E+00
         0.00000E+00
         0.00000E+00
         0.00000E+00
         0.00000E+00
         0.00000E+00
         0.00000E+00
         0.00000E+00
         0.00000E+00
         0.00000E+00
         0.00000E+00
         0.00000E+00
         0.00000E+00
         0.00000E+00
         0.00000E+00
         0.00000E+00
         0.00000E+00
         0.00000E+00
         0.00000E+00
         0.00000E+00
         0.00000E+00
         0.00000E+00
         0.00000E+00
         0.00000E+00
         0.00000E+00
         0.00000E+00
         0.00000E+00
         0.00000E+00
         0.00000E+00
         0.00000E+00
         0.00000E+00
         0.00000E+00
         0.00000E+00
         0.00000E+00
         0.00000E+00
         0.00000E+00
         0.00000E+00
         0.00000E+00
         0.00000E+00
         0.00000E+00
         0.00000E+00
         0.00000E+00
         0.00000E+00
         0.00000E+00
         0.00000E+00
         0.00000E+00
         0.00000E+00
         0.00000E+00
         0.00000E+00
         0.00000E+00
         0.00000E+00
         0.00000E+00
         0.00000E+00
         0.00000E+00
         0.00000E+00
         0.00000E+00
         0.00000E+00
         0.00000E+00
         0.00000E+00
         0.00000E+00
         0.00000E+00
         0.00000E+00
         0.00000E+00
         0.00000E+00
         0.00000E+00
         0.00000E+00
         0.00000E+00
         0.00000E+00
         0.00000E+00
         0.00000E+00
         0.00000E+00
         0.00000E+00
         0.00000E+00
         0.00000E+00
         0.00000E+00
         0.00000E+00
         0.00000E+00
         0.00000E+00
         0.00000E+00
         0.00000E+00
         0.00000E+00
         0.00000E+00
         0.00000E+00
         0.00000E+00
         0.00000E+00
         0.00000E+00
         0.00000E+00
         0.00000E+00
         0.00000E+00
         0.00000E+00
         0.00000E+00
         0.00000E+00
         0.00000E+00
         0.00000E+00
         0.00000E+00
         0.00000E+00
         0.00000E+00
         0.00000E+00
         0.00000E+00
         0.00000E+00
         0.00000E+00
         0.00000E+00
         0.00000E+00
         0.00000E+00
         0.00000E+00
         0.00000E+00
         0.00000E+00
         0.00000E+00
         0.00000E+00
         0.00000E+00
         0.00000E+00
         0.00000E+00
         0.00000E+00
         0.00000E+00
         0.00000E+00
         0.00000E+00
         0.00000E+00
         0.00000E+00
         0.00000E+00
         0.00000E+00
         0.00000E+00
         0.00000E+00
         0.00000E+00
         0.00000E+00
         0.00000E+00
         0.00000E+00
         0.00000E+00
         0.00000E+00
         0.00000E+00
         0.00000E+00
         0.00000E+00
         0.00000E+00
         0.00000E+00
         0.00000E+00
         0.00000E+00
         0.00000E+00
         0.00000E+00
         0.00000E+00
         0.00000E+00
         0.00000E+00
         0.00000E+00
         0.00000E+00
         0.00000E+00
         0.00000E+00
         0.00000E+00
         0.00000E+00
         0.00000E+00
         0.00000E+00
         0.00000E+00
         0.00000E+00
         0.00000E+00
         0.00000E+00
         0.00000E+00
         0.00000E+00
         0.00000E+00
         0.00000E+00
         0.00000E+00
         0.00000E+00
         0.00000E+00
         0.00000E+00
         0.00000E+00
         0.00000E+00
         0.00000E+00
         0.00000E+00
         0.00000E+00
         0.00000E+00
         0.00000E+00
         0.00000E+00
         0.00000E+00
         0.00000E+00
         0.00000E+00
         0.00000E+00
         0.00000E+00
         0.00000E+00
         0.00000E+00
         0.00000E+00
         0.00000E+00
         0.00000E+00
         0.00000E+00
         0.00000E+00
         0.00000E+00
         0.00000E+00
         0.00000E+00
         0.00000E+00
         0.00000E+00
         0.00000E+00
         0.00000E+00
         0.00000E+00
         0.00000E+00
         0.00000E+00
         0.00000E+00
         0.00000E+00
         0.00000E+00
         0.00000E+00
         0.00000E+00
         0.00000E+00
         0.00000E+00
         0.00000E+00
         0.00000E+00
         0.00000E+00
         0.00000E+00
         0.00000E+00
         0.00000E+00
         0.00000E+00
         0.00000E+00
         0.00000E+00
         0.00000E+00
         0.00000E+00
         0.00000E+00
         0.00000E+00
         0.00000E+00
         0.00000E+00
         0.00000E+00
         0.00000E+00
         0.00000E+00
         0.00000E+00
         0.00000E+00
         0.00000E+00
         0.00000E+00
         0.00000E+00
         0.00000E+00
         0.00000E+00
         0.00000E+00
         0.00000E+00
         0.00000E+00
         0.00000E+00
         0.00000E+00
         0.00000E+00
         0.00000E+00
         0.00000E+00
         0.00000E+00
         0.00000E+00
         0.00000E+00
         0.00000E+00
         0.00000E+00
         0.00000E+00
         0.00000E+00
         0.00000E+00
         0.00000E+00
         0.00000E+00
         0.00000E+00
         0.00000E+00
         0.00000E+00
         0.00000E+00
         0.00000E+00
         0.00000E+00
         0.00000E+00
         0.00000E+00
         0.00000E+00
         0.00000E+00
         0.00000E+00
         0.00000E+00
         0.00000E+00
         0.00000E+00
         0.00000E+00
         0.00000E+00
         0.00000E+00
         0.00000E+00
         0.00000E+00
         0.00000E+00
         0.00000E+00
         0.00000E+00
         0.00000E+00
         0.00000E+00
         0.00000E+00
         0.00000E+00
         0.00000E+00
         0.00000E+00
         0.00000E+00
         0.00000E+00
         0.00000E+00
         0.00000E+00
         0.00000E+00
         0.00000E+00
         0.00000E+00
         0.00000E+00
         0.00000E+00
         0.00000E+00
         0.00000E+00
         0.00000E+00
         0.00000E+00
         0.00000E+00
         0.00000E+00
         0.00000E+00
         0.00000E+00
         0.00000E+00
         0.00000E+00
         0.00000E+00
         0.00000E+00
         0.00000E+00
         0.00000E+00
         0.00000E+00
         0.00000E+00
         0.00000E+00
         0.00000E+00
         0.00000E+00
         0.00000E+00
         0.00000E+00
         0.00000E+00
         0.00000E+00
         0.00000E+00
         0.00000E+00
         0.00000E+00
         0.00000E+00
         0.00000E+00
         0.00000E+00
         0.00000E+00
         0.00000E+00
         0.00000E+00
         0.00000E+00
         0.00000E+00
         0.00000E+00
         0.00000E+00
         0.00000E+00
         0.00000E+00
         0.00000E+00
         0.00000E+00
         0.00000E+00
         0.00000E+00
         0.00000E+00
         0.00000E+00
         0.00000E+00
         0.00000E+00
         0.00000E+00
         0.00000E+00
         0.00000E+00
         0.00000E+00
         0.00000E+00
         0.00000E+00
         0.00000E+00
         0.00000E+00
         0.00000E+00
         0.00000E+00
         0.00000E+00
         0.00000E+00
         0.00000E+00
         0.00000E+00
         0.00000E+00
         0.00000E+00
         0.00000E+00
         0.00000E+00
         0.00000E+00
         0.00000E+00
         0.00000E+00
         0.00000E+00
         0.00000E+00
         0.00000E+00
         0.00000E+00
         0.00000E+00
         0.00000E+00
         0.00000E+00
         0.00000E+00
         0.00000E+00
         0.00000E+00
         0.00000E+00
         0.00000E+00
         0.00000E+00
         0.00000E+00
         0.00000E+00
         0.00000E+00
         0.00000E+00
         0.00000E+00
         0.00000E+00
         0.00000E+00
         0.00000E+00
         0.00000E+00
         0.00000E+00
         0.00000E+00
         0.00000E+00
         0.00000E+00
         0.00000E+00
         0.00000E+00
         0.00000E+00
         0.00000E+00
         0.00000E+00
         0.00000E+00
         0.00000E+00
         0.00000E+00
         0.00000E+00
         0.00000E+00
         0.00000E+00
         0.00000E+00
         0.00000E+00
         0.00000E+00
         0.00000E+00
         0.00000E+00
         0.00000E+00
         0.00000E+00
         0.00000E+00
         0.00000E+00
         0.00000E+00
         0.00000E+00
         0.00000E+00
         0.00000E+00
         0.00000E+00
         0.00000E+00
         0.00000E+00
         0.00000E+00
         0.00000E+00
         0.00000E+00
         0.00000E+00
         0.00000E+00
         0.00000E+00
         0.00000E+00
         0.00000E+00
         0.00000E+00
         0.00000E+00
         0.00000E+00
         0.00000E+00
         0.00000E+00
         0.00000E+00
         0.00000E+00
         0.00000E+00
         0.00000E+00
         0.00000E+00
         0.00000E+00
         0.00000E+00
         0.00000E+00
         0.00000E+00
         0.00000E+00
         0.00000E+00
         0.00000E+00
         0.00000E+00
         0.00000E+00
         0.00000E+00
         0.00000E+00
         0.00000E+00
         0.00000E+00
         0.00000E+00
         0.00000E+00
         0.00000E+00
         0.00000E+00
         0.00000E+00
         0.00000E+00
         0.00000E+00
         0.00000E+00
         0.00000E+00
         0.00000E+00
         0.00000E+00
         0.00000E+00
         0.00000E+00
         0.00000E+00
         0.00000E+00
         0.00000E+00
         0.00000E+00
         0.00000E+00
         0.00000E+00
         0.00000E+00
         0.00000E+00
         0.00000E+00
         0.00000E+00
         0.00000E+00
         0.00000E+00
         0.00000E+00
         0.00000E+00
         0.00000E+00
         0.00000E+00
         0.00000E+00
         0.00000E+00
         0.00000E+00
         0.00000E+00
         0.00000E+00
         0.00000E+00
         0.00000E+00
         0.00000E+00
         0.00000E+00
         0.00000E+00
         0.00000E+00
         0.00000E+00
         0.00000E+00
         0.00000E+00
         0.00000E+00
         0.00000E+00
         0.00000E+00
         0.00000E+00
         0.00000E+00
         0.00000E+00
         0.00000E+00
         0.00000E+00
         0.00000E+00
         0.00000E+00
         0.00000E+00
         0.00000E+00
         0.00000E+00
         0.00000E+00
         0.00000E+00
         0.00000E+00
         0.00000E+00
         0.00000E+00
         0.00000E+00
         0.00000E+00
         0.00000E+00
         0.00000E+00
         0.00000E+00
         0.00000E+00
         0.00000E+00
         0.00000E+00
         0.00000E+00
         0.00000E+00
         0.00000E+00
         0.00000E+00
         0.00000E+00
         0.00000E+00
         0.00000E+00
         0.00000E+00
         0.00000E+00
         0.00000E+00
         0.00000E+00
         0.00000E+00
         0.00000E+00
         0.00000E+00
         0.00000E+00
         0.00000E+00
         0.00000E+00
         0.00000E+00
         0.00000E+00
         0.00000E+00
         0.00000E+00
         0.00000E+00
         0.00000E+00
         0.00000E+00
         0.00000E+00
         0.00000E+00
         0.00000E+00
         0.00000E+00
         0.00000E+00
         0.00000E+00
         0.00000E+00
         0.00000E+00
         0.00000E+00
         0.00000E+00
         0.00000E+00
         0.00000E+00
         0.00000E+00
         0.00000E+00
         0.00000E+00
         0.00000E+00
         0.00000E+00
         0.00000E+00
         0.00000E+00
         0.00000E+00
         0.00000E+00
         0.00000E+00
         0.00000E+00
         0.00000E+00
         0.00000E+00
         0.00000E+00
         0.00000E+00
         0.00000E+00
         0.00000E+00
         0.00000E+00
         0.00000E+00
         0.00000E+00
         0.00000E+00
         0.00000E+00
         0.00000E+00
         0.00000E+00
         0.00000E+00
         0.00000E+00
         0.00000E+00
         0.00000E+00
         0.00000E+00
         0.00000E+00
         0.00000E+00
         0.00000E+00
         0.00000E+00
         0.00000E+00
         0.00000E+00
         0.00000E+00
         0.00000E+00
         0.00000E+00
         0.00000E+00
         0.00000E+00
         0.00000E+00
         0.00000E+00
         0.00000E+00
         0.00000E+00
         0.00000E+00
         0.00000E+00
         0.00000E+00
         0.00000E+00
         0.00000E+00
         0.00000E+00
         0.00000E+00
         0.00000E+00
         0.00000E+00
         0.00000E+00
         0.00000E+00
         0.00000E+00
         0.00000E+00
         0.00000E+00
         0.00000E+00
         0.00000E+00
         0.00000E+00
         0.00000E+00
         0.00000E+00
         0.00000E+00
         0.00000E+00
         0.00000E+00
         0.00000E+00
         0.00000E+00
         0.00000E+00
         0.00000E+00
         0.00000E+00
         0.00000E+00
         0.00000E+00
         0.00000E+00
         0.00000E+00
         0.00000E+00
         0.00000E+00
         0.00000E+00
         0.00000E+00
         0.00000E+00
         0.00000E+00
         0.00000E+00
         0.00000E+00
         0.00000E+00
         0.00000E+00
         0.00000E+00
         0.00000E+00
         0.00000E+00
         0.00000E+00
         0.00000E+00
         0.00000E+00
         0.00000E+00
         0.00000E+00
         0.00000E+00
         0.00000E+00
         0.00000E+00
         0.00000E+00
         0.00000E+00
         0.00000E+00
         0.00000E+00
         0.00000E+00
         0.00000E+00
         0.00000E+00
         0.00000E+00
         0.00000E+00
         0.00000E+00
         0.00000E+00
         0.00000E+00
         0.00000E+00
         0.00000E+00
         0.00000E+00
         0.00000E+00
         0.00000E+00
         0.00000E+00
         0.00000E+00
         0.00000E+00
         0.00000E+00
         0.00000E+00
         0.00000E+00
         0.00000E+00
         0.00000E+00
         0.00000E+00
         0.00000E+00
         0.00000E+00
         0.00000E+00
         0.00000E+00
         0.00000E+00
         0.00000E+00
         0.00000E+00
         0.00000E+00
         0.00000E+00
         0.00000E+00
         0.00000E+00
         0.00000E+00
         0.00000E+00
         0.00000E+00
         0.00000E+00
         0.00000E+00
         0.00000E+00
         0.00000E+00
         0.00000E+00
         0.00000E+00
         0.00000E+00
         0.00000E+00
         0.00000E+00
         0.00000E+00
         0.00000E+00
         0.00000E+00
         0.00000E+00
         0.00000E+00
         0.00000E+00
         0.00000E+00
         0.00000E+00
         0.00000E+00
         0.00000E+00
         0.00000E+00
         0.00000E+00
         0.00000E+00
         0.00000E+00
         0.00000E+00
         0.00000E+00
         0.00000E+00
         0.00000E+00
         0.00000E+00
         0.00000E+00
         0.00000E+00
         0.00000E+00
         0.00000E+00
         0.00000E+00
         0.00000E+00
         0.00000E+00
         0.00000E+00
         0.00000E+00
         0.00000E+00
         0.00000E+00
         0.00000E+00
         0.00000E+00
         0.00000E+00
         0.00000E+00
         0.00000E+00
         0.00000E+00
         0.00000E+00
         0.00000E+00
         0.00000E+00
         0.00000E+00
         0.00000E+00
         0.00000E+00
         0.00000E+00
         0.00000E+00
         0.00000E+00
         0.00000E+00
         0.00000E+00
         0.00000E+00
         0.00000E+00
         0.00000E+00
         0.00000E+00
         0.00000E+00
         0.00000E+00
         0.00000E+00
         0.00000E+00
         0.00000E+00
         0.00000E+00
         0.00000E+00
         0.00000E+00
         0.00000E+00
         0.00000E+00
         0.00000E+00
         0.00000E+00
         0.00000E+00
         0.00000E+00
         0.00000E+00
         0.00000E+00
         0.00000E+00
         0.00000E+00
         0.00000E+00
         0.00000E+00
         0.00000E+00
         0.00000E+00
         0.00000E+00
         0.00000E+00
         0.00000E+00
         0.00000E+00
         0.00000E+00
         0.00000E+00
         0.00000E+00
         0.00000E+00
         0.00000E+00
         0.00000E+00
         0.00000E+00
         0.00000E+00
         0.00000E+00
         0.00000E+00
         0.00000E+00
         0.00000E+00
         0.00000E+00
         0.00000E+00
         0.00000E+00
         0.00000E+00
         0.00000E+00
         0.00000E+00
         0.00000E+00
         0.00000E+00
         0.00000E+00
         0.00000E+00
         0.00000E+00
         0.00000E+00
         0.00000E+00
         0.00000E+00
         0.00000E+00
         0.00000E+00
         0.00000E+00
         0.00000E+00
         0.00000E+00
         0.00000E+00
         0.00000E+00
         0.00000E+00
         0.00000E+00
         0.00000E+00
         0.00000E+00
         0.00000E+00
         0.00000E+00
         0.00000E+00
         0.00000E+00
         0.00000E+00
         0.00000E+00
         0.00000E+00
         0.00000E+00
         0.00000E+00
         0.00000E+00
         0.00000E+00
         0.00000E+00
         0.00000E+00
         0.00000E+00
         0.00000E+00
         0.00000E+00
         0.00000E+00
         0.00000E+00
         0.00000E+00
         0.00000E+00
         0.00000E+00
         0.00000E+00
         0.00000E+00
         0.00000E+00
         0.00000E+00
         0.00000E+00
         0.00000E+00
         0.00000E+00
         0.00000E+00
         0.00000E+00
         0.00000E+00
         0.00000E+00
         0.00000E+00
         0.00000E+00
         0.00000E+00
         0.00000E+00
         0.00000E+00
         0.00000E+00
         0.00000E+00
         0.00000E+00
         0.00000E+00
         0.00000E+00
         0.00000E+00
         0.00000E+00
         0.00000E+00
         0.00000E+00
         0.00000E+00
         0.00000E+00
         0.00000E+00
         0.00000E+00
         0.00000E+00
         0.00000E+00
         0.00000E+00
         0.00000E+00
         0.00000E+00
         0.00000E+00
         0.00000E+00
         0.00000E+00
         0.00000E+00
         0.00000E+00
         0.00000E+00
         0.00000E+00
         0.00000E+00
         0.00000E+00
         0.00000E+00
         0.00000E+00
         0.00000E+00
         0.00000E+00
         0.00000E+00
         0.00000E+00
         0.00000E+00
         0.00000E+00
         0.00000E+00
         0.00000E+00
         0.00000E+00
         0.00000E+00
         0.00000E+00
         0.00000E+00
         0.00000E+00
         0.00000E+00
         0.00000E+00
         0.00000E+00
         0.00000E+00
         0.00000E+00
         0.00000E+00
         0.00000E+00
         0.00000E+00
         0.00000E+00
         0.00000E+00
         0.00000E+00
         0.00000E+00
         0.00000E+00
         0.00000E+00
         0.00000E+00
         0.00000E+00
         0.00000E+00
         0.00000E+00
         0.00000E+00
         0.00000E+00
         0.00000E+00
         0.00000E+00
         0.00000E+00
         0.00000E+00
         0.00000E+00
         0.00000E+00
         0.00000E+00
         0.00000E+00
         0.00000E+00
         0.00000E+00
         0.00000E+00
         0.00000E+00
         0.00000E+00
         0.00000E+00
         0.00000E+00
         0.00000E+00
         0.00000E+00
         0.00000E+00
         0.00000E+00
         0.00000E+00
         0.00000E+00
         0.00000E+00
         0.00000E+00
         0.00000E+00
         0.00000E+00
         0.00000E+00
         0.00000E+00
         0.00000E+00
         0.00000E+00
         0.00000E+00
         0.00000E+00
         0.00000E+00
         0.00000E+00
         0.00000E+00
         0.00000E+00
         0.00000E+00
         0.00000E+00
         0.00000E+00
         0.00000E+00
         0.00000E+00
         0.00000E+00
         0.00000E+00
         0.00000E+00
         0.00000E+00
         0.00000E+00
         0.00000E+00
         0.00000E+00
         0.00000E+00
         0.00000E+00
         0.00000E+00
         0.00000E+00
         0.00000E+00
         0.00000E+00
         0.00000E+00
         0.00000E+00
         0.00000E+00
         0.00000E+00
         0.00000E+00
         0.00000E+00
         0.00000E+00
         0.00000E+00
         0.00000E+00
         0.00000E+00
         0.00000E+00
         0.00000E+00
         0.00000E+00
         0.00000E+00
         0.00000E+00
         0.00000E+00
         0.00000E+00
         0.00000E+00
         0.00000E+00
         0.00000E+00
         0.00000E+00
         0.00000E+00
         0.00000E+00
         0.00000E+00
         0.00000E+00
         0.00000E+00
         0.00000E+00
         0.00000E+00
         0.00000E+00
         0.00000E+00
         0.00000E+00
         0.00000E+00
         0.00000E+00
         0.00000E+00
         0.00000E+00
         0.00000E+00
         0.00000E+00
         0.00000E+00
         0.00000E+00
         0.00000E+00
         0.00000E+00
         0.00000E+00
         0.00000E+00
         0.00000E+00
         0.00000E+00
         0.00000E+00
         0.00000E+00
         0.00000E+00
         0.00000E+00
         0.00000E+00
         0.00000E+00
         0.00000E+00
         0.00000E+00
         0.00000E+00
         0.00000E+00
         0.00000E+00
         0.00000E+00
         0.00000E+00
         0.00000E+00
         0.00000E+00
         0.00000E+00
         0.00000E+00
         0.00000E+00
         0.00000E+00
         0.00000E+00
         0.00000E+00
         0.00000E+00
         0.00000E+00
         0.00000E+00
         0.00000E+00
         0.00000E+00
         0.00000E+00
         0.00000E+00
         0.00000E+00
         0.00000E+00
         0.00000E+00
         0.00000E+00
         0.00000E+00
         0.00000E+00
         0.00000E+00
         0.00000E+00
         0.00000E+00
         0.00000E+00
         0.00000E+00
         0.00000E+00
         0.00000E+00
         0.00000E+00
         0.00000E+00
         0.00000E+00
         0.00000E+00
         0.00000E+00
         0.00000E+00
         0.00000E+00
         0.00000E+00
         0.00000E+00
         0.00000E+00
         0.00000E+00
         0.00000E+00
         0.00000E+00
         0.00000E+00
         0.00000E+00
         0.00000E+00
         0.00000E+00
         0.00000E+00
         0.00000E+00
         0.00000E+00
         0.00000E+00
         0.00000E+00
         0.00000E+00
         0.00000E+00
         0.00000E+00
         0.00000E+00
         0.00000E+00
         0.00000E+00
         0.00000E+00
         0.00000E+00
         0.00000E+00
         0.00000E+00
         0.00000E+00
         0.00000E+00
         0.00000E+00
         0.00000E+00
         0.00000E+00
         0.00000E+00
         0.00000E+00
         0.00000E+00
         0.00000E+00
         0.00000E+00
         0.00000E+00
         0.00000E+00
         0.00000E+00
         0.00000E+00
         0.00000E+00
         0.00000E+00
         0.00000E+00
         0.00000E+00
         0.00000E+00
         0.00000E+00
         0.00000E+00
         0.00000E+00
         0.00000E+00
         0.00000E+00
         0.00000E+00
         0.00000E+00
         0.00000E+00
         0.00000E+00
         0.00000E+00
         0.00000E+00
         0.00000E+00
         0.00000E+00
         0.00000E+00
         0.00000E+00
         0.00000E+00
         0.00000E+00
         0.00000E+00
         0.00000E+00
         0.00000E+00
         0.00000E+00
         0.00000E+00
         0.00000E+00
         0.00000E+00
         0.00000E+00
         0.00000E+00
         0.00000E+00
         0.00000E+00
         0.00000E+00
         0.00000E+00
         0.00000E+00
         0.00000E+00
         0.00000E+00
         0.00000E+00
         0.00000E+00
         0.00000E+00
         0.00000E+00
         0.00000E+00
         0.00000E+00
         0.00000E+00
         0.00000E+00
         0.00000E+00
         0.00000E+00
         0.00000E+00
         0.00000E+00
         0.00000E+00
         0.00000E+00
         0.00000E+00
         0.00000E+00
         0.00000E+00
         0.00000E+00
         0.00000E+00
         0.00000E+00
         0.00000E+00
         0.00000E+00
         0.00000E+00
         0.00000E+00
         0.00000E+00
         0.00000E+00
         0.00000E+00
         0.00000E+00
         0.00000E+00
         0.00000E+00
         0.00000E+00
         0.00000E+00
         0.00000E+00
         0.00000E+00
         0.00000E+00
         0.00000E+00
         0.00000E+00
         0.00000E+00
         0.00000E+00
         0.00000E+00
         0.00000E+00
         0.00000E+00
         0.00000E+00
         0.00000E+00
         0.00000E+00
         0.00000E+00
         0.00000E+00
         0.00000E+00
         0.00000E+00
         0.00000E+00
         0.00000E+00
         0.00000E+00
         0.00000E+00
         0.00000E+00
         0.00000E+00
         0.00000E+00
         0.00000E+00
         0.00000E+00
         0.00000E+00
         0.00000E+00
         0.00000E+00
         0.00000E+00
         0.00000E+00
         0.00000E+00
         0.00000E+00
         0.00000E+00
         0.00000E+00
         0.00000E+00
         0.00000E+00
         0.00000E+00
         0.00000E+00
         0.00000E+00
         0.00000E+00
         0.00000E+00
         0.00000E+00
         0.00000E+00
         0.00000E+00
         0.00000E+00
         0.00000E+00
         0.00000E+00
         0.00000E+00
         0.00000E+00
         0.00000E+00
         0.00000E+00
         0.00000E+00
         0.00000E+00
         0.00000E+00
         0.00000E+00
         0.00000E+00
         0.00000E+00
         0.00000E+00
         0.00000E+00
         0.00000E+00
         0.00000E+00
         0.00000E+00
         0.00000E+00
         0.00000E+00
         0.00000E+00
         0.00000E+00
         0.00000E+00
         0.00000E+00
         0.00000E+00
         0.00000E+00
         0.00000E+00
         0.00000E+00
         0.00000E+00
         0.00000E+00
         0.00000E+00
         0.00000E+00
         0.00000E+00
         0.00000E+00
         0.00000E+00
         0.00000E+00
         0.00000E+00
         0.00000E+00
         0.00000E+00
         0.00000E+00
         0.00000E+00
         0.00000E+00
         0.00000E+00
         0.00000E+00
         0.00000E+00
         0.00000E+00
         0.00000E+00
         0.00000E+00
         0.00000E+00
         0.00000E+00
         0.00000E+00
         0.00000E+00
         0.00000E+00
         0.00000E+00
         0.00000E+00
         0.00000E+00
         0.00000E+00
         0.00000E+00
         0.00000E+00
         0.00000E+00
         0.00000E+00
         0.00000E+00
         0.00000E+00
         0.00000E+00
         0.00000E+00
         0.00000E+00
         0.00000E+00
         0.00000E+00
         0.00000E+00
         0.00000E+00
         0.00000E+00
         0.00000E+00
         0.00000E+00
         0.00000E+00
         0.00000E+00
         0.00000E+00
         0.00000E+00
         0.00000E+00
         0.00000E+00
         0.00000E+00
         0.00000E+00
         0.00000E+00
         0.00000E+00
         0.00000E+00
         0.00000E+00
         0.00000E+00
         0.00000E+00
         0.00000E+00
         0.00000E+00
         0.00000E+00
         0.00000E+00
         0.00000E+00
         0.00000E+00
         0.00000E+00
         0.00000E+00
         0.00000E+00
         0.00000E+00
         0.00000E+00
         0.00000E+00
         0.00000E+00
         0.00000E+00
         0.00000E+00
         0.00000E+00
         0.00000E+00
         0.00000E+00
         0.00000E+00
         0.00000E+00
         0.00000E+00
         0.00000E+00
         0.00000E+00
         0.00000E+00
         0.00000E+00
         0.00000E+00
         0.00000E+00
         0.00000E+00
         0.00000E+00
         0.00000E+00
         0.00000E+00
         0.00000E+00
         0.00000E+00
         0.00000E+00
         0.00000E+00
         0.00000E+00
         0.00000E+00
         0.00000E+00
         0.00000E+00
         0.00000E+00
         0.00000E+00
         0.00000E+00
         0.00000E+00
         0.00000E+00
         0.00000E+00
         0.00000E+00
         0.00000E+00
         0.00000E+00
         0.00000E+00
         0.00000E+00
         0.00000E+00
         0.00000E+00
         0.00000E+00
         0.00000E+00
         0.00000E+00
         0.00000E+00
         0.00000E+00
         0.00000E+00
         0.00000E+00
         0.00000E+00
         0.00000E+00
         0.00000E+00
         0.00000E+00
         0.00000E+00
  
SCALARS               pre_disp_force_y  double 1
LOOKUP_TABLE default
         0.00000E+00
         0.00000E+00
         0.00000E+00
         0.00000E+00
         0.00000E+00
         0.00000E+00
         0.00000E+00
         0.00000E+00
         0.00000E+00
         0.00000E+00
         0.00000E+00
         0.00000E+00
         0.00000E+00
         0.00000E+00
         0.00000E+00
         0.00000E+00
         0.00000E+00
         0.00000E+00
         0.00000E+00
         0.00000E+00
         0.00000E+00
         0.00000E+00
         0.00000E+00
         0.00000E+00
         0.00000E+00
         0.00000E+00
         0.00000E+00
         0.00000E+00
         0.00000E+00
         0.00000E+00
         0.00000E+00
         0.00000E+00
         0.00000E+00
         0.00000E+00
         0.00000E+00
         0.00000E+00
         0.00000E+00
         0.00000E+00
         0.00000E+00
         0.00000E+00
         0.00000E+00
         0.00000E+00
         0.00000E+00
         0.00000E+00
         0.00000E+00
         0.00000E+00
         0.00000E+00
         0.00000E+00
         0.00000E+00
         0.00000E+00
         0.00000E+00
         0.00000E+00
         0.00000E+00
         0.00000E+00
         0.00000E+00
         0.00000E+00
         0.00000E+00
         0.00000E+00
         0.00000E+00
         0.00000E+00
         0.00000E+00
         0.00000E+00
         0.00000E+00
         0.00000E+00
         0.00000E+00
         0.00000E+00
         0.00000E+00
         0.00000E+00
         0.00000E+00
         0.00000E+00
         0.00000E+00
         0.00000E+00
         0.00000E+00
         0.00000E+00
         0.00000E+00
         0.00000E+00
         0.00000E+00
         0.00000E+00
         0.00000E+00
         0.00000E+00
         0.00000E+00
         0.00000E+00
         0.00000E+00
         0.00000E+00
         0.00000E+00
         0.00000E+00
         0.00000E+00
         0.00000E+00
         0.00000E+00
         0.00000E+00
         0.00000E+00
         0.00000E+00
         0.00000E+00
         0.00000E+00
         0.00000E+00
         0.00000E+00
         0.00000E+00
         0.00000E+00
         0.00000E+00
         0.00000E+00
         0.00000E+00
         0.00000E+00
         0.00000E+00
         0.00000E+00
         0.00000E+00
         0.00000E+00
         0.00000E+00
         0.00000E+00
         0.00000E+00
         0.00000E+00
         0.00000E+00
         0.00000E+00
         0.00000E+00
         0.00000E+00
         0.00000E+00
         0.00000E+00
         0.00000E+00
         0.00000E+00
         0.00000E+00
         0.00000E+00
         0.00000E+00
         0.00000E+00
         0.00000E+00
         0.00000E+00
         0.00000E+00
         0.00000E+00
         0.00000E+00
         0.00000E+00
         0.00000E+00
         0.00000E+00
         0.00000E+00
         0.00000E+00
         0.00000E+00
         0.00000E+00
         0.00000E+00
         0.00000E+00
         0.00000E+00
         0.00000E+00
         0.00000E+00
         0.00000E+00
         0.00000E+00
         0.00000E+00
         0.00000E+00
         0.00000E+00
         0.00000E+00
         0.00000E+00
         0.00000E+00
         0.00000E+00
         0.00000E+00
         0.00000E+00
         0.00000E+00
         0.00000E+00
         0.00000E+00
         0.00000E+00
         0.00000E+00
         0.00000E+00
         0.00000E+00
         0.00000E+00
         0.00000E+00
         0.00000E+00
         0.00000E+00
         0.00000E+00
         0.00000E+00
         0.00000E+00
         0.00000E+00
         0.00000E+00
         0.00000E+00
         0.00000E+00
         0.00000E+00
         0.00000E+00
         0.00000E+00
         0.00000E+00
         0.00000E+00
         0.00000E+00
         0.00000E+00
         0.00000E+00
         0.00000E+00
         0.00000E+00
         0.00000E+00
         0.00000E+00
         0.00000E+00
         0.00000E+00
         0.00000E+00
         0.00000E+00
         0.00000E+00
         0.00000E+00
         0.00000E+00
         0.00000E+00
         0.00000E+00
         0.00000E+00
         0.00000E+00
         0.00000E+00
         0.00000E+00
         0.00000E+00
         0.00000E+00
         0.00000E+00
         0.00000E+00
         0.00000E+00
         0.00000E+00
         0.00000E+00
         0.00000E+00
         0.00000E+00
         0.00000E+00
         0.00000E+00
         0.00000E+00
         0.00000E+00
         0.00000E+00
         0.00000E+00
         0.00000E+00
         0.00000E+00
         0.00000E+00
         0.00000E+00
         0.00000E+00
         0.00000E+00
         0.00000E+00
         0.00000E+00
         0.00000E+00
         0.00000E+00
         0.00000E+00
         0.00000E+00
         0.00000E+00
         0.00000E+00
         0.00000E+00
         0.00000E+00
         0.00000E+00
         0.00000E+00
         0.00000E+00
         0.00000E+00
         0.00000E+00
         0.00000E+00
         0.00000E+00
         0.00000E+00
         0.00000E+00
         0.00000E+00
         0.00000E+00
         0.00000E+00
         0.00000E+00
         0.00000E+00
         0.00000E+00
         0.00000E+00
         0.00000E+00
         0.00000E+00
         0.00000E+00
         0.00000E+00
         0.00000E+00
         0.00000E+00
         0.00000E+00
         0.00000E+00
         0.00000E+00
         0.00000E+00
         0.00000E+00
         0.00000E+00
         0.00000E+00
         0.00000E+00
         0.00000E+00
         0.00000E+00
         0.00000E+00
         0.00000E+00
         0.00000E+00
         0.00000E+00
         0.00000E+00
         0.00000E+00
         0.00000E+00
         0.00000E+00
         0.00000E+00
         0.00000E+00
         0.00000E+00
         0.00000E+00
         0.00000E+00
         0.00000E+00
         0.00000E+00
         0.00000E+00
         0.00000E+00
         0.00000E+00
         0.00000E+00
         0.00000E+00
         0.00000E+00
         0.00000E+00
         0.00000E+00
         0.00000E+00
         0.00000E+00
         0.00000E+00
         0.00000E+00
         0.00000E+00
         0.00000E+00
         0.00000E+00
         0.00000E+00
         0.00000E+00
         0.00000E+00
         0.00000E+00
         0.00000E+00
         0.00000E+00
         0.00000E+00
         0.00000E+00
         0.00000E+00
         0.00000E+00
         0.00000E+00
         0.00000E+00
         0.00000E+00
         0.00000E+00
         0.00000E+00
         0.00000E+00
         0.00000E+00
         0.00000E+00
         0.00000E+00
         0.00000E+00
         0.00000E+00
         0.00000E+00
         0.00000E+00
         0.00000E+00
         0.00000E+00
         0.00000E+00
         0.00000E+00
         0.00000E+00
         0.00000E+00
         0.00000E+00
         0.00000E+00
         0.00000E+00
         0.00000E+00
         0.00000E+00
         0.00000E+00
         0.00000E+00
         0.00000E+00
         0.00000E+00
         0.00000E+00
         0.00000E+00
         0.00000E+00
         0.00000E+00
         0.00000E+00
         0.00000E+00
         0.00000E+00
         0.00000E+00
         0.00000E+00
         0.00000E+00
         0.00000E+00
         0.00000E+00
         0.00000E+00
         0.00000E+00
         0.00000E+00
         0.00000E+00
         0.00000E+00
         0.00000E+00
         0.00000E+00
         0.00000E+00
         0.00000E+00
         0.00000E+00
         0.00000E+00
         0.00000E+00
         0.00000E+00
         0.00000E+00
         0.00000E+00
         0.00000E+00
         0.00000E+00
         0.00000E+00
         0.00000E+00
         0.00000E+00
         0.00000E+00
         0.00000E+00
         0.00000E+00
         0.00000E+00
         0.00000E+00
         0.00000E+00
         0.00000E+00
         0.00000E+00
         0.00000E+00
         0.00000E+00
         0.00000E+00
         0.00000E+00
         0.00000E+00
         0.00000E+00
         0.00000E+00
         0.00000E+00
         0.00000E+00
         0.00000E+00
         0.00000E+00
         0.00000E+00
         0.00000E+00
         0.00000E+00
         0.00000E+00
         0.00000E+00
         0.00000E+00
         0.00000E+00
         0.00000E+00
         0.00000E+00
         0.00000E+00
         0.00000E+00
         0.00000E+00
         0.00000E+00
         0.00000E+00
         0.00000E+00
         0.00000E+00
         0.00000E+00
         0.00000E+00
         0.00000E+00
         0.00000E+00
         0.00000E+00
         0.00000E+00
         0.00000E+00
         0.00000E+00
         0.00000E+00
         0.00000E+00
         0.00000E+00
         0.00000E+00
         0.00000E+00
         0.00000E+00
         0.00000E+00
         0.00000E+00
         0.00000E+00
         0.00000E+00
         0.00000E+00
         0.00000E+00
         0.00000E+00
         0.00000E+00
         0.00000E+00
         0.00000E+00
         0.00000E+00
         0.00000E+00
         0.00000E+00
         0.00000E+00
         0.00000E+00
         0.00000E+00
         0.00000E+00
         0.00000E+00
         0.00000E+00
         0.00000E+00
         0.00000E+00
         0.00000E+00
         0.00000E+00
         0.00000E+00
         0.00000E+00
         0.00000E+00
         0.00000E+00
         0.00000E+00
         0.00000E+00
         0.00000E+00
         0.00000E+00
         0.00000E+00
         0.00000E+00
         0.00000E+00
         0.00000E+00
         0.00000E+00
         0.00000E+00
         0.00000E+00
         0.00000E+00
         0.00000E+00
         0.00000E+00
         0.00000E+00
         0.00000E+00
         0.00000E+00
         0.00000E+00
         0.00000E+00
         0.00000E+00
         0.00000E+00
         0.00000E+00
         0.00000E+00
         0.00000E+00
         0.00000E+00
         0.00000E+00
         0.00000E+00
         0.00000E+00
         0.00000E+00
         0.00000E+00
         0.00000E+00
         0.00000E+00
         0.00000E+00
         0.00000E+00
         0.00000E+00
         0.00000E+00
         0.00000E+00
         0.00000E+00
         0.00000E+00
         0.00000E+00
         0.00000E+00
         0.00000E+00
         0.00000E+00
         0.00000E+00
         0.00000E+00
         0.00000E+00
         0.00000E+00
         0.00000E+00
         0.00000E+00
         0.00000E+00
         0.00000E+00
         0.00000E+00
         0.00000E+00
         0.00000E+00
         0.00000E+00
         0.00000E+00
         0.00000E+00
         0.00000E+00
         0.00000E+00
         0.00000E+00
         0.00000E+00
         0.00000E+00
         0.00000E+00
         0.00000E+00
         0.00000E+00
         0.00000E+00
         0.00000E+00
         0.00000E+00
         0.00000E+00
         0.00000E+00
         0.00000E+00
         0.00000E+00
         0.00000E+00
         0.00000E+00
         0.00000E+00
         0.00000E+00
         0.00000E+00
         0.00000E+00
         0.00000E+00
         0.00000E+00
         0.00000E+00
         0.00000E+00
         0.00000E+00
         0.00000E+00
         0.00000E+00
         0.00000E+00
         0.00000E+00
         0.00000E+00
         0.00000E+00
         0.00000E+00
         0.00000E+00
         0.00000E+00
         0.00000E+00
         0.00000E+00
         0.00000E+00
         0.00000E+00
         0.00000E+00
         0.00000E+00
         0.00000E+00
         0.00000E+00
         0.00000E+00
         0.00000E+00
         0.00000E+00
         0.00000E+00
         0.00000E+00
         0.00000E+00
         0.00000E+00
         0.00000E+00
         0.00000E+00
         0.00000E+00
         0.00000E+00
         0.00000E+00
         0.00000E+00
         0.00000E+00
         0.00000E+00
         0.00000E+00
         0.00000E+00
         0.00000E+00
         0.00000E+00
         0.00000E+00
         0.00000E+00
         0.00000E+00
         0.00000E+00
         0.00000E+00
         0.00000E+00
         0.00000E+00
         0.00000E+00
         0.00000E+00
         0.00000E+00
         0.00000E+00
         0.00000E+00
         0.00000E+00
         0.00000E+00
         0.00000E+00
         0.00000E+00
         0.00000E+00
         0.00000E+00
         0.00000E+00
         0.00000E+00
         0.00000E+00
         0.00000E+00
         0.00000E+00
         0.00000E+00
         0.00000E+00
         0.00000E+00
         0.00000E+00
         0.00000E+00
         0.00000E+00
         0.00000E+00
         0.00000E+00
         0.00000E+00
         0.00000E+00
         0.00000E+00
         0.00000E+00
         0.00000E+00
         0.00000E+00
         0.00000E+00
         0.00000E+00
         0.00000E+00
         0.00000E+00
         0.00000E+00
         0.00000E+00
         0.00000E+00
         0.00000E+00
         0.00000E+00
         0.00000E+00
         0.00000E+00
         0.00000E+00
         0.00000E+00
         0.00000E+00
         0.00000E+00
         0.00000E+00
         0.00000E+00
         0.00000E+00
         0.00000E+00
         0.00000E+00
         0.00000E+00
         0.00000E+00
         0.00000E+00
         0.00000E+00
         0.00000E+00
         0.00000E+00
         0.00000E+00
         0.00000E+00
         0.00000E+00
         0.00000E+00
         0.00000E+00
         0.00000E+00
         0.00000E+00
         0.00000E+00
         0.00000E+00
         0.00000E+00
         0.00000E+00
         0.00000E+00
         0.00000E+00
         0.00000E+00
         0.00000E+00
         0.00000E+00
         0.00000E+00
         0.00000E+00
         0.00000E+00
         0.00000E+00
         0.00000E+00
         0.00000E+00
         0.00000E+00
         0.00000E+00
         0.00000E+00
         0.00000E+00
         0.00000E+00
         0.00000E+00
         0.00000E+00
         0.00000E+00
         0.00000E+00
         0.00000E+00
         0.00000E+00
         0.00000E+00
         0.00000E+00
         0.00000E+00
         0.00000E+00
         0.00000E+00
         0.00000E+00
         0.00000E+00
         0.00000E+00
         0.00000E+00
         0.00000E+00
         0.00000E+00
         0.00000E+00
         0.00000E+00
         0.00000E+00
         0.00000E+00
         0.00000E+00
         0.00000E+00
         0.00000E+00
         0.00000E+00
         0.00000E+00
         0.00000E+00
         0.00000E+00
         0.00000E+00
         0.00000E+00
         0.00000E+00
         0.00000E+00
         0.00000E+00
         0.00000E+00
         0.00000E+00
         0.00000E+00
         0.00000E+00
         0.00000E+00
         0.00000E+00
         0.00000E+00
         0.00000E+00
         0.00000E+00
         0.00000E+00
         0.00000E+00
         0.00000E+00
         0.00000E+00
         0.00000E+00
         0.00000E+00
         0.00000E+00
         0.00000E+00
         0.00000E+00
         0.00000E+00
         0.00000E+00
         0.00000E+00
         0.00000E+00
         0.00000E+00
         0.00000E+00
         0.00000E+00
         0.00000E+00
         0.00000E+00
         0.00000E+00
         0.00000E+00
         0.00000E+00
         0.00000E+00
         0.00000E+00
         0.00000E+00
         0.00000E+00
         0.00000E+00
         0.00000E+00
         0.00000E+00
         0.00000E+00
         0.00000E+00
         0.00000E+00
         0.00000E+00
         0.00000E+00
         0.00000E+00
         0.00000E+00
         0.00000E+00
         0.00000E+00
         0.00000E+00
         0.00000E+00
         0.00000E+00
         0.00000E+00
         0.00000E+00
         0.00000E+00
         0.00000E+00
         0.00000E+00
         0.00000E+00
         0.00000E+00
         0.00000E+00
         0.00000E+00
         0.00000E+00
         0.00000E+00
         0.00000E+00
         0.00000E+00
         0.00000E+00
         0.00000E+00
         0.00000E+00
         0.00000E+00
         0.00000E+00
         0.00000E+00
         0.00000E+00
         0.00000E+00
         0.00000E+00
         0.00000E+00
         0.00000E+00
         0.00000E+00
         0.00000E+00
         0.00000E+00
         0.00000E+00
         0.00000E+00
         0.00000E+00
         0.00000E+00
         0.00000E+00
         0.00000E+00
         0.00000E+00
         0.00000E+00
         0.00000E+00
         0.00000E+00
         0.00000E+00
         0.00000E+00
         0.00000E+00
         0.00000E+00
         0.00000E+00
         0.00000E+00
         0.00000E+00
         0.00000E+00
         0.00000E+00
         0.00000E+00
         0.00000E+00
         0.00000E+00
         0.00000E+00
         0.00000E+00
         0.00000E+00
         0.00000E+00
         0.00000E+00
         0.00000E+00
         0.00000E+00
         0.00000E+00
         0.00000E+00
         0.00000E+00
         0.00000E+00
         0.00000E+00
         0.00000E+00
         0.00000E+00
         0.00000E+00
         0.00000E+00
         0.00000E+00
         0.00000E+00
         0.00000E+00
         0.00000E+00
         0.00000E+00
         0.00000E+00
         0.00000E+00
         0.00000E+00
         0.00000E+00
         0.00000E+00
         0.00000E+00
         0.00000E+00
         0.00000E+00
         0.00000E+00
         0.00000E+00
         0.00000E+00
         0.00000E+00
         0.00000E+00
         0.00000E+00
         0.00000E+00
         0.00000E+00
         0.00000E+00
         0.00000E+00
         0.00000E+00
         0.00000E+00
         0.00000E+00
         0.00000E+00
         0.00000E+00
         0.00000E+00
         0.00000E+00
         0.00000E+00
         0.00000E+00
         0.00000E+00
         0.00000E+00
         0.00000E+00
         0.00000E+00
         0.00000E+00
         0.00000E+00
         0.00000E+00
         0.00000E+00
         0.00000E+00
         0.00000E+00
         0.00000E+00
         0.00000E+00
         0.00000E+00
         0.00000E+00
         0.00000E+00
         0.00000E+00
         0.00000E+00
         0.00000E+00
         0.00000E+00
         0.00000E+00
         0.00000E+00
         0.00000E+00
         0.00000E+00
         0.00000E+00
         0.00000E+00
         0.00000E+00
         0.00000E+00
         0.00000E+00
         0.00000E+00
         0.00000E+00
         0.00000E+00
         0.00000E+00
         0.00000E+00
         0.00000E+00
         0.00000E+00
         0.00000E+00
         0.00000E+00
         0.00000E+00
         0.00000E+00
         0.00000E+00
         0.00000E+00
         0.00000E+00
         0.00000E+00
         0.00000E+00
         0.00000E+00
         0.00000E+00
         0.00000E+00
         0.00000E+00
         0.00000E+00
         0.00000E+00
         0.00000E+00
         0.00000E+00
         0.00000E+00
         0.00000E+00
         0.00000E+00
         0.00000E+00
         0.00000E+00
         0.00000E+00
         0.00000E+00
         0.00000E+00
         0.00000E+00
         0.00000E+00
         0.00000E+00
         0.00000E+00
         0.00000E+00
         0.00000E+00
         0.00000E+00
         0.00000E+00
         0.00000E+00
         0.00000E+00
         0.00000E+00
         0.00000E+00
         0.00000E+00
         0.00000E+00
         0.00000E+00
         0.00000E+00
         0.00000E+00
         0.00000E+00
         0.00000E+00
         0.00000E+00
         0.00000E+00
         0.00000E+00
         0.00000E+00
         0.00000E+00
         0.00000E+00
         0.00000E+00
         0.00000E+00
         0.00000E+00
         0.00000E+00
         0.00000E+00
         0.00000E+00
         0.00000E+00
         0.00000E+00
         0.00000E+00
         0.00000E+00
         0.00000E+00
         0.00000E+00
         0.00000E+00
         0.00000E+00
         0.00000E+00
         0.00000E+00
         0.00000E+00
         0.00000E+00
         0.00000E+00
         0.00000E+00
         0.00000E+00
         0.00000E+00
         0.00000E+00
         0.00000E+00
         0.00000E+00
         0.00000E+00
         0.00000E+00
         0.00000E+00
         0.00000E+00
         0.00000E+00
         0.00000E+00
         0.00000E+00
         0.00000E+00
         0.00000E+00
         0.00000E+00
         0.00000E+00
         0.00000E+00
         0.00000E+00
         0.00000E+00
         0.00000E+00
         0.00000E+00
         0.00000E+00
         0.00000E+00
         0.00000E+00
         0.00000E+00
         0.00000E+00
         0.00000E+00
         0.00000E+00
         0.00000E+00
         0.00000E+00
         0.00000E+00
         0.00000E+00
         0.00000E+00
         0.00000E+00
         0.00000E+00
         0.00000E+00
         0.00000E+00
         0.00000E+00
         0.00000E+00
         0.00000E+00
         0.00000E+00
         0.00000E+00
         0.00000E+00
         0.00000E+00
         0.00000E+00
         0.00000E+00
         0.00000E+00
         0.00000E+00
         0.00000E+00
         0.00000E+00
         0.00000E+00
         0.00000E+00
         0.00000E+00
         0.00000E+00
         0.00000E+00
         0.00000E+00
         0.00000E+00
         0.00000E+00
         0.00000E+00
         0.00000E+00
         0.00000E+00
         0.00000E+00
         0.00000E+00
         0.00000E+00
         0.00000E+00
         0.00000E+00
         0.00000E+00
         0.00000E+00
         0.00000E+00
         0.00000E+00
         0.00000E+00
         0.00000E+00
         0.00000E+00
         0.00000E+00
         0.00000E+00
         0.00000E+00
         0.00000E+00
         0.00000E+00
         0.00000E+00
         0.00000E+00
         0.00000E+00
         0.00000E+00
         0.00000E+00
         0.00000E+00
         0.00000E+00
         0.00000E+00
         0.00000E+00
         0.00000E+00
         0.00000E+00
         0.00000E+00
         0.00000E+00
         0.00000E+00
         0.00000E+00
         0.00000E+00
         0.00000E+00
         0.00000E+00
         0.00000E+00
         0.00000E+00
         0.00000E+00
         0.00000E+00
         0.00000E+00
         0.00000E+00
         0.00000E+00
         0.00000E+00
         0.00000E+00
         0.00000E+00
         0.00000E+00
         0.00000E+00
         0.00000E+00
         0.00000E+00
         0.00000E+00
         0.00000E+00
         0.00000E+00
         0.00000E+00
         0.00000E+00
         0.00000E+00
         0.00000E+00
         0.00000E+00
         0.00000E+00
         0.00000E+00
         0.00000E+00
         0.00000E+00
         0.00000E+00
         0.00000E+00
         0.00000E+00
         0.00000E+00
         0.00000E+00
         0.00000E+00
         0.00000E+00
         0.00000E+00
         0.00000E+00
         0.00000E+00
         0.00000E+00
         0.00000E+00
         0.00000E+00
         0.00000E+00
         0.00000E+00
         0.00000E+00
         0.00000E+00
         0.00000E+00
         0.00000E+00
         0.00000E+00
         0.00000E+00
         0.00000E+00
         0.00000E+00
         0.00000E+00
         0.00000E+00
         0.00000E+00
         0.00000E+00
         0.00000E+00
         0.00000E+00
         0.00000E+00
         0.00000E+00
         0.00000E+00
         0.00000E+00
         0.00000E+00
         0.00000E+00
         0.00000E+00
         0.00000E+00
         0.00000E+00
         0.00000E+00
         0.00000E+00
         0.00000E+00
         0.00000E+00
         0.00000E+00
         0.00000E+00
         0.00000E+00
         0.00000E+00
         0.00000E+00
         0.00000E+00
         0.00000E+00
         0.00000E+00
         0.00000E+00
         0.00000E+00
         0.00000E+00
         0.00000E+00
         0.00000E+00
         0.00000E+00
         0.00000E+00
         0.00000E+00
         0.00000E+00
         0.00000E+00
         0.00000E+00
         0.00000E+00
         0.00000E+00
         0.00000E+00
         0.00000E+00
         0.00000E+00
         0.00000E+00
         0.00000E+00
         0.00000E+00
         0.00000E+00
         0.00000E+00
         0.00000E+00
         0.00000E+00
         0.00000E+00
         0.00000E+00
         0.00000E+00
         0.00000E+00
         0.00000E+00
         0.00000E+00
         0.00000E+00
         0.00000E+00
         0.00000E+00
         0.00000E+00
         0.00000E+00
         0.00000E+00
         0.00000E+00
         0.00000E+00
         0.00000E+00
         0.00000E+00
         0.00000E+00
         0.00000E+00
         0.00000E+00
         0.00000E+00
         0.00000E+00
         0.00000E+00
         0.00000E+00
         0.00000E+00
         0.00000E+00
         0.00000E+00
         0.00000E+00
         0.00000E+00
         0.00000E+00
         0.00000E+00
         0.00000E+00
         0.00000E+00
         0.00000E+00
         0.00000E+00
         0.00000E+00
         0.00000E+00
         0.00000E+00
         0.00000E+00
         0.00000E+00
         0.00000E+00
         0.00000E+00
         0.00000E+00
         0.00000E+00
         0.00000E+00
         0.00000E+00
         0.00000E+00
         0.00000E+00
         0.00000E+00
         0.00000E+00
         0.00000E+00
         0.00000E+00
         0.00000E+00
         0.00000E+00
         0.00000E+00
         0.00000E+00
         0.00000E+00
         0.00000E+00
         0.00000E+00
         0.00000E+00
         0.00000E+00
         0.00000E+00
         0.00000E+00
         0.00000E+00
         0.00000E+00
         0.00000E+00
         0.00000E+00
         0.00000E+00
         0.00000E+00
         0.00000E+00
         0.00000E+00
         0.00000E+00
         0.00000E+00
         0.00000E+00
         0.00000E+00
         0.00000E+00
         0.00000E+00
         0.00000E+00
         0.00000E+00
         0.00000E+00
         0.00000E+00
         0.00000E+00
         0.00000E+00
         0.00000E+00
         0.00000E+00
         0.00000E+00
         0.00000E+00
         0.00000E+00
         0.00000E+00
         0.00000E+00
         0.00000E+00
         0.00000E+00
         0.00000E+00
         0.00000E+00
         0.00000E+00
         0.00000E+00
         0.00000E+00
         0.00000E+00
         0.00000E+00
         0.00000E+00
         0.00000E+00
         0.00000E+00
         0.00000E+00
         0.00000E+00
         0.00000E+00
         0.00000E+00
         0.00000E+00
         0.00000E+00
         0.00000E+00
         0.00000E+00
         0.00000E+00
         0.00000E+00
         0.00000E+00
         0.00000E+00
         0.00000E+00
         0.00000E+00
         0.00000E+00
         0.00000E+00
         0.00000E+00
         0.00000E+00
         0.00000E+00
         0.00000E+00
         0.00000E+00
         0.00000E+00
         0.00000E+00
         0.00000E+00
         0.00000E+00
         0.00000E+00
         0.00000E+00
         0.00000E+00
         0.00000E+00
         0.00000E+00
         0.00000E+00
         0.00000E+00
         0.00000E+00
         0.00000E+00
         0.00000E+00
         0.00000E+00
         0.00000E+00
         0.00000E+00
         0.00000E+00
         0.00000E+00
         0.00000E+00
         0.00000E+00
         0.00000E+00
         0.00000E+00
         0.00000E+00
         0.00000E+00
         0.00000E+00
         0.00000E+00
         0.00000E+00
         0.00000E+00
         0.00000E+00
         0.00000E+00
         0.00000E+00
         0.00000E+00
         0.00000E+00
         0.00000E+00
         0.00000E+00
         0.00000E+00
         0.00000E+00
         0.00000E+00
         0.00000E+00
         0.00000E+00
         0.00000E+00
         0.00000E+00
         0.00000E+00
         0.00000E+00
         0.00000E+00
         0.00000E+00
         0.00000E+00
         0.00000E+00
         0.00000E+00
         0.00000E+00
         0.00000E+00
         0.00000E+00
         0.00000E+00
         0.00000E+00
         0.00000E+00
         0.00000E+00
         0.00000E+00
         0.00000E+00
         0.00000E+00
         0.00000E+00
         0.00000E+00
         0.00000E+00
         0.00000E+00
         0.00000E+00
         0.00000E+00
         0.00000E+00
         0.00000E+00
         0.00000E+00
         0.00000E+00
         0.00000E+00
         0.00000E+00
         0.00000E+00
         0.00000E+00
         0.00000E+00
         0.00000E+00
         0.00000E+00
         0.00000E+00
         0.00000E+00
         0.00000E+00
         0.00000E+00
         0.00000E+00
         0.00000E+00
         0.00000E+00
         0.00000E+00
         0.00000E+00
         0.00000E+00
         0.00000E+00
         0.00000E+00
         0.00000E+00
         0.00000E+00
         0.00000E+00
         0.00000E+00
         0.00000E+00
         0.00000E+00
         0.00000E+00
         0.00000E+00
         0.00000E+00
         0.00000E+00
         0.00000E+00
         0.00000E+00
         0.00000E+00
         0.00000E+00
         0.00000E+00
         0.00000E+00
         0.00000E+00
         0.00000E+00
         0.00000E+00
         0.00000E+00
         0.00000E+00
         0.00000E+00
         0.00000E+00
         0.00000E+00
         0.00000E+00
         0.00000E+00
         0.00000E+00
         0.00000E+00
         0.00000E+00
         0.00000E+00
         0.00000E+00
         0.00000E+00
         0.00000E+00
         0.00000E+00
         0.00000E+00
         0.00000E+00
         0.00000E+00
         0.00000E+00
         0.00000E+00
         0.00000E+00
         0.00000E+00
         0.00000E+00
         0.00000E+00
         0.00000E+00
         0.00000E+00
         0.00000E+00
         0.00000E+00
         0.00000E+00
         0.00000E+00
         0.00000E+00
         0.00000E+00
         0.00000E+00
         0.00000E+00
         0.00000E+00
         0.00000E+00
         0.00000E+00
         0.00000E+00
         0.00000E+00
         0.00000E+00
         0.00000E+00
         0.00000E+00
         0.00000E+00
         0.00000E+00
         0.00000E+00
         0.00000E+00
         0.00000E+00
         0.00000E+00
         0.00000E+00
         0.00000E+00
         0.00000E+00
         0.00000E+00
         0.00000E+00
         0.00000E+00
         0.00000E+00
         0.00000E+00
         0.00000E+00
         0.00000E+00
         0.00000E+00
         0.00000E+00
         0.00000E+00
         0.00000E+00
         0.00000E+00
         0.00000E+00
         0.00000E+00
         0.00000E+00
         0.00000E+00
         0.00000E+00
         0.00000E+00
         0.00000E+00
         0.00000E+00
         0.00000E+00
         0.00000E+00
         0.00000E+00
         0.00000E+00
         0.00000E+00
         0.00000E+00
         0.00000E+00
         0.00000E+00
         0.00000E+00
         0.00000E+00
         0.00000E+00
         0.00000E+00
         0.00000E+00
         0.00000E+00
         0.00000E+00
         0.00000E+00
         0.00000E+00
         0.00000E+00
         0.00000E+00
         0.00000E+00
         0.00000E+00
         0.00000E+00
         0.00000E+00
         0.00000E+00
         0.00000E+00
         0.00000E+00
         0.00000E+00
         0.00000E+00
         0.00000E+00
         0.00000E+00
         0.00000E+00
         0.00000E+00
         0.00000E+00
         0.00000E+00
         0.00000E+00
         0.00000E+00
         0.00000E+00
         0.00000E+00
         0.00000E+00
         0.00000E+00
         0.00000E+00
         0.00000E+00
         0.00000E+00
         0.00000E+00
         0.00000E+00
         0.00000E+00
         0.00000E+00
         0.00000E+00
         0.00000E+00
         0.00000E+00
         0.00000E+00
         0.00000E+00
         0.00000E+00
         0.00000E+00
         0.00000E+00
         0.00000E+00
         0.00000E+00
         0.00000E+00
         0.00000E+00
         0.00000E+00
         0.00000E+00
         0.00000E+00
         0.00000E+00
         0.00000E+00
         0.00000E+00
         0.00000E+00
         0.00000E+00
         0.00000E+00
         0.00000E+00
         0.00000E+00
         0.00000E+00
         0.00000E+00
         0.00000E+00
         0.00000E+00
         0.00000E+00
         0.00000E+00
         0.00000E+00
         0.00000E+00
         0.00000E+00
         0.00000E+00
         0.00000E+00
         0.00000E+00
         0.00000E+00
         0.00000E+00
         0.00000E+00
         0.00000E+00
         0.00000E+00
         0.00000E+00
         0.00000E+00
         0.00000E+00
         0.00000E+00
         0.00000E+00
         0.00000E+00
         0.00000E+00
         0.00000E+00
         0.00000E+00
         0.00000E+00
         0.00000E+00
         0.00000E+00
         0.00000E+00
         0.00000E+00
         0.00000E+00
         0.00000E+00
         0.00000E+00
         0.00000E+00
         0.00000E+00
         0.00000E+00
         0.00000E+00
         0.00000E+00
         0.00000E+00
         0.00000E+00
         0.00000E+00
         0.00000E+00
         0.00000E+00
         0.00000E+00
         0.00000E+00
         0.00000E+00
         0.00000E+00
         0.00000E+00
         0.00000E+00
         0.00000E+00
         0.00000E+00
         0.00000E+00
         0.00000E+00
         0.00000E+00
         0.00000E+00
         0.00000E+00
         0.00000E+00
         0.00000E+00
         0.00000E+00
         0.00000E+00
         0.00000E+00
         0.00000E+00
         0.00000E+00
         0.00000E+00
         0.00000E+00
         0.00000E+00
         0.00000E+00
         0.00000E+00
         0.00000E+00
         0.00000E+00
         0.00000E+00
         0.00000E+00
         0.00000E+00
         0.00000E+00
         0.00000E+00
         0.00000E+00
         0.00000E+00
         0.00000E+00
         0.00000E+00
         0.00000E+00
         0.00000E+00
         0.00000E+00
         0.00000E+00
         0.00000E+00
         0.00000E+00
         0.00000E+00
         0.00000E+00
         0.00000E+00
         0.00000E+00
         0.00000E+00
         0.00000E+00
         0.00000E+00
         0.00000E+00
         0.00000E+00
         0.00000E+00
         0.00000E+00
         0.00000E+00
         0.00000E+00
         0.00000E+00
         0.00000E+00
         0.00000E+00
         0.00000E+00
         0.00000E+00
         0.00000E+00
         0.00000E+00
         0.00000E+00
         0.00000E+00
         0.00000E+00
         0.00000E+00
         0.00000E+00
         0.00000E+00
         0.00000E+00
         0.00000E+00
         0.00000E+00
         0.00000E+00
         0.00000E+00
         0.00000E+00
         0.00000E+00
         0.00000E+00
         0.00000E+00
         0.00000E+00
         0.00000E+00
         0.00000E+00
         0.00000E+00
         0.00000E+00
         0.00000E+00
         0.00000E+00
         0.00000E+00
         0.00000E+00
         0.00000E+00
         0.00000E+00
         0.00000E+00
         0.00000E+00
         0.00000E+00
         0.00000E+00
         0.00000E+00
         0.00000E+00
         0.00000E+00
         0.00000E+00
         0.00000E+00
         0.00000E+00
         0.00000E+00
         0.00000E+00
         0.00000E+00
         0.00000E+00
         0.00000E+00
         0.00000E+00
         0.00000E+00
         0.00000E+00
         0.00000E+00
         0.00000E+00
         0.00000E+00
         0.00000E+00
         0.00000E+00
         0.00000E+00
         0.00000E+00
         0.00000E+00
         0.00000E+00
         0.00000E+00
         0.00000E+00
         0.00000E+00
         0.00000E+00
         0.00000E+00
         0.00000E+00
         0.00000E+00
         0.00000E+00
         0.00000E+00
         0.00000E+00
         0.00000E+00
         0.00000E+00
         0.00000E+00
         0.00000E+00
         0.00000E+00
         0.00000E+00
         0.00000E+00
         0.00000E+00
         0.00000E+00
         0.00000E+00
         0.00000E+00
         0.00000E+00
         0.00000E+00
         0.00000E+00
         0.00000E+00
         0.00000E+00
         0.00000E+00
         0.00000E+00
         0.00000E+00
         0.00000E+00
         0.00000E+00
         0.00000E+00
         0.00000E+00
         0.00000E+00
         0.00000E+00
         0.00000E+00
         0.00000E+00
         0.00000E+00
         0.00000E+00
         0.00000E+00
         0.00000E+00
         0.00000E+00
         0.00000E+00
         0.00000E+00
         0.00000E+00
         0.00000E+00
         0.00000E+00
         0.00000E+00
         0.00000E+00
         0.00000E+00
         0.00000E+00
         0.00000E+00
         0.00000E+00
         0.00000E+00
         0.00000E+00
         0.00000E+00
         0.00000E+00
         0.00000E+00
         0.00000E+00
         0.00000E+00
         0.00000E+00
         0.00000E+00
         0.00000E+00
         0.00000E+00
         0.00000E+00
         0.00000E+00
         0.00000E+00
         0.00000E+00
         0.00000E+00
         0.00000E+00
         0.00000E+00
         0.00000E+00
         0.00000E+00
         0.00000E+00
         0.00000E+00
         0.00000E+00
         0.00000E+00
         0.00000E+00
         0.00000E+00
         0.00000E+00
         0.00000E+00
         0.00000E+00
         0.00000E+00
         0.00000E+00
         0.00000E+00
         0.00000E+00
         0.00000E+00
         0.00000E+00
         0.00000E+00
         0.00000E+00
         0.00000E+00
         0.00000E+00
         0.00000E+00
         0.00000E+00
         0.00000E+00
         0.00000E+00
         0.00000E+00
         0.00000E+00
         0.00000E+00
         0.00000E+00
         0.00000E+00
         0.00000E+00
         0.00000E+00
         0.00000E+00
         0.00000E+00
         0.00000E+00
         0.00000E+00
         0.00000E+00
         0.00000E+00
         0.00000E+00
         0.00000E+00
         0.00000E+00
         0.00000E+00
         0.00000E+00
         0.00000E+00
         0.00000E+00
         0.00000E+00
         0.00000E+00
         0.00000E+00
         0.00000E+00
         0.00000E+00
         0.00000E+00
         0.00000E+00
         0.00000E+00
         0.00000E+00
         0.00000E+00
         0.00000E+00
         0.00000E+00
         0.00000E+00
         0.00000E+00
         0.00000E+00
         0.00000E+00
         0.00000E+00
         0.00000E+00
         0.00000E+00
         0.00000E+00
         0.00000E+00
         0.00000E+00
         0.00000E+00
         0.00000E+00
         0.00000E+00
         0.00000E+00
         0.00000E+00
         0.00000E+00
         0.00000E+00
         0.00000E+00
         0.00000E+00
         0.00000E+00
         0.00000E+00
         0.00000E+00
         0.00000E+00
         0.00000E+00
         0.00000E+00
         0.00000E+00
         0.00000E+00
         0.00000E+00
         0.00000E+00
         0.00000E+00
         0.00000E+00
         0.00000E+00
         0.00000E+00
         0.00000E+00
         0.00000E+00
         0.00000E+00
         0.00000E+00
         0.00000E+00
         0.00000E+00
         0.00000E+00
         0.00000E+00
         0.00000E+00
         0.00000E+00
         0.00000E+00
         0.00000E+00
         0.00000E+00
         0.00000E+00
         0.00000E+00
         0.00000E+00
         0.00000E+00
         0.00000E+00
         0.00000E+00
         0.00000E+00
         0.00000E+00
         0.00000E+00
         0.00000E+00
         0.00000E+00
         0.00000E+00
         0.00000E+00
         0.00000E+00
         0.00000E+00
         0.00000E+00
         0.00000E+00
         0.00000E+00
         0.00000E+00
         0.00000E+00
         0.00000E+00
         0.00000E+00
         0.00000E+00
         0.00000E+00
         0.00000E+00
         0.00000E+00
         0.00000E+00
         0.00000E+00
         0.00000E+00
         0.00000E+00
         0.00000E+00
         0.00000E+00
         0.00000E+00
         0.00000E+00
         0.00000E+00
         0.00000E+00
         0.00000E+00
         0.00000E+00
         0.00000E+00
         0.00000E+00
         0.00000E+00
         0.00000E+00
         0.00000E+00
         0.00000E+00
         0.00000E+00
         0.00000E+00
         0.00000E+00
         0.00000E+00
         0.00000E+00
         0.00000E+00
         0.00000E+00
         0.00000E+00
         0.00000E+00
         0.00000E+00
         0.00000E+00
         0.00000E+00
         0.00000E+00
         0.00000E+00
         0.00000E+00
         0.00000E+00
         0.00000E+00
         0.00000E+00
         0.00000E+00
         0.00000E+00
         0.00000E+00
         0.00000E+00
         0.00000E+00
         0.00000E+00
         0.00000E+00
         0.00000E+00
         0.00000E+00
         0.00000E+00
         0.00000E+00
         0.00000E+00
         0.00000E+00
         0.00000E+00
         0.00000E+00
         0.00000E+00
         0.00000E+00
         0.00000E+00
         0.00000E+00
         0.00000E+00
         0.00000E+00
         0.00000E+00
         0.00000E+00
         0.00000E+00
         0.00000E+00
         0.00000E+00
         0.00000E+00
         0.00000E+00
         0.00000E+00
         0.00000E+00
         0.00000E+00
         0.00000E+00
         0.00000E+00
         0.00000E+00
         0.00000E+00
         0.00000E+00
         0.00000E+00
         0.00000E+00
         0.00000E+00
         0.00000E+00
         0.00000E+00
         0.00000E+00
         0.00000E+00
         0.00000E+00
         0.00000E+00
         0.00000E+00
         0.00000E+00
         0.00000E+00
         0.00000E+00
         0.00000E+00
         0.00000E+00
         0.00000E+00
         0.00000E+00
         0.00000E+00
         0.00000E+00
         0.00000E+00
         0.00000E+00
         0.00000E+00
         0.00000E+00
         0.00000E+00
         0.00000E+00
         0.00000E+00
         0.00000E+00
         0.00000E+00
  
SCALARS               pre_disp_force_z  double 1
LOOKUP_TABLE default
         0.00000E+00
         0.00000E+00
         0.00000E+00
         0.00000E+00
        -0.00000E+00
        -0.00000E+00
        -0.00000E+00
        -0.00000E+00
         0.00000E+00
         0.00000E+00
        -0.00000E+00
        -0.00000E+00
         0.00000E+00
         0.00000E+00
        -0.00000E+00
        -0.00000E+00
         0.00000E+00
         0.00000E+00
        -0.00000E+00
        -0.00000E+00
         0.00000E+00
         0.00000E+00
         0.00000E+00
        -0.00000E+00
        -0.00000E+00
        -0.00000E+00
         0.00000E+00
         0.00000E+00
        -0.00000E+00
        -0.00000E+00
         0.00000E+00
         0.00000E+00
         0.00000E+00
        -0.00000E+00
        -0.00000E+00
        -0.00000E+00
         0.00000E+00
         0.00000E+00
        -0.00000E+00
        -0.00000E+00
         0.00000E+00
         0.00000E+00
        -0.00000E+00
        -0.00000E+00
         0.00000E+00
         0.00000E+00
        -0.00000E+00
        -0.00000E+00
         0.00000E+00
        -0.00000E+00
         0.00000E+00
        -0.00000E+00
         0.00000E+00
        -0.00000E+00
         0.00000E+00
        -0.00000E+00
         0.00000E+00
         0.00000E+00
        -0.00000E+00
        -0.00000E+00
         0.00000E+00
         0.00000E+00
        -0.00000E+00
        -0.00000E+00
         0.00000E+00
        -0.00000E+00
         0.00000E+00
        -0.00000E+00
         0.00000E+00
         0.00000E+00
        -0.00000E+00
        -0.00000E+00
         0.00000E+00
        -0.00000E+00
         0.00000E+00
        -0.00000E+00
         0.00000E+00
        -0.00000E+00
         0.00000E+00
        -0.00000E+00
         0.00000E+00
         0.00000E+00
        -0.00000E+00
        -0.00000E+00
         0.00000E+00
        -0.00000E+00
         0.00000E+00
        -0.00000E+00
         0.00000E+00
        -0.00000E+00
         0.00000E+00
         0.00000E+00
        -0.00000E+00
        -0.00000E+00
         0.00000E+00
        -0.00000E+00
         0.00000E+00
        -0.00000E+00
         0.00000E+00
        -0.00000E+00
         0.00000E+00
         0.00000E+00
        -0.00000E+00
        -0.00000E+00
         0.00000E+00
         0.00000E+00
        -0.00000E+00
        -0.00000E+00
         0.00000E+00
        -0.00000E+00
         0.00000E+00
        -0.00000E+00
         0.00000E+00
        -0.00000E+00
         0.00000E+00
        -0.00000E+00
         0.00000E+00
        -0.00000E+00
         0.00000E+00
        -0.00000E+00
         0.00000E+00
        -0.00000E+00
         0.00000E+00
        -0.00000E+00
         0.00000E+00
        -0.00000E+00
         0.00000E+00
        -0.00000E+00
         0.00000E+00
        -0.00000E+00
         0.00000E+00
        -0.00000E+00
         0.00000E+00
        -0.00000E+00
         0.00000E+00
        -0.00000E+00
         0.00000E+00
        -0.00000E+00
         0.00000E+00
        -0.00000E+00
         0.00000E+00
        -0.00000E+00
         0.00000E+00
        -0.00000E+00
         0.00000E+00
        -0.00000E+00
         0.00000E+00
        -0.00000E+00
         0.00000E+00
        -0.00000E+00
         0.00000E+00
        -0.00000E+00
         0.00000E+00
        -0.00000E+00
         0.00000E+00
        -0.00000E+00
         0.00000E+00
         0.00000E+00
         0.00000E+00
         0.00000E+00
         0.00000E+00
         0.00000E+00
         0.00000E+00
         0.00000E+00
         0.00000E+00
         0.00000E+00
         0.00000E+00
         0.00000E+00
         0.00000E+00
         0.00000E+00
         0.00000E+00
         0.00000E+00
         0.00000E+00
         0.00000E+00
         0.00000E+00
         0.00000E+00
         0.00000E+00
         0.00000E+00
         0.00000E+00
         0.00000E+00
         0.00000E+00
         0.00000E+00
         0.00000E+00
         0.00000E+00
         0.00000E+00
         0.00000E+00
         0.00000E+00
         0.00000E+00
         0.00000E+00
         0.00000E+00
         0.00000E+00
         0.00000E+00
         0.00000E+00
         0.00000E+00
         0.00000E+00
         0.00000E+00
         0.00000E+00
         0.00000E+00
         0.00000E+00
         0.00000E+00
         0.00000E+00
         0.00000E+00
         0.00000E+00
         0.00000E+00
         0.00000E+00
         0.00000E+00
         0.00000E+00
         0.00000E+00
         0.00000E+00
         0.00000E+00
         0.00000E+00
         0.00000E+00
         0.00000E+00
         0.00000E+00
         0.00000E+00
         0.00000E+00
         0.00000E+00
         0.00000E+00
         0.00000E+00
         0.00000E+00
         0.00000E+00
         0.00000E+00
         0.00000E+00
         0.00000E+00
         0.00000E+00
         0.00000E+00
         0.00000E+00
         0.00000E+00
         0.00000E+00
         0.00000E+00
         0.00000E+00
         0.00000E+00
         0.00000E+00
         0.00000E+00
         0.00000E+00
         0.00000E+00
         0.00000E+00
         0.00000E+00
         0.00000E+00
         0.00000E+00
         0.00000E+00
         0.00000E+00
         0.00000E+00
         0.00000E+00
         0.00000E+00
         0.00000E+00
         0.00000E+00
         0.00000E+00
         0.00000E+00
         0.00000E+00
         0.00000E+00
         0.00000E+00
         0.00000E+00
         0.00000E+00
         0.00000E+00
         0.00000E+00
         0.00000E+00
         0.00000E+00
         0.00000E+00
         0.00000E+00
         0.00000E+00
         0.00000E+00
         0.00000E+00
         0.00000E+00
         0.00000E+00
         0.00000E+00
         0.00000E+00
         0.00000E+00
         0.00000E+00
         0.00000E+00
         0.00000E+00
         0.00000E+00
         0.00000E+00
         0.00000E+00
         0.00000E+00
         0.00000E+00
         0.00000E+00
         0.00000E+00
         0.00000E+00
         0.00000E+00
         0.00000E+00
         0.00000E+00
         0.00000E+00
         0.00000E+00
         0.00000E+00
         0.00000E+00
         0.00000E+00
         0.00000E+00
         0.00000E+00
         0.00000E+00
         0.00000E+00
         0.00000E+00
         0.00000E+00
         0.00000E+00
         0.00000E+00
         0.00000E+00
         0.00000E+00
         0.00000E+00
         0.00000E+00
         0.00000E+00
         0.00000E+00
         0.00000E+00
         0.00000E+00
         0.00000E+00
         0.00000E+00
         0.00000E+00
         0.00000E+00
         0.00000E+00
         0.00000E+00
         0.00000E+00
         0.00000E+00
         0.00000E+00
         0.00000E+00
         0.00000E+00
         0.00000E+00
         0.00000E+00
         0.00000E+00
         0.00000E+00
         0.00000E+00
         0.00000E+00
         0.00000E+00
         0.00000E+00
         0.00000E+00
         0.00000E+00
         0.00000E+00
         0.00000E+00
         0.00000E+00
         0.00000E+00
         0.00000E+00
         0.00000E+00
         0.00000E+00
         0.00000E+00
         0.00000E+00
         0.00000E+00
         0.00000E+00
         0.00000E+00
         0.00000E+00
         0.00000E+00
         0.00000E+00
         0.00000E+00
         0.00000E+00
         0.00000E+00
         0.00000E+00
         0.00000E+00
         0.00000E+00
         0.00000E+00
         0.00000E+00
         0.00000E+00
         0.00000E+00
         0.00000E+00
         0.00000E+00
         0.00000E+00
         0.00000E+00
         0.00000E+00
         0.00000E+00
         0.00000E+00
         0.00000E+00
         0.00000E+00
         0.00000E+00
         0.00000E+00
         0.00000E+00
         0.00000E+00
         0.00000E+00
         0.00000E+00
         0.00000E+00
         0.00000E+00
         0.00000E+00
         0.00000E+00
         0.00000E+00
         0.00000E+00
         0.00000E+00
         0.00000E+00
         0.00000E+00
         0.00000E+00
         0.00000E+00
         0.00000E+00
         0.00000E+00
         0.00000E+00
         0.00000E+00
         0.00000E+00
         0.00000E+00
         0.00000E+00
         0.00000E+00
         0.00000E+00
         0.00000E+00
         0.00000E+00
         0.00000E+00
         0.00000E+00
         0.00000E+00
         0.00000E+00
         0.00000E+00
         0.00000E+00
         0.00000E+00
         0.00000E+00
         0.00000E+00
         0.00000E+00
         0.00000E+00
         0.00000E+00
         0.00000E+00
         0.00000E+00
         0.00000E+00
         0.00000E+00
         0.00000E+00
         0.00000E+00
         0.00000E+00
         0.00000E+00
         0.00000E+00
         0.00000E+00
         0.00000E+00
         0.00000E+00
         0.00000E+00
         0.00000E+00
         0.00000E+00
         0.00000E+00
         0.00000E+00
         0.00000E+00
         0.00000E+00
         0.00000E+00
         0.00000E+00
         0.00000E+00
         0.00000E+00
         0.00000E+00
         0.00000E+00
         0.00000E+00
         0.00000E+00
         0.00000E+00
         0.00000E+00
         0.00000E+00
         0.00000E+00
         0.00000E+00
         0.00000E+00
         0.00000E+00
         0.00000E+00
         0.00000E+00
         0.00000E+00
         0.00000E+00
         0.00000E+00
         0.00000E+00
         0.00000E+00
         0.00000E+00
         0.00000E+00
         0.00000E+00
         0.00000E+00
         0.00000E+00
         0.00000E+00
         0.00000E+00
         0.00000E+00
         0.00000E+00
         0.00000E+00
         0.00000E+00
         0.00000E+00
         0.00000E+00
         0.00000E+00
         0.00000E+00
         0.00000E+00
         0.00000E+00
         0.00000E+00
         0.00000E+00
         0.00000E+00
         0.00000E+00
         0.00000E+00
         0.00000E+00
         0.00000E+00
         0.00000E+00
         0.00000E+00
         0.00000E+00
         0.00000E+00
         0.00000E+00
         0.00000E+00
         0.00000E+00
         0.00000E+00
         0.00000E+00
         0.00000E+00
         0.00000E+00
         0.00000E+00
         0.00000E+00
         0.00000E+00
         0.00000E+00
         0.00000E+00
         0.00000E+00
         0.00000E+00
         0.00000E+00
         0.00000E+00
         0.00000E+00
         0.00000E+00
         0.00000E+00
         0.00000E+00
         0.00000E+00
         0.00000E+00
         0.00000E+00
         0.00000E+00
         0.00000E+00
         0.00000E+00
         0.00000E+00
         0.00000E+00
         0.00000E+00
         0.00000E+00
         0.00000E+00
         0.00000E+00
         0.00000E+00
         0.00000E+00
         0.00000E+00
         0.00000E+00
         0.00000E+00
         0.00000E+00
         0.00000E+00
         0.00000E+00
         0.00000E+00
         0.00000E+00
         0.00000E+00
         0.00000E+00
         0.00000E+00
         0.00000E+00
         0.00000E+00
         0.00000E+00
         0.00000E+00
         0.00000E+00
         0.00000E+00
         0.00000E+00
         0.00000E+00
         0.00000E+00
         0.00000E+00
         0.00000E+00
         0.00000E+00
         0.00000E+00
         0.00000E+00
         0.00000E+00
         0.00000E+00
         0.00000E+00
         0.00000E+00
         0.00000E+00
         0.00000E+00
         0.00000E+00
         0.00000E+00
         0.00000E+00
         0.00000E+00
         0.00000E+00
         0.00000E+00
         0.00000E+00
         0.00000E+00
         0.00000E+00
         0.00000E+00
         0.00000E+00
         0.00000E+00
         0.00000E+00
         0.00000E+00
         0.00000E+00
         0.00000E+00
         0.00000E+00
         0.00000E+00
         0.00000E+00
         0.00000E+00
         0.00000E+00
         0.00000E+00
         0.00000E+00
         0.00000E+00
         0.00000E+00
         0.00000E+00
         0.00000E+00
         0.00000E+00
         0.00000E+00
         0.00000E+00
         0.00000E+00
         0.00000E+00
         0.00000E+00
         0.00000E+00
         0.00000E+00
         0.00000E+00
         0.00000E+00
         0.00000E+00
         0.00000E+00
         0.00000E+00
         0.00000E+00
         0.00000E+00
         0.00000E+00
         0.00000E+00
         0.00000E+00
         0.00000E+00
         0.00000E+00
         0.00000E+00
         0.00000E+00
         0.00000E+00
         0.00000E+00
         0.00000E+00
         0.00000E+00
         0.00000E+00
         0.00000E+00
         0.00000E+00
         0.00000E+00
         0.00000E+00
         0.00000E+00
         0.00000E+00
         0.00000E+00
         0.00000E+00
         0.00000E+00
         0.00000E+00
         0.00000E+00
         0.00000E+00
         0.00000E+00
         0.00000E+00
         0.00000E+00
         0.00000E+00
         0.00000E+00
         0.00000E+00
         0.00000E+00
         0.00000E+00
         0.00000E+00
         0.00000E+00
         0.00000E+00
         0.00000E+00
         0.00000E+00
         0.00000E+00
         0.00000E+00
         0.00000E+00
         0.00000E+00
         0.00000E+00
         0.00000E+00
         0.00000E+00
         0.00000E+00
         0.00000E+00
         0.00000E+00
         0.00000E+00
         0.00000E+00
         0.00000E+00
         0.00000E+00
         0.00000E+00
         0.00000E+00
         0.00000E+00
         0.00000E+00
         0.00000E+00
         0.00000E+00
         0.00000E+00
         0.00000E+00
         0.00000E+00
         0.00000E+00
         0.00000E+00
         0.00000E+00
         0.00000E+00
         0.00000E+00
         0.00000E+00
         0.00000E+00
         0.00000E+00
         0.00000E+00
         0.00000E+00
         0.00000E+00
         0.00000E+00
         0.00000E+00
         0.00000E+00
         0.00000E+00
         0.00000E+00
         0.00000E+00
         0.00000E+00
         0.00000E+00
         0.00000E+00
         0.00000E+00
         0.00000E+00
         0.00000E+00
         0.00000E+00
         0.00000E+00
         0.00000E+00
         0.00000E+00
         0.00000E+00
         0.00000E+00
         0.00000E+00
         0.00000E+00
         0.00000E+00
         0.00000E+00
         0.00000E+00
         0.00000E+00
         0.00000E+00
         0.00000E+00
         0.00000E+00
         0.00000E+00
         0.00000E+00
         0.00000E+00
         0.00000E+00
         0.00000E+00
         0.00000E+00
         0.00000E+00
         0.00000E+00
         0.00000E+00
         0.00000E+00
         0.00000E+00
         0.00000E+00
         0.00000E+00
         0.00000E+00
         0.00000E+00
         0.00000E+00
         0.00000E+00
         0.00000E+00
         0.00000E+00
         0.00000E+00
         0.00000E+00
         0.00000E+00
         0.00000E+00
         0.00000E+00
         0.00000E+00
         0.00000E+00
         0.00000E+00
         0.00000E+00
         0.00000E+00
         0.00000E+00
         0.00000E+00
         0.00000E+00
         0.00000E+00
         0.00000E+00
         0.00000E+00
         0.00000E+00
         0.00000E+00
         0.00000E+00
         0.00000E+00
         0.00000E+00
         0.00000E+00
         0.00000E+00
         0.00000E+00
         0.00000E+00
         0.00000E+00
         0.00000E+00
         0.00000E+00
         0.00000E+00
         0.00000E+00
         0.00000E+00
         0.00000E+00
         0.00000E+00
         0.00000E+00
         0.00000E+00
         0.00000E+00
         0.00000E+00
         0.00000E+00
         0.00000E+00
         0.00000E+00
         0.00000E+00
         0.00000E+00
         0.00000E+00
         0.00000E+00
         0.00000E+00
         0.00000E+00
         0.00000E+00
         0.00000E+00
         0.00000E+00
         0.00000E+00
         0.00000E+00
         0.00000E+00
         0.00000E+00
         0.00000E+00
         0.00000E+00
         0.00000E+00
         0.00000E+00
         0.00000E+00
         0.00000E+00
         0.00000E+00
         0.00000E+00
         0.00000E+00
         0.00000E+00
         0.00000E+00
         0.00000E+00
         0.00000E+00
         0.00000E+00
         0.00000E+00
         0.00000E+00
         0.00000E+00
         0.00000E+00
         0.00000E+00
         0.00000E+00
         0.00000E+00
         0.00000E+00
         0.00000E+00
         0.00000E+00
         0.00000E+00
         0.00000E+00
         0.00000E+00
         0.00000E+00
         0.00000E+00
         0.00000E+00
         0.00000E+00
         0.00000E+00
         0.00000E+00
         0.00000E+00
         0.00000E+00
         0.00000E+00
         0.00000E+00
         0.00000E+00
         0.00000E+00
         0.00000E+00
         0.00000E+00
         0.00000E+00
         0.00000E+00
         0.00000E+00
         0.00000E+00
         0.00000E+00
         0.00000E+00
         0.00000E+00
         0.00000E+00
         0.00000E+00
         0.00000E+00
         0.00000E+00
         0.00000E+00
         0.00000E+00
         0.00000E+00
         0.00000E+00
         0.00000E+00
         0.00000E+00
         0.00000E+00
         0.00000E+00
         0.00000E+00
         0.00000E+00
         0.00000E+00
         0.00000E+00
         0.00000E+00
         0.00000E+00
         0.00000E+00
         0.00000E+00
         0.00000E+00
         0.00000E+00
         0.00000E+00
         0.00000E+00
         0.00000E+00
         0.00000E+00
         0.00000E+00
         0.00000E+00
         0.00000E+00
         0.00000E+00
         0.00000E+00
         0.00000E+00
         0.00000E+00
         0.00000E+00
         0.00000E+00
         0.00000E+00
         0.00000E+00
         0.00000E+00
         0.00000E+00
         0.00000E+00
         0.00000E+00
         0.00000E+00
         0.00000E+00
         0.00000E+00
         0.00000E+00
         0.00000E+00
         0.00000E+00
         0.00000E+00
         0.00000E+00
         0.00000E+00
         0.00000E+00
         0.00000E+00
         0.00000E+00
         0.00000E+00
         0.00000E+00
         0.00000E+00
         0.00000E+00
         0.00000E+00
         0.00000E+00
         0.00000E+00
         0.00000E+00
         0.00000E+00
         0.00000E+00
         0.00000E+00
         0.00000E+00
         0.00000E+00
         0.00000E+00
         0.00000E+00
         0.00000E+00
         0.00000E+00
         0.00000E+00
         0.00000E+00
         0.00000E+00
         0.00000E+00
         0.00000E+00
         0.00000E+00
         0.00000E+00
         0.00000E+00
         0.00000E+00
         0.00000E+00
         0.00000E+00
         0.00000E+00
         0.00000E+00
         0.00000E+00
         0.00000E+00
         0.00000E+00
         0.00000E+00
         0.00000E+00
         0.00000E+00
         0.00000E+00
         0.00000E+00
         0.00000E+00
         0.00000E+00
         0.00000E+00
         0.00000E+00
         0.00000E+00
         0.00000E+00
         0.00000E+00
         0.00000E+00
         0.00000E+00
         0.00000E+00
         0.00000E+00
         0.00000E+00
         0.00000E+00
         0.00000E+00
         0.00000E+00
         0.00000E+00
         0.00000E+00
         0.00000E+00
         0.00000E+00
         0.00000E+00
         0.00000E+00
         0.00000E+00
         0.00000E+00
         0.00000E+00
         0.00000E+00
         0.00000E+00
         0.00000E+00
         0.00000E+00
         0.00000E+00
         0.00000E+00
         0.00000E+00
         0.00000E+00
         0.00000E+00
         0.00000E+00
         0.00000E+00
         0.00000E+00
         0.00000E+00
         0.00000E+00
         0.00000E+00
         0.00000E+00
         0.00000E+00
         0.00000E+00
         0.00000E+00
         0.00000E+00
         0.00000E+00
         0.00000E+00
         0.00000E+00
         0.00000E+00
         0.00000E+00
         0.00000E+00
         0.00000E+00
         0.00000E+00
         0.00000E+00
         0.00000E+00
         0.00000E+00
         0.00000E+00
         0.00000E+00
         0.00000E+00
         0.00000E+00
         0.00000E+00
         0.00000E+00
         0.00000E+00
         0.00000E+00
         0.00000E+00
         0.00000E+00
         0.00000E+00
         0.00000E+00
         0.00000E+00
         0.00000E+00
         0.00000E+00
         0.00000E+00
         0.00000E+00
         0.00000E+00
         0.00000E+00
         0.00000E+00
         0.00000E+00
         0.00000E+00
         0.00000E+00
         0.00000E+00
         0.00000E+00
         0.00000E+00
         0.00000E+00
         0.00000E+00
         0.00000E+00
         0.00000E+00
         0.00000E+00
         0.00000E+00
         0.00000E+00
         0.00000E+00
         0.00000E+00
         0.00000E+00
         0.00000E+00
         0.00000E+00
         0.00000E+00
         0.00000E+00
         0.00000E+00
         0.00000E+00
         0.00000E+00
         0.00000E+00
         0.00000E+00
         0.00000E+00
         0.00000E+00
         0.00000E+00
         0.00000E+00
         0.00000E+00
         0.00000E+00
         0.00000E+00
         0.00000E+00
         0.00000E+00
         0.00000E+00
         0.00000E+00
         0.00000E+00
         0.00000E+00
         0.00000E+00
         0.00000E+00
         0.00000E+00
         0.00000E+00
         0.00000E+00
         0.00000E+00
         0.00000E+00
         0.00000E+00
         0.00000E+00
         0.00000E+00
         0.00000E+00
         0.00000E+00
         0.00000E+00
         0.00000E+00
         0.00000E+00
         0.00000E+00
         0.00000E+00
         0.00000E+00
         0.00000E+00
         0.00000E+00
         0.00000E+00
         0.00000E+00
         0.00000E+00
         0.00000E+00
         0.00000E+00
         0.00000E+00
         0.00000E+00
         0.00000E+00
         0.00000E+00
         0.00000E+00
         0.00000E+00
         0.00000E+00
         0.00000E+00
         0.00000E+00
         0.00000E+00
         0.00000E+00
         0.00000E+00
         0.00000E+00
         0.00000E+00
         0.00000E+00
         0.00000E+00
         0.00000E+00
         0.00000E+00
         0.00000E+00
         0.00000E+00
         0.00000E+00
         0.00000E+00
         0.00000E+00
         0.00000E+00
         0.00000E+00
         0.00000E+00
         0.00000E+00
         0.00000E+00
         0.00000E+00
         0.00000E+00
         0.00000E+00
         0.00000E+00
         0.00000E+00
         0.00000E+00
         0.00000E+00
         0.00000E+00
         0.00000E+00
         0.00000E+00
         0.00000E+00
         0.00000E+00
         0.00000E+00
         0.00000E+00
         0.00000E+00
         0.00000E+00
         0.00000E+00
         0.00000E+00
         0.00000E+00
         0.00000E+00
         0.00000E+00
         0.00000E+00
         0.00000E+00
         0.00000E+00
         0.00000E+00
         0.00000E+00
         0.00000E+00
         0.00000E+00
         0.00000E+00
         0.00000E+00
         0.00000E+00
         0.00000E+00
         0.00000E+00
         0.00000E+00
         0.00000E+00
         0.00000E+00
         0.00000E+00
         0.00000E+00
         0.00000E+00
         0.00000E+00
         0.00000E+00
         0.00000E+00
         0.00000E+00
         0.00000E+00
         0.00000E+00
         0.00000E+00
         0.00000E+00
         0.00000E+00
         0.00000E+00
         0.00000E+00
         0.00000E+00
         0.00000E+00
         0.00000E+00
         0.00000E+00
         0.00000E+00
         0.00000E+00
         0.00000E+00
         0.00000E+00
         0.00000E+00
         0.00000E+00
         0.00000E+00
         0.00000E+00
         0.00000E+00
         0.00000E+00
         0.00000E+00
         0.00000E+00
         0.00000E+00
         0.00000E+00
         0.00000E+00
         0.00000E+00
         0.00000E+00
         0.00000E+00
         0.00000E+00
         0.00000E+00
         0.00000E+00
         0.00000E+00
         0.00000E+00
         0.00000E+00
         0.00000E+00
         0.00000E+00
         0.00000E+00
         0.00000E+00
         0.00000E+00
         0.00000E+00
         0.00000E+00
         0.00000E+00
         0.00000E+00
         0.00000E+00
         0.00000E+00
         0.00000E+00
         0.00000E+00
         0.00000E+00
         0.00000E+00
         0.00000E+00
         0.00000E+00
         0.00000E+00
         0.00000E+00
         0.00000E+00
         0.00000E+00
         0.00000E+00
         0.00000E+00
         0.00000E+00
         0.00000E+00
         0.00000E+00
         0.00000E+00
         0.00000E+00
         0.00000E+00
         0.00000E+00
         0.00000E+00
         0.00000E+00
         0.00000E+00
         0.00000E+00
         0.00000E+00
         0.00000E+00
         0.00000E+00
         0.00000E+00
         0.00000E+00
         0.00000E+00
         0.00000E+00
         0.00000E+00
         0.00000E+00
         0.00000E+00
         0.00000E+00
         0.00000E+00
         0.00000E+00
         0.00000E+00
         0.00000E+00
         0.00000E+00
         0.00000E+00
         0.00000E+00
         0.00000E+00
         0.00000E+00
         0.00000E+00
         0.00000E+00
         0.00000E+00
         0.00000E+00
         0.00000E+00
         0.00000E+00
         0.00000E+00
         0.00000E+00
         0.00000E+00
         0.00000E+00
         0.00000E+00
         0.00000E+00
         0.00000E+00
         0.00000E+00
         0.00000E+00
         0.00000E+00
         0.00000E+00
         0.00000E+00
         0.00000E+00
         0.00000E+00
         0.00000E+00
         0.00000E+00
         0.00000E+00
         0.00000E+00
         0.00000E+00
         0.00000E+00
         0.00000E+00
         0.00000E+00
         0.00000E+00
         0.00000E+00
         0.00000E+00
         0.00000E+00
         0.00000E+00
         0.00000E+00
         0.00000E+00
         0.00000E+00
         0.00000E+00
         0.00000E+00
         0.00000E+00
         0.00000E+00
         0.00000E+00
         0.00000E+00
         0.00000E+00
         0.00000E+00
         0.00000E+00
         0.00000E+00
         0.00000E+00
         0.00000E+00
         0.00000E+00
         0.00000E+00
         0.00000E+00
         0.00000E+00
         0.00000E+00
         0.00000E+00
         0.00000E+00
         0.00000E+00
         0.00000E+00
         0.00000E+00
         0.00000E+00
         0.00000E+00
         0.00000E+00
         0.00000E+00
         0.00000E+00
         0.00000E+00
         0.00000E+00
         0.00000E+00
         0.00000E+00
         0.00000E+00
         0.00000E+00
         0.00000E+00
         0.00000E+00
         0.00000E+00
         0.00000E+00
         0.00000E+00
         0.00000E+00
         0.00000E+00
         0.00000E+00
         0.00000E+00
         0.00000E+00
         0.00000E+00
         0.00000E+00
         0.00000E+00
         0.00000E+00
         0.00000E+00
         0.00000E+00
         0.00000E+00
         0.00000E+00
         0.00000E+00
         0.00000E+00
         0.00000E+00
         0.00000E+00
         0.00000E+00
         0.00000E+00
         0.00000E+00
         0.00000E+00
         0.00000E+00
         0.00000E+00
         0.00000E+00
         0.00000E+00
         0.00000E+00
         0.00000E+00
         0.00000E+00
         0.00000E+00
         0.00000E+00
         0.00000E+00
         0.00000E+00
         0.00000E+00
         0.00000E+00
         0.00000E+00
         0.00000E+00
         0.00000E+00
         0.00000E+00
         0.00000E+00
         0.00000E+00
         0.00000E+00
         0.00000E+00
         0.00000E+00
         0.00000E+00
         0.00000E+00
         0.00000E+00
         0.00000E+00
         0.00000E+00
         0.00000E+00
         0.00000E+00
         0.00000E+00
         0.00000E+00
         0.00000E+00
         0.00000E+00
         0.00000E+00
         0.00000E+00
         0.00000E+00
         0.00000E+00
         0.00000E+00
         0.00000E+00
         0.00000E+00
         0.00000E+00
         0.00000E+00
         0.00000E+00
         0.00000E+00
         0.00000E+00
         0.00000E+00
         0.00000E+00
         0.00000E+00
         0.00000E+00
         0.00000E+00
         0.00000E+00
         0.00000E+00
         0.00000E+00
         0.00000E+00
         0.00000E+00
         0.00000E+00
         0.00000E+00
         0.00000E+00
         0.00000E+00
         0.00000E+00
         0.00000E+00
         0.00000E+00
         0.00000E+00
         0.00000E+00
         0.00000E+00
         0.00000E+00
         0.00000E+00
         0.00000E+00
         0.00000E+00
         0.00000E+00
         0.00000E+00
         0.00000E+00
         0.00000E+00
         0.00000E+00
         0.00000E+00
         0.00000E+00
         0.00000E+00
         0.00000E+00
         0.00000E+00
         0.00000E+00
         0.00000E+00
         0.00000E+00
         0.00000E+00
         0.00000E+00
         0.00000E+00
         0.00000E+00
         0.00000E+00
         0.00000E+00
         0.00000E+00
         0.00000E+00
         0.00000E+00
         0.00000E+00
         0.00000E+00
         0.00000E+00
         0.00000E+00
         0.00000E+00
         0.00000E+00
         0.00000E+00
         0.00000E+00
         0.00000E+00
         0.00000E+00
         0.00000E+00
         0.00000E+00
         0.00000E+00
         0.00000E+00
         0.00000E+00
         0.00000E+00
         0.00000E+00
         0.00000E+00
         0.00000E+00
         0.00000E+00
         0.00000E+00
         0.00000E+00
         0.00000E+00
         0.00000E+00
         0.00000E+00
         0.00000E+00
         0.00000E+00
         0.00000E+00
         0.00000E+00
         0.00000E+00
         0.00000E+00
         0.00000E+00
         0.00000E+00
         0.00000E+00
         0.00000E+00
         0.00000E+00
         0.00000E+00
         0.00000E+00
         0.00000E+00
         0.00000E+00
         0.00000E+00
         0.00000E+00
         0.00000E+00
         0.00000E+00
         0.00000E+00
         0.00000E+00
         0.00000E+00
         0.00000E+00
         0.00000E+00
         0.00000E+00
         0.00000E+00
         0.00000E+00
         0.00000E+00
         0.00000E+00
         0.00000E+00
         0.00000E+00
         0.00000E+00
         0.00000E+00
         0.00000E+00
         0.00000E+00
         0.00000E+00
         0.00000E+00
         0.00000E+00
         0.00000E+00
         0.00000E+00
         0.00000E+00
         0.00000E+00
         0.00000E+00
         0.00000E+00
         0.00000E+00
         0.00000E+00
         0.00000E+00
         0.00000E+00
         0.00000E+00
         0.00000E+00
         0.00000E+00
         0.00000E+00
         0.00000E+00
         0.00000E+00
         0.00000E+00
         0.00000E+00
         0.00000E+00
         0.00000E+00
         0.00000E+00
         0.00000E+00
         0.00000E+00
         0.00000E+00
         0.00000E+00
         0.00000E+00
         0.00000E+00
         0.00000E+00
         0.00000E+00
         0.00000E+00
         0.00000E+00
         0.00000E+00
         0.00000E+00
         0.00000E+00
         0.00000E+00
         0.00000E+00
         0.00000E+00
         0.00000E+00
         0.00000E+00
         0.00000E+00
         0.00000E+00
         0.00000E+00
         0.00000E+00
         0.00000E+00
         0.00000E+00
         0.00000E+00
         0.00000E+00
         0.00000E+00
         0.00000E+00
         0.00000E+00
         0.00000E+00
         0.00000E+00
         0.00000E+00
         0.00000E+00
         0.00000E+00
         0.00000E+00
         0.00000E+00
         0.00000E+00
         0.00000E+00
         0.00000E+00
         0.00000E+00
         0.00000E+00
         0.00000E+00
         0.00000E+00
         0.00000E+00
         0.00000E+00
         0.00000E+00
         0.00000E+00
         0.00000E+00
         0.00000E+00
         0.00000E+00
         0.00000E+00
         0.00000E+00
         0.00000E+00
         0.00000E+00
         0.00000E+00
         0.00000E+00
         0.00000E+00
         0.00000E+00
         0.00000E+00
         0.00000E+00
         0.00000E+00
         0.00000E+00
         0.00000E+00
         0.00000E+00
         0.00000E+00
         0.00000E+00
         0.00000E+00
         0.00000E+00
         0.00000E+00
         0.00000E+00
         0.00000E+00
         0.00000E+00
         0.00000E+00
         0.00000E+00
         0.00000E+00
         0.00000E+00
         0.00000E+00
         0.00000E+00
         0.00000E+00
         0.00000E+00
         0.00000E+00
         0.00000E+00
         0.00000E+00
         0.00000E+00
         0.00000E+00
         0.00000E+00
         0.00000E+00
         0.00000E+00
         0.00000E+00
         0.00000E+00
         0.00000E+00
         0.00000E+00
         0.00000E+00
         0.00000E+00
         0.00000E+00
         0.00000E+00
         0.00000E+00
         0.00000E+00
         0.00000E+00
         0.00000E+00
         0.00000E+00
         0.00000E+00
         0.00000E+00
         0.00000E+00
         0.00000E+00
         0.00000E+00
         0.00000E+00
         0.00000E+00
         0.00000E+00
         0.00000E+00
         0.00000E+00
         0.00000E+00
         0.00000E+00
         0.00000E+00
         0.00000E+00
         0.00000E+00
         0.00000E+00
         0.00000E+00
         0.00000E+00
         0.00000E+00
         0.00000E+00
         0.00000E+00
         0.00000E+00
         0.00000E+00
         0.00000E+00
         0.00000E+00
         0.00000E+00
         0.00000E+00
         0.00000E+00
         0.00000E+00
         0.00000E+00
         0.00000E+00
         0.00000E+00
         0.00000E+00
         0.00000E+00
         0.00000E+00
         0.00000E+00
         0.00000E+00
         0.00000E+00
         0.00000E+00
         0.00000E+00
         0.00000E+00
         0.00000E+00
         0.00000E+00
         0.00000E+00
         0.00000E+00
         0.00000E+00
         0.00000E+00
         0.00000E+00
         0.00000E+00
         0.00000E+00
         0.00000E+00
         0.00000E+00
         0.00000E+00
         0.00000E+00
         0.00000E+00
         0.00000E+00
         0.00000E+00
         0.00000E+00
         0.00000E+00
         0.00000E+00
         0.00000E+00
         0.00000E+00
         0.00000E+00
         0.00000E+00
         0.00000E+00
         0.00000E+00
         0.00000E+00
         0.00000E+00
         0.00000E+00
         0.00000E+00
         0.00000E+00
         0.00000E+00
         0.00000E+00
         0.00000E+00
         0.00000E+00
         0.00000E+00
         0.00000E+00
         0.00000E+00
         0.00000E+00
         0.00000E+00
         0.00000E+00
         0.00000E+00
         0.00000E+00
         0.00000E+00
         0.00000E+00
         0.00000E+00
         0.00000E+00
         0.00000E+00
         0.00000E+00
         0.00000E+00
         0.00000E+00
         0.00000E+00
         0.00000E+00
         0.00000E+00
         0.00000E+00
         0.00000E+00
         0.00000E+00
         0.00000E+00
         0.00000E+00
         0.00000E+00
         0.00000E+00
         0.00000E+00
         0.00000E+00
         0.00000E+00
         0.00000E+00
         0.00000E+00
         0.00000E+00
         0.00000E+00
         0.00000E+00
         0.00000E+00
         0.00000E+00
         0.00000E+00
         0.00000E+00
         0.00000E+00
         0.00000E+00
         0.00000E+00
         0.00000E+00
         0.00000E+00
         0.00000E+00
         0.00000E+00
         0.00000E+00
         0.00000E+00
         0.00000E+00
         0.00000E+00
         0.00000E+00
         0.00000E+00
         0.00000E+00
         0.00000E+00
         0.00000E+00
         0.00000E+00
         0.00000E+00
         0.00000E+00
         0.00000E+00
         0.00000E+00
         0.00000E+00
         0.00000E+00
         0.00000E+00
         0.00000E+00
         0.00000E+00
         0.00000E+00
         0.00000E+00
         0.00000E+00
         0.00000E+00
         0.00000E+00
         0.00000E+00
         0.00000E+00
         0.00000E+00
         0.00000E+00
         0.00000E+00
         0.00000E+00
         0.00000E+00
         0.00000E+00
         0.00000E+00
         0.00000E+00
         0.00000E+00
         0.00000E+00
         0.00000E+00
         0.00000E+00
         0.00000E+00
         0.00000E+00
         0.00000E+00
         0.00000E+00
         0.00000E+00
         0.00000E+00
         0.00000E+00
         0.00000E+00
         0.00000E+00
         0.00000E+00
         0.00000E+00
         0.00000E+00
         0.00000E+00
         0.00000E+00
         0.00000E+00
         0.00000E+00
         0.00000E+00
         0.00000E+00
         0.00000E+00
         0.00000E+00
         0.00000E+00
         0.00000E+00
         0.00000E+00
         0.00000E+00
         0.00000E+00
         0.00000E+00
         0.00000E+00
         0.00000E+00
         0.00000E+00
         0.00000E+00
         0.00000E+00
         0.00000E+00
         0.00000E+00
         0.00000E+00
         0.00000E+00
         0.00000E+00
         0.00000E+00
         0.00000E+00
         0.00000E+00
         0.00000E+00
         0.00000E+00
         0.00000E+00
         0.00000E+00
         0.00000E+00
         0.00000E+00
         0.00000E+00
         0.00000E+00
         0.00000E+00
         0.00000E+00
         0.00000E+00
         0.00000E+00
         0.00000E+00
         0.00000E+00
         0.00000E+00
         0.00000E+00
         0.00000E+00
         0.00000E+00
         0.00000E+00
         0.00000E+00
         0.00000E+00
         0.00000E+00
         0.00000E+00
         0.00000E+00
         0.00000E+00
         0.00000E+00
         0.00000E+00
         0.00000E+00
         0.00000E+00
         0.00000E+00
         0.00000E+00
         0.00000E+00
         0.00000E+00
         0.00000E+00
         0.00000E+00
         0.00000E+00
         0.00000E+00
         0.00000E+00
         0.00000E+00
         0.00000E+00
         0.00000E+00
         0.00000E+00
         0.00000E+00
         0.00000E+00
         0.00000E+00
         0.00000E+00
         0.00000E+00
         0.00000E+00
         0.00000E+00
         0.00000E+00
         0.00000E+00
         0.00000E+00
         0.00000E+00
         0.00000E+00
         0.00000E+00
         0.00000E+00
         0.00000E+00
         0.00000E+00
         0.00000E+00
         0.00000E+00
         0.00000E+00
         0.00000E+00
         0.00000E+00
         0.00000E+00
         0.00000E+00
         0.00000E+00
         0.00000E+00
         0.00000E+00
         0.00000E+00
         0.00000E+00
         0.00000E+00
         0.00000E+00
         0.00000E+00
         0.00000E+00
         0.00000E+00
         0.00000E+00
         0.00000E+00
         0.00000E+00
         0.00000E+00
         0.00000E+00
         0.00000E+00
         0.00000E+00
         0.00000E+00
         0.00000E+00
         0.00000E+00
         0.00000E+00
         0.00000E+00
         0.00000E+00
         0.00000E+00
         0.00000E+00
         0.00000E+00
         0.00000E+00
         0.00000E+00
         0.00000E+00
         0.00000E+00
         0.00000E+00
         0.00000E+00
         0.00000E+00
         0.00000E+00
         0.00000E+00
         0.00000E+00
         0.00000E+00
         0.00000E+00
         0.00000E+00
         0.00000E+00
         0.00000E+00
         0.00000E+00
         0.00000E+00
         0.00000E+00
         0.00000E+00
         0.00000E+00
         0.00000E+00
         0.00000E+00
         0.00000E+00
         0.00000E+00
         0.00000E+00
         0.00000E+00
         0.00000E+00
         0.00000E+00
         0.00000E+00
         0.00000E+00
         0.00000E+00
         0.00000E+00
         0.00000E+00
         0.00000E+00
         0.00000E+00
         0.00000E+00
         0.00000E+00
         0.00000E+00
         0.00000E+00
         0.00000E+00
         0.00000E+00
         0.00000E+00
         0.00000E+00
         0.00000E+00
         0.00000E+00
         0.00000E+00
         0.00000E+00
         0.00000E+00
         0.00000E+00
         0.00000E+00
         0.00000E+00
         0.00000E+00
         0.00000E+00
         0.00000E+00
         0.00000E+00
         0.00000E+00
         0.00000E+00
         0.00000E+00
         0.00000E+00
         0.00000E+00
         0.00000E+00
         0.00000E+00
         0.00000E+00
         0.00000E+00
         0.00000E+00
         0.00000E+00
         0.00000E+00
         0.00000E+00
         0.00000E+00
         0.00000E+00
         0.00000E+00
         0.00000E+00
         0.00000E+00
         0.00000E+00
         0.00000E+00
         0.00000E+00
         0.00000E+00
         0.00000E+00
         0.00000E+00
         0.00000E+00
         0.00000E+00
         0.00000E+00
         0.00000E+00
         0.00000E+00
         0.00000E+00
         0.00000E+00
         0.00000E+00
         0.00000E+00
         0.00000E+00
         0.00000E+00
         0.00000E+00
         0.00000E+00
         0.00000E+00
         0.00000E+00
         0.00000E+00
         0.00000E+00
         0.00000E+00
         0.00000E+00
         0.00000E+00
         0.00000E+00
         0.00000E+00
         0.00000E+00
         0.00000E+00
         0.00000E+00
         0.00000E+00
         0.00000E+00
         0.00000E+00
         0.00000E+00
         0.00000E+00
         0.00000E+00
  
SCALARS                      stress_xx  double 1
LOOKUP_TABLE default
         0.62369E+12
         0.61514E+12
         0.62056E+12
         0.63028E+12
        -0.14070E+03
        -0.15777E+03
        -0.15107E+03
        -0.13724E+03
         0.61484E+12
         0.61774E+12
        -0.14188E+03
        -0.13730E+03
         0.60275E+12
         0.60229E+12
        -0.16858E+03
        -0.15851E+03
         0.62886E+12
         0.60296E+12
        -0.12456E+03
        -0.13816E+03
         0.59344E+12
         0.58603E+12
         0.59781E+12
        -0.16708E+03
        -0.14591E+03
        -0.15067E+03
         0.58632E+12
         0.57551E+12
        -0.16029E+03
        -0.13518E+03
         0.62839E+12
         0.61713E+12
         0.63929E+12
        -0.13678E+03
        -0.12716E+03
        -0.12363E+03
         0.62188E+12
         0.60752E+12
        -0.14471E+03
        -0.13205E+03
         0.61619E+12
         0.60511E+12
        -0.12507E+03
        -0.11072E+03
         0.62556E+12
         0.62972E+12
        -0.13706E+03
        -0.15315E+03
         0.59622E+12
        -0.13390E+03
         0.62891E+12
        -0.15734E+03
         0.58321E+12
        -0.14140E+03
         0.57981E+12
        -0.13563E+03
         0.57986E+12
         0.59194E+12
        -0.13819E+03
        -0.13459E+03
         0.62816E+12
         0.62383E+12
        -0.13857E+03
        -0.15666E+03
         0.63086E+12
        -0.13371E+03
         0.62572E+12
        -0.14593E+03
         0.61217E+12
         0.61082E+12
        -0.14047E+03
        -0.14719E+03
         0.60776E+12
        -0.14843E+03
         0.57166E+12
        -0.11727E+03
         0.56977E+12
        -0.11383E+03
         0.57071E+12
        -0.12002E+03
         0.57594E+12
         0.58138E+12
        -0.11435E+03
        -0.11922E+03
         0.59233E+12
        -0.11103E+03
         0.62534E+12
        -0.14561E+03
         0.62020E+12
        -0.14902E+03
         0.61597E+12
         0.61366E+12
        -0.14311E+03
        -0.14478E+03
         0.61652E+12
        -0.13150E+03
         0.61855E+12
        -0.12963E+03
         0.61671E+12
        -0.13877E+03
         0.61606E+12
         0.61792E+12
        -0.13608E+03
        -0.14007E+03
         0.60586E+12
         0.61075E+12
        -0.10565E+03
        -0.99374E+02
         0.60493E+12
        -0.10089E+03
         0.61058E+12
        -0.96733E+02
         0.60501E+12
        -0.95386E+02
         0.59267E+12
        -0.90140E+02
         0.58069E+12
        -0.80080E+02
         0.57351E+12
        -0.72107E+02
         0.57278E+12
        -0.71606E+02
         0.57301E+12
        -0.77653E+02
         0.58079E+12
        -0.81611E+02
         0.59533E+12
        -0.74520E+02
         0.61127E+12
        -0.67172E+02
         0.62060E+12
        -0.67095E+02
         0.62981E+12
        -0.74996E+02
         0.63590E+12
        -0.85512E+02
         0.63567E+12
        -0.91866E+02
         0.62089E+12
        -0.99215E+02
         0.61058E+12
        -0.10629E+03
         0.60704E+12
        -0.97373E+02
         0.61257E+12
        -0.85422E+02
         0.61545E+12
        -0.85158E+02
         0.61062E+12
        -0.93173E+02
         0.61069E+12
        -0.99329E+02
         0.61434E+12
        -0.94263E+02
         0.61909E+12
        -0.91130E+02
        -0.32309E+11
        -0.32274E+11
        -0.32280E+11
        -0.32318E+11
        -0.32224E+11
        -0.32284E+11
        -0.32206E+11
        -0.32252E+11
        -0.32314E+11
        -0.32281E+11
        -0.32144E+11
        -0.32123E+11
        -0.32177E+11
        -0.32180E+11
        -0.32147E+11
        -0.32317E+11
        -0.32312E+11
        -0.32323E+11
        -0.32269E+11
        -0.32284E+11
        -0.32262E+11
        -0.32277E+11
        -0.32248E+11
        -0.32256E+11
        -0.32283E+11
        -0.32281E+11
        -0.32231E+11
        -0.32237E+11
        -0.32189E+11
        -0.32257E+11
        -0.32314E+11
        -0.32273E+11
        -0.32314E+11
        -0.32290E+11
        -0.32108E+11
        -0.32183E+11
        -0.32213E+11
        -0.32177E+11
        -0.32172E+11
        -0.32102E+11
        -0.32043E+11
        -0.32175E+11
        -0.32263E+11
        -0.32254E+11
        -0.32210E+11
        -0.32111E+11
        -0.32197E+11
        -0.32266E+11
        -0.32262E+11
        -0.32210E+11
        -0.32141E+11
        -0.32230E+11
        -0.31875E+11
        -0.32005E+11
        -0.31985E+11
        -0.32013E+11
        -0.32006E+11
        -0.31939E+11
        -0.31863E+11
        -0.31837E+11
        -0.31848E+11
        -0.31840E+11
        -0.31805E+11
        -0.32000E+11
        -0.32062E+11
        -0.32084E+11
        -0.32120E+11
        -0.32145E+11
        -0.32144E+11
        -0.32100E+11
        -0.31921E+11
        -0.31968E+11
        -0.32031E+11
        -0.32030E+11
        -0.32020E+11
        -0.31958E+11
        -0.32047E+11
        -0.32077E+11
         0.10276E+07
         0.45678E+06
         0.57539E+06
         0.54567E+06
         0.31655E+06
         0.64807E+06
        -0.37762E+06
        -0.82235E+06
         0.12889E+07
        -0.90294E+06
        -0.99439E+06
        -0.40683E+05
        -0.90661E+05
        -0.30937E+07
        -0.97374E+06
        -0.24575E+06
         0.18448E+06
         0.63999E+06
        -0.18548E+05
        -0.10904E+06
        -0.11383E+07
        -0.56889E+06
        -0.15989E+07
        -0.59223E+06
        -0.99023E+06
        -0.14500E+06
        -0.39353E+07
        -0.21178E+07
        -0.12688E+07
        -0.97691E+06
        -0.13662E+06
        -0.39118E+06
         0.53272E+06
         0.97732E+06
        -0.95576E+06
        -0.64478E+06
        -0.31769E+06
        -0.12343E+07
        -0.79516E+06
        -0.50368E+06
        -0.74633E+06
        -0.12795E+07
        -0.10898E+07
        -0.12987E+07
        -0.97365E+06
        -0.42188E+06
        -0.19832E+06
        -0.23309E+06
         0.55112E+06
         0.91462E+06
         0.31942E+06
         0.42695E+06
        -0.26690E+07
        -0.58680E+06
        -0.15616E+07
         0.32882E+06
         0.19424E+07
         0.30957E+07
         0.25621E+07
         0.27833E+07
         0.22080E+07
         0.11616E+07
         0.23956E+06
        -0.47750E+06
        -0.11117E+07
        -0.27973E+06
        -0.17143E+07
        -0.26367E+07
        -0.21988E+07
        -0.19238E+07
        -0.10180E+07
         0.54584E+06
         0.53717E+06
         0.43586E+05
        -0.84512E+06
        -0.13766E+07
        -0.93644E+06
        -0.12933E+06
         0.96402E+06
         0.39615E+06
         0.51623E+06
         0.49868E+06
         0.24131E+06
         0.58144E+06
        -0.43549E+06
        -0.89424E+06
         0.12269E+07
        -0.98122E+06
        -0.10628E+07
        -0.14079E+06
        -0.17687E+06
        -0.31683E+07
        -0.10729E+07
        -0.31202E+06
         0.12420E+06
         0.59546E+06
        -0.85947E+05
        -0.17124E+06
        -0.12235E+07
        -0.65189E+06
        -0.16865E+07
        -0.65459E+06
        -0.10715E+07
        -0.20371E+06
        -0.40090E+07
        -0.21800E+07
        -0.13394E+07
        -0.10614E+07
        -0.19904E+06
        -0.44649E+06
         0.48472E+06
         0.93052E+06
        -0.10429E+07
        -0.71655E+06
        -0.39226E+06
        -0.13344E+07
        -0.88762E+06
        -0.59452E+06
        -0.84488E+06
        -0.13756E+07
        -0.11809E+07
        -0.13822E+07
        -0.10521E+07
        -0.50976E+06
        -0.27663E+06
        -0.30608E+06
         0.48671E+06
         0.84818E+06
         0.23942E+06
         0.35618E+06
        -0.28314E+07
        -0.74513E+06
        -0.17175E+07
         0.17946E+06
         0.17845E+07
         0.29197E+07
         0.23863E+07
         0.26055E+07
         0.20285E+07
         0.97798E+06
         0.56809E+05
        -0.64643E+06
        -0.12526E+07
        -0.41137E+06
        -0.18524E+07
        -0.27842E+07
        -0.23494E+07
        -0.20813E+07
        -0.11760E+07
         0.37869E+06
         0.37955E+06
        -0.98794E+05
        -0.98763E+06
        -0.15226E+07
        -0.10841E+07
        -0.27970E+06
         0.97876E+06
         0.40803E+06
         0.52879E+06
         0.51211E+06
         0.26179E+06
         0.60012E+06
        -0.42565E+06
        -0.87690E+06
         0.12377E+07
        -0.97748E+06
        -0.10481E+07
        -0.12179E+06
        -0.16073E+06
        -0.31472E+07
        -0.10482E+07
        -0.32582E+06
         0.12095E+06
         0.60864E+06
        -0.10249E+06
        -0.18242E+06
        -0.12373E+07
        -0.65717E+06
        -0.17439E+07
        -0.69961E+06
        -0.11070E+07
        -0.24492E+06
        -0.39948E+07
        -0.21871E+07
        -0.13695E+07
        -0.11204E+07
        -0.19968E+06
        -0.45899E+06
         0.49971E+06
         0.94561E+06
        -0.10206E+07
        -0.69800E+06
        -0.37551E+06
        -0.13176E+07
        -0.87334E+06
        -0.59009E+06
        -0.84745E+06
        -0.14108E+07
        -0.12300E+07
        -0.14380E+07
        -0.10653E+07
        -0.49756E+06
        -0.26231E+06
        -0.29006E+06
         0.50441E+06
         0.86859E+06
         0.26237E+06
         0.37657E+06
        -0.27829E+07
        -0.70164E+06
        -0.16692E+07
         0.21647E+06
         0.18120E+07
         0.29471E+07
         0.24212E+07
         0.26404E+07
         0.20640E+07
         0.10148E+07
         0.78432E+05
        -0.64721E+06
        -0.12503E+07
        -0.38709E+06
        -0.18364E+07
        -0.28140E+07
        -0.23817E+07
        -0.20729E+07
        -0.11325E+07
         0.42896E+06
         0.42457E+06
        -0.53338E+05
        -0.93646E+06
        -0.14797E+07
        -0.10492E+07
        -0.24609E+06
         0.96960E+06
         0.40287E+06
         0.52383E+06
         0.50523E+06
         0.25526E+06
         0.59497E+06
        -0.43215E+06
        -0.88553E+06
         0.12202E+07
        -0.10108E+07
        -0.10545E+07
        -0.13225E+06
        -0.16784E+06
        -0.31541E+07
        -0.10603E+07
        -0.37873E+06
         0.85260E+05
         0.60142E+06
        -0.16142E+06
        -0.23463E+06
        -0.13019E+07
        -0.71450E+06
        -0.18777E+07
        -0.80024E+06
        -0.12037E+07
        -0.33856E+06
        -0.40149E+07
        -0.22373E+07
        -0.14556E+07
        -0.12620E+07
        -0.23049E+06
        -0.50898E+06
         0.49372E+06
         0.93783E+06
        -0.10320E+07
        -0.70489E+06
        -0.38130E+06
        -0.13364E+07
        -0.89646E+06
        -0.63167E+06
        -0.90328E+06
        -0.15197E+07
        -0.13632E+07
        -0.15699E+07
        -0.11301E+07
        -0.53288E+06
        -0.28742E+06
        -0.30391E+06
         0.49352E+06
         0.85602E+06
         0.25048E+06
         0.36909E+06
        -0.28056E+07
        -0.71716E+06
        -0.16937E+07
         0.19492E+06
         0.17976E+07
         0.29304E+07
         0.23932E+07
         0.26099E+07
         0.20348E+07
         0.97928E+06
         0.22137E+05
        -0.73807E+06
        -0.13357E+07
        -0.42758E+06
        -0.18820E+07
        -0.29394E+07
        -0.25145E+07
        -0.21351E+07
        -0.11620E+07
         0.40078E+06
         0.40319E+06
        -0.78646E+05
        -0.96275E+06
        -0.14976E+07
        -0.10628E+07
        -0.25972E+06
         0.95306E+06
         0.39241E+06
         0.51520E+06
         0.49810E+06
         0.24762E+06
         0.58758E+06
        -0.44139E+06
        -0.90040E+06
         0.11990E+07
        -0.10455E+07
        -0.10615E+07
        -0.13880E+06
        -0.17575E+06
        -0.31619E+07
        -0.10659E+07
        -0.41478E+06
         0.56892E+05
         0.59479E+06
        -0.20019E+06
        -0.27201E+06
        -0.13434E+07
        -0.75568E+06
        -0.19598E+07
        -0.86261E+06
        -0.12737E+07
        -0.39863E+06
        -0.40325E+07
        -0.22731E+07
        -0.15159E+07
        -0.13561E+07
        -0.26270E+06
        -0.54540E+06
         0.48044E+06
         0.92705E+06
        -0.10439E+07
        -0.71381E+06
        -0.39009E+06
        -0.13505E+07
        -0.91572E+06
        -0.66335E+06
        -0.94265E+06
        -0.15931E+07
        -0.14507E+07
        -0.16536E+07
        -0.11725E+07
        -0.55613E+06
        -0.30969E+06
        -0.32591E+06
         0.47452E+06
         0.83742E+06
         0.23181E+06
         0.35677E+06
        -0.28259E+07
        -0.73070E+06
        -0.17146E+07
         0.17816E+06
         0.17909E+07
         0.29254E+07
         0.23812E+07
         0.25898E+07
         0.20100E+07
         0.95733E+06
        -0.12126E+05
        -0.80092E+06
        -0.13940E+07
        -0.45888E+06
        -0.19142E+07
        -0.30207E+07
        -0.26076E+07
        -0.21796E+07
        -0.11754E+07
         0.37519E+06
         0.37484E+06
        -0.10769E+06
        -0.99665E+06
        -0.15267E+07
        -0.10809E+07
        -0.27332E+06
         0.91318E+06
         0.37238E+06
         0.50668E+06
         0.50539E+06
         0.25850E+06
         0.60078E+06
        -0.44834E+06
        -0.92710E+06
         0.11691E+07
        -0.10925E+07
        -0.10550E+07
        -0.11657E+06
        -0.16739E+06
        -0.31565E+07
        -0.10376E+07
        -0.40906E+06
         0.50106E+05
         0.60827E+06
        -0.19218E+06
        -0.26564E+06
        -0.13310E+07
        -0.74112E+06
        -0.19580E+07
        -0.86392E+06
        -0.13043E+07
        -0.40727E+06
        -0.40367E+07
        -0.22761E+07
        -0.15156E+07
        -0.13597E+07
        -0.30104E+06
        -0.56464E+06
         0.45713E+06
         0.92428E+06
        -0.10342E+07
        -0.71247E+06
        -0.39155E+06
        -0.13334E+07
        -0.90118E+06
        -0.64724E+06
        -0.92351E+06
        -0.15820E+07
        -0.14414E+07
        -0.16586E+07
        -0.11776E+07
        -0.55990E+06
        -0.32892E+06
        -0.36983E+06
         0.42785E+06
         0.81215E+06
         0.22580E+06
         0.36303E+06
        -0.27861E+07
        -0.68951E+06
        -0.16810E+07
         0.20059E+06
         0.18145E+07
         0.29575E+07
         0.24174E+07
         0.26245E+07
         0.20500E+07
         0.10102E+07
         0.34061E+05
        -0.77304E+06
        -0.13632E+07
        -0.42681E+06
        -0.18833E+07
        -0.29960E+07
        -0.25896E+07
        -0.21617E+07
        -0.11538E+07
         0.39000E+06
         0.37167E+06
        -0.12788E+06
        -0.10098E+07
        -0.15199E+07
        -0.10609E+07
        -0.24476E+06
         0.85254E+06
         0.33694E+06
         0.48630E+06
         0.50137E+06
         0.25096E+06
         0.60065E+06
        -0.47281E+06
        -0.98001E+06
         0.11183E+07
        -0.11623E+07
        -0.10710E+07
        -0.12524E+06
        -0.18152E+06
        -0.31787E+07
        -0.10433E+07
        -0.42038E+06
         0.26738E+05
         0.60691E+06
        -0.19895E+06
        -0.27371E+06
        -0.13366E+07
        -0.74511E+06
        -0.19645E+07
        -0.87156E+06
        -0.13471E+07
        -0.42259E+06
        -0.40666E+07
        -0.22939E+07
        -0.15248E+07
        -0.13712E+07
        -0.35427E+06
        -0.59597E+06
         0.42077E+06
         0.91002E+06
        -0.10481E+07
        -0.72720E+06
        -0.40898E+06
        -0.13481E+07
        -0.91528E+06
        -0.65515E+06
        -0.92692E+06
        -0.15840E+07
        -0.14423E+07
        -0.16711E+07
        -0.12009E+07
        -0.59287E+06
        -0.37336E+06
        -0.43560E+06
         0.36128E+06
         0.76802E+06
         0.20076E+06
         0.35477E+06
        -0.28026E+07
        -0.70235E+06
        -0.16908E+07
         0.18927E+06
         0.17982E+07
         0.29379E+07
         0.24012E+07
         0.26105E+07
         0.20361E+07
         0.99979E+06
         0.25739E+05
        -0.78314E+06
        -0.13650E+07
        -0.42930E+06
        -0.18902E+07
        -0.29999E+07
        -0.25974E+07
        -0.21898E+07
        -0.11956E+07
         0.34386E+06
         0.31990E+06
        -0.19187E+06
        -0.10659E+07
        -0.15496E+07
        -0.10770E+07
        -0.25739E+06
         0.83476E+06
         0.32374E+06
         0.47793E+06
         0.49568E+06
         0.24278E+06
         0.59350E+06
        -0.48616E+06
        -0.99769E+06
         0.11037E+07
        -0.11830E+07
        -0.10823E+07
        -0.13738E+06
        -0.19543E+06
        -0.31899E+07
        -0.10533E+07
        -0.43063E+06
         0.17162E+05
         0.60197E+06
        -0.20514E+06
        -0.27990E+06
        -0.13455E+07
        -0.75456E+06
        -0.19731E+07
        -0.87742E+06
        -0.13630E+07
        -0.43136E+06
        -0.40794E+07
        -0.23027E+07
        -0.15384E+07
        -0.13822E+07
        -0.37223E+06
        -0.60828E+06
         0.41032E+06
         0.90201E+06
        -0.10598E+07
        -0.73504E+06
        -0.41954E+06
        -0.13666E+07
        -0.93150E+06
        -0.67139E+06
        -0.94348E+06
        -0.15975E+07
        -0.14507E+07
        -0.16822E+07
        -0.12147E+07
        -0.60826E+06
        -0.38790E+06
        -0.45209E+06
         0.34489E+06
         0.75270E+06
         0.18533E+06
         0.34436E+06
        -0.28254E+07
        -0.72470E+06
        -0.17059E+07
         0.17364E+06
         0.17794E+07
         0.29212E+07
         0.23841E+07
         0.25868E+07
         0.20049E+07
         0.96702E+06
        -0.39628E+04
        -0.79657E+06
        -0.13756E+07
        -0.45206E+06
        -0.19142E+07
        -0.30227E+07
        -0.26270E+07
        -0.22182E+07
        -0.12194E+07
         0.32456E+06
         0.30418E+06
        -0.21318E+06
        -0.10940E+07
        -0.15758E+07
        -0.10991E+07
        -0.27938E+06
         0.84582E+06
         0.33253E+06
         0.48436E+06
         0.49848E+06
         0.25287E+06
         0.59648E+06
        -0.48021E+06
        -0.98316E+06
         0.11140E+07
        -0.11693E+07
        -0.10735E+07
        -0.12538E+06
        -0.18684E+06
        -0.31736E+07
        -0.10339E+07
        -0.41891E+06
         0.25915E+05
         0.60867E+06
        -0.19340E+06
        -0.27007E+06
        -0.13328E+07
        -0.74288E+06
        -0.19606E+07
        -0.86723E+06
        -0.13535E+07
        -0.42206E+06
        -0.40613E+07
        -0.22897E+07
        -0.15328E+07
        -0.13722E+07
        -0.36313E+06
        -0.60104E+06
         0.41829E+06
         0.90466E+06
        -0.10471E+07
        -0.72532E+06
        -0.41103E+06
        -0.13540E+07
        -0.92178E+06
        -0.66284E+06
        -0.93221E+06
        -0.15856E+07
        -0.14383E+07
        -0.16708E+07
        -0.12051E+07
        -0.59829E+06
        -0.37810E+06
        -0.44099E+06
         0.35592E+06
         0.76126E+06
         0.19209E+06
         0.34727E+06
        -0.27914E+07
        -0.69120E+06
        -0.16859E+07
         0.18182E+06
         0.17961E+07
         0.29472E+07
         0.24130E+07
         0.26073E+07
         0.20129E+07
         0.97925E+06
         0.17979E+05
        -0.76542E+06
        -0.13484E+07
        -0.43441E+06
        -0.18977E+07
        -0.30036E+07
        -0.26074E+07
        -0.21941E+07
        -0.11964E+07
         0.35142E+06
         0.33196E+06
        -0.18842E+06
        -0.10731E+07
        -0.15574E+07
        -0.10807E+07
        -0.25951E+06
         0.84280E+06
         0.33168E+06
         0.48268E+06
         0.49495E+06
         0.25165E+06
         0.59292E+06
        -0.48352E+06
        -0.98720E+06
         0.11070E+07
        -0.11771E+07
        -0.10781E+07
        -0.13278E+06
        -0.18915E+06
        -0.31780E+07
        -0.10444E+07
        -0.42551E+06
         0.19650E+05
         0.60329E+06
        -0.19851E+06
        -0.27472E+06
        -0.13373E+07
        -0.74889E+06
        -0.19650E+07
        -0.87113E+06
        -0.13589E+07
        -0.42579E+06
        -0.40655E+07
        -0.22897E+07
        -0.15387E+07
        -0.13775E+07
        -0.36933E+06
        -0.60471E+06
         0.41345E+06
         0.89873E+06
        -0.10516E+07
        -0.72866E+06
        -0.41335E+06
        -0.13700E+07
        -0.93111E+06
        -0.67134E+06
        -0.94029E+06
        -0.15911E+07
        -0.14455E+07
        -0.16737E+07
        -0.12081E+07
        -0.60313E+06
        -0.38476E+06
        -0.44863E+06
         0.34955E+06
         0.75525E+06
         0.18613E+06
         0.34140E+06
        -0.28011E+07
        -0.69890E+06
        -0.17017E+07
         0.16828E+06
         0.17943E+07
         0.29376E+07
         0.23907E+07
         0.25825E+07
         0.19985E+07
         0.95746E+06
        -0.58293E+04
        -0.77726E+06
        -0.13624E+07
        -0.44208E+06
        -0.19050E+07
        -0.30104E+07
        -0.26084E+07
        -0.21989E+07
        -0.12031E+07
         0.33324E+06
         0.30954E+06
        -0.20573E+06
        -0.10818E+07
        -0.15616E+07
        -0.10906E+07
        -0.27358E+06
         0.83456E+06
         0.32490E+06
         0.47789E+06
         0.49326E+06
         0.24608E+06
         0.59087E+06
        -0.49012E+06
        -0.99364E+06
         0.11006E+07
        -0.11849E+07
        -0.10833E+07
        -0.14257E+06
        -0.19559E+06
        -0.31808E+07
        -0.10552E+07
        -0.43443E+06
         0.14647E+05
         0.60060E+06
        -0.20480E+06
        -0.27801E+06
        -0.13431E+07
        -0.75499E+06
        -0.19717E+07
        -0.87715E+06
        -0.13642E+07
        -0.43269E+06
        -0.40686E+07
        -0.22912E+07
        -0.15450E+07
        -0.13815E+07
        -0.37786E+06
        -0.61083E+06
         0.41152E+06
         0.89763E+06
        -0.10620E+07
        -0.73474E+06
        -0.41895E+06
        -0.13856E+07
        -0.94148E+06
        -0.67882E+06
        -0.94492E+06
        -0.15958E+07
        -0.14520E+07
        -0.16795E+07
        -0.12136E+07
        -0.60970E+06
        -0.39096E+06
        -0.45528E+06
         0.34348E+06
         0.74998E+06
         0.18047E+06
         0.33897E+06
        -0.28208E+07
        -0.71523E+06
        -0.17137E+07
         0.16416E+06
         0.17890E+07
         0.29183E+07
         0.23628E+07
         0.25600E+07
         0.19836E+07
         0.94180E+06
        -0.15559E+05
        -0.78896E+06
        -0.13793E+07
        -0.45351E+06
        -0.19171E+07
        -0.30245E+07
        -0.26176E+07
        -0.22098E+07
        -0.12165E+07
         0.31824E+06
         0.29252E+06
        -0.22344E+06
        -0.10943E+07
        -0.15736E+07
        -0.11058E+07
        -0.28960E+06
         0.83973E+06
         0.32759E+06
         0.48025E+06
         0.49772E+06
         0.25309E+06
         0.59731E+06
        -0.48699E+06
        -0.98326E+06
         0.11056E+07
        -0.11789E+07
        -0.10750E+07
        -0.13440E+06
        -0.19312E+06
        -0.31657E+07
        -0.10371E+07
        -0.42816E+06
         0.18038E+05
         0.60726E+06
        -0.19771E+06
        -0.27002E+06
        -0.13330E+07
        -0.74455E+06
        -0.19633E+07
        -0.87093E+06
        -0.13603E+07
        -0.42685E+06
        -0.40570E+07
        -0.22825E+07
        -0.15384E+07
        -0.13706E+07
        -0.37085E+06
        -0.60585E+06
         0.42075E+06
         0.90475E+06
        -0.10543E+07
        -0.72839E+06
        -0.41529E+06
        -0.13755E+07
        -0.93181E+06
        -0.66604E+06
        -0.93235E+06
        -0.15869E+07
        -0.14420E+07
        -0.16724E+07
        -0.12076E+07
        -0.60412E+06
        -0.38492E+06
        -0.44863E+06
         0.35079E+06
         0.75727E+06
         0.18756E+06
         0.34651E+06
        -0.27959E+07
        -0.68822E+06
        -0.16882E+07
         0.17658E+06
         0.17850E+07
         0.29196E+07
         0.23828E+07
         0.25820E+07
         0.19986E+07
         0.96452E+06
         0.59983E+04
        -0.77870E+06
        -0.13611E+07
        -0.43503E+06
        -0.19003E+07
        -0.30115E+07
        -0.26087E+07
        -0.21988E+07
        -0.12061E+07
         0.33441E+06
         0.31171E+06
        -0.20503E+06
        -0.10782E+07
        -0.15600E+07
        -0.10858E+07
        -0.26627E+06
         0.83583E+06
         0.32214E+06
         0.47560E+06
         0.49365E+06
         0.24741E+06
         0.59200E+06
        -0.49485E+06
        -0.98900E+06
         0.11006E+07
        -0.11886E+07
        -0.10827E+07
        -0.14655E+06
        -0.20592E+06
        -0.31720E+07
        -0.10447E+07
        -0.43550E+06
         0.11643E+05
         0.60146E+06
        -0.20544E+06
        -0.27561E+06
        -0.13438E+07
        -0.75562E+06
        -0.19748E+07
        -0.87789E+06
        -0.13701E+07
        -0.43293E+06
        -0.40680E+07
        -0.22910E+07
        -0.15495E+07
        -0.13774E+07
        -0.37887E+06
        -0.61162E+06
         0.41454E+06
         0.90005E+06
        -0.10643E+07
        -0.73555E+06
        -0.42463E+06
        -0.13924E+07
        -0.94815E+06
        -0.68013E+06
        -0.94783E+06
        -0.16016E+07
        -0.14532E+07
        -0.16847E+07
        -0.12180E+07
        -0.61370E+06
        -0.39385E+06
        -0.45894E+06
         0.34290E+06
         0.75133E+06
         0.17997E+06
         0.33980E+06
        -0.28153E+07
        -0.70495E+06
        -0.17073E+07
         0.15444E+06
         0.17593E+07
         0.28949E+07
         0.23677E+07
         0.25626E+07
         0.19732E+07
         0.93933E+06
        -0.24726E+05
        -0.80904E+06
        -0.13812E+07
        -0.45588E+06
        -0.19184E+07
        -0.30322E+07
        -0.26405E+07
        -0.22273E+07
        -0.12203E+07
         0.31460E+06
         0.29141E+06
        -0.21545E+06
        -0.10852E+07
        -0.15748E+07
        -0.11062E+07
        -0.28666E+06
         0.83504E+06
         0.32028E+06
         0.47420E+06
         0.49294E+06
         0.24725E+06
         0.59092E+06
        -0.49779E+06
        -0.98855E+06
         0.11015E+07
        -0.11886E+07
        -0.10836E+07
        -0.14830E+06
        -0.20815E+06
        -0.31687E+07
        -0.10438E+07
        -0.43746E+06
         0.11724E+05
         0.60098E+06
        -0.20615E+06
        -0.27539E+06
        -0.13458E+07
        -0.75727E+06
        -0.19773E+07
        -0.87926E+06
        -0.13720E+07
        -0.43480E+06
        -0.40658E+07
        -0.22912E+07
        -0.15548E+07
        -0.13791E+07
        -0.38353E+06
        -0.61382E+06
         0.41315E+06
         0.89958E+06
        -0.10668E+07
        -0.73758E+06
        -0.42731E+06
        -0.14007E+07
        -0.95771E+06
        -0.68616E+06
        -0.94958E+06
        -0.16032E+07
        -0.14548E+07
        -0.16865E+07
        -0.12196E+07
        -0.61591E+06
        -0.39660E+06
        -0.46310E+06
         0.33992E+06
         0.75010E+06
         0.17867E+06
         0.33841E+06
        -0.28157E+07
        -0.70450E+06
        -0.17124E+07
         0.14591E+06
         0.17589E+07
         0.28945E+07
         0.23615E+07
         0.25463E+07
         0.19550E+07
         0.92925E+06
        -0.25714E+05
        -0.81200E+06
        -0.13863E+07
        -0.46398E+06
        -0.19278E+07
        -0.30389E+07
        -0.26447E+07
        -0.22311E+07
        -0.12242E+07
         0.30745E+06
         0.28249E+06
        -0.22117E+06
        -0.10856E+07
        -0.15767E+07
        -0.11153E+07
        -0.29496E+06
         0.85161E+06
         0.33709E+06
         0.48820E+06
         0.50333E+06
         0.26667E+06
         0.60497E+06
        -0.48298E+06
        -0.96776E+06
         0.11136E+07
        -0.11729E+07
        -0.10645E+07
        -0.12222E+06
        -0.18577E+06
        -0.31447E+07
        -0.10171E+07
        -0.42311E+06
         0.23864E+05
         0.61259E+06
        -0.19067E+06
        -0.25970E+06
        -0.13236E+07
        -0.73667E+06
        -0.19566E+07
        -0.86568E+06
        -0.13554E+07
        -0.42160E+06
        -0.40429E+07
        -0.22701E+07
        -0.15389E+07
        -0.13587E+07
        -0.36850E+06
        -0.60004E+06
         0.42639E+06
         0.90907E+06
        -0.10456E+07
        -0.71985E+06
        -0.40881E+06
        -0.13845E+07
        -0.93801E+06
        -0.66494E+06
        -0.92853E+06
        -0.15825E+07
        -0.14361E+07
        -0.16650E+07
        -0.11982E+07
        -0.59408E+06
        -0.37769E+06
        -0.44591E+06
         0.35453E+06
         0.76324E+06
         0.19329E+06
         0.35132E+06
        -0.27705E+07
        -0.65943E+06
        -0.16743E+07
         0.17335E+06
         0.17924E+07
         0.29369E+07
         0.23971E+07
         0.25732E+07
         0.19854E+07
         0.96251E+06
         0.42596E+04
        -0.77687E+06
        -0.13585E+07
        -0.43305E+06
        -0.18927E+07
        -0.30022E+07
        -0.26033E+07
        -0.21865E+07
        -0.11859E+07
         0.34742E+06
         0.31664E+06
        -0.19579E+06
        -0.10575E+07
        -0.15433E+07
        -0.10792E+07
        -0.25853E+06
         0.84451E+06
         0.33217E+06
         0.48388E+06
         0.49812E+06
         0.25938E+06
         0.59947E+06
        -0.49021E+06
        -0.97550E+06
         0.11063E+07
        -0.11850E+07
        -0.10721E+07
        -0.13157E+06
        -0.19155E+06
        -0.31515E+07
        -0.10281E+07
        -0.43235E+06
         0.15849E+05
         0.60801E+06
        -0.20089E+06
        -0.26678E+06
        -0.13308E+07
        -0.74677E+06
        -0.19637E+07
        -0.87405E+06
        -0.13668E+07
        -0.43012E+06
        -0.40528E+07
        -0.22756E+07
        -0.15438E+07
        -0.13636E+07
        -0.37458E+06
        -0.60661E+06
         0.42270E+06
         0.90323E+06
        -0.10583E+07
        -0.72629E+06
        -0.41326E+06
        -0.14036E+07
        -0.95142E+06
        -0.67146E+06
        -0.93829E+06
        -0.15940E+07
        -0.14489E+07
        -0.16741E+07
        -0.12073E+07
        -0.60309E+06
        -0.38508E+06
        -0.45178E+06
         0.34794E+06
         0.75434E+06
         0.18416E+06
         0.34442E+06
        -0.27992E+07
        -0.68359E+06
        -0.16964E+07
         0.16166E+06
         0.17885E+07
         0.29259E+07
         0.23728E+07
         0.25439E+07
         0.19573E+07
         0.93743E+06
        -0.25356E+05
        -0.81077E+06
        -0.13824E+07
        -0.44494E+06
        -0.18983E+07
        -0.30059E+07
        -0.26148E+07
        -0.22066E+07
        -0.12007E+07
         0.32961E+06
         0.30039E+06
        -0.21412E+06
        -0.10770E+07
        -0.15556E+07
        -0.10908E+07
        -0.27782E+06
         0.83272E+06
         0.31976E+06
         0.47201E+06
         0.49087E+06
         0.24734E+06
         0.58853E+06
        -0.50097E+06
        -0.98489E+06
         0.10955E+07
        -0.12068E+07
        -0.10815E+07
        -0.14667E+06
        -0.20407E+06
        -0.31585E+07
        -0.10422E+07
        -0.44354E+06
         0.37165E+04
         0.60257E+06
        -0.20926E+06
        -0.26975E+06
        -0.13396E+07
        -0.75859E+06
        -0.19722E+07
        -0.88126E+06
        -0.13864E+07
        -0.43848E+06
        -0.40754E+07
        -0.22854E+07
        -0.15246E+07
        -0.13491E+07
        -0.38489E+06
        -0.61590E+06
         0.41907E+06
         0.89939E+06
        -0.10726E+07
        -0.73718E+06
        -0.42425E+06
        -0.14316E+07
        -0.96465E+06
        -0.65192E+06
        -0.93916E+06
        -0.16064E+07
        -0.14661E+07
        -0.16839E+07
        -0.12189E+07
        -0.61759E+06
        -0.39813E+06
        -0.46211E+06
         0.34031E+06
         0.74719E+06
         0.17610E+06
         0.33587E+06
        -0.28183E+07
        -0.70115E+06
        -0.17114E+07
         0.14850E+06
         0.17702E+07
         0.28960E+07
         0.23387E+07
         0.25113E+07
         0.19289E+07
         0.93088E+06
        -0.77048E+05
        -0.89204E+06
        -0.14161E+07
        -0.46363E+06
        -0.19152E+07
        -0.30209E+07
        -0.26332E+07
        -0.22277E+07
        -0.12253E+07
         0.30175E+06
         0.28174E+06
        -0.23162E+06
        -0.10968E+07
        -0.15704E+07
        -0.11136E+07
        -0.30349E+06
         0.84849E+06
         0.33520E+06
         0.48721E+06
         0.50336E+06
         0.26792E+06
         0.60366E+06
        -0.48823E+06
        -0.96440E+06
         0.11041E+07
        -0.12101E+07
        -0.10643E+07
        -0.12721E+06
        -0.18753E+06
        -0.31356E+07
        -0.10182E+07
        -0.42902E+06
         0.12024E+05
         0.61351E+06
        -0.19140E+06
        -0.24452E+06
        -0.13211E+07
        -0.74058E+06
        -0.19556E+07
        -0.86660E+06
        -0.13830E+07
        -0.42411E+06
        -0.40790E+07
        -0.22718E+07
        -0.14583E+07
        -0.12856E+07
        -0.37219E+06
        -0.60190E+06
         0.43203E+06
         0.91180E+06
        -0.10499E+07
        -0.71745E+06
        -0.40677E+06
        -0.14305E+07
        -0.94197E+06
        -0.57677E+06
        -0.89864E+06
        -0.15853E+07
        -0.14552E+07
        -0.16654E+07
        -0.11980E+07
        -0.59332E+06
        -0.37842E+06
        -0.44640E+06
         0.35631E+06
         0.76508E+06
         0.19553E+06
         0.35111E+06
        -0.27717E+07
        -0.65536E+06
        -0.16645E+07
         0.18119E+06
         0.17912E+07
         0.29201E+07
         0.23720E+07
         0.25450E+07
         0.19661E+07
         0.10033E+07
        -0.93797E+05
        -0.95744E+06
        -0.14137E+07
        -0.43799E+06
        -0.18937E+07
        -0.30030E+07
        -0.26107E+07
        -0.21904E+07
        -0.11794E+07
         0.34452E+06
         0.31877E+06
        -0.19351E+06
        -0.10537E+07
        -0.15305E+07
        -0.10814E+07
        -0.26974E+06
         0.78909E+06
         0.27809E+06
         0.43247E+06
         0.45687E+06
         0.19743E+06
         0.54037E+06
        -0.54328E+06
        -0.10328E+07
         0.10438E+07
        -0.12955E+07
        -0.11294E+07
        -0.22027E+06
        -0.27360E+06
        -0.32085E+07
        -0.11127E+07
        -0.48691E+06
        -0.44783E+05
         0.56912E+06
        -0.25124E+06
        -0.29411E+06
        -0.14012E+07
        -0.81911E+06
        -0.20331E+07
        -0.91875E+06
        -0.14603E+07
        -0.47293E+06
        -0.41682E+07
        -0.23318E+07
        -0.14891E+07
        -0.13291E+07
        -0.42842E+06
        -0.65226E+06
         0.38443E+06
         0.86226E+06
        -0.11348E+07
        -0.78822E+06
        -0.48313E+06
        -0.15394E+07
        -0.10270E+07
        -0.62679E+06
        -0.97804E+06
        -0.16710E+07
        -0.15409E+07
        -0.17399E+07
        -0.12751E+07
        -0.68395E+06
        -0.45412E+06
        -0.51398E+06
         0.29258E+06
         0.69407E+06
         0.10948E+06
         0.27868E+06
        -0.29337E+07
        -0.81253E+06
        -0.18280E+07
         0.14641E+05
         0.16252E+07
         0.27601E+07
         0.22093E+07
         0.23704E+07
         0.18026E+07
         0.85422E+06
        -0.30146E+06
        -0.11834E+07
        -0.15736E+07
        -0.57064E+06
        -0.20329E+07
        -0.31477E+07
        -0.27601E+07
        -0.23576E+07
        -0.13511E+07
         0.17982E+06
         0.16616E+06
        -0.33963E+06
        -0.12032E+07
        -0.16842E+07
        -0.12291E+07
        -0.41648E+06
         0.82290E+06
         0.28196E+06
         0.44270E+06
         0.47562E+06
         0.22185E+06
         0.56180E+06
        -0.53762E+06
        -0.98965E+06
         0.10839E+07
        -0.12334E+07
        -0.11112E+07
        -0.21862E+06
        -0.29574E+06
        -0.31574E+07
        -0.10696E+07
        -0.44304E+06
        -0.80717E+04
         0.59458E+06
        -0.21888E+06
        -0.26347E+06
        -0.13645E+07
        -0.79206E+06
        -0.19774E+07
        -0.87985E+06
        -0.13945E+07
        -0.43733E+06
        -0.40920E+07
        -0.22607E+07
        -0.14343E+07
        -0.12649E+07
        -0.39515E+06
        -0.62989E+06
         0.40025E+06
         0.85556E+06
        -0.11223E+07
        -0.79328E+06
        -0.50466E+06
        -0.14895E+07
        -0.96730E+06
        -0.57486E+06
        -0.94219E+06
        -0.16229E+07
        -0.14897E+07
        -0.16888E+07
        -0.12465E+07
        -0.66997E+06
        -0.44251E+06
        -0.48539E+06
         0.31413E+06
         0.69529E+06
         0.11516E+06
         0.28040E+06
        -0.28714E+07
        -0.73140E+06
        -0.18074E+07
        -0.21300E+05
         0.15507E+07
         0.27146E+07
         0.22837E+07
         0.24468E+07
         0.18635E+07
         0.89039E+06
        -0.29133E+06
        -0.11524E+07
        -0.15131E+07
        -0.54070E+06
        -0.19698E+07
        -0.30574E+07
        -0.26830E+07
        -0.22986E+07
        -0.13256E+07
         0.17685E+06
         0.20017E+06
        -0.29107E+06
        -0.11260E+07
        -0.15906E+07
        -0.11554E+07
        -0.34021E+06
         0.23357E+09
         0.22770E+09
         0.22440E+09
         0.19177E+09
         0.27992E+09
         0.25057E+09
         0.22564E+09
         0.26507E+09
         0.21686E+09
         0.26496E+09
         0.26498E+09
         0.35622E+09
         0.31396E+09
         0.28828E+09
         0.36708E+09
         0.21489E+09
         0.21018E+09
         0.16377E+09
         0.22822E+09
         0.21702E+09
         0.28810E+09
         0.28958E+09
         0.27393E+09
         0.20599E+09
         0.25271E+09
         0.17802E+09
         0.28414E+09
         0.22862E+09
         0.24639E+09
         0.26312E+09
         0.21242E+09
         0.20043E+09
         0.19198E+09
         0.19849E+09
         0.31783E+09
         0.27064E+09
         0.27894E+09
         0.34408E+09
         0.32597E+09
         0.31899E+09
         0.33619E+09
         0.31484E+09
         0.29841E+09
         0.26273E+09
         0.27177E+09
         0.32200E+09
         0.28088E+09
         0.25651E+09
         0.24410E+09
         0.25973E+09
         0.30265E+09
         0.26507E+09
         0.59119E+09
         0.57927E+09
         0.59017E+09
         0.57168E+09
         0.59027E+09
         0.61967E+09
         0.62223E+09
         0.61511E+09
         0.61981E+09
         0.63695E+09
         0.61698E+09
         0.58118E+09
         0.51491E+09
         0.48593E+09
         0.49327E+09
         0.50496E+09
         0.51187E+09
         0.55821E+09
         0.59833E+09
         0.60131E+09
         0.55118E+09
         0.53144E+09
         0.55039E+09
         0.54404E+09
         0.54008E+09
         0.54119E+09
         0.27235E+10
         0.28524E+10
         0.28112E+10
         0.25642E+10
         0.31592E+10
         0.29665E+10
         0.30862E+10
         0.31112E+10
         0.26624E+10
         0.31095E+10
         0.33897E+10
         0.38004E+10
         0.34446E+10
         0.34885E+10
         0.39333E+10
         0.26089E+10
         0.28040E+10
         0.24458E+10
         0.28963E+10
         0.30475E+10
         0.31545E+10
         0.32234E+10
         0.30277E+10
         0.27851E+10
         0.31454E+10
         0.26870E+10
         0.34758E+10
         0.34166E+10
         0.34322E+10
         0.32569E+10
         0.26368E+10
         0.27729E+10
         0.25847E+10
         0.27034E+10
         0.34596E+10
         0.31735E+10
         0.31843E+10
         0.38084E+10
         0.37105E+10
         0.36659E+10
         0.37309E+10
         0.35427E+10
         0.33502E+10
         0.29555E+10
         0.30775E+10
         0.34585E+10
         0.31975E+10
         0.30061E+10
         0.29462E+10
         0.30551E+10
         0.33178E+10
         0.30642E+10
         0.54873E+10
         0.53461E+10
         0.54579E+10
         0.52869E+10
         0.54444E+10
         0.57241E+10
         0.58167E+10
         0.58046E+10
         0.58458E+10
         0.59793E+10
         0.58058E+10
         0.54576E+10
         0.48923E+10
         0.46235E+10
         0.46359E+10
         0.46952E+10
         0.47408E+10
         0.51415E+10
         0.55106E+10
         0.55330E+10
         0.51206E+10
         0.49622E+10
         0.51262E+10
         0.50894E+10
         0.50312E+10
         0.50171E+10
  
SCALARS                      stress_yy  double 1
LOOKUP_TABLE default
         0.62369E+12
         0.61514E+12
         0.62056E+12
         0.63028E+12
        -0.14070E+03
        -0.15777E+03
        -0.15107E+03
        -0.13724E+03
         0.61484E+12
         0.61774E+12
        -0.14188E+03
        -0.13730E+03
         0.60275E+12
         0.60229E+12
        -0.16858E+03
        -0.15851E+03
         0.62886E+12
         0.60296E+12
        -0.12456E+03
        -0.13816E+03
         0.59344E+12
         0.58603E+12
         0.59781E+12
        -0.16708E+03
        -0.14591E+03
        -0.15067E+03
         0.58632E+12
         0.57551E+12
        -0.16029E+03
        -0.13518E+03
         0.62839E+12
         0.61713E+12
         0.63929E+12
        -0.13678E+03
        -0.12716E+03
        -0.12363E+03
         0.62188E+12
         0.60752E+12
        -0.14471E+03
        -0.13205E+03
         0.61619E+12
         0.60511E+12
        -0.12507E+03
        -0.11072E+03
         0.62556E+12
         0.62972E+12
        -0.13706E+03
        -0.15315E+03
         0.59622E+12
        -0.13390E+03
         0.62891E+12
        -0.15734E+03
         0.58321E+12
        -0.14140E+03
         0.57981E+12
        -0.13563E+03
         0.57986E+12
         0.59194E+12
        -0.13819E+03
        -0.13459E+03
         0.62816E+12
         0.62383E+12
        -0.13857E+03
        -0.15666E+03
         0.63086E+12
        -0.13371E+03
         0.62572E+12
        -0.14593E+03
         0.61217E+12
         0.61082E+12
        -0.14047E+03
        -0.14719E+03
         0.60776E+12
        -0.14843E+03
         0.57166E+12
        -0.11727E+03
         0.56977E+12
        -0.11383E+03
         0.57071E+12
        -0.12002E+03
         0.57594E+12
         0.58138E+12
        -0.11435E+03
        -0.11922E+03
         0.59233E+12
        -0.11103E+03
         0.62534E+12
        -0.14561E+03
         0.62020E+12
        -0.14902E+03
         0.61597E+12
         0.61366E+12
        -0.14311E+03
        -0.14478E+03
         0.61652E+12
        -0.13150E+03
         0.61855E+12
        -0.12963E+03
         0.61671E+12
        -0.13877E+03
         0.61606E+12
         0.61792E+12
        -0.13608E+03
        -0.14007E+03
         0.60586E+12
         0.61075E+12
        -0.10565E+03
        -0.99374E+02
         0.60493E+12
        -0.10089E+03
         0.61058E+12
        -0.96733E+02
         0.60501E+12
        -0.95386E+02
         0.59267E+12
        -0.90140E+02
         0.58069E+12
        -0.80080E+02
         0.57351E+12
        -0.72107E+02
         0.57278E+12
        -0.71606E+02
         0.57301E+12
        -0.77653E+02
         0.58079E+12
        -0.81611E+02
         0.59533E+12
        -0.74520E+02
         0.61127E+12
        -0.67172E+02
         0.62060E+12
        -0.67095E+02
         0.62981E+12
        -0.74996E+02
         0.63590E+12
        -0.85512E+02
         0.63567E+12
        -0.91866E+02
         0.62089E+12
        -0.99215E+02
         0.61058E+12
        -0.10629E+03
         0.60704E+12
        -0.97373E+02
         0.61257E+12
        -0.85422E+02
         0.61545E+12
        -0.85158E+02
         0.61062E+12
        -0.93173E+02
         0.61069E+12
        -0.99329E+02
         0.61434E+12
        -0.94263E+02
         0.61909E+12
        -0.91130E+02
        -0.32309E+11
        -0.32274E+11
        -0.32280E+11
        -0.32318E+11
        -0.32224E+11
        -0.32284E+11
        -0.32206E+11
        -0.32252E+11
        -0.32314E+11
        -0.32281E+11
        -0.32144E+11
        -0.32123E+11
        -0.32177E+11
        -0.32180E+11
        -0.32147E+11
        -0.32317E+11
        -0.32312E+11
        -0.32323E+11
        -0.32269E+11
        -0.32284E+11
        -0.32262E+11
        -0.32277E+11
        -0.32248E+11
        -0.32256E+11
        -0.32283E+11
        -0.32281E+11
        -0.32231E+11
        -0.32237E+11
        -0.32189E+11
        -0.32257E+11
        -0.32314E+11
        -0.32273E+11
        -0.32314E+11
        -0.32290E+11
        -0.32108E+11
        -0.32183E+11
        -0.32213E+11
        -0.32177E+11
        -0.32172E+11
        -0.32102E+11
        -0.32043E+11
        -0.32175E+11
        -0.32263E+11
        -0.32254E+11
        -0.32210E+11
        -0.32111E+11
        -0.32197E+11
        -0.32266E+11
        -0.32262E+11
        -0.32210E+11
        -0.32141E+11
        -0.32230E+11
        -0.31875E+11
        -0.32005E+11
        -0.31985E+11
        -0.32013E+11
        -0.32006E+11
        -0.31939E+11
        -0.31863E+11
        -0.31837E+11
        -0.31848E+11
        -0.31840E+11
        -0.31805E+11
        -0.32000E+11
        -0.32062E+11
        -0.32084E+11
        -0.32120E+11
        -0.32145E+11
        -0.32144E+11
        -0.32100E+11
        -0.31921E+11
        -0.31968E+11
        -0.32031E+11
        -0.32030E+11
        -0.32020E+11
        -0.31958E+11
        -0.32047E+11
        -0.32077E+11
         0.28837E+06
        -0.24969E+06
        -0.52882E+05
         0.94294E+06
         0.35860E+06
         0.11265E+07
        -0.49314E+06
        -0.14298E+07
         0.68963E+06
        -0.14909E+07
        -0.15470E+07
        -0.11082E+07
        -0.29117E+06
        -0.23581E+07
        -0.17977E+07
         0.16771E+06
         0.58707E+06
         0.76663E+06
        -0.53998E+06
         0.93814E+05
        -0.22715E+06
         0.38992E+06
        -0.59341E+06
        -0.25291E+06
        -0.15651E+07
        -0.15687E+06
        -0.31485E+07
        -0.21017E+07
        -0.11048E+07
        -0.13710E+07
         0.27818E+05
        -0.58320E+05
         0.65261E+06
         0.10778E+07
         0.55437E+05
        -0.57426E+05
        -0.76155E+04
        -0.17779E+07
        -0.17812E+07
        -0.12668E+07
        -0.17691E+06
        -0.25820E+06
        -0.18591E+06
        -0.68904E+06
        -0.78128E+06
        -0.12378E+07
        -0.56712E+06
        -0.10336E+06
        -0.19968E+06
         0.96391E+05
         0.53139E+06
         0.13080E+07
        -0.13902E+07
         0.61455E+06
        -0.10313E+07
         0.26633E+06
         0.11979E+07
         0.17997E+07
         0.11633E+07
         0.15129E+07
         0.10305E+07
         0.34366E+06
         0.71932E+06
         0.79986E+06
         0.19461E+06
         0.10183E+07
        -0.37788E+06
        -0.14876E+07
        -0.16131E+07
        -0.18241E+07
        -0.19829E+07
        -0.81440E+06
        -0.66434E+06
        -0.11245E+07
        -0.17069E+07
        -0.11687E+07
         0.13339E+06
         0.96468E+06
         0.22505E+06
        -0.31029E+06
        -0.11210E+06
         0.89512E+06
         0.28234E+06
         0.10589E+07
        -0.54995E+06
        -0.15042E+07
         0.62677E+06
        -0.15722E+07
        -0.16168E+07
        -0.12081E+07
        -0.37705E+06
        -0.24340E+07
        -0.18980E+07
         0.10220E+06
         0.52683E+06
         0.72130E+06
        -0.60784E+06
         0.31134E+05
        -0.31302E+06
         0.30673E+06
        -0.68104E+06
        -0.31515E+06
        -0.16485E+07
        -0.21511E+06
        -0.32221E+07
        -0.21652E+07
        -0.11719E+07
        -0.14567E+07
        -0.33601E+05
        -0.11355E+06
         0.60121E+06
         0.10306E+07
        -0.31385E+05
        -0.12977E+06
        -0.82444E+05
        -0.18781E+07
        -0.18739E+07
        -0.13572E+07
        -0.27547E+06
        -0.35399E+06
        -0.27732E+06
        -0.77298E+06
        -0.86009E+06
        -0.13259E+07
        -0.64566E+06
        -0.17557E+06
        -0.26374E+06
         0.30378E+05
         0.45114E+06
         0.12369E+07
        -0.15525E+07
         0.45607E+06
        -0.11875E+07
         0.11696E+06
         0.10398E+07
         0.16238E+07
         0.98766E+06
         0.13354E+07
         0.85085E+06
         0.16000E+06
         0.53663E+06
         0.63086E+06
         0.53635E+05
         0.88655E+06
        -0.51585E+06
        -0.16351E+07
        -0.17640E+07
        -0.19816E+07
        -0.21411E+07
        -0.98151E+06
        -0.82213E+06
        -0.12669E+07
        -0.18497E+07
        -0.13146E+07
        -0.14058E+05
         0.81462E+06
         0.24002E+06
        -0.29840E+06
        -0.99602E+05
         0.90767E+06
         0.30177E+06
         0.10765E+07
        -0.53903E+06
        -0.14893E+07
         0.63681E+06
        -0.15715E+07
        -0.16035E+07
        -0.11888E+07
        -0.36057E+06
        -0.24142E+07
        -0.18744E+07
         0.89183E+05
         0.52362E+06
         0.73368E+06
        -0.62485E+06
         0.19515E+05
        -0.32753E+06
         0.30127E+06
        -0.73852E+06
        -0.36003E+06
        -0.16861E+07
        -0.25578E+06
        -0.32078E+07
        -0.21737E+07
        -0.11985E+07
        -0.15169E+07
        -0.33205E+05
        -0.12591E+06
         0.61277E+06
         0.10454E+07
        -0.86490E+04
        -0.11178E+06
        -0.65942E+05
        -0.18614E+07
        -0.18599E+07
        -0.13523E+07
        -0.27809E+06
        -0.38875E+06
        -0.32662E+06
        -0.82930E+06
        -0.87374E+06
        -0.13139E+07
        -0.63155E+06
        -0.15876E+06
        -0.24572E+06
         0.51226E+05
         0.47386E+06
         0.12569E+07
        -0.15041E+07
         0.49940E+06
        -0.11396E+07
         0.15397E+06
         0.10672E+07
         0.16512E+07
         0.10227E+07
         0.13705E+07
         0.88620E+06
         0.19675E+06
         0.55830E+06
         0.63000E+06
         0.55921E+05
         0.91074E+06
        -0.49975E+06
        -0.16650E+07
        -0.17966E+07
        -0.19733E+07
        -0.20978E+07
        -0.93120E+06
        -0.77728E+06
        -0.12216E+07
        -0.17989E+07
        -0.12716E+07
         0.21027E+05
         0.84854E+06
         0.23109E+06
        -0.30354E+06
        -0.10463E+06
         0.89991E+06
         0.29419E+06
         0.10703E+07
        -0.54450E+06
        -0.15003E+07
         0.61837E+06
        -0.16079E+07
        -0.16113E+07
        -0.11990E+07
        -0.36735E+06
        -0.24224E+07
        -0.18875E+07
         0.37103E+05
         0.48801E+06
         0.72565E+06
        -0.68426E+06
        -0.33162E+05
        -0.39279E+06
         0.24378E+06
        -0.87231E+06
        -0.46043E+06
        -0.17847E+07
        -0.34875E+06
        -0.32280E+07
        -0.22252E+07
        -0.12810E+07
        -0.16595E+07
        -0.62825E+05
        -0.17555E+06
         0.60334E+06
         0.10373E+07
        -0.19781E+05
        -0.11924E+06
        -0.71973E+05
        -0.18804E+07
        -0.18833E+07
        -0.13934E+07
        -0.33406E+06
        -0.49720E+06
        -0.46001E+06
        -0.96182E+06
        -0.93913E+06
        -0.13495E+07
        -0.65692E+06
        -0.17183E+06
        -0.25628E+06
         0.39081E+05
         0.46174E+06
         0.12491E+07
        -0.15267E+07
         0.48373E+06
        -0.11645E+07
         0.13242E+06
         0.10526E+07
         0.16346E+07
         0.99477E+06
         0.13403E+07
         0.85680E+06
         0.16119E+06
         0.50203E+06
         0.53904E+06
        -0.29531E+05
         0.87017E+06
        -0.54528E+06
        -0.17904E+07
        -0.19297E+07
        -0.20356E+07
        -0.21275E+07
        -0.95933E+06
        -0.79883E+06
        -0.12470E+07
        -0.18255E+07
        -0.12894E+07
         0.75824E+04
         0.83522E+06
         0.21478E+06
        -0.31397E+06
        -0.11332E+06
         0.89189E+06
         0.28553E+06
         0.10619E+07
        -0.55262E+06
        -0.15176E+07
         0.59632E+06
        -0.16457E+07
        -0.16196E+07
        -0.12053E+07
        -0.37492E+06
        -0.24314E+07
        -0.18943E+07
         0.19405E+04
         0.45974E+06
         0.71821E+06
        -0.72354E+06
        -0.70983E+05
        -0.43495E+06
         0.20247E+06
        -0.95454E+06
        -0.52250E+06
        -0.18564E+07
        -0.40799E+06
        -0.32456E+07
        -0.22624E+07
        -0.13375E+07
        -0.17546E+07
        -0.93729E+05
        -0.21143E+06
         0.58662E+06
         0.10262E+07
        -0.31284E+05
        -0.12873E+06
        -0.81012E+05
        -0.18946E+07
        -0.19029E+07
        -0.14247E+07
        -0.37363E+06
        -0.57007E+06
        -0.54752E+06
        -0.10463E+07
        -0.98244E+06
        -0.13730E+07
        -0.67946E+06
        -0.19306E+06
        -0.27495E+06
         0.20926E+05
         0.44284E+06
         0.12364E+07
        -0.15470E+07
         0.47003E+06
        -0.11856E+07
         0.11565E+06
         0.10458E+07
         0.16298E+07
         0.98293E+06
         0.13204E+07
         0.83183E+06
         0.13917E+06
         0.46776E+06
         0.47608E+06
        -0.87788E+05
         0.83880E+06
        -0.57742E+06
        -0.18718E+07
        -0.20232E+07
        -0.20802E+07
        -0.21410E+07
        -0.98489E+06
        -0.82736E+06
        -0.12762E+07
        -0.18597E+07
        -0.13185E+07
        -0.10275E+05
         0.82192E+06
         0.17513E+06
        -0.33394E+06
        -0.12191E+06
         0.89827E+06
         0.29538E+06
         0.10741E+07
        -0.55840E+06
        -0.15467E+07
         0.56554E+06
        -0.16958E+07
        -0.16144E+07
        -0.11829E+07
        -0.36624E+06
        -0.24273E+07
        -0.18671E+07
         0.85551E+04
         0.45302E+06
         0.73088E+06
        -0.71606E+06
        -0.65020E+05
        -0.42324E+06
         0.21691E+06
        -0.95278E+06
        -0.52347E+06
        -0.18886E+07
        -0.41576E+06
        -0.32498E+07
        -0.22668E+07
        -0.13333E+07
        -0.17590E+07
        -0.13073E+06
        -0.23009E+06
         0.55982E+06
         0.10230E+07
        -0.21235E+05
        -0.12796E+06
        -0.82740E+05
        -0.18777E+07
        -0.18887E+07
        -0.14083E+07
        -0.35472E+06
        -0.55844E+06
        -0.53827E+06
        -0.10522E+07
        -0.98840E+06
        -0.13771E+07
        -0.69903E+06
        -0.23630E+06
        -0.32133E+06
        -0.39071E+04
         0.43661E+06
         0.12423E+07
        -0.15072E+07
         0.51107E+06
        -0.11523E+07
         0.13808E+06
         0.10692E+07
         0.16619E+07
         0.10193E+07
         0.13554E+07
         0.87167E+06
         0.19198E+06
         0.51393E+06
         0.50384E+06
        -0.57030E+05
         0.87079E+06
        -0.54644E+06
        -0.18471E+07
        -0.20057E+07
        -0.20625E+07
        -0.21197E+07
        -0.97003E+06
        -0.83070E+06
        -0.12964E+07
        -0.18732E+07
        -0.13115E+07
         0.98780E+04
         0.85080E+06
         0.11469E+06
        -0.36921E+06
        -0.14242E+06
         0.89329E+06
         0.28681E+06
         0.10729E+07
        -0.58153E+06
        -0.16019E+07
         0.51383E+06
        -0.17683E+07
        -0.16318E+07
        -0.11913E+07
        -0.38009E+06
        -0.24510E+07
        -0.18739E+07
        -0.18944E+04
         0.42963E+06
         0.72871E+06
        -0.72332E+06
        -0.73476E+05
        -0.42949E+06
         0.21280E+06
        -0.95934E+06
        -0.53076E+06
        -0.19331E+07
        -0.43025E+06
        -0.32797E+07
        -0.22860E+07
        -0.13385E+07
        -0.17712E+07
        -0.18267E+06
        -0.26097E+06
         0.51986E+06
         0.10083E+07
        -0.34725E+05
        -0.14325E+06
        -0.10044E+06
        -0.18927E+07
        -0.19031E+07
        -0.14158E+07
        -0.35837E+06
        -0.55991E+06
        -0.53921E+06
        -0.10655E+07
        -0.10126E+07
        -0.14103E+07
        -0.74398E+06
        -0.30165E+06
        -0.38772E+06
        -0.47586E+05
         0.41142E+06
         0.12337E+07
        -0.15237E+07
         0.49807E+06
        -0.11625E+07
         0.12676E+06
         0.10528E+07
         0.16423E+07
         0.10032E+07
         0.13417E+07
         0.85761E+06
         0.18152E+06
         0.50559E+06
         0.49362E+06
        -0.58821E+05
         0.86822E+06
        -0.55322E+06
        -0.18511E+07
        -0.20139E+07
        -0.20908E+07
        -0.21616E+07
        -0.10161E+07
        -0.88266E+06
        -0.13605E+07
        -0.19296E+07
        -0.13411E+07
        -0.59355E+04
         0.83848E+06
         0.97106E+05
        -0.38223E+06
        -0.15092E+06
         0.88660E+06
         0.27763E+06
         0.10647E+07
        -0.59340E+06
        -0.16218E+07
         0.49831E+06
        -0.17918E+07
        -0.16446E+07
        -0.12032E+07
        -0.39373E+06
        -0.24636E+07
        -0.18851E+07
        -0.11296E+05
         0.41999E+06
         0.72296E+06
        -0.73004E+06
        -0.80008E+05
        -0.43909E+06
         0.20322E+06
        -0.96794E+06
        -0.53628E+06
        -0.19507E+07
        -0.43822E+06
        -0.32926E+07
        -0.22963E+07
        -0.13481E+07
        -0.17829E+07
        -0.19938E+06
        -0.27288E+06
         0.50578E+06
         0.99973E+06
        -0.46113E+05
        -0.15164E+06
        -0.11128E+06
        -0.19114E+07
        -0.19196E+07
        -0.14317E+07
        -0.37517E+06
        -0.57282E+06
        -0.54764E+06
        -0.10775E+07
        -0.10273E+07
        -0.14260E+07
        -0.75911E+06
        -0.31781E+06
        -0.40398E+06
        -0.62452E+05
         0.39585E+06
         0.12229E+07
        -0.15465E+07
         0.47557E+06
        -0.11779E+07
         0.11112E+06
         0.10337E+07
         0.16258E+07
         0.98622E+06
         0.13182E+07
         0.82630E+06
         0.14870E+06
         0.47587E+06
         0.48007E+06
        -0.69497E+05
         0.84538E+06
        -0.57713E+06
        -0.18740E+07
        -0.20438E+07
        -0.21194E+07
        -0.21855E+07
        -0.10354E+07
        -0.89858E+06
        -0.13820E+07
        -0.19580E+07
        -0.13672E+07
        -0.27881E+05
         0.81679E+06
         0.10837E+06
        -0.37325E+06
        -0.14463E+06
         0.88840E+06
         0.28670E+06
         0.10666E+07
        -0.58599E+06
        -0.16095E+07
         0.50767E+06
        -0.17809E+07
        -0.16371E+07
        -0.11910E+07
        -0.38486E+06
        -0.24487E+07
        -0.18667E+07
         0.12573E+04
         0.42865E+06
         0.72885E+06
        -0.71881E+06
        -0.70552E+05
        -0.42712E+06
         0.21477E+06
        -0.95548E+06
        -0.52575E+06
        -0.19427E+07
        -0.42812E+06
        -0.32746E+07
        -0.22847E+07
        -0.13385E+07
        -0.17737E+07
        -0.18900E+06
        -0.26525E+06
         0.51011E+06
         0.10019E+07
        -0.33074E+05
        -0.14247E+06
        -0.10303E+06
        -0.18990E+07
        -0.19102E+07
        -0.14227E+07
        -0.36414E+06
        -0.56043E+06
        -0.53519E+06
        -0.10669E+07
        -0.10186E+07
        -0.14163E+07
        -0.74988E+06
        -0.30638E+06
        -0.39283E+06
        -0.53437E+05
         0.40248E+06
         0.12255E+07
        -0.15124E+07
         0.50892E+06
        -0.11582E+07
         0.11930E+06
         0.10503E+07
         0.16518E+07
         0.10152E+07
         0.13390E+07
         0.83415E+06
         0.16087E+06
         0.49779E+06
         0.51111E+06
        -0.42310E+05
         0.86294E+06
        -0.56050E+06
        -0.18549E+07
        -0.20247E+07
        -0.20954E+07
        -0.21628E+07
        -0.10085E+07
        -0.87099E+06
        -0.13573E+07
        -0.19375E+07
        -0.13486E+07
        -0.92698E+04
         0.83698E+06
         0.10555E+06
        -0.37391E+06
        -0.14644E+06
         0.88387E+06
         0.28447E+06
         0.10620E+07
        -0.58781E+06
        -0.16158E+07
         0.49974E+06
        -0.17914E+07
        -0.16431E+07
        -0.11981E+07
        -0.38690E+06
        -0.24546E+07
        -0.18784E+07
        -0.44995E+04
         0.42229E+06
         0.72268E+06
        -0.72443E+06
        -0.75547E+05
        -0.43229E+06
         0.20864E+06
        -0.95995E+06
        -0.52929E+06
        -0.19498E+07
        -0.43105E+06
        -0.32788E+07
        -0.22860E+07
        -0.13404E+07
        -0.17796E+07
        -0.19394E+06
        -0.26854E+06
         0.50165E+06
         0.99541E+06
        -0.37207E+05
        -0.14637E+06
        -0.10564E+06
        -0.19153E+07
        -0.19198E+07
        -0.14308E+07
        -0.37245E+06
        -0.56533E+06
        -0.54241E+06
        -0.10707E+07
        -0.10224E+07
        -0.14215E+07
        -0.75713E+06
        -0.31372E+06
        -0.39906E+06
        -0.58988E+05
         0.39637E+06
         0.12193E+07
        -0.15222E+07
         0.50106E+06
        -0.11743E+07
         0.10574E+06
         0.10483E+07
         0.16424E+07
         0.99314E+06
         0.13144E+07
         0.81955E+06
         0.13903E+06
         0.47397E+06
         0.49914E+06
        -0.56344E+05
         0.85519E+06
        -0.56771E+06
        -0.18618E+07
        -0.20261E+07
        -0.21004E+07
        -0.21697E+07
        -0.10266E+07
        -0.89362E+06
        -0.13747E+07
        -0.19464E+07
        -0.13527E+07
        -0.19007E+05
         0.82322E+06
         0.97519E+05
        -0.38049E+06
        -0.15137E+06
         0.88117E+06
         0.27791E+06
         0.10589E+07
        -0.59296E+06
        -0.16245E+07
         0.49250E+06
        -0.18019E+07
        -0.16497E+07
        -0.12077E+07
        -0.39307E+06
        -0.24589E+07
        -0.18903E+07
        -0.12585E+05
         0.41718E+06
         0.71920E+06
        -0.73122E+06
        -0.79218E+05
        -0.43882E+06
         0.20242E+06
        -0.96674E+06
        -0.53497E+06
        -0.19568E+07
        -0.43716E+06
        -0.32819E+07
        -0.22888E+07
        -0.13427E+07
        -0.17843E+07
        -0.20122E+06
        -0.27428E+06
         0.49607E+06
         0.99378E+06
        -0.47248E+05
        -0.15300E+06
        -0.11152E+06
        -0.19311E+07
        -0.19305E+07
        -0.14379E+07
        -0.37732E+06
        -0.56949E+06
        -0.54900E+06
        -0.10774E+07
        -0.10288E+07
        -0.14283E+07
        -0.76392E+06
        -0.32004E+06
        -0.40501E+06
        -0.63802E+05
         0.39058E+06
         0.12165E+07
        -0.15418E+07
         0.48459E+06
        -0.11866E+07
         0.10161E+06
         0.10429E+07
         0.16231E+07
         0.96536E+06
         0.12922E+07
         0.80443E+06
         0.12332E+06
         0.46423E+06
         0.48733E+06
        -0.73198E+05
         0.84368E+06
        -0.57973E+06
        -0.18759E+07
        -0.20357E+07
        -0.21115E+07
        -0.21832E+07
        -0.10416E+07
        -0.91083E+06
        -0.13926E+07
        -0.19593E+07
        -0.13646E+07
        -0.33947E+05
         0.80751E+06
         0.10289E+06
        -0.37760E+06
        -0.14914E+06
         0.88461E+06
         0.28390E+06
         0.10643E+07
        -0.58832E+06
        -0.16163E+07
         0.49658E+06
        -0.17987E+07
        -0.16427E+07
        -0.11993E+07
        -0.39032E+06
        -0.24452E+07
        -0.18733E+07
        -0.54879E+04
         0.42044E+06
         0.72506E+06
        -0.72464E+06
        -0.71574E+05
        -0.42935E+06
         0.21274E+06
        -0.95834E+06
        -0.52840E+06
        -0.19545E+07
        -0.43053E+06
        -0.32704E+07
        -0.22814E+07
        -0.13321E+07
        -0.17741E+07
        -0.19293E+06
        -0.26893E+06
         0.50166E+06
         0.10003E+07
        -0.39180E+05
        -0.14721E+06
        -0.10812E+06
        -0.19212E+07
        -0.19211E+07
        -0.14248E+07
        -0.36499E+06
        -0.56004E+06
        -0.53899E+06
        -0.10711E+07
        -0.10237E+07
        -0.14230E+07
        -0.75845E+06
        -0.31308E+06
        -0.39756E+06
        -0.56057E+05
         0.39752E+06
         0.12237E+07
        -0.15169E+07
         0.51144E+06
        -0.11615E+07
         0.11402E+06
         0.10387E+07
         0.16245E+07
         0.98550E+06
         0.13145E+07
         0.81931E+06
         0.14599E+06
         0.48578E+06
         0.49746E+06
        -0.55021E+05
         0.86209E+06
        -0.56291E+06
        -0.18631E+07
        -0.20273E+07
        -0.21006E+07
        -0.21729E+07
        -0.10254E+07
        -0.89184E+06
        -0.13743E+07
        -0.19435E+07
        -0.13508E+07
        -0.13765E+05
         0.83115E+06
         0.99202E+05
        -0.38285E+06
        -0.15393E+06
         0.87949E+06
         0.27721E+06
         0.10579E+07
        -0.59467E+06
        -0.16242E+07
         0.49067E+06
        -0.18110E+07
        -0.16518E+07
        -0.12112E+07
        -0.40286E+06
        -0.24529E+07
        -0.18820E+07
        -0.11990E+05
         0.41391E+06
         0.71848E+06
        -0.73286E+06
        -0.77542E+05
        -0.44084E+06
         0.20155E+06
        -0.96989E+06
        -0.53501E+06
        -0.19659E+07
        -0.43581E+06
        -0.32815E+07
        -0.22913E+07
        -0.13392E+07
        -0.17816E+07
        -0.19969E+06
        -0.27432E+06
         0.49180E+06
         0.99498E+06
        -0.48769E+05
        -0.15492E+06
        -0.11773E+06
        -0.19383E+07
        -0.19377E+07
        -0.14385E+07
        -0.38070E+06
        -0.57419E+06
        -0.55017E+06
        -0.10842E+07
        -0.10350E+07
        -0.14329E+07
        -0.76798E+06
        -0.32307E+06
        -0.40532E+06
        -0.61534E+05
         0.38979E+06
         0.12166E+07
        -0.15363E+07
         0.49457E+06
        -0.11809E+07
         0.91877E+05
         0.10128E+07
         0.15999E+07
         0.97051E+06
         0.12952E+07
         0.79376E+06
         0.12076E+06
         0.45504E+06
         0.46701E+06
        -0.75170E+05
         0.84115E+06
        -0.58087E+06
        -0.18838E+07
        -0.20594E+07
        -0.21293E+07
        -0.21873E+07
        -0.10452E+07
        -0.91234E+06
        -0.13848E+07
        -0.19508E+07
        -0.13656E+07
        -0.33994E+05
         0.81107E+06
         0.98621E+05
        -0.38452E+06
        -0.15547E+06
         0.87774E+06
         0.27607E+06
         0.10558E+07
        -0.59615E+06
        -0.16260E+07
         0.49060E+06
        -0.18136E+07
        -0.16539E+07
        -0.12127E+07
        -0.40481E+06
        -0.24511E+07
        -0.18823E+07
        -0.13111E+05
         0.41385E+06
         0.71721E+06
        -0.73406E+06
        -0.77674E+05
        -0.44361E+06
         0.19978E+06
        -0.97249E+06
        -0.53604E+06
        -0.19695E+07
        -0.43689E+06
        -0.32793E+07
        -0.22928E+07
        -0.13404E+07
        -0.17840E+07
        -0.20309E+06
        -0.27615E+06
         0.48675E+06
         0.99389E+06
        -0.50986E+05
        -0.15751E+06
        -0.12067E+06
        -0.19469E+07
        -0.19475E+07
        -0.14441E+07
        -0.38268E+06
        -0.57532E+06
        -0.55177E+06
        -0.10869E+07
        -0.10375E+07
        -0.14353E+07
        -0.77133E+06
        -0.32691E+06
        -0.40816E+06
        -0.62314E+05
         0.38835E+06
         0.12148E+07
        -0.15367E+07
         0.49486E+06
        -0.11862E+07
         0.83335E+05
         0.10122E+07
         0.15996E+07
         0.96452E+06
         0.12792E+07
         0.77531E+06
         0.11063E+06
         0.45404E+06
         0.46393E+06
        -0.80233E+05
         0.83298E+06
        -0.59023E+06
        -0.18905E+07
        -0.20641E+07
        -0.21332E+07
        -0.21914E+07
        -0.10523E+07
        -0.92145E+06
        -0.13906E+07
        -0.19515E+07
        -0.13673E+07
        -0.42899E+05
         0.80308E+06
         0.11540E+06
        -0.36752E+06
        -0.14161E+06
         0.88708E+06
         0.29447E+06
         0.10688E+07
        -0.57981E+06
        -0.16074E+07
         0.50187E+06
        -0.18006E+07
        -0.16360E+07
        -0.11864E+07
        -0.38215E+06
        -0.24284E+07
        -0.18566E+07
         0.20649E+04
         0.42582E+06
         0.72804E+06
        -0.71909E+06
        -0.62365E+05
        -0.42212E+06
         0.22027E+06
        -0.95183E+06
        -0.52212E+06
        -0.19545E+07
        -0.42290E+06
        -0.32565E+07
        -0.22729E+07
        -0.13205E+07
        -0.17643E+07
        -0.18681E+06
        -0.26202E+06
         0.49633E+06
         0.10028E+07
        -0.29442E+05
        -0.14033E+06
        -0.10244E+06
        -0.19310E+07
        -0.19281E+07
        -0.14225E+07
        -0.36188E+06
        -0.55407E+06
        -0.53308E+06
        -0.10663E+07
        -0.10171E+07
        -0.14138E+07
        -0.75299E+06
        -0.30943E+06
        -0.39341E+06
        -0.48703E+05
         0.40282E+06
         0.12273E+07
        -0.14915E+07
         0.53978E+06
        -0.11485E+07
         0.11077E+06
         0.10456E+07
         0.16422E+07
         0.10002E+07
         0.13063E+07
         0.80559E+06
         0.14385E+06
         0.48400E+06
         0.49894E+06
        -0.52456E+05
         0.86382E+06
        -0.55500E+06
        -0.18539E+07
        -0.20231E+07
        -0.20888E+07
        -0.21533E+07
        -0.10123E+07
        -0.88750E+06
        -0.13653E+07
        -0.19237E+07
        -0.13338E+07
        -0.65841E+04
         0.83983E+06
         0.10852E+06
        -0.37222E+06
        -0.14606E+06
         0.88081E+06
         0.28617E+06
         0.10623E+07
        -0.58553E+06
        -0.16173E+07
         0.49361E+06
        -0.18154E+07
        -0.16449E+07
        -0.11955E+07
        -0.38767E+06
        -0.24367E+07
        -0.18687E+07
        -0.63489E+04
         0.41763E+06
         0.72269E+06
        -0.72981E+06
        -0.69794E+05
        -0.42994E+06
         0.21006E+06
        -0.95897E+06
        -0.53015E+06
        -0.19675E+07
        -0.43063E+06
        -0.32664E+07
        -0.22797E+07
        -0.13213E+07
        -0.17698E+07
        -0.19163E+06
        -0.26822E+06
         0.48899E+06
         0.99629E+06
        -0.41803E+05
        -0.14732E+06
        -0.10716E+06
        -0.19504E+07
        -0.19418E+07
        -0.14286E+07
        -0.37188E+06
        -0.56502E+06
        -0.54595E+06
        -0.10762E+07
        -0.10270E+07
        -0.14231E+07
        -0.76098E+06
        -0.31497E+06
        -0.39986E+06
        -0.57147E+05
         0.39356E+06
         0.12201E+07
        -0.15202E+07
         0.51547E+06
        -0.11709E+07
         0.99066E+05
         0.10415E+07
         0.16313E+07
         0.97610E+06
         0.12774E+07
         0.77729E+06
         0.11872E+06
         0.45437E+06
         0.46493E+06
        -0.76440E+05
         0.85185E+06
        -0.56057E+06
        -0.18576E+07
        -0.20350E+07
        -0.21091E+07
        -0.21683E+07
        -0.10301E+07
        -0.90395E+06
        -0.13838E+07
        -0.19435E+07
        -0.13460E+07
        -0.18006E+05
         0.82085E+06
         0.96941E+05
        -0.38444E+06
        -0.15807E+06
         0.87249E+06
         0.27315E+06
         0.10503E+07
        -0.59478E+06
        -0.16288E+07
         0.48192E+06
        -0.18398E+07
        -0.16555E+07
        -0.12103E+07
        -0.39992E+06
        -0.24452E+07
        -0.18839E+07
        -0.16712E+05
         0.40530E+06
         0.71648E+06
        -0.73867E+06
        -0.73149E+05
        -0.43952E+06
         0.19812E+06
        -0.96759E+06
        -0.53701E+06
        -0.19886E+07
        -0.43821E+06
        -0.32891E+07
        -0.22906E+07
        -0.12981E+07
        -0.17561E+07
        -0.20067E+06
        -0.27714E+06
         0.48170E+06
         0.99184E+06
        -0.55723E+05
        -0.15876E+06
        -0.11841E+06
        -0.19787E+07
        -0.19553E+07
        -0.14086E+07
        -0.37300E+06
        -0.57689E+06
        -0.56315E+06
        -0.10869E+07
        -0.10395E+07
        -0.14379E+07
        -0.77462E+06
        -0.32499E+06
        -0.40736E+06
        -0.63835E+05
         0.38535E+06
         0.12111E+07
        -0.15392E+07
         0.49777E+06
        -0.11862E+07
         0.85891E+05
         0.10231E+07
         0.16014E+07
         0.94207E+06
         0.12450E+07
         0.74879E+06
         0.11213E+06
         0.40266E+06
         0.38354E+06
        -0.11015E+06
         0.83308E+06
        -0.57729E+06
        -0.18727E+07
        -0.20538E+07
        -0.21304E+07
        -0.21930E+07
        -0.10579E+07
        -0.92280E+06
        -0.14014E+07
        -0.19636E+07
        -0.13606E+07
        -0.40668E+05
         0.79549E+06
         0.11293E+06
        -0.36880E+06
        -0.14301E+06
         0.88390E+06
         0.29272E+06
         0.10644E+07
        -0.58050E+06
        -0.16105E+07
         0.48954E+06
        -0.18457E+07
        -0.16395E+07
        -0.11906E+07
        -0.38311E+06
        -0.24238E+07
        -0.18611E+07
        -0.13671E+04
         0.41338E+06
         0.72665E+06
        -0.72129E+06
        -0.48294E+05
        -0.42170E+06
         0.21602E+06
        -0.95098E+06
        -0.52201E+06
        -0.19869E+07
        -0.42304E+06
        -0.32929E+07
        -0.22782E+07
        -0.12278E+07
        -0.16931E+07
        -0.18671E+06
        -0.26278E+06
         0.49100E+06
         0.10036E+07
        -0.32642E+05
        -0.13959E+06
        -0.10120E+06
        -0.19779E+07
        -0.19329E+07
        -0.13330E+07
        -0.33276E+06
        -0.55537E+06
        -0.55229E+06
        -0.10693E+07
        -0.10195E+07
        -0.14139E+07
        -0.75548E+06
        -0.30896E+06
        -0.39120E+06
        -0.45485E+05
         0.40463E+06
         0.12260E+07
        -0.14927E+07
         0.54341E+06
        -0.11396E+07
         0.11857E+06
         0.10439E+07
         0.16256E+07
         0.97553E+06
         0.12789E+07
         0.78583E+06
         0.18450E+06
         0.38586E+06
         0.31804E+06
        -0.10771E+06
         0.85864E+06
        -0.55578E+06
        -0.18548E+07
        -0.20318E+07
        -0.20933E+07
        -0.21474E+07
        -0.10151E+07
        -0.88596E+06
        -0.13634E+07
        -0.19208E+07
        -0.13206E+07
        -0.82415E+04
         0.82955E+06
         0.53745E+05
        -0.42571E+06
        -0.19788E+06
         0.83632E+06
         0.22122E+06
         0.10000E+07
        -0.63400E+06
        -0.16810E+07
         0.42834E+06
        -0.19338E+07
        -0.17058E+07
        -0.12834E+07
        -0.46892E+06
        -0.24981E+07
        -0.19567E+07
        -0.58433E+05
         0.35631E+06
         0.68150E+06
        -0.78162E+06
        -0.98283E+05
        -0.50245E+06
         0.13737E+06
        -0.10286E+07
        -0.57382E+06
        -0.20659E+07
        -0.47109E+06
        -0.33822E+07
        -0.23395E+07
        -0.12545E+07
        -0.17371E+07
        -0.24168E+06
        -0.31279E+06
         0.43972E+06
         0.95347E+06
        -0.11724E+06
        -0.21090E+06
        -0.17782E+06
        -0.20872E+07
        -0.20181E+07
        -0.13826E+07
        -0.41247E+06
        -0.64059E+06
        -0.63808E+06
        -0.11446E+07
        -0.10975E+07
        -0.15048E+07
        -0.83177E+06
        -0.37623E+06
        -0.45479E+06
        -0.11602E+06
         0.31844E+06
         0.11531E+07
        -0.16547E+07
         0.38609E+06
        -0.13034E+07
        -0.47986E+05
         0.87775E+06
         0.14657E+07
         0.81300E+06
         0.11046E+07
         0.62208E+06
         0.35420E+05
         0.17812E+06
         0.91978E+05
        -0.26763E+06
         0.72592E+06
        -0.69489E+06
        -0.19996E+07
        -0.21816E+07
        -0.22606E+07
        -0.23192E+07
        -0.11797E+07
        -0.10388E+07
        -0.15096E+07
        -0.20706E+07
        -0.14742E+07
        -0.15576E+06
         0.68312E+06
         0.87769E+05
        -0.42164E+06
        -0.18781E+06
         0.85399E+06
         0.24463E+06
         0.10204E+07
        -0.62684E+06
        -0.16400E+07
         0.46743E+06
        -0.18744E+07
        -0.16887E+07
        -0.12815E+07
        -0.49079E+06
        -0.24486E+07
        -0.19147E+07
        -0.13742E+05
         0.39274E+06
         0.70621E+06
        -0.74977E+06
        -0.68046E+05
        -0.46647E+06
         0.16431E+06
        -0.97294E+06
        -0.53460E+06
        -0.20017E+07
        -0.43472E+06
        -0.33061E+07
        -0.22696E+07
        -0.11957E+07
        -0.16735E+07
        -0.20716E+06
        -0.29008E+06
         0.45190E+06
         0.94613E+06
        -0.10436E+06
        -0.21649E+06
        -0.19959E+06
        -0.20377E+07
        -0.19586E+07
        -0.13302E+07
        -0.37693E+06
        -0.59201E+06
        -0.58692E+06
        -0.10942E+07
        -0.10698E+07
        -0.14911E+07
        -0.82073E+06
        -0.34731E+06
        -0.43309E+06
        -0.11434E+06
         0.32398E+06
         0.11545E+07
        -0.15923E+07
         0.46708E+06
        -0.12831E+07
        -0.83932E+05
         0.80308E+06
         0.14203E+07
         0.88752E+06
         0.11812E+07
         0.68286E+06
         0.71562E+05
         0.18817E+06
         0.12285E+06
        -0.20715E+06
         0.75578E+06
        -0.63172E+06
        -0.19094E+07
        -0.21049E+07
        -0.22018E+07
        -0.22938E+07
        -0.11827E+07
        -0.10049E+07
        -0.14612E+07
        -0.19937E+07
        -0.13804E+07
        -0.81856E+05
         0.75970E+06
         0.23288E+09
         0.22709E+09
         0.22386E+09
         0.19207E+09
         0.27994E+09
         0.25096E+09
         0.22558E+09
         0.26447E+09
         0.21631E+09
         0.26437E+09
         0.26456E+09
         0.35520E+09
         0.31377E+09
         0.28887E+09
         0.36627E+09
         0.21528E+09
         0.21049E+09
         0.16388E+09
         0.22779E+09
         0.21718E+09
         0.28896E+09
         0.29049E+09
         0.27489E+09
         0.20625E+09
         0.25220E+09
         0.17802E+09
         0.28479E+09
         0.22861E+09
         0.24657E+09
         0.26278E+09
         0.21259E+09
         0.20070E+09
         0.19202E+09
         0.19856E+09
         0.31878E+09
         0.27114E+09
         0.27922E+09
         0.34356E+09
         0.32505E+09
         0.31829E+09
         0.33673E+09
         0.31582E+09
         0.29927E+09
         0.26329E+09
         0.27194E+09
         0.32123E+09
         0.28054E+09
         0.25664E+09
         0.24346E+09
         0.25902E+09
         0.30284E+09
         0.26586E+09
         0.59245E+09
         0.58045E+09
         0.59069E+09
         0.57161E+09
         0.58952E+09
         0.61839E+09
         0.62085E+09
         0.61386E+09
         0.61864E+09
         0.63614E+09
         0.61745E+09
         0.58244E+09
         0.51620E+09
         0.48721E+09
         0.49459E+09
         0.50609E+09
         0.51244E+09
         0.55831E+09
         0.59737E+09
         0.59996E+09
         0.54999E+09
         0.53029E+09
         0.54953E+09
         0.54425E+09
         0.54114E+09
         0.54228E+09
         0.27233E+10
         0.28524E+10
         0.28111E+10
         0.25642E+10
         0.31592E+10
         0.29666E+10
         0.30862E+10
         0.31110E+10
         0.26623E+10
         0.31094E+10
         0.33897E+10
         0.38000E+10
         0.34446E+10
         0.34885E+10
         0.39330E+10
         0.26089E+10
         0.28041E+10
         0.24458E+10
         0.28963E+10
         0.30475E+10
         0.31548E+10
         0.32237E+10
         0.30280E+10
         0.27851E+10
         0.31453E+10
         0.26870E+10
         0.34759E+10
         0.34166E+10
         0.34322E+10
         0.32568E+10
         0.26369E+10
         0.27729E+10
         0.25847E+10
         0.27034E+10
         0.34598E+10
         0.31736E+10
         0.31843E+10
         0.38083E+10
         0.37103E+10
         0.36658E+10
         0.37311E+10
         0.35430E+10
         0.33505E+10
         0.29556E+10
         0.30775E+10
         0.34582E+10
         0.31974E+10
         0.30061E+10
         0.29461E+10
         0.30550E+10
         0.33179E+10
         0.30643E+10
         0.54881E+10
         0.53469E+10
         0.54583E+10
         0.52868E+10
         0.54439E+10
         0.57232E+10
         0.58158E+10
         0.58038E+10
         0.58451E+10
         0.59788E+10
         0.58061E+10
         0.54585E+10
         0.48931E+10
         0.46244E+10
         0.46368E+10
         0.46960E+10
         0.47412E+10
         0.51416E+10
         0.55100E+10
         0.55321E+10
         0.51198E+10
         0.49614E+10
         0.51256E+10
         0.50895E+10
         0.50319E+10
         0.50178E+10
  
SCALARS                      stress_zz  double 1
LOOKUP_TABLE default
         0.62426E+12
         0.61571E+12
         0.62113E+12
         0.63085E+12
        -0.32830E+03
        -0.36813E+03
        -0.35250E+03
        -0.32023E+03
         0.61541E+12
         0.61831E+12
        -0.33105E+03
        -0.32037E+03
         0.60332E+12
         0.60286E+12
        -0.39335E+03
        -0.36985E+03
         0.62943E+12
         0.60353E+12
        -0.29064E+03
        -0.32237E+03
         0.59400E+12
         0.58660E+12
         0.59838E+12
        -0.38986E+03
        -0.34047E+03
        -0.35157E+03
         0.58689E+12
         0.57607E+12
        -0.37401E+03
        -0.31541E+03
         0.62896E+12
         0.61770E+12
         0.63987E+12
        -0.31916E+03
        -0.29671E+03
        -0.28848E+03
         0.62245E+12
         0.60809E+12
        -0.33766E+03
        -0.30812E+03
         0.61676E+12
         0.60568E+12
        -0.29184E+03
        -0.25836E+03
         0.62613E+12
         0.63029E+12
        -0.31981E+03
        -0.35734E+03
         0.59679E+12
        -0.31243E+03
         0.62948E+12
        -0.36712E+03
         0.58377E+12
        -0.32994E+03
         0.58037E+12
        -0.31648E+03
         0.58043E+12
         0.59251E+12
        -0.32245E+03
        -0.31403E+03
         0.62873E+12
         0.62440E+12
        -0.32334E+03
        -0.36553E+03
         0.63143E+12
        -0.31200E+03
         0.62629E+12
        -0.34051E+03
         0.61275E+12
         0.61139E+12
        -0.32777E+03
        -0.34344E+03
         0.60833E+12
        -0.34633E+03
         0.57223E+12
        -0.27362E+03
         0.57033E+12
        -0.26559E+03
         0.57128E+12
        -0.28004E+03
         0.57651E+12
         0.58195E+12
        -0.26682E+03
        -0.27817E+03
         0.59289E+12
        -0.25908E+03
         0.62591E+12
        -0.33975E+03
         0.62077E+12
        -0.34772E+03
         0.61654E+12
         0.61423E+12
        -0.33393E+03
        -0.33782E+03
         0.61709E+12
        -0.30684E+03
         0.61912E+12
        -0.30246E+03
         0.61728E+12
        -0.32379E+03
         0.61663E+12
         0.61849E+12
        -0.31753E+03
        -0.32684E+03
         0.60643E+12
         0.61132E+12
        -0.24653E+03
        -0.23187E+03
         0.60550E+12
        -0.23540E+03
         0.61115E+12
        -0.22571E+03
         0.60558E+12
        -0.22257E+03
         0.59323E+12
        -0.21033E+03
         0.58125E+12
        -0.18685E+03
         0.57408E+12
        -0.16825E+03
         0.57335E+12
        -0.16708E+03
         0.57357E+12
        -0.18119E+03
         0.58136E+12
        -0.19043E+03
         0.59590E+12
        -0.17388E+03
         0.61184E+12
        -0.15673E+03
         0.62117E+12
        -0.15656E+03
         0.63038E+12
        -0.17499E+03
         0.63647E+12
        -0.19953E+03
         0.63624E+12
        -0.21435E+03
         0.62146E+12
        -0.23150E+03
         0.61115E+12
        -0.24802E+03
         0.60761E+12
        -0.22720E+03
         0.61314E+12
        -0.19932E+03
         0.61602E+12
        -0.19870E+03
         0.61119E+12
        -0.21740E+03
         0.61126E+12
        -0.23177E+03
         0.61491E+12
        -0.21995E+03
         0.61966E+12
        -0.21264E+03
        -0.32711E+11
        -0.32634E+11
        -0.32647E+11
        -0.32731E+11
        -0.32520E+11
        -0.32657E+11
        -0.32478E+11
        -0.32583E+11
        -0.32723E+11
        -0.32650E+11
        -0.32338E+11
        -0.32289E+11
        -0.32412E+11
        -0.32420E+11
        -0.32343E+11
        -0.32729E+11
        -0.32718E+11
        -0.32742E+11
        -0.32623E+11
        -0.32656E+11
        -0.32607E+11
        -0.32641E+11
        -0.32575E+11
        -0.32594E+11
        -0.32654E+11
        -0.32650E+11
        -0.32537E+11
        -0.32549E+11
        -0.32441E+11
        -0.32595E+11
        -0.32724E+11
        -0.32633E+11
        -0.32723E+11
        -0.32671E+11
        -0.32254E+11
        -0.32426E+11
        -0.32495E+11
        -0.32413E+11
        -0.32401E+11
        -0.32241E+11
        -0.32105E+11
        -0.32408E+11
        -0.32609E+11
        -0.32587E+11
        -0.32489E+11
        -0.32261E+11
        -0.32459E+11
        -0.32616E+11
        -0.32607E+11
        -0.32488E+11
        -0.32330E+11
        -0.32534E+11
        -0.31715E+11
        -0.32016E+11
        -0.31970E+11
        -0.32035E+11
        -0.32018E+11
        -0.31862E+11
        -0.31687E+11
        -0.31628E+11
        -0.31654E+11
        -0.31635E+11
        -0.31554E+11
        -0.32004E+11
        -0.32147E+11
        -0.32198E+11
        -0.32280E+11
        -0.32338E+11
        -0.32335E+11
        -0.32234E+11
        -0.31821E+11
        -0.31930E+11
        -0.32076E+11
        -0.32074E+11
        -0.32050E+11
        -0.31908E+11
        -0.32113E+11
        -0.32181E+11
         0.24897E+07
         0.15047E+07
         0.17485E+07
         0.26784E+07
         0.20553E+07
         0.28048E+07
        -0.19480E+06
         0.25142E+04
         0.29851E+07
        -0.15136E+06
        -0.13219E+07
         0.10957E+07
         0.14692E+07
        -0.27426E+07
         0.14896E+06
         0.13727E+07
         0.19040E+07
         0.20919E+07
         0.69012E+06
         0.55576E+06
         0.86636E+06
         0.15877E+07
         0.29783E+06
         0.71270E+05
        -0.81918E+06
        -0.56568E+05
        -0.41522E+07
        -0.48178E+07
        -0.22354E+07
        -0.52849E+06
         0.12593E+07
         0.36668E+06
         0.23415E+07
         0.33865E+07
         0.11024E+07
         0.95969E+06
         0.13700E+07
        -0.10986E+06
        -0.77079E+04
         0.47179E+06
         0.11805E+07
         0.75937E+06
         0.92586E+06
         0.33047E+06
         0.40873E+06
         0.65871E+06
         0.10223E+07
         0.12390E+07
         0.16720E+07
         0.22318E+07
         0.22205E+07
         0.27756E+07
        -0.76116E+05
         0.21205E+07
         0.73900E+06
         0.24366E+07
         0.38117E+07
         0.47615E+07
         0.41306E+07
         0.44056E+07
         0.38341E+07
         0.29279E+07
         0.26300E+07
         0.22856E+07
         0.15513E+07
         0.24308E+07
         0.93418E+06
        -0.12722E+06
         0.58184E+05
         0.13462E+06
         0.51469E+06
         0.19829E+07
         0.20202E+07
         0.14888E+07
         0.72542E+06
         0.71907E+06
         0.16648E+07
         0.25397E+07
         0.24019E+07
         0.14032E+07
         0.16466E+07
         0.25753E+07
         0.19513E+07
         0.27005E+07
        -0.32360E+06
        -0.98457E+05
         0.28813E+07
        -0.26165E+06
        -0.14571E+07
         0.97606E+06
         0.13610E+07
        -0.28632E+07
         0.31067E+05
         0.12713E+07
         0.17686E+07
         0.19848E+07
         0.56453E+06
         0.40754E+06
         0.75955E+06
         0.14825E+07
         0.18626E+06
        -0.70069E+05
        -0.95063E+06
        -0.19314E+06
        -0.42671E+07
        -0.49666E+07
        -0.23910E+07
        -0.66376E+06
         0.11576E+07
         0.23713E+06
         0.22369E+07
         0.32787E+07
         0.99086E+06
         0.85224E+06
         0.12676E+07
        -0.23201E+06
        -0.12633E+06
         0.35294E+06
         0.10600E+07
         0.63976E+06
         0.81207E+06
         0.21985E+06
         0.30162E+06
         0.54768E+06
         0.91211E+06
         0.11314E+07
         0.15688E+07
         0.21324E+07
         0.21166E+07
         0.26735E+07
        -0.25015E+06
         0.19511E+07
         0.57261E+06
         0.22772E+07
         0.36437E+07
         0.45750E+07
         0.39440E+07
         0.42157E+07
         0.36418E+07
         0.27321E+07
         0.24350E+07
         0.21051E+07
         0.13989E+07
         0.22879E+07
         0.78547E+06
        -0.28534E+06
        -0.10303E+06
        -0.32990E+05
         0.34593E+06
         0.18048E+07
         0.18511E+07
         0.13355E+07
         0.57237E+06
         0.56212E+06
         0.15065E+07
         0.23785E+07
         0.24226E+07
         0.14232E+07
         0.16684E+07
         0.26026E+07
         0.19785E+07
         0.27287E+07
        -0.29437E+06
        -0.75146E+05
         0.28984E+07
        -0.25565E+06
        -0.14297E+07
         0.99894E+06
         0.13817E+07
        -0.28369E+07
         0.60283E+05
         0.12510E+07
         0.17616E+07
         0.20124E+07
         0.53383E+06
         0.37847E+06
         0.74190E+06
         0.14757E+07
         0.11308E+06
        -0.17207E+06
        -0.10049E+07
        -0.28885E+06
        -0.42437E+07
        -0.49870E+07
        -0.24521E+07
        -0.75786E+06
         0.11581E+07
         0.20755E+06
         0.22653E+07
         0.33153E+07
         0.10200E+07
         0.87926E+06
         0.12902E+07
        -0.21043E+06
        -0.10632E+06
         0.36003E+06
         0.10571E+07
         0.59638E+06
         0.75079E+06
         0.14580E+06
         0.28322E+06
         0.56293E+06
         0.93208E+06
         0.11557E+07
         0.15967E+07
         0.21630E+07
         0.21461E+07
         0.27025E+07
        -0.19844E+06
         0.19974E+07
         0.62387E+06
         0.23167E+07
         0.36729E+07
         0.46039E+07
         0.39810E+07
         0.42531E+07
         0.36796E+07
         0.27712E+07
         0.24580E+07
         0.21043E+07
         0.14013E+07
         0.23142E+07
         0.80283E+06
        -0.31730E+06
        -0.13768E+06
        -0.24003E+05
         0.39224E+06
         0.18584E+07
         0.18992E+07
         0.13843E+07
         0.62686E+06
         0.60798E+06
         0.15438E+07
         0.24145E+07
         0.24102E+07
         0.14147E+07
         0.16601E+07
         0.25862E+07
         0.19687E+07
         0.27199E+07
        -0.30324E+06
        -0.87987E+05
         0.28683E+07
        -0.30213E+06
        -0.14436E+07
         0.98656E+06
         0.13731E+07
        -0.28536E+07
         0.45839E+05
         0.11705E+07
         0.16822E+07
         0.19923E+07
         0.42420E+06
         0.25351E+06
         0.66087E+06
         0.14030E+07
        -0.57199E+05
        -0.40020E+06
        -0.11612E+07
        -0.50682E+06
        -0.42747E+07
        -0.51074E+07
        -0.26440E+07
        -0.98527E+06
         0.11089E+07
         0.90871E+05
         0.22493E+07
         0.32986E+07
         0.10057E+07
         0.86839E+06
         0.12820E+07
        -0.23264E+06
        -0.13482E+06
         0.30637E+06
         0.98886E+06
         0.46096E+06
         0.58461E+06
        -0.28718E+05
         0.19458E+06
         0.51822E+06
         0.89668E+06
         0.11357E+07
         0.15789E+07
         0.21441E+07
         0.21304E+07
         0.26914E+07
        -0.22284E+06
         0.19806E+07
         0.59754E+06
         0.22937E+07
         0.36574E+07
         0.45862E+07
         0.39512E+07
         0.42206E+07
         0.36482E+07
         0.27332E+07
         0.23979E+07
         0.20072E+07
         0.13089E+07
         0.22702E+07
         0.75377E+06
        -0.45172E+06
        -0.27983E+06
        -0.90189E+05
         0.36063E+06
         0.18283E+07
         0.18762E+07
         0.13570E+07
         0.59836E+06
         0.58850E+06
         0.15291E+07
         0.23999E+07
         0.23875E+07
         0.13973E+07
         0.16454E+07
         0.25692E+07
         0.19574E+07
         0.27076E+07
        -0.31843E+06
        -0.10952E+06
         0.28324E+07
        -0.35058E+06
        -0.14584E+07
         0.97885E+06
         0.13635E+07
        -0.28717E+07
         0.39055E+05
         0.11161E+07
         0.16195E+07
         0.19736E+07
         0.35219E+06
         0.16315E+06
         0.60871E+06
         0.13508E+07
        -0.16180E+06
        -0.54160E+06
        -0.12725E+07
        -0.64643E+06
        -0.43016E+07
        -0.51942E+07
        -0.27758E+07
        -0.11359E+07
         0.10575E+07
         0.61338E+04
         0.22178E+07
         0.32748E+07
         0.99091E+06
         0.85449E+06
         0.12697E+07
        -0.24907E+06
        -0.15828E+06
         0.26583E+06
         0.94081E+06
         0.36997E+06
         0.47563E+06
        -0.13957E+06
         0.13616E+06
         0.48872E+06
         0.86529E+06
         0.11036E+07
         0.15481E+07
         0.21163E+07
         0.21060E+07
         0.26733E+07
        -0.24481E+06
         0.19660E+07
         0.57512E+06
         0.22758E+07
         0.36501E+07
         0.45809E+07
         0.39384E+07
         0.41992E+07
         0.36215E+07
         0.27097E+07
         0.23613E+07
         0.19401E+07
         0.12459E+07
         0.22362E+07
         0.71914E+06
        -0.53879E+06
        -0.37960E+06
        -0.13748E+06
         0.34624E+06
         0.18010E+07
         0.18456E+07
         0.13257E+07
         0.56170E+06
         0.55697E+06
         0.15096E+07
         0.23853E+07
         0.23326E+07
         0.13639E+07
         0.16308E+07
         0.25833E+07
         0.19715E+07
         0.27273E+07
        -0.32834E+06
        -0.14752E+06
         0.27821E+07
        -0.41647E+06
        -0.14468E+07
         0.10056E+07
         0.13744E+07
        -0.28695E+07
         0.72529E+05
         0.11263E+07
         0.16050E+07
         0.20018E+07
         0.36733E+06
         0.17497E+06
         0.62385E+06
         0.13692E+07
        -0.15945E+06
        -0.54447E+06
        -0.13179E+07
        -0.66601E+06
        -0.43075E+07
        -0.52043E+07
        -0.27659E+07
        -0.11402E+07
         0.99612E+06
        -0.38601E+05
         0.21650E+07
         0.32697E+07
         0.10038E+07
         0.85590E+06
         0.12674E+07
        -0.22719E+06
        -0.13791E+06
         0.28841E+06
         0.96444E+06
         0.38448E+06
         0.48731E+06
        -0.14655E+06
         0.12868E+06
         0.48384E+06
         0.83813E+06
         0.10391E+07
         0.14730E+07
         0.20784E+07
         0.20979E+07
         0.26820E+07
        -0.20230E+06
         0.20099E+07
         0.61081E+06
         0.22997E+07
         0.36751E+07
         0.46148E+07
         0.39768E+07
         0.42364E+07
         0.36642E+07
         0.27659E+07
         0.24105E+07
         0.19698E+07
         0.12792E+07
         0.22709E+07
         0.75255E+06
        -0.51216E+06
        -0.36038E+06
        -0.11844E+06
         0.36910E+06
         0.18168E+07
         0.18421E+07
         0.13039E+07
         0.54724E+06
         0.56411E+06
         0.15309E+07
         0.24159E+07
         0.22489E+07
         0.13046E+07
         0.15958E+07
         0.25730E+07
         0.19603E+07
         0.27263E+07
        -0.37909E+06
        -0.22202E+06
         0.26974E+07
        -0.51425E+06
        -0.14789E+07
         0.99536E+06
         0.13569E+07
        -0.29101E+07
         0.65569E+05
         0.11101E+07
         0.15537E+07
         0.19954E+07
         0.35500E+06
         0.15317E+06
         0.61655E+06
         0.13640E+07
        -0.16768E+06
        -0.56164E+06
        -0.13836E+07
        -0.70131E+06
        -0.43537E+07
        -0.52488E+07
        -0.27780E+07
        -0.11572E+07
         0.91014E+06
        -0.11204E+06
         0.20841E+07
         0.32376E+07
         0.98646E+06
         0.83341E+06
         0.12433E+07
        -0.24444E+06
        -0.15463E+06
         0.27928E+06
         0.96045E+06
         0.38262E+06
         0.48629E+06
        -0.16343E+06
         0.96358E+05
         0.44213E+06
         0.77550E+06
         0.94201E+06
         0.13659E+07
         0.20122E+07
         0.20653E+07
         0.26697E+07
        -0.22022E+06
         0.19960E+07
         0.60016E+06
         0.22877E+07
         0.36577E+07
         0.45940E+07
         0.39596E+07
         0.42215E+07
         0.36491E+07
         0.27547E+07
         0.24015E+07
         0.19590E+07
         0.12773E+07
         0.22682E+07
         0.74525E+06
        -0.51621E+06
        -0.36878E+06
        -0.14838E+06
         0.32439E+06
         0.17677E+07
         0.17864E+07
         0.12349E+07
         0.48683E+06
         0.53201E+06
         0.15136E+07
         0.24023E+07
         0.22245E+07
         0.12826E+07
         0.15815E+07
         0.25591E+07
         0.19483E+07
         0.27144E+07
        -0.40388E+06
        -0.24752E+06
         0.26724E+07
        -0.54274E+06
        -0.15016E+07
         0.98098E+06
         0.13398E+07
        -0.29336E+07
         0.53585E+05
         0.10956E+07
         0.15332E+07
         0.19806E+07
         0.34371E+06
         0.13592E+06
         0.60508E+06
         0.13520E+07
        -0.17852E+06
        -0.57478E+06
        -0.14047E+07
        -0.72142E+06
        -0.43731E+07
        -0.52725E+07
        -0.28004E+07
        -0.11733E+07
         0.88229E+06
        -0.14137E+06
         0.20581E+07
         0.32200E+07
         0.97184E+06
         0.82123E+06
         0.12285E+07
        -0.26628E+06
        -0.17407E+06
         0.25920E+06
         0.94034E+06
         0.36650E+06
         0.47592E+06
        -0.17851E+06
         0.77052E+05
         0.42263E+06
         0.75482E+06
         0.91792E+06
         0.13391E+07
         0.19891E+07
         0.20451E+07
         0.26544E+07
        -0.24478E+06
         0.19719E+07
         0.58386E+06
         0.22710E+07
         0.36374E+07
         0.45764E+07
         0.39414E+07
         0.41962E+07
         0.36157E+07
         0.27196E+07
         0.23698E+07
         0.19446E+07
         0.12657E+07
         0.22435E+07
         0.71949E+06
        -0.54057E+06
        -0.40044E+06
        -0.17858E+06
         0.29890E+06
         0.17471E+07
         0.17694E+07
         0.12119E+07
         0.45640E+06
         0.50361E+06
         0.14898E+07
         0.23787E+07
         0.22401E+07
         0.12975E+07
         0.15927E+07
         0.25634E+07
         0.19613E+07
         0.27182E+07
        -0.38362E+06
        -0.22824E+06
         0.26885E+07
        -0.52277E+06
        -0.14850E+07
         0.99548E+06
         0.13509E+07
        -0.29147E+07
         0.76537E+05
         0.11149E+07
         0.15532E+07
         0.19930E+07
         0.36580E+06
         0.15595E+06
         0.62055E+06
         0.13667E+07
        -0.16256E+06
        -0.55145E+06
        -0.13835E+07
        -0.69932E+06
        -0.43439E+07
        -0.52451E+07
        -0.27779E+07
        -0.11557E+07
         0.89902E+06
        -0.12505E+06
         0.20713E+07
         0.32273E+07
         0.98857E+06
         0.83516E+06
         0.12399E+07
        -0.24989E+06
        -0.15994E+06
         0.27177E+06
         0.95432E+06
         0.38195E+06
         0.49159E+06
        -0.16368E+06
         0.89614E+05
         0.43512E+06
         0.76834E+06
         0.93472E+06
         0.13563E+07
         0.20020E+07
         0.20537E+07
         0.26582E+07
        -0.20850E+06
         0.20076E+07
         0.60508E+06
         0.22797E+07
         0.36551E+07
         0.46038E+07
         0.39720E+07
         0.42182E+07
         0.36241E+07
         0.27325E+07
         0.23931E+07
         0.19778E+07
         0.12951E+07
         0.22626E+07
         0.73744E+06
        -0.51989E+06
        -0.37953E+06
        -0.15287E+06
         0.32329E+06
         0.17757E+07
         0.17991E+07
         0.12385E+07
         0.47841E+06
         0.52318E+06
         0.15094E+07
         0.24000E+07
         0.22362E+07
         0.12963E+07
         0.15899E+07
         0.25541E+07
         0.19589E+07
         0.27119E+07
        -0.38492E+06
        -0.23476E+06
         0.26761E+07
        -0.53305E+06
        -0.14945E+07
         0.98677E+06
         0.13483E+07
        -0.29278E+07
         0.63932E+05
         0.11060E+07
         0.15400E+07
         0.19772E+07
         0.35653E+06
         0.14228E+06
         0.61461E+06
         0.13590E+07
        -0.16815E+06
        -0.56006E+06
        -0.13872E+07
        -0.70765E+06
        -0.43497E+07
        -0.52479E+07
        -0.27821E+07
        -0.11626E+07
         0.89055E+06
        -0.13425E+06
         0.20573E+07
         0.32146E+07
         0.98326E+06
         0.82967E+06
         0.12365E+07
        -0.26871E+06
        -0.17046E+06
         0.26190E+06
         0.94461E+06
         0.37583E+06
         0.48274E+06
        -0.16792E+06
         0.85113E+05
         0.42892E+06
         0.75874E+06
         0.92374E+06
         0.13456E+07
         0.19929E+07
         0.20457E+07
         0.26494E+07
        -0.21916E+06
         0.19992E+07
         0.58804E+06
         0.22653E+07
         0.36530E+07
         0.45936E+07
         0.39483E+07
         0.41917E+07
         0.36085E+07
         0.27092E+07
         0.23677E+07
         0.19651E+07
         0.12799E+07
         0.22542E+07
         0.72969E+06
        -0.52709E+06
        -0.38065E+06
        -0.15792E+06
         0.31596E+06
         0.17563E+07
         0.17749E+07
         0.12198E+07
         0.46884E+06
         0.51844E+06
         0.14986E+07
         0.23849E+07
         0.22251E+07
         0.12851E+07
         0.15818E+07
         0.25488E+07
         0.19504E+07
         0.27079E+07
        -0.39386E+06
        -0.24462E+06
         0.26649E+07
        -0.54329E+06
        -0.15051E+07
         0.97520E+06
         0.13406E+07
        -0.29386E+07
         0.51035E+05
         0.10935E+07
         0.15296E+07
         0.19678E+07
         0.34509E+06
         0.13167E+06
         0.60697E+06
         0.13512E+07
        -0.17667E+06
        -0.57351E+06
        -0.13909E+07
        -0.72337E+06
        -0.43537E+07
        -0.52540E+07
        -0.27872E+07
        -0.11673E+07
         0.87824E+06
        -0.14914E+06
         0.20494E+07
         0.32132E+07
         0.97037E+06
         0.82009E+06
         0.12286E+07
        -0.28691E+06
        -0.18232E+06
         0.25335E+06
         0.93912E+06
         0.37063E+06
         0.47467E+06
        -0.17598E+06
         0.77097E+05
         0.42056E+06
         0.74978E+06
         0.91424E+06
         0.13354E+07
         0.19850E+07
         0.20382E+07
         0.26455E+07
        -0.24036E+06
         0.19815E+07
         0.57507E+06
         0.22609E+07
         0.36473E+07
         0.45731E+07
         0.39186E+07
         0.41678E+07
         0.35923E+07
         0.26923E+07
         0.23572E+07
         0.19526E+07
         0.12617E+07
         0.22417E+07
         0.71675E+06
        -0.54199E+06
        -0.39053E+06
        -0.16954E+06
         0.30156E+06
         0.17403E+07
         0.17565E+07
         0.12007E+07
         0.45504E+06
         0.50533E+06
         0.14823E+07
         0.23677E+07
         0.22325E+07
         0.12897E+07
         0.15859E+07
         0.25567E+07
         0.19592E+07
         0.27171E+07
        -0.38007E+06
        -0.23109E+06
         0.26723E+07
        -0.53420E+06
        -0.14894E+07
         0.98513E+06
         0.13440E+07
        -0.29214E+07
         0.72317E+05
         0.11045E+07
         0.15378E+07
         0.19801E+07
         0.35851E+06
         0.14752E+06
         0.61932E+06
         0.13644E+07
        -0.16586E+06
        -0.55914E+06
        -0.13792E+07
        -0.70934E+06
        -0.43348E+07
        -0.52365E+07
        -0.27622E+07
        -0.11482E+07
         0.89151E+06
        -0.13812E+06
         0.20654E+07
         0.32287E+07
         0.98073E+06
         0.82902E+06
         0.12333E+07
        -0.27368E+06
        -0.16828E+06
         0.27151E+06
         0.95468E+06
         0.38242E+06
         0.48729E+06
        -0.16689E+06
         0.84710E+05
         0.42751E+06
         0.75801E+06
         0.92444E+06
         0.13467E+07
         0.19959E+07
         0.20472E+07
         0.26560E+07
        -0.21387E+06
         0.20102E+07
         0.60204E+06
         0.22741E+07
         0.36429E+07
         0.45745E+07
         0.39398E+07
         0.41914E+07
         0.36083E+07
         0.27164E+07
         0.23802E+07
         0.19635E+07
         0.12813E+07
         0.22617E+07
         0.73489E+06
        -0.52801E+06
        -0.38113E+06
        -0.15778E+06
         0.31260E+06
         0.17576E+07
         0.17769E+07
         0.12204E+07
         0.47198E+06
         0.51970E+06
         0.15036E+07
         0.23927E+07
         0.22274E+07
         0.12808E+07
         0.15781E+07
         0.25462E+07
         0.19506E+07
         0.27080E+07
        -0.39190E+06
        -0.23996E+06
         0.26632E+07
        -0.54704E+06
        -0.15048E+07
         0.97074E+06
         0.13283E+07
        -0.29376E+07
         0.63220E+05
         0.10944E+07
         0.15244E+07
         0.19634E+07
         0.34441E+06
         0.13160E+06
         0.60548E+06
         0.13503E+07
        -0.18047E+06
        -0.57468E+06
        -0.13903E+07
        -0.72312E+06
        -0.43513E+07
        -0.52590E+07
        -0.27783E+07
        -0.11576E+07
         0.88006E+06
        -0.15221E+06
         0.20483E+07
         0.32161E+07
         0.96842E+06
         0.81785E+06
         0.12203E+07
        -0.29353E+06
        -0.18782E+06
         0.25426E+06
         0.93593E+06
         0.36476E+06
         0.47350E+06
        -0.18341E+06
         0.70005E+05
         0.41532E+06
         0.74522E+06
         0.90950E+06
         0.13335E+07
         0.19870E+07
         0.20371E+07
         0.26460E+07
        -0.23482E+06
         0.19922E+07
         0.58151E+06
         0.22505E+07
         0.36154E+07
         0.45483E+07
         0.39237E+07
         0.41707E+07
         0.35810E+07
         0.26894E+07
         0.23473E+07
         0.19311E+07
         0.12595E+07
         0.22391E+07
         0.71556E+06
        -0.55003E+06
        -0.41516E+06
        -0.18813E+06
         0.29733E+06
         0.17364E+07
         0.17550E+07
         0.12091E+07
         0.46419E+06
         0.50351E+06
         0.14816E+07
         0.23709E+07
         0.22265E+07
         0.12778E+07
         0.15757E+07
         0.25430E+07
         0.19496E+07
         0.27055E+07
        -0.39224E+06
        -0.24023E+06
         0.26638E+07
        -0.54629E+06
        -0.15069E+07
         0.96879E+06
         0.13258E+07
        -0.29389E+07
         0.64140E+05
         0.10927E+07
         0.15252E+07
         0.19591E+07
         0.34336E+06
         0.12933E+06
         0.60255E+06
         0.13481E+07
        -0.18367E+06
        -0.57756E+06
        -0.13883E+07
        -0.72709E+06
        -0.43471E+07
        -0.52621E+07
        -0.27807E+07
        -0.11587E+07
         0.87414E+06
        -0.15795E+06
         0.20415E+07
         0.32133E+07
         0.96559E+06
         0.81429E+06
         0.12163E+07
        -0.30285E+06
        -0.19861E+06
         0.24765E+06
         0.93397E+06
         0.36334E+06
         0.47164E+06
        -0.18612E+06
         0.67313E+05
         0.41245E+06
         0.74112E+06
         0.90369E+06
         0.13282E+07
         0.19851E+07
         0.20352E+07
         0.26436E+07
        -0.23546E+06
         0.19925E+07
         0.57594E+06
         0.22414E+07
         0.36148E+07
         0.45478E+07
         0.39172E+07
         0.41533E+07
         0.35612E+07
         0.26786E+07
         0.23462E+07
         0.19279E+07
         0.12541E+07
         0.22302E+07
         0.70548E+06
        -0.55707E+06
        -0.41975E+06
        -0.19210E+06
         0.29298E+06
         0.17288E+07
         0.17453E+07
         0.12029E+07
         0.46341E+06
         0.50133E+06
         0.14717E+07
         0.23620E+07
         0.22497E+07
         0.13061E+07
         0.15999E+07
         0.25635E+07
         0.19754E+07
         0.27266E+07
        -0.35107E+06
        -0.21224E+06
         0.26830E+07
        -0.52359E+06
        -0.14697E+07
         0.10001E+07
         0.13543E+07
        -0.29078E+07
         0.95732E+05
         0.11160E+07
         0.15523E+07
         0.19830E+07
         0.37233E+06
         0.16306E+06
         0.62991E+06
         0.13741E+07
        -0.15726E+06
        -0.54649E+06
        -0.13560E+07
        -0.69591E+06
        -0.43104E+07
        -0.52152E+07
        -0.27338E+07
        -0.11244E+07
         0.90054E+06
        -0.12645E+06
         0.20661E+07
         0.32337E+07
         0.99322E+06
         0.84021E+06
         0.12415E+07
        -0.28224E+06
        -0.17166E+06
         0.27686E+06
         0.95990E+06
         0.38984E+06
         0.49509E+06
        -0.15815E+06
         0.95847E+05
         0.43991E+06
         0.76740E+06
         0.92948E+06
         0.13513E+07
         0.20048E+07
         0.20540E+07
         0.26619E+07
        -0.18722E+06
         0.20405E+07
         0.61631E+06
         0.22707E+07
         0.36504E+07
         0.45927E+07
         0.39549E+07
         0.41821E+07
         0.35937E+07
         0.27139E+07
         0.23781E+07
         0.19654E+07
         0.12841E+07
         0.22637E+07
         0.74347E+06
        -0.51761E+06
        -0.37541E+06
        -0.14459E+06
         0.33379E+06
         0.17714E+07
         0.17818E+07
         0.12301E+07
         0.49326E+06
         0.53695E+06
         0.15103E+07
         0.24010E+07
         0.22402E+07
         0.12981E+07
         0.15926E+07
         0.25506E+07
         0.19646E+07
         0.27172E+07
        -0.36137E+06
        -0.22387E+06
         0.26701E+07
        -0.53988E+06
        -0.14848E+07
         0.98910E+06
         0.13473E+07
        -0.29249E+07
         0.82537E+05
         0.11031E+07
         0.15355E+07
         0.19692E+07
         0.35362E+06
         0.14378E+06
         0.62066E+06
         0.13613E+07
        -0.16624E+06
        -0.56524E+06
        -0.13697E+07
        -0.71539E+06
        -0.43251E+07
        -0.52306E+07
        -0.27351E+07
        -0.11307E+07
         0.89227E+06
        -0.14237E+06
         0.20544E+07
         0.32184E+07
         0.97737E+06
         0.83008E+06
         0.12351E+07
        -0.30475E+06
        -0.18742E+06
         0.26959E+06
         0.94814E+06
         0.37619E+06
         0.47919E+06
        -0.17044E+06
         0.83046E+05
         0.42844E+06
         0.75678E+06
         0.92114E+06
         0.13402E+07
         0.19914E+07
         0.20420E+07
         0.26515E+07
        -0.21811E+06
         0.20145E+07
         0.59260E+06
         0.22582E+07
         0.36461E+07
         0.45810E+07
         0.39291E+07
         0.41510E+07
         0.35634E+07
         0.26870E+07
         0.23464E+07
         0.19291E+07
         0.12582E+07
         0.22508E+07
         0.73750E+06
        -0.52138E+06
        -0.38778E+06
        -0.16601E+06
         0.31778E+06
         0.17524E+07
         0.17643E+07
         0.12103E+07
         0.47204E+06
         0.52345E+06
         0.14978E+07
         0.23803E+07
         0.22242E+07
         0.12774E+07
         0.15723E+07
         0.25335E+07
         0.19473E+07
         0.26993E+07
        -0.37982E+06
        -0.23777E+06
         0.26516E+07
        -0.56969E+06
        -0.15033E+07
         0.97119E+06
         0.13319E+07
        -0.29423E+07
         0.65742E+05
         0.10871E+07
         0.15097E+07
         0.19534E+07
         0.33835E+06
         0.13400E+06
         0.60923E+06
         0.13462E+07
        -0.17710E+06
        -0.58130E+06
        -0.13967E+07
        -0.73450E+06
        -0.43599E+07
        -0.52557E+07
        -0.26803E+07
        -0.11060E+07
         0.87709E+06
        -0.16462E+06
         0.20428E+07
         0.32077E+07
         0.95953E+06
         0.81334E+06
         0.12198E+07
        -0.33821E+06
        -0.20291E+06
         0.29656E+06
         0.94724E+06
         0.36139E+06
         0.45791E+06
        -0.18374E+06
         0.66737E+05
         0.41008E+06
         0.73822E+06
         0.90619E+06
         0.13274E+07
         0.19806E+07
         0.20313E+07
         0.26388E+07
        -0.23873E+06
         0.19956E+07
         0.57647E+06
         0.22441E+07
         0.36265E+07
         0.45493E+07
         0.38927E+07
         0.41162E+07
         0.35329E+07
         0.26799E+07
         0.22912E+07
         0.18423E+07
         0.12217E+07
         0.22305E+07
         0.71949E+06
        -0.53738E+06
        -0.40755E+06
        -0.18849E+06
         0.29149E+06
         0.17227E+07
         0.17441E+07
         0.11914E+07
         0.45042E+06
         0.50739E+06
         0.14732E+07
         0.23528E+07
         0.22462E+07
         0.13034E+07
         0.15985E+07
         0.25583E+07
         0.19748E+07
         0.27221E+07
        -0.34344E+06
        -0.21021E+06
         0.26648E+07
        -0.57365E+06
        -0.14698E+07
         0.99462E+06
         0.13530E+07
        -0.29131E+07
         0.93995E+05
         0.11107E+07
         0.15284E+07
         0.19758E+07
         0.37174E+06
         0.19015E+06
         0.63199E+06
         0.13689E+07
        -0.15585E+06
        -0.54779E+06
        -0.13863E+07
        -0.70052E+06
        -0.43652E+07
        -0.52263E+07
        -0.25155E+07
        -0.10027E+07
         0.89965E+06
        -0.13259E+06
         0.20668E+07
         0.32348E+07
         0.98914E+06
         0.84223E+06
         0.12435E+07
        -0.33601E+06
        -0.17217E+06
         0.39651E+06
         0.99691E+06
         0.38820E+06
         0.47159E+06
        -0.15973E+06
         0.94644E+05
         0.44059E+06
         0.76563E+06
         0.92980E+06
         0.13527E+07
         0.20075E+07
         0.20563E+07
         0.26605E+07
        -0.18906E+06
         0.20444E+07
         0.62628E+06
         0.22790E+07
         0.36487E+07
         0.45748E+07
         0.39281E+07
         0.41522E+07
         0.35726E+07
         0.27570E+07
         0.22733E+07
         0.17724E+07
         0.12243E+07
         0.22582E+07
         0.74268E+06
        -0.51799E+06
        -0.38357E+06
        -0.14871E+06
         0.34028E+06
         0.17683E+07
         0.17837E+07
         0.12323E+07
         0.49632E+06
         0.54997E+06
         0.15076E+07
         0.23890E+07
         0.21644E+07
         0.12079E+07
         0.15046E+07
         0.24579E+07
         0.18771E+07
         0.26226E+07
        -0.46519E+06
        -0.30593E+06
         0.25655E+07
        -0.69244E+06
        -0.15967E+07
         0.88343E+06
         0.12453E+07
        -0.30334E+07
        -0.18063E+05
         0.10231E+07
         0.14060E+07
         0.18691E+07
         0.26111E+06
         0.71688E+05
         0.53171E+06
         0.12695E+07
        -0.25448E+06
        -0.66592E+06
        -0.15075E+07
        -0.81406E+06
        -0.45049E+07
        -0.53687E+07
        -0.25771E+07
        -0.10710E+07
         0.80915E+06
        -0.25072E+06
         0.19604E+07
         0.31182E+07
         0.88068E+06
         0.73626E+06
         0.11386E+07
        -0.46842E+06
        -0.28002E+06
         0.33206E+06
         0.89991E+06
         0.28194E+06
         0.36482E+06
        -0.25834E+06
        -0.10822E+05
         0.32622E+06
         0.65917E+06
         0.83008E+06
         0.12496E+07
         0.19004E+07
         0.19444E+07
         0.25550E+07
        -0.36278E+06
         0.18761E+07
         0.45173E+06
         0.21013E+07
         0.34720E+07
         0.44053E+07
         0.37553E+07
         0.39657E+07
         0.33973E+07
         0.25979E+07
         0.20515E+07
         0.15311E+07
         0.10514E+07
         0.21142E+07
         0.59279E+06
        -0.67306E+06
        -0.54347E+06
        -0.32671E+06
         0.15686E+06
         0.15928E+07
         0.16199E+07
         0.10750E+07
         0.33574E+06
         0.38465E+06
         0.13492E+07
         0.22316E+07
         0.22114E+07
         0.12145E+07
         0.15223E+07
         0.24960E+07
         0.19098E+07
         0.26552E+07
        -0.44528E+06
        -0.24697E+06
         0.26302E+07
        -0.60500E+06
        -0.15612E+07
         0.88555E+06
         0.12178E+07
        -0.29603E+07
         0.32902E+05
         0.10917E+07
         0.14861E+07
         0.19255E+07
         0.32134E+06
         0.14048E+06
         0.57715E+06
         0.13036E+07
        -0.18359E+06
        -0.57732E+06
        -0.13955E+07
        -0.73056E+06
        -0.43852E+07
        -0.52051E+07
        -0.24391E+07
        -0.96685E+06
         0.86544E+06
        -0.19912E+06
         0.19906E+07
         0.31009E+07
         0.89722E+06
         0.72822E+06
         0.11088E+07
        -0.40659E+06
        -0.20168E+06
         0.40142E+06
         0.94383E+06
         0.34245E+06
         0.42873E+06
        -0.19116E+06
         0.27546E+05
         0.34378E+06
         0.67523E+06
         0.87278E+06
         0.12838E+07
         0.19022E+07
         0.19516E+07
         0.25571E+07
        -0.29613E+06
         0.19628E+07
         0.47357E+06
         0.20629E+07
         0.33927E+07
         0.43570E+07
         0.38342E+07
         0.40474E+07
         0.34624E+07
         0.26364E+07
         0.20622E+07
         0.15642E+07
         0.11168E+07
         0.21467E+07
         0.66088E+06
        -0.57610E+06
        -0.46105E+06
        -0.26388E+06
         0.18405E+06
         0.15896E+07
         0.16562E+07
         0.11272E+07
         0.41820E+06
         0.48502E+06
         0.14281E+07
         0.23134E+07
         0.31946E+09
         0.36285E+09
         0.36381E+09
         0.35935E+09
         0.37989E+09
         0.37760E+09
         0.43111E+09
         0.36265E+09
         0.34042E+09
         0.36465E+09
         0.45059E+09
         0.42539E+09
         0.39294E+09
         0.43083E+09
         0.43413E+09
         0.32259E+09
         0.39052E+09
         0.38267E+09
         0.38704E+09
         0.44821E+09
         0.35976E+09
         0.36617E+09
         0.34842E+09
         0.39302E+09
         0.39096E+09
         0.41566E+09
         0.42590E+09
         0.50896E+09
         0.47872E+09
         0.40188E+09
         0.33540E+09
         0.39760E+09
         0.36313E+09
         0.38484E+09
         0.40568E+09
         0.39255E+09
         0.37817E+09
         0.41950E+09
         0.41559E+09
         0.41431E+09
         0.41063E+09
         0.39197E+09
         0.37179E+09
         0.34515E+09
         0.36609E+09
         0.40392E+09
         0.38739E+09
         0.37098E+09
         0.37662E+09
         0.38055E+09
         0.39054E+09
         0.37740E+09
         0.63559E+09
         0.62184E+09
         0.63138E+09
         0.61161E+09
         0.62897E+09
         0.65760E+09
         0.66170E+09
         0.65832E+09
         0.66436E+09
         0.68028E+09
         0.66033E+09
         0.62293E+09
         0.55893E+09
         0.52950E+09
         0.53394E+09
         0.54395E+09
         0.54982E+09
         0.59617E+09
         0.63984E+09
         0.64185E+09
         0.59220E+09
         0.57289E+09
         0.59126E+09
         0.58607E+09
         0.58119E+09
         0.58267E+09
         0.30273E+10
         0.31771E+10
         0.31363E+10
         0.28910E+10
         0.34747E+10
         0.32902E+10
         0.34211E+10
         0.34255E+10
         0.29825E+10
         0.34249E+10
         0.37259E+10
         0.40948E+10
         0.37476E+10
         0.38201E+10
         0.42255E+10
         0.29234E+10
         0.31345E+10
         0.27752E+10
         0.32253E+10
         0.33833E+10
         0.34477E+10
         0.35224E+10
         0.33234E+10
         0.31159E+10
         0.34734E+10
         0.30199E+10
         0.38072E+10
         0.37574E+10
         0.37715E+10
         0.35858E+10
         0.29566E+10
         0.31044E+10
         0.29121E+10
         0.30333E+10
         0.37697E+10
         0.34976E+10
         0.34997E+10
         0.41103E+10
         0.40242E+10
         0.39828E+10
         0.40308E+10
         0.38444E+10
         0.36468E+10
         0.32583E+10
         0.33895E+10
         0.37644E+10
         0.35165E+10
         0.33266E+10
         0.32712E+10
         0.33780E+10
         0.36271E+10
         0.33842E+10
         0.57302E+10
         0.55822E+10
         0.56904E+10
         0.55151E+10
         0.56690E+10
         0.59467E+10
         0.60458E+10
         0.60470E+10
         0.60927E+10
         0.62219E+10
         0.60466E+10
         0.56911E+10
         0.51329E+10
         0.48620E+10
         0.48642E+10
         0.49175E+10
         0.49599E+10
         0.53619E+10
         0.57465E+10
         0.57658E+10
         0.53544E+10
         0.51973E+10
         0.53592E+10
         0.53249E+10
         0.52619E+10
         0.52489E+10
  
SCALARS                      stress_yz  double 1
LOOKUP_TABLE default
         0.35889E+06
        -0.11938E+06
        -0.31016E+06
        -0.15952E+06
        -0.72560E+01
        -0.19999E+01
        -0.89924E+01
        -0.68588E+01
        -0.11625E+07
         0.76462E+06
        -0.13382E+02
        -0.11782E+02
        -0.10198E+07
        -0.51857E+05
         0.95772E+01
        -0.61403E+00
         0.35062E+06
         0.13068E+07
         0.14090E+00
         0.14417E+01
        -0.67813E+06
        -0.25526E+07
        -0.26536E+07
         0.21954E+02
         0.37915E+02
         0.31691E+02
        -0.25160E+06
        -0.25879E+07
         0.15792E+02
         0.30637E+02
         0.40070E+06
         0.34928E+06
        -0.29666E+06
         0.81869E+01
         0.83575E+01
        -0.17351E+00
         0.11908E+07
         0.11476E+07
         0.15065E+02
         0.11721E+02
         0.11706E+07
         0.74515E+06
         0.11386E+02
         0.10405E+02
         0.10617E+07
         0.36602E+06
        -0.37768E+00
         0.58420E+01
         0.98579E+06
         0.27505E+01
         0.97152E+05
        -0.22277E+00
         0.58077E+05
         0.10639E+02
        -0.38490E+06
         0.61892E+01
        -0.12553E+07
         0.22290E+06
         0.16791E+00
        -0.34079E+00
         0.48593E+06
         0.17730E+07
        -0.22877E+01
        -0.85572E+01
         0.29343E+06
        -0.46178E+01
         0.12597E+07
        -0.56256E+01
        -0.10231E+07
        -0.54193E+06
        -0.69521E+00
         0.91793E+01
        -0.18949E+07
         0.20156E+02
        -0.32849E+07
         0.19516E+02
        -0.33151E+07
         0.14815E+02
        -0.27308E+07
         0.12418E+02
        -0.40052E+07
        -0.30740E+07
         0.79659E+01
        -0.17662E+01
        -0.42992E+06
        -0.19762E+00
         0.16591E+07
        -0.12380E+02
         0.39213E+07
        -0.21672E+02
         0.54796E+07
         0.33966E+07
        -0.32144E+02
        -0.26018E+02
         0.23889E+07
        -0.20197E+02
         0.21435E+07
        -0.20662E+02
         0.20858E+07
        -0.22217E+02
         0.34709E+07
         0.28845E+07
        -0.20660E+02
        -0.98994E+01
        -0.23285E+07
         0.88136E+06
         0.72645E+01
        -0.90275E+01
        -0.57243E+07
         0.24167E+02
        -0.81945E+07
         0.35351E+02
        -0.10033E+08
         0.43658E+02
        -0.11767E+08
         0.43306E+02
        -0.13852E+08
         0.34271E+02
        -0.14160E+08
         0.26521E+02
        -0.13333E+08
         0.24667E+02
        -0.11864E+08
         0.23469E+02
        -0.86524E+07
         0.14999E+02
        -0.58434E+07
         0.49519E+01
        -0.29314E+07
         0.31997E+01
         0.21087E+06
         0.48094E+01
         0.27971E+07
         0.24840E+01
         0.50178E+07
        -0.75121E+01
         0.77655E+07
        -0.21204E+02
         0.87378E+07
        -0.33111E+02
         0.95578E+07
        -0.43407E+02
         0.12210E+08
        -0.43370E+02
         0.12647E+08
        -0.37860E+02
         0.11687E+08
        -0.36898E+02
         0.95055E+07
        -0.37128E+02
         0.64626E+07
        -0.29360E+02
         0.45774E+07
        -0.17362E+02
         0.32917E+07
        -0.13424E+02
        -0.27537E+07
        -0.12719E+07
        -0.11326E+07
        -0.39674E+06
        -0.93456E+06
        -0.12533E+07
        -0.96414E+05
        -0.18044E+07
        -0.19139E+07
        -0.25294E+07
         0.69138E+06
         0.25331E+07
         0.24543E+07
         0.29006E+06
         0.30306E+07
         0.74716E+06
        -0.65225E+06
         0.43364E+06
         0.47660E+06
        -0.37933E+06
         0.32246E+06
         0.28050E+06
        -0.84670E+06
         0.73645E+05
        -0.17369E+07
         0.25527E+06
         0.10940E+05
         0.19548E+06
         0.19102E+06
        -0.12410E+07
         0.72432E+06
        -0.68788E+06
         0.52647E+06
        -0.11905E+06
         0.75419E+05
         0.67913E+06
         0.17675E+07
         0.31920E+07
         0.28368E+07
         0.14511E+07
         0.61909E+06
         0.56961E+06
        -0.69387E+06
        -0.18340E+07
        -0.25250E+07
        -0.22245E+07
        -0.25466E+07
        -0.24434E+07
        -0.25692E+07
        -0.21970E+07
        -0.17518E+07
        -0.12891E+07
        -0.12443E+07
        -0.11761E+06
        -0.36137E+06
         0.80961E+06
         0.60707E+06
        -0.40438E+07
        -0.94011E+07
        -0.10152E+08
        -0.89738E+07
        -0.89456E+07
        -0.70674E+07
         0.66628E+05
         0.47544E+06
         0.28011E+06
        -0.60204E+06
        -0.28643E+07
        -0.52222E+07
        -0.47830E+07
         0.41700E+07
         0.17847E+07
        -0.21150E+07
        -0.19678E+07
        -0.12709E+07
         0.13692E+07
        -0.11017E+07
        -0.15306E+07
        -0.16738E+09
        -0.17052E+09
        -0.16679E+09
        -0.56702E+08
        -0.12248E+09
        -0.77889E+08
        -0.12212E+09
        -0.16067E+09
        -0.16364E+09
        -0.15977E+09
         0.16664E+09
         0.18347E+09
         0.14016E+09
         0.38477E+08
         0.17322E+09
         0.85671E+08
        -0.49589E+08
         0.49561E+08
         0.16254E+09
         0.43189E+08
         0.48001E+08
         0.36156E+08
        -0.21483E+08
         0.64583E+08
        -0.16256E+09
         0.66879E+08
         0.87213E+07
         0.31198E+08
        -0.49834E+08
        -0.15015E+09
         0.10715E+09
         0.48630E+08
         0.10474E+09
         0.10361E+09
        -0.13914E+08
         0.68523E+08
         0.10272E+09
         0.15889E+09
         0.17868E+09
         0.16834E+09
         0.89323E+08
        -0.24169E+08
        -0.49477E+08
        -0.78380E+08
        -0.11215E+09
        -0.17119E+09
        -0.14760E+09
        -0.11364E+09
        -0.17130E+09
        -0.17288E+09
        -0.11312E+09
        -0.12057E+08
         0.36329E+08
        -0.50863E+08
         0.11370E+09
         0.14791E+09
         0.18015E+09
         0.20268E+09
         0.20610E+09
         0.20021E+09
         0.19642E+09
         0.18273E+09
         0.11686E+09
         0.38999E+08
         0.18473E+08
         0.16575E+08
        -0.70478E+07
        -0.56169E+08
        -0.10880E+09
        -0.13980E+09
        -0.18847E+09
        -0.20398E+09
        -0.19701E+09
        -0.19524E+09
        -0.18360E+09
        -0.13196E+09
        -0.66793E+08
        -0.63732E+08
        -0.16736E+09
        -0.17052E+09
        -0.16678E+09
        -0.57039E+08
        -0.12255E+09
        -0.77992E+08
        -0.12227E+09
        -0.16080E+09
        -0.16367E+09
        -0.15992E+09
         0.16675E+09
         0.18346E+09
         0.14015E+09
         0.38563E+08
         0.17328E+09
         0.85612E+08
        -0.49906E+08
         0.49487E+08
         0.16256E+09
         0.42948E+08
         0.48116E+08
         0.36193E+08
        -0.21489E+08
         0.64554E+08
        -0.16263E+09
         0.66758E+08
         0.88213E+07
         0.31373E+08
        -0.49506E+08
        -0.15021E+09
         0.10707E+09
         0.48524E+08
         0.10514E+09
         0.10378E+09
        -0.13777E+08
         0.68586E+08
         0.10274E+09
         0.15890E+09
         0.17869E+09
         0.16832E+09
         0.89337E+08
        -0.24092E+08
        -0.49523E+08
        -0.78421E+08
        -0.11218E+09
        -0.17120E+09
        -0.14762E+09
        -0.11358E+09
        -0.17130E+09
        -0.17287E+09
        -0.11313E+09
        -0.11892E+08
         0.36307E+08
        -0.50877E+08
         0.11372E+09
         0.14791E+09
         0.18015E+09
         0.20268E+09
         0.20609E+09
         0.20020E+09
         0.19643E+09
         0.18273E+09
         0.11686E+09
         0.39016E+08
         0.18473E+08
         0.16610E+08
        -0.69896E+07
        -0.56187E+08
        -0.10883E+09
        -0.13980E+09
        -0.18847E+09
        -0.20398E+09
        -0.19701E+09
        -0.19524E+09
        -0.18361E+09
        -0.13195E+09
        -0.66754E+08
        -0.63679E+08
        -0.16735E+09
        -0.17051E+09
        -0.16678E+09
        -0.57380E+08
        -0.12261E+09
        -0.78097E+08
        -0.12242E+09
        -0.16093E+09
        -0.16370E+09
        -0.16008E+09
         0.16685E+09
         0.18345E+09
         0.14013E+09
         0.38645E+08
         0.17333E+09
         0.85552E+08
        -0.50223E+08
         0.49412E+08
         0.16258E+09
         0.42703E+08
         0.48232E+08
         0.36229E+08
        -0.21498E+08
         0.64517E+08
        -0.16270E+09
         0.66619E+08
         0.89284E+07
         0.31558E+08
        -0.49147E+08
        -0.15028E+09
         0.10699E+09
         0.48396E+08
         0.10555E+09
         0.10394E+09
        -0.13640E+08
         0.68650E+08
         0.10276E+09
         0.15892E+09
         0.17871E+09
         0.16829E+09
         0.89354E+08
        -0.24009E+08
        -0.49564E+08
        -0.78470E+08
        -0.11221E+09
        -0.17121E+09
        -0.14763E+09
        -0.11352E+09
        -0.17130E+09
        -0.17286E+09
        -0.11314E+09
        -0.11726E+08
         0.36285E+08
        -0.50891E+08
         0.11374E+09
         0.14791E+09
         0.18016E+09
         0.20267E+09
         0.20608E+09
         0.20019E+09
         0.19643E+09
         0.18273E+09
         0.11685E+09
         0.39034E+08
         0.18474E+08
         0.16644E+08
        -0.69311E+07
        -0.56205E+08
        -0.10885E+09
        -0.13981E+09
        -0.18848E+09
        -0.20398E+09
        -0.19702E+09
        -0.19524E+09
        -0.18362E+09
        -0.13193E+09
        -0.66715E+08
        -0.63626E+08
        -0.16734E+09
        -0.17051E+09
        -0.16677E+09
        -0.57722E+08
        -0.12268E+09
        -0.78202E+08
        -0.12259E+09
        -0.16105E+09
        -0.16372E+09
        -0.16023E+09
         0.16695E+09
         0.18344E+09
         0.14012E+09
         0.38731E+08
         0.17339E+09
         0.85487E+08
        -0.50542E+08
         0.49335E+08
         0.16260E+09
         0.42443E+08
         0.48349E+08
         0.36261E+08
        -0.21516E+08
         0.64460E+08
        -0.16276E+09
         0.66437E+08
         0.90394E+07
         0.31804E+08
        -0.48702E+08
        -0.15034E+09
         0.10689E+09
         0.48222E+08
         0.10595E+09
         0.10411E+09
        -0.13504E+08
         0.68712E+08
         0.10277E+09
         0.15894E+09
         0.17872E+09
         0.16827E+09
         0.89377E+08
        -0.23905E+08
        -0.49595E+08
        -0.78539E+08
        -0.11225E+09
        -0.17122E+09
        -0.14764E+09
        -0.11346E+09
        -0.17130E+09
        -0.17285E+09
        -0.11315E+09
        -0.11561E+08
         0.36263E+08
        -0.50905E+08
         0.11377E+09
         0.14791E+09
         0.18016E+09
         0.20266E+09
         0.20607E+09
         0.20018E+09
         0.19643E+09
         0.18273E+09
         0.11685E+09
         0.39056E+08
         0.18475E+08
         0.16678E+08
        -0.68721E+07
        -0.56223E+08
        -0.10888E+09
        -0.13982E+09
        -0.18849E+09
        -0.20397E+09
        -0.19703E+09
        -0.19525E+09
        -0.18363E+09
        -0.13192E+09
        -0.66676E+08
        -0.63573E+08
        -0.16732E+09
        -0.17050E+09
        -0.16676E+09
        -0.58060E+08
        -0.12274E+09
        -0.78307E+08
        -0.12274E+09
        -0.16117E+09
        -0.16375E+09
        -0.16039E+09
         0.16704E+09
         0.18343E+09
         0.14010E+09
         0.38820E+08
         0.17345E+09
         0.85417E+08
        -0.50861E+08
         0.49257E+08
         0.16263E+09
         0.42169E+08
         0.48466E+08
         0.36289E+08
        -0.21544E+08
         0.64379E+08
        -0.16281E+09
         0.66207E+08
         0.91635E+07
         0.32104E+08
        -0.48167E+08
        -0.15039E+09
         0.10679E+09
         0.47994E+08
         0.10636E+09
         0.10428E+09
        -0.13367E+08
         0.68775E+08
         0.10279E+09
         0.15896E+09
         0.17873E+09
         0.16826E+09
         0.89409E+08
        -0.23780E+08
        -0.49614E+08
        -0.78629E+08
        -0.11231E+09
        -0.17123E+09
        -0.14766E+09
        -0.11340E+09
        -0.17131E+09
        -0.17285E+09
        -0.11316E+09
        -0.11395E+08
         0.36241E+08
        -0.50919E+08
         0.11379E+09
         0.14791E+09
         0.18017E+09
         0.20266E+09
         0.20606E+09
         0.20016E+09
         0.19644E+09
         0.18273E+09
         0.11685E+09
         0.39080E+08
         0.18478E+08
         0.16712E+08
        -0.68129E+07
        -0.56243E+08
        -0.10892E+09
        -0.13983E+09
        -0.18849E+09
        -0.20397E+09
        -0.19703E+09
        -0.19525E+09
        -0.18364E+09
        -0.13190E+09
        -0.66637E+08
        -0.63520E+08
        -0.16731E+09
        -0.17050E+09
        -0.16676E+09
        -0.58403E+08
        -0.12281E+09
        -0.78411E+08
        -0.12287E+09
        -0.16130E+09
        -0.16379E+09
        -0.16054E+09
         0.16714E+09
         0.18342E+09
         0.14008E+09
         0.38913E+08
         0.17350E+09
         0.85348E+08
        -0.51186E+08
         0.49182E+08
         0.16265E+09
         0.41890E+08
         0.48582E+08
         0.36315E+08
        -0.21574E+08
         0.64289E+08
        -0.16285E+09
         0.65963E+08
         0.92972E+07
         0.32437E+08
        -0.47595E+08
        -0.15043E+09
         0.10668E+09
         0.47741E+08
         0.10677E+09
         0.10446E+09
        -0.13229E+08
         0.68840E+08
         0.10281E+09
         0.15897E+09
         0.17875E+09
         0.16824E+09
         0.89442E+08
        -0.23649E+08
        -0.49628E+08
        -0.78725E+08
        -0.11238E+09
        -0.17125E+09
        -0.14768E+09
        -0.11334E+09
        -0.17131E+09
        -0.17284E+09
        -0.11317E+09
        -0.11227E+08
         0.36219E+08
        -0.50933E+08
         0.11381E+09
         0.14791E+09
         0.18018E+09
         0.20265E+09
         0.20605E+09
         0.20015E+09
         0.19644E+09
         0.18273E+09
         0.11684E+09
         0.39107E+08
         0.18481E+08
         0.16745E+08
        -0.67538E+07
        -0.56262E+08
        -0.10895E+09
        -0.13984E+09
        -0.18850E+09
        -0.20397E+09
        -0.19704E+09
        -0.19525E+09
        -0.18365E+09
        -0.13189E+09
        -0.66597E+08
        -0.63466E+08
        -0.16730E+09
        -0.17049E+09
        -0.16676E+09
        -0.58754E+08
        -0.12288E+09
        -0.78516E+08
        -0.12298E+09
        -0.16142E+09
        -0.16382E+09
        -0.16069E+09
         0.16724E+09
         0.18341E+09
         0.14007E+09
         0.39029E+08
         0.17356E+09
         0.85283E+08
        -0.51524E+08
         0.49106E+08
         0.16267E+09
         0.41610E+08
         0.48700E+08
         0.36341E+08
        -0.21605E+08
         0.64200E+08
        -0.16290E+09
         0.65717E+08
         0.94547E+07
         0.32790E+08
        -0.47013E+08
        -0.15047E+09
         0.10657E+09
         0.47470E+08
         0.10719E+09
         0.10464E+09
        -0.13091E+08
         0.68905E+08
         0.10283E+09
         0.15899E+09
         0.17876E+09
         0.16822E+09
         0.89478E+08
        -0.23515E+08
        -0.49641E+08
        -0.78820E+08
        -0.11245E+09
        -0.17126E+09
        -0.14771E+09
        -0.11331E+09
        -0.17132E+09
        -0.17283E+09
        -0.11318E+09
        -0.11057E+08
         0.36197E+08
        -0.50946E+08
         0.11383E+09
         0.14791E+09
         0.18018E+09
         0.20264E+09
         0.20604E+09
         0.20014E+09
         0.19645E+09
         0.18273E+09
         0.11684E+09
         0.39134E+08
         0.18484E+08
         0.16778E+08
        -0.66946E+07
        -0.56282E+08
        -0.10899E+09
        -0.13985E+09
        -0.18851E+09
        -0.20397E+09
        -0.19704E+09
        -0.19526E+09
        -0.18366E+09
        -0.13187E+09
        -0.66558E+08
        -0.63413E+08
        -0.16729E+09
        -0.17047E+09
        -0.16676E+09
        -0.59111E+08
        -0.12294E+09
        -0.78622E+08
        -0.12306E+09
        -0.16153E+09
        -0.16385E+09
        -0.16083E+09
         0.16733E+09
         0.18340E+09
         0.14006E+09
         0.39150E+08
         0.17362E+09
         0.85219E+08
        -0.51868E+08
         0.49028E+08
         0.16269E+09
         0.41330E+08
         0.48817E+08
         0.36368E+08
        -0.21635E+08
         0.64114E+08
        -0.16295E+09
         0.65472E+08
         0.96183E+07
         0.33152E+08
        -0.46428E+08
        -0.15050E+09
         0.10647E+09
         0.47187E+08
         0.10762E+09
         0.10484E+09
        -0.12951E+08
         0.68971E+08
         0.10285E+09
         0.15901E+09
         0.17878E+09
         0.16821E+09
         0.89512E+08
        -0.23381E+08
        -0.49653E+08
        -0.78914E+08
        -0.11251E+09
        -0.17127E+09
        -0.14774E+09
        -0.11329E+09
        -0.17132E+09
        -0.17282E+09
        -0.11318E+09
        -0.10886E+08
         0.36175E+08
        -0.50960E+08
         0.11385E+09
         0.14791E+09
         0.18019E+09
         0.20264E+09
         0.20603E+09
         0.20013E+09
         0.19645E+09
         0.18273E+09
         0.11684E+09
         0.39160E+08
         0.18487E+08
         0.16812E+08
        -0.66353E+07
        -0.56302E+08
        -0.10902E+09
        -0.13987E+09
        -0.18851E+09
        -0.20397E+09
        -0.19705E+09
        -0.19526E+09
        -0.18367E+09
        -0.13185E+09
        -0.66519E+08
        -0.63359E+08
        -0.16727E+09
        -0.17046E+09
        -0.16676E+09
        -0.59466E+08
        -0.12300E+09
        -0.78727E+08
        -0.12314E+09
        -0.16165E+09
        -0.16388E+09
        -0.16097E+09
         0.16742E+09
         0.18339E+09
         0.14005E+09
         0.39276E+08
         0.17367E+09
         0.85156E+08
        -0.52212E+08
         0.48949E+08
         0.16272E+09
         0.41048E+08
         0.48934E+08
         0.36396E+08
        -0.21665E+08
         0.64026E+08
        -0.16300E+09
         0.65229E+08
         0.97859E+07
         0.33511E+08
        -0.45845E+08
        -0.15054E+09
         0.10636E+09
         0.46907E+08
         0.10805E+09
         0.10503E+09
        -0.12810E+08
         0.69035E+08
         0.10287E+09
         0.15904E+09
         0.17879E+09
         0.16819E+09
         0.89547E+08
        -0.23247E+08
        -0.49665E+08
        -0.79009E+08
        -0.11258E+09
        -0.17129E+09
        -0.14777E+09
        -0.11326E+09
        -0.17133E+09
        -0.17281E+09
        -0.11318E+09
        -0.10713E+08
         0.36152E+08
        -0.50974E+08
         0.11387E+09
         0.14791E+09
         0.18019E+09
         0.20263E+09
         0.20602E+09
         0.20012E+09
         0.19645E+09
         0.18272E+09
         0.11684E+09
         0.39186E+08
         0.18491E+08
         0.16846E+08
        -0.65762E+07
        -0.56321E+08
        -0.10906E+09
        -0.13988E+09
        -0.18852E+09
        -0.20396E+09
        -0.19706E+09
        -0.19526E+09
        -0.18368E+09
        -0.13184E+09
        -0.66480E+08
        -0.63306E+08
        -0.16726E+09
        -0.17045E+09
        -0.16676E+09
        -0.59818E+08
        -0.12307E+09
        -0.78831E+08
        -0.12323E+09
        -0.16176E+09
        -0.16391E+09
        -0.16111E+09
         0.16751E+09
         0.18338E+09
         0.14004E+09
         0.39397E+08
         0.17373E+09
         0.85093E+08
        -0.52556E+08
         0.48871E+08
         0.16274E+09
         0.40765E+08
         0.49051E+08
         0.36422E+08
        -0.21694E+08
         0.63938E+08
        -0.16305E+09
         0.64986E+08
         0.99488E+07
         0.33866E+08
        -0.45264E+08
        -0.15057E+09
         0.10626E+09
         0.46626E+08
         0.10848E+09
         0.10522E+09
        -0.12671E+08
         0.69102E+08
         0.10289E+09
         0.15906E+09
         0.17880E+09
         0.16817E+09
         0.89582E+08
        -0.23115E+08
        -0.49678E+08
        -0.79102E+08
        -0.11265E+09
        -0.17130E+09
        -0.14781E+09
        -0.11324E+09
        -0.17134E+09
        -0.17280E+09
        -0.11319E+09
        -0.10541E+08
         0.36130E+08
        -0.50987E+08
         0.11389E+09
         0.14791E+09
         0.18020E+09
         0.20262E+09
         0.20602E+09
         0.20010E+09
         0.19646E+09
         0.18272E+09
         0.11684E+09
         0.39212E+08
         0.18494E+08
         0.16881E+08
        -0.65173E+07
        -0.56341E+08
        -0.10909E+09
        -0.13989E+09
        -0.18852E+09
        -0.20396E+09
        -0.19706E+09
        -0.19527E+09
        -0.18369E+09
        -0.13182E+09
        -0.66441E+08
        -0.63252E+08
        -0.16725E+09
        -0.17044E+09
        -0.16675E+09
        -0.60169E+08
        -0.12313E+09
        -0.78935E+08
        -0.12332E+09
        -0.16187E+09
        -0.16394E+09
        -0.16124E+09
         0.16760E+09
         0.18337E+09
         0.14002E+09
         0.39522E+08
         0.17378E+09
         0.85030E+08
        -0.52898E+08
         0.48793E+08
         0.16276E+09
         0.40480E+08
         0.49168E+08
         0.36448E+08
        -0.21724E+08
         0.63852E+08
        -0.16310E+09
         0.64743E+08
         0.10114E+08
         0.34215E+08
        -0.44684E+08
        -0.15061E+09
         0.10616E+09
         0.46346E+08
         0.10890E+09
         0.10541E+09
        -0.12530E+08
         0.69167E+08
         0.10291E+09
         0.15908E+09
         0.17882E+09
         0.16815E+09
         0.89616E+08
        -0.22982E+08
        -0.49691E+08
        -0.79196E+08
        -0.11271E+09
        -0.17131E+09
        -0.14784E+09
        -0.11322E+09
        -0.17135E+09
        -0.17279E+09
        -0.11319E+09
        -0.10368E+08
         0.36107E+08
        -0.51001E+08
         0.11391E+09
         0.14792E+09
         0.18020E+09
         0.20262E+09
         0.20601E+09
         0.20009E+09
         0.19646E+09
         0.18272E+09
         0.11684E+09
         0.39238E+08
         0.18498E+08
         0.16914E+08
        -0.64581E+07
        -0.56361E+08
        -0.10913E+09
        -0.13990E+09
        -0.18853E+09
        -0.20396E+09
        -0.19707E+09
        -0.19527E+09
        -0.18370E+09
        -0.13180E+09
        -0.66402E+08
        -0.63198E+08
        -0.16724E+09
        -0.17043E+09
        -0.16675E+09
        -0.60522E+08
        -0.12320E+09
        -0.79040E+08
        -0.12340E+09
        -0.16199E+09
        -0.16397E+09
        -0.16138E+09
         0.16769E+09
         0.18336E+09
         0.14001E+09
         0.39647E+08
         0.17384E+09
         0.84968E+08
        -0.53240E+08
         0.48714E+08
         0.16278E+09
         0.40197E+08
         0.49285E+08
         0.36474E+08
        -0.21754E+08
         0.63766E+08
        -0.16315E+09
         0.64502E+08
         0.10276E+08
         0.34563E+08
        -0.44102E+08
        -0.15065E+09
         0.10605E+09
         0.46066E+08
         0.10933E+09
         0.10553E+09
        -0.12389E+08
         0.69233E+08
         0.10293E+09
         0.15910E+09
         0.17883E+09
         0.16814E+09
         0.89651E+08
        -0.22851E+08
        -0.49702E+08
        -0.79289E+08
        -0.11278E+09
        -0.17133E+09
        -0.14788E+09
        -0.11320E+09
        -0.17136E+09
        -0.17277E+09
        -0.11320E+09
        -0.10195E+08
         0.36085E+08
        -0.51014E+08
         0.11393E+09
         0.14792E+09
         0.18021E+09
         0.20261E+09
         0.20600E+09
         0.20008E+09
         0.19647E+09
         0.18272E+09
         0.11683E+09
         0.39264E+08
         0.18502E+08
         0.16948E+08
        -0.63987E+07
        -0.56380E+08
        -0.10916E+09
        -0.13992E+09
        -0.18854E+09
        -0.20396E+09
        -0.19708E+09
        -0.19528E+09
        -0.18371E+09
        -0.13179E+09
        -0.66363E+08
        -0.63145E+08
        -0.16723E+09
        -0.17042E+09
        -0.16675E+09
        -0.60875E+08
        -0.12326E+09
        -0.79146E+08
        -0.12348E+09
        -0.16210E+09
        -0.16400E+09
        -0.16151E+09
         0.16777E+09
         0.18335E+09
         0.14000E+09
         0.39769E+08
         0.17390E+09
         0.84906E+08
        -0.53579E+08
         0.48633E+08
         0.16280E+09
         0.39915E+08
         0.49402E+08
         0.36500E+08
        -0.21783E+08
         0.63679E+08
        -0.16320E+09
         0.64258E+08
         0.10443E+08
         0.34907E+08
        -0.43523E+08
        -0.15068E+09
         0.10595E+09
         0.45782E+08
         0.10976E+09
         0.10563E+09
        -0.12248E+08
         0.69299E+08
         0.10295E+09
         0.15912E+09
         0.17885E+09
         0.16812E+09
         0.89685E+08
        -0.22718E+08
        -0.49714E+08
        -0.79383E+08
        -0.11285E+09
        -0.17134E+09
        -0.14791E+09
        -0.11317E+09
        -0.17137E+09
        -0.17276E+09
        -0.11320E+09
        -0.10022E+08
         0.36062E+08
        -0.51027E+08
         0.11395E+09
         0.14792E+09
         0.18021E+09
         0.20260E+09
         0.20599E+09
         0.20007E+09
         0.19647E+09
         0.18272E+09
         0.11683E+09
         0.39290E+08
         0.18505E+08
         0.16982E+08
        -0.63396E+07
        -0.56399E+08
        -0.10920E+09
        -0.13993E+09
        -0.18854E+09
        -0.20396E+09
        -0.19708E+09
        -0.19528E+09
        -0.18372E+09
        -0.13177E+09
        -0.66325E+08
        -0.63091E+08
        -0.16721E+09
        -0.17041E+09
        -0.16675E+09
        -0.61227E+08
        -0.12333E+09
        -0.79251E+08
        -0.12358E+09
        -0.16221E+09
        -0.16403E+09
        -0.16165E+09
         0.16785E+09
         0.18334E+09
         0.13999E+09
         0.39895E+08
         0.17395E+09
         0.84843E+08
        -0.53918E+08
         0.48554E+08
         0.16282E+09
         0.39634E+08
         0.49518E+08
         0.36526E+08
        -0.21813E+08
         0.63594E+08
        -0.16325E+09
         0.64014E+08
         0.10605E+08
         0.35247E+08
        -0.42946E+08
        -0.15072E+09
         0.10584E+09
         0.45502E+08
         0.11019E+09
         0.10574E+09
        -0.12107E+08
         0.69364E+08
         0.10296E+09
         0.15914E+09
         0.17886E+09
         0.16810E+09
         0.89720E+08
        -0.22586E+08
        -0.49726E+08
        -0.79476E+08
        -0.11291E+09
        -0.17135E+09
        -0.14795E+09
        -0.11315E+09
        -0.17138E+09
        -0.17275E+09
        -0.11320E+09
        -0.98492E+07
         0.36040E+08
        -0.51040E+08
         0.11398E+09
         0.14792E+09
         0.18022E+09
         0.20260E+09
         0.20598E+09
         0.20006E+09
         0.19648E+09
         0.18272E+09
         0.11683E+09
         0.39316E+08
         0.18508E+08
         0.17016E+08
        -0.62806E+07
        -0.56419E+08
        -0.10923E+09
        -0.13994E+09
        -0.18855E+09
        -0.20395E+09
        -0.19709E+09
        -0.19528E+09
        -0.18373E+09
        -0.13175E+09
        -0.66286E+08
        -0.63037E+08
        -0.16720E+09
        -0.17039E+09
        -0.16675E+09
        -0.61576E+08
        -0.12339E+09
        -0.79356E+08
        -0.12366E+09
        -0.16232E+09
        -0.16406E+09
        -0.16178E+09
         0.16793E+09
         0.18333E+09
         0.13998E+09
         0.40016E+08
         0.17401E+09
         0.84781E+08
        -0.54258E+08
         0.48475E+08
         0.16285E+09
         0.39350E+08
         0.49635E+08
         0.36551E+08
        -0.21842E+08
         0.63510E+08
        -0.16330E+09
         0.63771E+08
         0.10770E+08
         0.35580E+08
        -0.42372E+08
        -0.15075E+09
         0.10574E+09
         0.45219E+08
         0.11062E+09
         0.10584E+09
        -0.11966E+08
         0.69430E+08
         0.10298E+09
         0.15917E+09
         0.17887E+09
         0.16808E+09
         0.89754E+08
        -0.22455E+08
        -0.49739E+08
        -0.79568E+08
        -0.11298E+09
        -0.17137E+09
        -0.14798E+09
        -0.11313E+09
        -0.17138E+09
        -0.17274E+09
        -0.11321E+09
        -0.96749E+07
         0.36017E+08
        -0.51053E+08
         0.11400E+09
         0.14792E+09
         0.18022E+09
         0.20259E+09
         0.20597E+09
         0.20004E+09
         0.19648E+09
         0.18272E+09
         0.11683E+09
         0.39342E+08
         0.18512E+08
         0.17050E+08
        -0.62216E+07
        -0.56438E+08
        -0.10927E+09
        -0.13995E+09
        -0.18856E+09
        -0.20395E+09
        -0.19710E+09
        -0.19529E+09
        -0.18374E+09
        -0.13174E+09
        -0.66248E+08
        -0.62983E+08
        -0.16719E+09
        -0.17038E+09
        -0.16675E+09
        -0.61923E+08
        -0.12345E+09
        -0.79459E+08
        -0.12375E+09
        -0.16244E+09
        -0.16409E+09
        -0.16191E+09
         0.16801E+09
         0.18332E+09
         0.13997E+09
         0.40142E+08
         0.17406E+09
         0.84719E+08
        -0.54597E+08
         0.48395E+08
         0.16287E+09
         0.39067E+08
         0.49752E+08
         0.36575E+08
        -0.21872E+08
         0.63427E+08
        -0.16335E+09
         0.63528E+08
         0.10930E+08
         0.35909E+08
        -0.41799E+08
        -0.15079E+09
         0.10564E+09
         0.44939E+08
         0.11105E+09
         0.10595E+09
        -0.11824E+08
         0.69495E+08
         0.10300E+09
         0.15919E+09
         0.17889E+09
         0.16806E+09
         0.89789E+08
        -0.22323E+08
        -0.49752E+08
        -0.79661E+08
        -0.11305E+09
        -0.17138E+09
        -0.14801E+09
        -0.11311E+09
        -0.17139E+09
        -0.17273E+09
        -0.11321E+09
        -0.95000E+07
         0.35994E+08
        -0.51066E+08
         0.11402E+09
         0.14792E+09
         0.18023E+09
         0.20258E+09
         0.20596E+09
         0.20003E+09
         0.19648E+09
         0.18272E+09
         0.11683E+09
         0.39368E+08
         0.18515E+08
         0.17083E+08
        -0.61625E+07
        -0.56457E+08
        -0.10930E+09
        -0.13997E+09
        -0.18856E+09
        -0.20395E+09
        -0.19710E+09
        -0.19529E+09
        -0.18375E+09
        -0.13172E+09
        -0.66210E+08
        -0.62929E+08
        -0.16718E+09
        -0.17037E+09
        -0.16675E+09
        -0.62271E+08
        -0.12352E+09
        -0.79564E+08
        -0.12384E+09
        -0.16255E+09
        -0.16413E+09
        -0.16204E+09
         0.16808E+09
         0.18330E+09
         0.13995E+09
         0.40263E+08
         0.17412E+09
         0.84657E+08
        -0.54937E+08
         0.48314E+08
         0.16289E+09
         0.38787E+08
         0.49868E+08
         0.36599E+08
        -0.21901E+08
         0.63342E+08
        -0.16340E+09
         0.63283E+08
         0.11095E+08
         0.36235E+08
        -0.41226E+08
        -0.15082E+09
         0.10553E+09
         0.44657E+08
         0.11148E+09
         0.10605E+09
        -0.11681E+08
         0.69560E+08
         0.10302E+09
         0.15921E+09
         0.17890E+09
         0.16804E+09
         0.89824E+08
        -0.22193E+08
        -0.49765E+08
        -0.79754E+08
        -0.11312E+09
        -0.17139E+09
        -0.14805E+09
        -0.11308E+09
        -0.17140E+09
        -0.17272E+09
        -0.11322E+09
        -0.93260E+07
         0.35972E+08
        -0.51079E+08
         0.11404E+09
         0.14792E+09
         0.18023E+09
         0.20257E+09
         0.20595E+09
         0.20002E+09
         0.19649E+09
         0.18271E+09
         0.11682E+09
         0.39394E+08
         0.18518E+08
         0.17117E+08
        -0.61037E+07
        -0.56476E+08
        -0.10934E+09
        -0.13998E+09
        -0.18857E+09
        -0.20395E+09
        -0.19711E+09
        -0.19529E+09
        -0.18375E+09
        -0.13170E+09
        -0.66173E+08
        -0.62875E+08
        -0.16717E+09
        -0.17036E+09
        -0.16675E+09
        -0.62619E+08
        -0.12358E+09
        -0.79669E+08
        -0.12393E+09
        -0.16266E+09
        -0.16416E+09
        -0.16218E+09
         0.16815E+09
         0.18329E+09
         0.13994E+09
         0.40389E+08
         0.17418E+09
         0.84595E+08
        -0.55280E+08
         0.48233E+08
         0.16291E+09
         0.38520E+08
         0.49984E+08
         0.36623E+08
        -0.21931E+08
         0.63258E+08
        -0.16346E+09
         0.63041E+08
         0.11259E+08
         0.36559E+08
        -0.40654E+08
        -0.15085E+09
         0.10543E+09
         0.44371E+08
         0.11191E+09
         0.10615E+09
        -0.11539E+08
         0.69626E+08
         0.10304E+09
         0.15924E+09
         0.17891E+09
         0.16802E+09
         0.89861E+08
        -0.22063E+08
        -0.49780E+08
        -0.79846E+08
        -0.11318E+09
        -0.17141E+09
        -0.14808E+09
        -0.11306E+09
        -0.17141E+09
        -0.17271E+09
        -0.11322E+09
        -0.91516E+07
         0.35949E+08
        -0.51092E+08
         0.11406E+09
         0.14792E+09
         0.18024E+09
         0.20257E+09
         0.20594E+09
         0.20001E+09
         0.19649E+09
         0.18271E+09
         0.11682E+09
         0.39420E+08
         0.18519E+08
         0.17150E+08
        -0.60450E+07
        -0.56495E+08
        -0.10937E+09
        -0.13999E+09
        -0.18857E+09
        -0.20395E+09
        -0.19712E+09
        -0.19530E+09
        -0.18376E+09
        -0.13169E+09
        -0.66135E+08
        -0.62821E+08
        -0.16715E+09
        -0.17035E+09
        -0.16675E+09
        -0.62966E+08
        -0.12365E+09
        -0.79773E+08
        -0.12401E+09
        -0.16276E+09
        -0.16419E+09
        -0.16231E+09
         0.16823E+09
         0.18328E+09
         0.13993E+09
         0.40516E+08
         0.17423E+09
         0.84534E+08
        -0.55630E+08
         0.48151E+08
         0.16293E+09
         0.38265E+08
         0.50101E+08
         0.36646E+08
        -0.21960E+08
         0.63175E+08
        -0.16351E+09
         0.62796E+08
         0.11431E+08
         0.36879E+08
        -0.40084E+08
        -0.15088E+09
         0.10532E+09
         0.44089E+08
         0.11233E+09
         0.10626E+09
        -0.11396E+08
         0.69691E+08
         0.10306E+09
         0.15927E+09
         0.17892E+09
         0.16800E+09
         0.89900E+08
        -0.21935E+08
        -0.49798E+08
        -0.79938E+08
        -0.11325E+09
        -0.17142E+09
        -0.14811E+09
        -0.11304E+09
        -0.17142E+09
        -0.17270E+09
        -0.11323E+09
        -0.89753E+07
         0.35926E+08
        -0.51105E+08
         0.11408E+09
         0.14792E+09
         0.18024E+09
         0.20256E+09
         0.20593E+09
         0.20000E+09
         0.19650E+09
         0.18271E+09
         0.11683E+09
         0.39445E+08
         0.18518E+08
         0.17183E+08
        -0.59860E+07
        -0.56514E+08
        -0.10941E+09
        -0.14001E+09
        -0.18858E+09
        -0.20394E+09
        -0.19713E+09
        -0.19530E+09
        -0.18377E+09
        -0.13167E+09
        -0.66098E+08
        -0.62767E+08
        -0.16714E+09
        -0.17033E+09
        -0.16675E+09
        -0.63309E+08
        -0.12371E+09
        -0.79877E+08
        -0.12411E+09
        -0.16287E+09
        -0.16423E+09
        -0.16245E+09
         0.16829E+09
         0.18327E+09
         0.13992E+09
         0.40639E+08
         0.17429E+09
         0.84473E+08
        -0.55979E+08
         0.48069E+08
         0.16295E+09
         0.38016E+08
         0.50218E+08
         0.36669E+08
        -0.21988E+08
         0.63097E+08
        -0.16357E+09
         0.62560E+08
         0.11598E+08
         0.37185E+08
        -0.39521E+08
        -0.15091E+09
         0.10522E+09
         0.43813E+08
         0.11276E+09
         0.10636E+09
        -0.11254E+08
         0.69754E+08
         0.10308E+09
         0.15930E+09
         0.17894E+09
         0.16798E+09
         0.89939E+08
        -0.21809E+08
        -0.49818E+08
        -0.80029E+08
        -0.11332E+09
        -0.17143E+09
        -0.14815E+09
        -0.11301E+09
        -0.17142E+09
        -0.17269E+09
        -0.11323E+09
        -0.87994E+07
         0.35903E+08
        -0.51118E+08
         0.11410E+09
         0.14792E+09
         0.18025E+09
         0.20255E+09
         0.20592E+09
         0.19998E+09
         0.19650E+09
         0.18271E+09
         0.11683E+09
         0.39468E+08
         0.18516E+08
         0.17216E+08
        -0.59270E+07
        -0.56533E+08
        -0.10944E+09
        -0.14002E+09
        -0.18859E+09
        -0.20394E+09
        -0.19713E+09
        -0.19531E+09
        -0.18378E+09
        -0.13166E+09
        -0.66061E+08
        -0.62713E+08
        -0.16089E+09
        -0.15282E+09
        -0.14835E+09
        -0.52788E+08
        -0.11755E+09
        -0.72989E+08
        -0.94085E+08
        -0.15506E+09
        -0.15039E+09
        -0.15429E+09
         0.13286E+09
         0.17932E+09
         0.13582E+09
         0.36217E+08
         0.17087E+09
         0.79222E+08
        -0.44991E+08
         0.48134E+08
         0.13879E+09
         0.32219E+08
         0.49147E+08
         0.35692E+08
        -0.21431E+08
         0.49191E+08
        -0.14618E+09
         0.62585E+08
         0.10457E+08
         0.35375E+08
        -0.30384E+08
        -0.13482E+09
         0.96387E+08
         0.34988E+08
         0.92848E+08
         0.83135E+08
        -0.10721E+08
         0.64300E+08
         0.97987E+08
         0.15516E+09
         0.17198E+09
         0.16045E+09
         0.87720E+08
        -0.21119E+08
        -0.48622E+08
        -0.77461E+08
        -0.10833E+09
        -0.16598E+09
        -0.13953E+09
        -0.10515E+09
        -0.15472E+09
        -0.15912E+09
        -0.10902E+09
        -0.80608E+07
         0.35640E+08
        -0.50834E+08
         0.11348E+09
         0.14714E+09
         0.17936E+09
         0.20160E+09
         0.20484E+09
         0.19868E+09
         0.19514E+09
         0.18154E+09
         0.11611E+09
         0.39262E+08
         0.18387E+08
         0.17134E+08
        -0.58388E+07
        -0.56264E+08
        -0.10895E+09
        -0.13937E+09
        -0.18748E+09
        -0.20280E+09
        -0.19597E+09
        -0.19412E+09
        -0.18272E+09
        -0.13085E+09
        -0.65658E+08
        -0.62306E+08
        -0.79954E+08
        -0.51121E+08
        -0.48236E+08
        -0.14459E+08
        -0.52143E+08
        -0.26128E+08
        -0.21265E+08
        -0.69682E+08
        -0.54586E+08
        -0.68111E+08
         0.33311E+08
         0.10715E+09
         0.73358E+08
         0.11699E+08
         0.10471E+09
         0.32453E+08
        -0.11565E+08
         0.10069E+08
         0.39958E+08
         0.64705E+07
         0.28578E+08
         0.19772E+08
        -0.12037E+08
         0.12079E+08
        -0.48176E+08
         0.12127E+08
         0.34185E+07
         0.59213E+07
        -0.61005E+07
        -0.44426E+08
         0.35029E+08
         0.81494E+07
         0.24804E+08
         0.20565E+08
        -0.52796E+07
         0.23925E+08
         0.43707E+08
         0.87183E+08
         0.84084E+08
         0.74566E+08
         0.50062E+08
        -0.11682E+08
        -0.27882E+08
        -0.40078E+08
        -0.50227E+08
        -0.86763E+08
        -0.58381E+08
        -0.41151E+08
        -0.52817E+08
        -0.59314E+08
        -0.54094E+08
        -0.31837E+07
         0.28437E+08
        -0.41351E+08
         0.93246E+08
         0.12202E+09
         0.15031E+09
         0.17019E+09
         0.17049E+09
         0.15952E+09
         0.15462E+09
         0.14593E+09
         0.93760E+08
         0.32251E+08
         0.14687E+08
         0.13747E+08
        -0.47832E+07
        -0.47103E+08
        -0.91926E+08
        -0.11765E+09
        -0.15246E+09
        -0.16634E+09
        -0.15968E+09
        -0.15728E+09
        -0.14927E+09
        -0.10620E+09
        -0.53992E+08
        -0.51052E+08
  
SCALARS                      stress_xz  double 1
LOOKUP_TABLE default
         0.59222E+05
        -0.41766E+06
        -0.13788E+07
         0.94720E+05
        -0.75103E+01
         0.26629E+01
         0.89043E+01
         0.17783E+01
        -0.38796E+07
        -0.25920E+07
         0.26633E+02
         0.23990E+02
         0.16542E+06
        -0.67498E+06
        -0.32848E+01
        -0.15388E+02
        -0.13849E+06
        -0.64775E+06
        -0.11115E+02
        -0.16554E+02
        -0.94929E+06
        -0.15995E+07
        -0.15148E+07
        -0.11054E+02
        -0.50973E+01
         0.89053E+01
        -0.16896E+07
        -0.13719E+07
        -0.20692E+02
        -0.16414E+02
         0.32404E+06
        -0.71981E+06
         0.68886E+05
         0.21067E+01
        -0.81411E+01
        -0.50155E+01
         0.96139E+06
         0.46339E+06
        -0.12087E+02
        -0.12869E+02
         0.19162E+07
         0.27151E+07
        -0.27264E+02
        -0.20106E+02
         0.20502E+07
         0.10919E+07
        -0.29941E+02
        -0.14411E+02
        -0.58850E+06
        -0.90461E+01
         0.14016E+07
        -0.25181E+01
        -0.61388E+06
        -0.17676E+02
         0.45858E+06
        -0.46758E+01
         0.20064E+07
         0.55043E+06
        -0.40055E+01
        -0.96818E+01
        -0.34600E+05
         0.95453E+06
         0.80113E+01
         0.54937E+01
        -0.24790E+06
        -0.80583E+00
        -0.82985E+06
         0.53004E+01
        -0.54597E+07
        -0.37413E+07
         0.33129E+02
         0.24027E+02
        -0.24062E+07
         0.17495E+02
         0.56710E+06
        -0.12102E+02
         0.17746E+07
        -0.23753E+01
         0.37622E+07
        -0.36851E+01
         0.49779E+07
         0.35348E+07
        -0.13505E+02
        -0.15445E+02
         0.31223E+07
        -0.16611E+02
         0.24862E+07
        -0.23915E+02
         0.15483E+07
        -0.15254E+02
         0.24374E+07
         0.17926E+07
        -0.65101E+01
         0.89277E+01
        -0.40978E+06
         0.10472E+02
        -0.11248E+07
         0.43970E+01
        -0.27008E+07
         0.10858E+02
        -0.39925E+07
        -0.27400E+07
         0.25036E+02
         0.26125E+02
        -0.97781E+07
        -0.10827E+08
         0.46261E+02
         0.45589E+02
        -0.96843E+07
         0.39521E+02
        -0.88263E+07
         0.29534E+02
        -0.63322E+07
         0.16230E+02
        -0.46009E+07
         0.17356E+01
        -0.17071E+07
        -0.61815E+01
         0.21994E+07
        -0.49456E+01
         0.52486E+07
        -0.48610E+01
         0.77986E+07
        -0.10962E+02
         0.10490E+08
        -0.20855E+02
         0.12748E+08
        -0.24887E+02
         0.13551E+08
        -0.23481E+02
         0.12907E+08
        -0.25534E+02
         0.11829E+08
        -0.33139E+02
         0.10639E+08
        -0.39078E+02
         0.93830E+07
        -0.36327E+02
         0.74616E+07
        -0.29523E+02
         0.43780E+07
        -0.13937E+02
         0.37532E+06
         0.26614E+01
        -0.24484E+07
         0.64614E+01
        -0.38320E+07
         0.10566E+02
        -0.57633E+07
         0.20678E+02
        -0.75988E+07
         0.33931E+02
        -0.99875E+07
         0.40766E+02
        -0.11474E+08
         0.41696E+02
        -0.85276E+06
         0.39648E+06
         0.47447E+06
        -0.10776E+07
         0.29796E+07
         0.29058E+07
         0.32027E+06
        -0.57271E+06
        -0.36504E+06
        -0.58531E+06
         0.16830E+06
         0.62588E+06
         0.18534E+07
        -0.60409E+06
        -0.59577E+06
         0.14296E+07
         0.11821E+07
        -0.56591E+06
        -0.74173E+06
        -0.84000E+06
        -0.42520E+07
        -0.47755E+07
        -0.38758E+07
        -0.12429E+07
         0.54813E+06
        -0.40606E+06
        -0.10802E+07
        -0.12378E+06
        -0.10204E+07
        -0.94376E+06
         0.12677E+07
         0.21791E+06
        -0.59704E+06
        -0.17929E+06
         0.21799E+07
         0.23059E+07
         0.24212E+07
        -0.14164E+07
        -0.78480E+06
        -0.10169E+07
        -0.94850E+06
        -0.32711E+07
        -0.48040E+07
        -0.34035E+07
        -0.20354E+07
        -0.85973E+06
         0.28146E+06
         0.15714E+07
         0.44786E+06
         0.11436E+07
         0.20782E+07
         0.28157E+07
        -0.67979E+07
         0.56078E+06
        -0.56872E+06
         0.78445E+06
         0.34360E+06
        -0.98215E+06
         0.13478E+06
         0.19304E+07
         0.27321E+07
         0.49475E+07
         0.98633E+07
        -0.25751E+06
        -0.38241E+07
        -0.49006E+07
        -0.72635E+07
        -0.87379E+07
        -0.78747E+07
        -0.48408E+07
         0.17681E+07
        -0.10430E+06
         0.50419E+06
         0.55315E+06
         0.65028E+06
        -0.16091E+07
         0.28743E+07
         0.47792E+07
        -0.56834E+08
         0.18846E+08
        -0.37922E+08
        -0.15826E+09
         0.12806E+09
         0.15474E+09
         0.89136E+08
        -0.73233E+08
        -0.52261E+08
        -0.73607E+08
        -0.29336E+08
         0.27228E+08
         0.11551E+09
        -0.16921E+09
        -0.68183E+08
         0.15070E+09
         0.16024E+09
        -0.10047E+09
        -0.49200E+08
        -0.11875E+09
        -0.17565E+09
        -0.17760E+09
        -0.17961E+09
        -0.15473E+09
         0.54727E+08
         0.61293E+08
        -0.17274E+09
         0.44136E+08
        -0.11124E+09
        -0.84446E+08
         0.13436E+09
         0.14981E+09
        -0.13180E+09
        -0.12959E+09
         0.17982E+09
         0.16034E+09
         0.14441E+09
        -0.91257E+08
        -0.19484E+08
        -0.60391E+08
        -0.16025E+09
        -0.18050E+09
        -0.17535E+09
        -0.16080E+09
        -0.13760E+09
        -0.60159E+08
         0.96342E+08
         0.13242E+09
        -0.20994E+08
         0.21609E+08
         0.13988E+09
         0.17504E+09
         0.20019E+09
         0.19746E+09
         0.17027E+09
         0.14137E+09
         0.99542E+08
         0.42984E+08
        -0.11079E+08
        -0.39932E+08
        -0.53851E+08
        -0.92817E+08
        -0.16790E+09
        -0.20055E+09
        -0.19992E+09
        -0.19917E+09
        -0.20145E+09
        -0.19491E+09
        -0.17201E+09
        -0.15021E+09
        -0.79279E+08
         0.20112E+08
         0.48924E+08
         0.51956E+08
         0.87130E+08
         0.15400E+09
         0.19206E+09
         0.19293E+09
        -0.56902E+08
         0.18912E+08
        -0.37973E+08
        -0.15815E+09
         0.12799E+09
         0.15468E+09
         0.89703E+08
        -0.72982E+08
        -0.52232E+08
        -0.73347E+08
        -0.28743E+08
         0.27295E+08
         0.11553E+09
        -0.16917E+09
        -0.68082E+08
         0.15075E+09
         0.16017E+09
        -0.10020E+09
        -0.49149E+08
        -0.11854E+09
        -0.17562E+09
        -0.17759E+09
        -0.17961E+09
        -0.15475E+09
         0.54628E+08
         0.61395E+08
        -0.17273E+09
         0.43306E+08
        -0.11203E+09
        -0.84360E+08
         0.13444E+09
         0.14979E+09
        -0.13146E+09
        -0.12965E+09
         0.17984E+09
         0.16031E+09
         0.14439E+09
        -0.91272E+08
        -0.19630E+08
        -0.60503E+08
        -0.16025E+09
        -0.18052E+09
        -0.17534E+09
        -0.16078E+09
        -0.13758E+09
        -0.60131E+08
         0.96322E+08
         0.13248E+09
        -0.20868E+08
         0.21563E+08
         0.13986E+09
         0.17503E+09
         0.20019E+09
         0.19745E+09
         0.17025E+09
         0.14137E+09
         0.99526E+08
         0.42984E+08
        -0.11096E+08
        -0.39966E+08
        -0.53818E+08
        -0.92805E+08
        -0.16790E+09
        -0.20055E+09
        -0.19992E+09
        -0.19916E+09
        -0.20145E+09
        -0.19491E+09
        -0.17200E+09
        -0.15021E+09
        -0.79262E+08
         0.20123E+08
         0.48893E+08
         0.51938E+08
         0.87093E+08
         0.15399E+09
         0.19206E+09
         0.19293E+09
        -0.56969E+08
         0.18976E+08
        -0.38024E+08
        -0.15803E+09
         0.12792E+09
         0.15462E+09
         0.90272E+08
        -0.72731E+08
        -0.52200E+08
        -0.73085E+08
        -0.28151E+08
         0.27362E+08
         0.11556E+09
        -0.16912E+09
        -0.67982E+08
         0.15079E+09
         0.16009E+09
        -0.99916E+08
        -0.49096E+08
        -0.11834E+09
        -0.17559E+09
        -0.17758E+09
        -0.17961E+09
        -0.15476E+09
         0.54539E+08
         0.61506E+08
        -0.17273E+09
         0.42486E+08
        -0.11281E+09
        -0.84277E+08
         0.13452E+09
         0.14977E+09
        -0.13112E+09
        -0.12971E+09
         0.17985E+09
         0.16028E+09
         0.14438E+09
        -0.91286E+08
        -0.19775E+08
        -0.60616E+08
        -0.16025E+09
        -0.18054E+09
        -0.17533E+09
        -0.16075E+09
        -0.13755E+09
        -0.60104E+08
         0.96304E+08
         0.13253E+09
        -0.20739E+08
         0.21515E+08
         0.13985E+09
         0.17503E+09
         0.20019E+09
         0.19744E+09
         0.17024E+09
         0.14137E+09
         0.99510E+08
         0.42984E+08
        -0.11112E+08
        -0.40000E+08
        -0.53785E+08
        -0.92794E+08
        -0.16790E+09
        -0.20055E+09
        -0.19992E+09
        -0.19916E+09
        -0.20146E+09
        -0.19491E+09
        -0.17199E+09
        -0.15021E+09
        -0.79243E+08
         0.20133E+08
         0.48863E+08
         0.51921E+08
         0.87056E+08
         0.15399E+09
         0.19206E+09
         0.19294E+09
        -0.57036E+08
         0.19043E+08
        -0.38073E+08
        -0.15792E+09
         0.12785E+09
         0.15456E+09
         0.90835E+08
        -0.72481E+08
        -0.52163E+08
        -0.72819E+08
        -0.27560E+08
         0.27430E+08
         0.11559E+09
        -0.16908E+09
        -0.67880E+08
         0.15084E+09
         0.16001E+09
        -0.99634E+08
        -0.49045E+08
        -0.11813E+09
        -0.17556E+09
        -0.17757E+09
        -0.17961E+09
        -0.15478E+09
         0.54481E+08
         0.61642E+08
        -0.17273E+09
         0.41692E+08
        -0.11360E+09
        -0.84204E+08
         0.13460E+09
         0.14979E+09
        -0.13078E+09
        -0.12976E+09
         0.17987E+09
         0.16025E+09
         0.14436E+09
        -0.91300E+08
        -0.19918E+08
        -0.60723E+08
        -0.16025E+09
        -0.18056E+09
        -0.17533E+09
        -0.16072E+09
        -0.13751E+09
        -0.60072E+08
         0.96283E+08
         0.13258E+09
        -0.20609E+08
         0.21467E+08
         0.13983E+09
         0.17502E+09
         0.20018E+09
         0.19743E+09
         0.17023E+09
         0.14137E+09
         0.99494E+08
         0.42984E+08
        -0.11129E+08
        -0.40035E+08
        -0.53752E+08
        -0.92782E+08
        -0.16790E+09
        -0.20055E+09
        -0.19992E+09
        -0.19916E+09
        -0.20146E+09
        -0.19491E+09
        -0.17198E+09
        -0.15021E+09
        -0.79225E+08
         0.20143E+08
         0.48832E+08
         0.51904E+08
         0.87019E+08
         0.15399E+09
         0.19206E+09
         0.19295E+09
        -0.57103E+08
         0.19110E+08
        -0.38123E+08
        -0.15781E+09
         0.12778E+09
         0.15450E+09
         0.91405E+08
        -0.72230E+08
        -0.52119E+08
        -0.72547E+08
        -0.26967E+08
         0.27497E+08
         0.11562E+09
        -0.16903E+09
        -0.67779E+08
         0.15089E+09
         0.15993E+09
        -0.99351E+08
        -0.48988E+08
        -0.11791E+09
        -0.17553E+09
        -0.17757E+09
        -0.17961E+09
        -0.15482E+09
         0.54452E+08
         0.61798E+08
        -0.17272E+09
         0.40924E+08
        -0.11438E+09
        -0.84140E+08
         0.13470E+09
         0.14983E+09
        -0.13043E+09
        -0.12982E+09
         0.17988E+09
         0.16022E+09
         0.14435E+09
        -0.91313E+08
        -0.20059E+08
        -0.60828E+08
        -0.16025E+09
        -0.18058E+09
        -0.17533E+09
        -0.16068E+09
        -0.13746E+09
        -0.60035E+08
         0.96261E+08
         0.13263E+09
        -0.20479E+08
         0.21419E+08
         0.13981E+09
         0.17501E+09
         0.20018E+09
         0.19743E+09
         0.17021E+09
         0.14137E+09
         0.99478E+08
         0.42985E+08
        -0.11146E+08
        -0.40069E+08
        -0.53719E+08
        -0.92771E+08
        -0.16790E+09
        -0.20054E+09
        -0.19992E+09
        -0.19915E+09
        -0.20146E+09
        -0.19491E+09
        -0.17197E+09
        -0.15021E+09
        -0.79207E+08
         0.20153E+08
         0.48801E+08
         0.51886E+08
         0.86982E+08
         0.15399E+09
         0.19207E+09
         0.19295E+09
        -0.57167E+08
         0.19184E+08
        -0.38166E+08
        -0.15769E+09
         0.12770E+09
         0.15444E+09
         0.91974E+08
        -0.71980E+08
        -0.52073E+08
        -0.72280E+08
        -0.26371E+08
         0.27564E+08
         0.11564E+09
        -0.16899E+09
        -0.67679E+08
         0.15094E+09
         0.15985E+09
        -0.99068E+08
        -0.48930E+08
        -0.11771E+09
        -0.17550E+09
        -0.17756E+09
        -0.17960E+09
        -0.15485E+09
         0.54428E+08
         0.61959E+08
        -0.17272E+09
         0.40159E+08
        -0.11516E+09
        -0.84089E+08
         0.13480E+09
         0.14986E+09
        -0.13008E+09
        -0.12987E+09
         0.17990E+09
         0.16019E+09
         0.14433E+09
        -0.91325E+08
        -0.20199E+08
        -0.60930E+08
        -0.16024E+09
        -0.18061E+09
        -0.17533E+09
        -0.16064E+09
        -0.13741E+09
        -0.60000E+08
         0.96235E+08
         0.13268E+09
        -0.20343E+08
         0.21377E+08
         0.13980E+09
         0.17501E+09
         0.20018E+09
         0.19742E+09
         0.17020E+09
         0.14137E+09
         0.99463E+08
         0.42985E+08
        -0.11163E+08
        -0.40103E+08
        -0.53686E+08
        -0.92759E+08
        -0.16790E+09
        -0.20054E+09
        -0.19992E+09
        -0.19915E+09
        -0.20147E+09
        -0.19491E+09
        -0.17195E+09
        -0.15020E+09
        -0.79188E+08
         0.20163E+08
         0.48769E+08
         0.51869E+08
         0.86945E+08
         0.15398E+09
         0.19207E+09
         0.19296E+09
        -0.57226E+08
         0.19276E+08
        -0.38195E+08
        -0.15757E+09
         0.12763E+09
         0.15438E+09
         0.92554E+08
        -0.71736E+08
        -0.52028E+08
        -0.72027E+08
        -0.25769E+08
         0.27631E+08
         0.11567E+09
        -0.16894E+09
        -0.67576E+08
         0.15099E+09
         0.15976E+09
        -0.98782E+08
        -0.48876E+08
        -0.11751E+09
        -0.17547E+09
        -0.17756E+09
        -0.17960E+09
        -0.15489E+09
         0.54389E+08
         0.62100E+08
        -0.17271E+09
         0.39378E+08
        -0.11596E+09
        -0.84045E+08
         0.13489E+09
         0.14986E+09
        -0.12972E+09
        -0.12991E+09
         0.17992E+09
         0.16016E+09
         0.14432E+09
        -0.91334E+08
        -0.20339E+08
        -0.61036E+08
        -0.16023E+09
        -0.18063E+09
        -0.17533E+09
        -0.16060E+09
        -0.13736E+09
        -0.59965E+08
         0.96194E+08
         0.13271E+09
        -0.20189E+08
         0.21349E+08
         0.13978E+09
         0.17500E+09
         0.20017E+09
         0.19741E+09
         0.17018E+09
         0.14137E+09
         0.99447E+08
         0.42985E+08
        -0.11179E+08
        -0.40138E+08
        -0.53653E+08
        -0.92748E+08
        -0.16790E+09
        -0.20053E+09
        -0.19992E+09
        -0.19915E+09
        -0.20147E+09
        -0.19491E+09
        -0.17194E+09
        -0.15019E+09
        -0.79170E+08
         0.20171E+08
         0.48735E+08
         0.51851E+08
         0.86910E+08
         0.15398E+09
         0.19207E+09
         0.19297E+09
        -0.57283E+08
         0.19374E+08
        -0.38218E+08
        -0.15745E+09
         0.12757E+09
         0.15432E+09
         0.93141E+08
        -0.71494E+08
        -0.51984E+08
        -0.71781E+08
        -0.25164E+08
         0.27698E+08
         0.11569E+09
        -0.16889E+09
        -0.67474E+08
         0.15103E+09
         0.15967E+09
        -0.98495E+08
        -0.48819E+08
        -0.11732E+09
        -0.17544E+09
        -0.17755E+09
        -0.17960E+09
        -0.15492E+09
         0.54343E+08
         0.62233E+08
        -0.17271E+09
         0.38591E+08
        -0.11676E+09
        -0.84007E+08
         0.13498E+09
         0.14986E+09
        -0.12935E+09
        -0.12994E+09
         0.17993E+09
         0.16013E+09
         0.14430E+09
        -0.91343E+08
        -0.20479E+08
        -0.61140E+08
        -0.16023E+09
        -0.18066E+09
        -0.17533E+09
        -0.16055E+09
        -0.13730E+09
        -0.59934E+08
         0.96146E+08
         0.13273E+09
        -0.20027E+08
         0.21328E+08
         0.13977E+09
         0.17500E+09
         0.20017E+09
         0.19740E+09
         0.17017E+09
         0.14137E+09
         0.99431E+08
         0.42985E+08
        -0.11196E+08
        -0.40172E+08
        -0.53620E+08
        -0.92738E+08
        -0.16789E+09
        -0.20053E+09
        -0.19991E+09
        -0.19914E+09
        -0.20148E+09
        -0.19491E+09
        -0.17192E+09
        -0.15019E+09
        -0.79152E+08
         0.20178E+08
         0.48701E+08
         0.51833E+08
         0.86876E+08
         0.15398E+09
         0.19207E+09
         0.19298E+09
        -0.57339E+08
         0.19472E+08
        -0.38240E+08
        -0.15733E+09
         0.12750E+09
         0.15426E+09
         0.93724E+08
        -0.71253E+08
        -0.51940E+08
        -0.71538E+08
        -0.24562E+08
         0.27764E+08
         0.11572E+09
        -0.16883E+09
        -0.67371E+08
         0.15108E+09
         0.15958E+09
        -0.98209E+08
        -0.48762E+08
        -0.11713E+09
        -0.17541E+09
        -0.17755E+09
        -0.17960E+09
        -0.15496E+09
         0.54298E+08
         0.62365E+08
        -0.17270E+09
         0.37806E+08
        -0.11757E+09
        -0.83968E+08
         0.13508E+09
         0.14985E+09
        -0.12897E+09
        -0.12997E+09
         0.17995E+09
         0.16010E+09
         0.14429E+09
        -0.91351E+08
        -0.20619E+08
        -0.61244E+08
        -0.16022E+09
        -0.18068E+09
        -0.17533E+09
        -0.16051E+09
        -0.13725E+09
        -0.59903E+08
         0.96101E+08
         0.13275E+09
        -0.19865E+08
         0.21309E+08
         0.13976E+09
         0.17499E+09
         0.20017E+09
         0.19739E+09
         0.17015E+09
         0.14137E+09
         0.99415E+08
         0.42985E+08
        -0.11213E+08
        -0.40206E+08
        -0.53587E+08
        -0.92727E+08
        -0.16789E+09
        -0.20053E+09
        -0.19991E+09
        -0.19914E+09
        -0.20148E+09
        -0.19491E+09
        -0.17191E+09
        -0.15018E+09
        -0.79133E+08
         0.20186E+08
         0.48667E+08
         0.51815E+08
         0.86841E+08
         0.15398E+09
         0.19208E+09
         0.19298E+09
        -0.57396E+08
         0.19572E+08
        -0.38263E+08
        -0.15720E+09
         0.12743E+09
         0.15420E+09
         0.94311E+08
        -0.71012E+08
        -0.51896E+08
        -0.71296E+08
        -0.23959E+08
         0.27830E+08
         0.11574E+09
        -0.16878E+09
        -0.67269E+08
         0.15113E+09
         0.15948E+09
        -0.97927E+08
        -0.48705E+08
        -0.11694E+09
        -0.17538E+09
        -0.17754E+09
        -0.17959E+09
        -0.15499E+09
         0.54253E+08
         0.62496E+08
        -0.17269E+09
         0.37026E+08
        -0.11837E+09
        -0.83929E+08
         0.13517E+09
         0.14984E+09
        -0.12860E+09
        -0.13001E+09
         0.17996E+09
         0.16007E+09
         0.14427E+09
        -0.91359E+08
        -0.20758E+08
        -0.61349E+08
        -0.16021E+09
        -0.18071E+09
        -0.17533E+09
        -0.16047E+09
        -0.13720E+09
        -0.59870E+08
         0.96053E+08
         0.13277E+09
        -0.19705E+08
         0.21286E+08
         0.13975E+09
         0.17499E+09
         0.20017E+09
         0.19739E+09
         0.17014E+09
         0.14137E+09
         0.99399E+08
         0.42985E+08
        -0.11229E+08
        -0.40240E+08
        -0.53554E+08
        -0.92716E+08
        -0.16789E+09
        -0.20052E+09
        -0.19991E+09
        -0.19914E+09
        -0.20149E+09
        -0.19491E+09
        -0.17189E+09
        -0.15018E+09
        -0.79115E+08
         0.20193E+08
         0.48632E+08
         0.51797E+08
         0.86806E+08
         0.15398E+09
         0.19208E+09
         0.19299E+09
        -0.57452E+08
         0.19671E+08
        -0.38287E+08
        -0.15708E+09
         0.12736E+09
         0.15414E+09
         0.94892E+08
        -0.70771E+08
        -0.51852E+08
        -0.71056E+08
        -0.23355E+08
         0.27898E+08
         0.11576E+09
        -0.16873E+09
        -0.67166E+08
         0.15117E+09
         0.15939E+09
        -0.97644E+08
        -0.48654E+08
        -0.11674E+09
        -0.17535E+09
        -0.17754E+09
        -0.17959E+09
        -0.15503E+09
         0.54208E+08
         0.62626E+08
        -0.17269E+09
         0.36244E+08
        -0.11917E+09
        -0.83889E+08
         0.13526E+09
         0.14982E+09
        -0.12822E+09
        -0.13004E+09
         0.17998E+09
         0.16004E+09
         0.14425E+09
        -0.91366E+08
        -0.20897E+08
        -0.61453E+08
        -0.16021E+09
        -0.18073E+09
        -0.17533E+09
        -0.16043E+09
        -0.13714E+09
        -0.59839E+08
         0.96006E+08
         0.13280E+09
        -0.19542E+08
         0.21264E+08
         0.13974E+09
         0.17498E+09
         0.20016E+09
         0.19738E+09
         0.17013E+09
         0.14137E+09
         0.99383E+08
         0.42986E+08
        -0.11245E+08
        -0.40274E+08
        -0.53521E+08
        -0.92705E+08
        -0.16789E+09
        -0.20052E+09
        -0.19991E+09
        -0.19913E+09
        -0.20149E+09
        -0.19492E+09
        -0.17188E+09
        -0.15017E+09
        -0.79097E+08
         0.20200E+08
         0.48598E+08
         0.51779E+08
         0.86772E+08
         0.15397E+09
         0.19208E+09
         0.19300E+09
        -0.57508E+08
         0.19770E+08
        -0.38308E+08
        -0.15696E+09
         0.12729E+09
         0.15408E+09
         0.95478E+08
        -0.70531E+08
        -0.51808E+08
        -0.70817E+08
        -0.22753E+08
         0.27965E+08
         0.11579E+09
        -0.16868E+09
        -0.67065E+08
         0.15122E+09
         0.15930E+09
        -0.97358E+08
        -0.48598E+08
        -0.11656E+09
        -0.17532E+09
        -0.17753E+09
        -0.17959E+09
        -0.15506E+09
         0.54163E+08
         0.62761E+08
        -0.17268E+09
         0.35466E+08
        -0.11996E+09
        -0.83853E+08
         0.13535E+09
         0.14981E+09
        -0.12784E+09
        -0.12998E+09
         0.18000E+09
         0.16001E+09
         0.14424E+09
        -0.91373E+08
        -0.21036E+08
        -0.61558E+08
        -0.16020E+09
        -0.18076E+09
        -0.17533E+09
        -0.16038E+09
        -0.13709E+09
        -0.59808E+08
         0.95960E+08
         0.13282E+09
        -0.19378E+08
         0.21245E+08
         0.13973E+09
         0.17497E+09
         0.20016E+09
         0.19737E+09
         0.17011E+09
         0.14136E+09
         0.99367E+08
         0.42986E+08
        -0.11262E+08
        -0.40309E+08
        -0.53487E+08
        -0.92695E+08
        -0.16788E+09
        -0.20051E+09
        -0.19991E+09
        -0.19913E+09
        -0.20150E+09
        -0.19492E+09
        -0.17186E+09
        -0.15017E+09
        -0.79079E+08
         0.20208E+08
         0.48564E+08
         0.51761E+08
         0.86738E+08
         0.15397E+09
         0.19208E+09
         0.19300E+09
        -0.57565E+08
         0.19869E+08
        -0.38329E+08
        -0.15683E+09
         0.12722E+09
         0.15402E+09
         0.96061E+08
        -0.70290E+08
        -0.51763E+08
        -0.70578E+08
        -0.22153E+08
         0.28031E+08
         0.11581E+09
        -0.16862E+09
        -0.66962E+08
         0.15127E+09
         0.15921E+09
        -0.97073E+08
        -0.48544E+08
        -0.11636E+09
        -0.17529E+09
        -0.17753E+09
        -0.17959E+09
        -0.15510E+09
         0.54116E+08
         0.62891E+08
        -0.17267E+09
         0.34687E+08
        -0.12076E+09
        -0.83814E+08
         0.13545E+09
         0.14980E+09
        -0.12745E+09
        -0.12991E+09
         0.18001E+09
         0.15998E+09
         0.14422E+09
        -0.91380E+08
        -0.21174E+08
        -0.61662E+08
        -0.16019E+09
        -0.18078E+09
        -0.17533E+09
        -0.16034E+09
        -0.13704E+09
        -0.59775E+08
         0.95912E+08
         0.13284E+09
        -0.19213E+08
         0.21222E+08
         0.13972E+09
         0.17497E+09
         0.20016E+09
         0.19736E+09
         0.17010E+09
         0.14136E+09
         0.99351E+08
         0.42986E+08
        -0.11279E+08
        -0.40342E+08
        -0.53454E+08
        -0.92684E+08
        -0.16788E+09
        -0.20051E+09
        -0.19991E+09
        -0.19913E+09
        -0.20150E+09
        -0.19492E+09
        -0.17185E+09
        -0.15016E+09
        -0.79060E+08
         0.20215E+08
         0.48529E+08
         0.51744E+08
         0.86703E+08
         0.15397E+09
         0.19208E+09
         0.19301E+09
        -0.57622E+08
         0.19967E+08
        -0.38350E+08
        -0.15670E+09
         0.12715E+09
         0.15396E+09
         0.96638E+08
        -0.70051E+08
        -0.51718E+08
        -0.70340E+08
        -0.21554E+08
         0.28097E+08
         0.11584E+09
        -0.16857E+09
        -0.66860E+08
         0.15131E+09
         0.15911E+09
        -0.96789E+08
        -0.48494E+08
        -0.11618E+09
        -0.17526E+09
        -0.17752E+09
        -0.17959E+09
        -0.15513E+09
         0.54070E+08
         0.63022E+08
        -0.17267E+09
         0.33913E+08
        -0.12156E+09
        -0.83775E+08
         0.13554E+09
         0.14979E+09
        -0.12707E+09
        -0.12983E+09
         0.18003E+09
         0.15995E+09
         0.14420E+09
        -0.91385E+08
        -0.21312E+08
        -0.61768E+08
        -0.16019E+09
        -0.18081E+09
        -0.17533E+09
        -0.16030E+09
        -0.13698E+09
        -0.59744E+08
         0.95864E+08
         0.13286E+09
        -0.19049E+08
         0.21201E+08
         0.13971E+09
         0.17496E+09
         0.20015E+09
         0.19735E+09
         0.17008E+09
         0.14136E+09
         0.99335E+08
         0.42986E+08
        -0.11295E+08
        -0.40376E+08
        -0.53421E+08
        -0.92674E+08
        -0.16788E+09
        -0.20051E+09
        -0.19991E+09
        -0.19912E+09
        -0.20151E+09
        -0.19492E+09
        -0.17183E+09
        -0.15016E+09
        -0.79042E+08
         0.20222E+08
         0.48495E+08
         0.51726E+08
         0.86668E+08
         0.15397E+09
         0.19209E+09
         0.19302E+09
        -0.57679E+08
         0.20064E+08
        -0.38371E+08
        -0.15658E+09
         0.12708E+09
         0.15390E+09
         0.97220E+08
        -0.69811E+08
        -0.51674E+08
        -0.70105E+08
        -0.20955E+08
         0.28165E+08
         0.11586E+09
        -0.16852E+09
        -0.66757E+08
         0.15136E+09
         0.15902E+09
        -0.96506E+08
        -0.48439E+08
        -0.11598E+09
        -0.17523E+09
        -0.17751E+09
        -0.17958E+09
        -0.15517E+09
         0.54024E+08
         0.63152E+08
        -0.17266E+09
         0.33138E+08
        -0.12235E+09
        -0.83735E+08
         0.13563E+09
         0.14978E+09
        -0.12668E+09
        -0.12975E+09
         0.18004E+09
         0.15992E+09
         0.14419E+09
        -0.91389E+08
        -0.21449E+08
        -0.61872E+08
        -0.16018E+09
        -0.18083E+09
        -0.17533E+09
        -0.16026E+09
        -0.13693E+09
        -0.59713E+08
         0.95818E+08
         0.13288E+09
        -0.18881E+08
         0.21180E+08
         0.13969E+09
         0.17495E+09
         0.20015E+09
         0.19735E+09
         0.17007E+09
         0.14136E+09
         0.99319E+08
         0.42986E+08
        -0.11311E+08
        -0.40409E+08
        -0.53388E+08
        -0.92663E+08
        -0.16788E+09
        -0.20050E+09
        -0.19991E+09
        -0.19912E+09
        -0.20151E+09
        -0.19492E+09
        -0.17182E+09
        -0.15015E+09
        -0.79024E+08
         0.20229E+08
         0.48460E+08
         0.51709E+08
         0.86634E+08
         0.15397E+09
         0.19209E+09
         0.19303E+09
        -0.57736E+08
         0.20165E+08
        -0.38393E+08
        -0.15645E+09
         0.12701E+09
         0.15384E+09
         0.97798E+08
        -0.69572E+08
        -0.51629E+08
        -0.69870E+08
        -0.20356E+08
         0.28232E+08
         0.11588E+09
        -0.16846E+09
        -0.66655E+08
         0.15140E+09
         0.15892E+09
        -0.96225E+08
        -0.48384E+08
        -0.11579E+09
        -0.17520E+09
        -0.17751E+09
        -0.17958E+09
        -0.15520E+09
         0.53975E+08
         0.63283E+08
        -0.17265E+09
         0.32365E+08
        -0.12315E+09
        -0.83696E+08
         0.13572E+09
         0.14977E+09
        -0.12629E+09
        -0.12968E+09
         0.18006E+09
         0.15989E+09
         0.14417E+09
        -0.91393E+08
        -0.21587E+08
        -0.61977E+08
        -0.16017E+09
        -0.18086E+09
        -0.17533E+09
        -0.16021E+09
        -0.13688E+09
        -0.59680E+08
         0.95770E+08
         0.13290E+09
        -0.18714E+08
         0.21158E+08
         0.13968E+09
         0.17495E+09
         0.20015E+09
         0.19734E+09
         0.17005E+09
         0.14136E+09
         0.99303E+08
         0.42986E+08
        -0.11327E+08
        -0.40442E+08
        -0.53354E+08
        -0.92653E+08
        -0.16787E+09
        -0.20050E+09
        -0.19991E+09
        -0.19912E+09
        -0.20152E+09
        -0.19492E+09
        -0.17181E+09
        -0.15014E+09
        -0.79005E+08
         0.20236E+08
         0.48426E+08
         0.51691E+08
         0.86599E+08
         0.15396E+09
         0.19209E+09
         0.19303E+09
        -0.57793E+08
         0.20263E+08
        -0.38414E+08
        -0.15632E+09
         0.12695E+09
         0.15378E+09
         0.98379E+08
        -0.69333E+08
        -0.51582E+08
        -0.69634E+08
        -0.19758E+08
         0.28299E+08
         0.11591E+09
        -0.16841E+09
        -0.66551E+08
         0.15145E+09
         0.15883E+09
        -0.95944E+08
        -0.48332E+08
        -0.11560E+09
        -0.17517E+09
        -0.17750E+09
        -0.17958E+09
        -0.15524E+09
         0.53925E+08
         0.63413E+08
        -0.17264E+09
         0.31584E+08
        -0.12394E+09
        -0.83658E+08
         0.13581E+09
         0.14976E+09
        -0.12589E+09
        -0.12960E+09
         0.18008E+09
         0.15986E+09
         0.14416E+09
        -0.91396E+08
        -0.21726E+08
        -0.62083E+08
        -0.16017E+09
        -0.18088E+09
        -0.17533E+09
        -0.16017E+09
        -0.13682E+09
        -0.59649E+08
         0.95722E+08
         0.13292E+09
        -0.18548E+08
         0.21135E+08
         0.13967E+09
         0.17494E+09
         0.20015E+09
         0.19733E+09
         0.17004E+09
         0.14136E+09
         0.99287E+08
         0.42986E+08
        -0.11343E+08
        -0.40476E+08
        -0.53322E+08
        -0.92643E+08
        -0.16787E+09
        -0.20050E+09
        -0.19991E+09
        -0.19911E+09
        -0.20152E+09
        -0.19492E+09
        -0.17179E+09
        -0.15014E+09
        -0.78987E+08
         0.20243E+08
         0.48392E+08
         0.51673E+08
         0.86565E+08
         0.15396E+09
         0.19209E+09
         0.19304E+09
        -0.57850E+08
         0.20361E+08
        -0.38434E+08
        -0.15620E+09
         0.12688E+09
         0.15372E+09
         0.98955E+08
        -0.69096E+08
        -0.51532E+08
        -0.69391E+08
        -0.19162E+08
         0.28366E+08
         0.11593E+09
        -0.16836E+09
        -0.66448E+08
         0.15150E+09
         0.15873E+09
        -0.95661E+08
        -0.48285E+08
        -0.11541E+09
        -0.17514E+09
        -0.17750E+09
        -0.17958E+09
        -0.15527E+09
         0.53868E+08
         0.63549E+08
        -0.17263E+09
         0.30783E+08
        -0.12473E+09
        -0.83630E+08
         0.13590E+09
         0.14974E+09
        -0.12550E+09
        -0.12952E+09
         0.18009E+09
         0.15983E+09
         0.14414E+09
        -0.91395E+08
        -0.21870E+08
        -0.62190E+08
        -0.16016E+09
        -0.18091E+09
        -0.17533E+09
        -0.16013E+09
        -0.13677E+09
        -0.59616E+08
         0.95676E+08
         0.13295E+09
        -0.18383E+08
         0.21113E+08
         0.13966E+09
         0.17493E+09
         0.20014E+09
         0.19732E+09
         0.17003E+09
         0.14136E+09
         0.99271E+08
         0.42987E+08
        -0.11360E+08
        -0.40509E+08
        -0.53289E+08
        -0.92633E+08
        -0.16787E+09
        -0.20049E+09
        -0.19991E+09
        -0.19911E+09
        -0.20153E+09
        -0.19492E+09
        -0.17178E+09
        -0.15013E+09
        -0.78969E+08
         0.20250E+08
         0.48357E+08
         0.51656E+08
         0.86531E+08
         0.15396E+09
         0.19209E+09
         0.19305E+09
        -0.57907E+08
         0.20459E+08
        -0.38455E+08
        -0.15607E+09
         0.12681E+09
         0.15366E+09
         0.99534E+08
        -0.68858E+08
        -0.51477E+08
        -0.69142E+08
        -0.18567E+08
         0.28433E+08
         0.11595E+09
        -0.16830E+09
        -0.66344E+08
         0.15154E+09
         0.15863E+09
        -0.95378E+08
        -0.48232E+08
        -0.11522E+09
        -0.17511E+09
        -0.17749E+09
        -0.17957E+09
        -0.15530E+09
         0.53802E+08
         0.63678E+08
        -0.17262E+09
         0.29959E+08
        -0.12552E+09
        -0.83604E+08
         0.13599E+09
         0.14973E+09
        -0.12510E+09
        -0.12944E+09
         0.18011E+09
         0.15980E+09
         0.14413E+09
        -0.91391E+08
        -0.22018E+08
        -0.62298E+08
        -0.16015E+09
        -0.18093E+09
        -0.17532E+09
        -0.16009E+09
        -0.13671E+09
        -0.59585E+08
         0.95629E+08
         0.13297E+09
        -0.18214E+08
         0.21092E+08
         0.13965E+09
         0.17493E+09
         0.20014E+09
         0.19731E+09
         0.17001E+09
         0.14136E+09
         0.99256E+08
         0.42987E+08
        -0.11376E+08
        -0.40542E+08
        -0.53257E+08
        -0.92623E+08
        -0.16786E+09
        -0.20049E+09
        -0.19991E+09
        -0.19911E+09
        -0.20153E+09
        -0.19492E+09
        -0.17176E+09
        -0.15013E+09
        -0.78950E+08
         0.20257E+08
         0.48323E+08
         0.51638E+08
         0.86497E+08
         0.15396E+09
         0.19210E+09
         0.19305E+09
        -0.57963E+08
         0.20557E+08
        -0.38475E+08
        -0.15594E+09
         0.12674E+09
         0.15360E+09
         0.10011E+09
        -0.68621E+08
        -0.51421E+08
        -0.68894E+08
        -0.17976E+08
         0.28499E+08
         0.11598E+09
        -0.16825E+09
        -0.66240E+08
         0.15159E+09
         0.15853E+09
        -0.95099E+08
        -0.48179E+08
        -0.11503E+09
        -0.17508E+09
        -0.17749E+09
        -0.17957E+09
        -0.15533E+09
         0.53733E+08
         0.63807E+08
        -0.17261E+09
         0.29131E+08
        -0.12631E+09
        -0.83578E+08
         0.13608E+09
         0.14972E+09
        -0.12470E+09
        -0.12937E+09
         0.18012E+09
         0.15977E+09
         0.14411E+09
        -0.91386E+08
        -0.22168E+08
        -0.62404E+08
        -0.16013E+09
        -0.18095E+09
        -0.17532E+09
        -0.16005E+09
        -0.13666E+09
        -0.59553E+08
         0.95583E+08
         0.13299E+09
        -0.18048E+08
         0.21068E+08
         0.13964E+09
         0.17492E+09
         0.20014E+09
         0.19731E+09
         0.17000E+09
         0.14136E+09
         0.99240E+08
         0.42986E+08
        -0.11391E+08
        -0.40574E+08
        -0.53226E+08
        -0.92613E+08
        -0.16786E+09
        -0.20049E+09
        -0.19991E+09
        -0.19910E+09
        -0.20153E+09
        -0.19492E+09
        -0.17175E+09
        -0.15012E+09
        -0.78931E+08
         0.20264E+08
         0.48289E+08
         0.51620E+08
         0.86463E+08
         0.15396E+09
         0.19210E+09
         0.19306E+09
        -0.55850E+08
         0.18511E+08
        -0.34243E+08
        -0.12924E+09
         0.12027E+09
         0.14012E+09
         0.76202E+08
        -0.65090E+08
        -0.47024E+08
        -0.65180E+08
        -0.13781E+08
         0.27935E+08
         0.11260E+09
        -0.14948E+09
        -0.64833E+08
         0.14227E+09
         0.12659E+09
        -0.95120E+08
        -0.40973E+08
        -0.97876E+08
        -0.17093E+09
        -0.17264E+09
        -0.17493E+09
        -0.12118E+09
         0.47940E+08
         0.64103E+08
        -0.15361E+09
         0.26809E+08
        -0.98802E+08
        -0.74618E+08
         0.12482E+09
         0.12007E+09
        -0.10200E+09
        -0.10096E+09
         0.17356E+09
         0.14718E+09
         0.13697E+09
        -0.89004E+08
        -0.21435E+08
        -0.59702E+08
        -0.15612E+09
        -0.17603E+09
        -0.17099E+09
        -0.15475E+09
        -0.13055E+09
        -0.57625E+08
         0.89985E+08
         0.12384E+09
        -0.16158E+08
         0.19391E+08
         0.13443E+09
         0.16346E+09
         0.19883E+09
         0.19613E+09
         0.16904E+09
         0.14062E+09
         0.98734E+08
         0.42777E+08
        -0.11350E+08
        -0.40337E+08
        -0.52825E+08
        -0.92011E+08
        -0.16681E+09
        -0.19936E+09
        -0.19858E+09
        -0.19779E+09
        -0.20042E+09
        -0.19395E+09
        -0.17092E+09
        -0.14941E+09
        -0.78449E+08
         0.20162E+08
         0.47980E+08
         0.51290E+08
         0.85935E+08
         0.15303E+09
         0.19103E+09
         0.19197E+09
        -0.27769E+08
         0.62116E+07
        -0.11135E+08
        -0.35221E+08
         0.53293E+08
         0.50077E+08
         0.17263E+08
        -0.29197E+08
        -0.17049E+08
        -0.28727E+08
        -0.34047E+07
         0.16696E+08
         0.60816E+08
        -0.48197E+08
        -0.39696E+08
         0.58294E+08
         0.32359E+08
        -0.19894E+08
        -0.11790E+08
        -0.19696E+08
        -0.99210E+08
        -0.95587E+08
        -0.98290E+08
        -0.29757E+08
         0.15776E+08
         0.12433E+08
        -0.49744E+08
         0.43994E+07
        -0.20015E+08
        -0.24565E+08
         0.45391E+08
         0.27993E+08
        -0.27118E+08
        -0.24952E+08
         0.86599E+08
         0.54738E+08
         0.61099E+08
        -0.50033E+08
        -0.10516E+08
        -0.27770E+08
        -0.89083E+08
        -0.97551E+08
        -0.97962E+08
        -0.80044E+08
        -0.60519E+08
        -0.30118E+08
         0.37643E+08
         0.48523E+08
        -0.54846E+07
         0.72246E+07
         0.66683E+08
         0.65511E+08
         0.15877E+09
         0.15946E+09
         0.13889E+09
         0.11661E+09
         0.82729E+08
         0.36102E+08
        -0.94615E+07
        -0.32394E+08
        -0.41836E+08
        -0.73950E+08
        -0.13470E+09
        -0.16375E+09
        -0.15871E+09
        -0.15852E+09
        -0.16526E+09
        -0.16237E+09
        -0.14419E+09
        -0.12612E+09
        -0.63780E+08
         0.16549E+08
         0.39088E+08
         0.41549E+08
         0.70190E+08
         0.12422E+09
         0.15714E+09
         0.15738E+09
  
SCALARS                      stress_xy  double 1
LOOKUP_TABLE default
        -0.68868E+00
        -0.16162E+01
        -0.13859E+02
         0.48944E+00
        -0.90346E-09
         0.88293E-10
         0.13275E-08
         0.20222E-09
        -0.14621E+03
         0.64238E+02
         0.59091E-08
         0.46858E-08
         0.54717E+01
        -0.11353E+01
         0.52157E-09
        -0.15665E-09
         0.15730E+01
         0.27456E+02
         0.25966E-10
         0.39568E-09
        -0.20889E+02
        -0.13254E+03
        -0.13040E+03
         0.40234E-08
         0.32041E-08
        -0.46790E-08
        -0.13799E+02
        -0.11530E+03
         0.54174E-08
         0.83370E-08
        -0.42063E+01
         0.81491E+01
         0.66168E+00
        -0.28594E-09
         0.11280E-08
        -0.14428E-10
        -0.37100E+02
        -0.17244E+02
         0.30189E-08
         0.25009E-08
        -0.72711E+02
        -0.65614E+02
         0.51465E-08
         0.34684E-08
        -0.70520E+02
        -0.12946E+02
        -0.18748E-09
         0.13958E-08
         0.18823E+02
         0.41251E-09
        -0.44109E+01
        -0.93003E-11
         0.11575E+01
         0.31179E-08
         0.57313E+01
         0.47978E-09
         0.81782E+02
        -0.39816E+01
         0.11150E-10
        -0.54702E-10
         0.54468E+00
        -0.54838E+02
         0.30385E-09
         0.77939E-09
         0.23562E+01
        -0.61693E-10
         0.33870E+02
         0.49435E-09
        -0.18110E+03
        -0.65738E+02
         0.38184E-09
        -0.36566E-08
        -0.14785E+03
        -0.58464E-08
         0.60512E+02
         0.39159E-08
         0.19112E+03
         0.58341E-09
         0.33374E+03
         0.75865E-09
         0.64748E+03
         0.35280E+03
         0.17836E-08
        -0.45225E-09
         0.43561E+02
        -0.54423E-10
        -0.13365E+03
        -0.49085E-08
        -0.19676E+03
        -0.54807E-08
        -0.43291E+03
        -0.19738E+03
        -0.34694E-08
         0.38510E-08
         0.31730E+02
         0.35064E-08
         0.78143E+02
         0.15063E-08
         0.18260E+03
         0.39993E-08
         0.44918E+03
         0.25617E+03
         0.85755E-08
         0.42877E-08
        -0.73834E+03
         0.30938E+03
        -0.55716E-08
         0.68232E-08
        -0.17978E+04
        -0.15835E-07
        -0.23450E+04
        -0.17309E-07
        -0.20603E+04
        -0.11748E-07
        -0.17567E+04
        -0.12461E-08
        -0.76775E+03
         0.35122E-08
         0.10114E+04
         0.21746E-08
         0.22729E+04
         0.19879E-08
         0.30051E+04
         0.42652E-08
         0.29470E+04
         0.51858E-08
         0.24168E+04
         0.20431E-08
         0.12879E+04
         0.12456E-08
        -0.88199E+02
         0.20360E-08
        -0.10717E+04
         0.13647E-08
        -0.17286E+04
        -0.48669E-08
        -0.23595E+04
        -0.12770E-07
        -0.21128E+04
        -0.16206E-07
        -0.13567E+04
        -0.10030E-07
        -0.14861E+03
         0.19136E-08
         0.10038E+04
         0.40557E-08
         0.14517E+04
         0.64635E-08
         0.17762E+04
         0.12728E-07
         0.15922E+04
         0.16516E-07
         0.14819E+04
         0.11734E-07
         0.12241E+04
         0.92799E-08
        -0.81100E+02
         0.19682E+02
         0.20510E+02
        -0.14368E+02
         0.13828E+03
         0.13662E+03
         0.17153E+01
        -0.44444E+02
        -0.23747E+02
        -0.56196E+02
        -0.10854E+02
        -0.19060E+03
        -0.31176E+03
         0.11678E+02
         0.16384E+03
        -0.36009E+02
         0.26380E+02
         0.81345E+01
         0.14070E+02
        -0.11967E+02
         0.56210E+02
         0.51644E+02
        -0.14347E+03
         0.38527E+01
         0.35908E+02
         0.39352E+01
         0.56273E+00
         0.11207E+01
         0.12114E+02
        -0.49134E+02
        -0.31165E+02
         0.58649E+01
         0.10674E+02
        -0.78306E+00
        -0.24609E+02
        -0.10240E+03
        -0.22667E+03
         0.30948E+03
         0.15889E+03
         0.24260E+03
         0.42802E+03
         0.12984E+03
        -0.13607E+03
        -0.26624E+03
        -0.27711E+03
        -0.27338E+03
         0.42054E+02
         0.15478E+03
         0.47180E+02
         0.13572E+03
         0.35220E+03
         0.17391E+03
        -0.10842E+04
         0.12252E+04
        -0.29547E+04
        -0.34987E+04
        -0.33095E+04
        -0.20378E+04
         0.13674E+03
         0.15757E+04
         0.22247E+04
         0.36784E+04
         0.42325E+04
         0.17144E+04
         0.72934E+03
         0.31957E+03
        -0.55552E+03
        -0.23314E+04
        -0.38807E+04
        -0.40132E+04
        -0.22720E+04
         0.39656E+03
         0.14601E+04
         0.15381E+04
         0.24035E+04
         0.26586E+04
         0.20740E+04
         0.19967E+04
        -0.28371E+06
         0.79041E+05
        -0.15063E+06
        -0.16330E+06
         0.47193E+06
         0.32258E+06
         0.18046E+06
        -0.34949E+06
        -0.21312E+06
        -0.34385E+06
         0.10039E+06
        -0.16200E+06
        -0.51497E+06
         0.17637E+06
         0.38377E+06
        -0.34727E+06
         0.13778E+06
         0.82559E+05
         0.17375E+06
         0.85026E+05
         0.26910E+06
         0.20364E+06
        -0.12200E+06
         0.17150E+06
         0.21826E+06
        -0.67961E+05
         0.39827E+05
        -0.22828E+05
        -0.91908E+05
        -0.32420E+06
        -0.36016E+06
        -0.12078E+06
         0.25858E+06
         0.22260E+06
         0.78713E+05
        -0.30709E+06
        -0.44646E+06
         0.46589E+06
         0.10882E+06
         0.31421E+06
         0.46047E+06
        -0.13924E+06
        -0.27709E+06
        -0.38976E+06
        -0.46710E+06
        -0.32715E+06
         0.41940E+06
         0.42250E+06
        -0.93419E+05
         0.10390E+06
         0.49546E+06
         0.60978E+05
        -0.23998E+06
         0.33145E+06
        -0.63908E+06
        -0.69022E+06
        -0.59216E+06
        -0.28781E+06
         0.75412E+05
         0.26386E+06
         0.34905E+06
         0.55992E+06
         0.64770E+06
         0.25816E+06
         0.12174E+06
         0.10877E+06
        -0.46814E+05
        -0.36116E+06
        -0.61756E+06
        -0.69330E+06
        -0.49318E+06
         0.13544E+06
         0.31799E+06
         0.33453E+06
         0.52781E+06
         0.67040E+06
         0.42326E+06
         0.40567E+06
        -0.28408E+06
         0.79325E+05
        -0.15088E+06
        -0.16436E+06
         0.47187E+06
         0.32281E+06
         0.18184E+06
        -0.34865E+06
        -0.21323E+06
        -0.34325E+06
         0.98423E+05
        -0.16239E+06
        -0.51506E+06
         0.17655E+06
         0.38334E+06
        -0.34725E+06
         0.13894E+06
         0.82207E+05
         0.17366E+06
         0.84403E+05
         0.26970E+06
         0.20383E+06
        -0.12204E+06
         0.17143E+06
         0.21847E+06
        -0.67951E+05
         0.40289E+05
        -0.22524E+05
        -0.91944E+05
        -0.32429E+06
        -0.36027E+06
        -0.12050E+06
         0.25855E+06
         0.22307E+06
         0.77953E+05
        -0.30729E+06
        -0.44647E+06
         0.46606E+06
         0.10967E+06
         0.31482E+06
         0.46057E+06
        -0.13882E+06
        -0.27733E+06
        -0.38991E+06
        -0.46710E+06
        -0.32701E+06
         0.41936E+06
         0.42242E+06
        -0.92802E+05
         0.10362E+06
         0.49540E+06
         0.60112E+05
        -0.23983E+06
         0.33152E+06
        -0.63914E+06
        -0.69022E+06
        -0.59208E+06
        -0.28780E+06
         0.75523E+05
         0.26408E+06
         0.34884E+06
         0.55984E+06
         0.64766E+06
         0.25826E+06
         0.12174E+06
         0.10900E+06
        -0.46429E+05
        -0.36128E+06
        -0.61767E+06
        -0.69333E+06
        -0.49309E+06
         0.13550E+06
         0.31779E+06
         0.33442E+06
         0.52761E+06
         0.67030E+06
         0.42301E+06
         0.40535E+06
        -0.28444E+06
         0.79603E+05
        -0.15112E+06
        -0.16543E+06
         0.47182E+06
         0.32304E+06
         0.18322E+06
        -0.34781E+06
        -0.21332E+06
        -0.34264E+06
         0.96453E+05
        -0.16277E+06
        -0.51514E+06
         0.17672E+06
         0.38292E+06
        -0.34722E+06
         0.14012E+06
         0.81852E+05
         0.17357E+06
         0.83779E+05
         0.27030E+06
         0.20403E+06
        -0.12209E+06
         0.17135E+06
         0.21870E+06
        -0.67932E+05
         0.40784E+05
        -0.22228E+05
        -0.91919E+05
        -0.32437E+06
        -0.36037E+06
        -0.12017E+06
         0.25850E+06
         0.22353E+06
         0.77189E+05
        -0.30749E+06
        -0.44647E+06
         0.46624E+06
         0.11053E+06
         0.31544E+06
         0.46068E+06
        -0.13836E+06
        -0.27755E+06
        -0.39010E+06
        -0.46712E+06
        -0.32688E+06
         0.41931E+06
         0.42235E+06
        -0.92167E+05
         0.10333E+06
         0.49535E+06
         0.59248E+05
        -0.23968E+06
         0.33160E+06
        -0.63921E+06
        -0.69022E+06
        -0.59201E+06
        -0.28779E+06
         0.75634E+05
         0.26428E+06
         0.34863E+06
         0.55977E+06
         0.64763E+06
         0.25838E+06
         0.12174E+06
         0.10923E+06
        -0.46041E+05
        -0.36139E+06
        -0.61777E+06
        -0.69336E+06
        -0.49299E+06
         0.13557E+06
         0.31760E+06
         0.33432E+06
         0.52742E+06
         0.67021E+06
         0.42277E+06
         0.40502E+06
        -0.28481E+06
         0.79892E+05
        -0.15136E+06
        -0.16650E+06
         0.47176E+06
         0.32328E+06
         0.18461E+06
        -0.34696E+06
        -0.21339E+06
        -0.34199E+06
         0.94483E+05
        -0.16317E+06
        -0.51523E+06
         0.17690E+06
         0.38249E+06
        -0.34719E+06
         0.14132E+06
         0.81494E+05
         0.17349E+06
         0.83121E+05
         0.27091E+06
         0.20420E+06
        -0.12219E+06
         0.17120E+06
         0.21902E+06
        -0.67896E+05
         0.41295E+05
        -0.21983E+05
        -0.91719E+05
        -0.32445E+06
        -0.36047E+06
        -0.11975E+06
         0.25844E+06
         0.22399E+06
         0.76430E+05
        -0.30768E+06
        -0.44647E+06
         0.46641E+06
         0.11137E+06
         0.31604E+06
         0.46082E+06
        -0.13779E+06
        -0.27772E+06
        -0.39037E+06
        -0.46716E+06
        -0.32673E+06
         0.41927E+06
         0.42228E+06
        -0.91529E+05
         0.10304E+06
         0.49529E+06
         0.58384E+05
        -0.23953E+06
         0.33168E+06
        -0.63928E+06
        -0.69022E+06
        -0.59193E+06
        -0.28778E+06
         0.75746E+05
         0.26450E+06
         0.34843E+06
         0.55970E+06
         0.64760E+06
         0.25852E+06
         0.12175E+06
         0.10945E+06
        -0.45651E+05
        -0.36151E+06
        -0.61790E+06
        -0.69339E+06
        -0.49290E+06
         0.13564E+06
         0.31741E+06
         0.33421E+06
         0.52722E+06
         0.67012E+06
         0.42253E+06
         0.40470E+06
        -0.28517E+06
         0.80180E+05
        -0.15161E+06
        -0.16757E+06
         0.47171E+06
         0.32351E+06
         0.18600E+06
        -0.34611E+06
        -0.21344E+06
        -0.34130E+06
         0.92506E+05
        -0.16356E+06
        -0.51531E+06
         0.17708E+06
         0.38206E+06
        -0.34716E+06
         0.14253E+06
         0.81135E+05
         0.17338E+06
         0.82436E+05
         0.27152E+06
         0.20435E+06
        -0.12234E+06
         0.17100E+06
         0.21943E+06
        -0.67832E+05
         0.41866E+05
        -0.21781E+05
        -0.91337E+05
        -0.32453E+06
        -0.36057E+06
        -0.11922E+06
         0.25838E+06
         0.22445E+06
         0.75665E+05
        -0.30787E+06
        -0.44647E+06
         0.46658E+06
         0.11220E+06
         0.31664E+06
         0.46099E+06
        -0.13709E+06
        -0.27783E+06
        -0.39073E+06
        -0.46724E+06
        -0.32655E+06
         0.41923E+06
         0.42221E+06
        -0.90894E+05
         0.10276E+06
         0.49524E+06
         0.57513E+05
        -0.23938E+06
         0.33175E+06
        -0.63934E+06
        -0.69022E+06
        -0.59185E+06
        -0.28777E+06
         0.75857E+05
         0.26471E+06
         0.34822E+06
         0.55963E+06
         0.64758E+06
         0.25868E+06
         0.12177E+06
         0.10966E+06
        -0.45258E+05
        -0.36164E+06
        -0.61804E+06
        -0.69343E+06
        -0.49280E+06
         0.13571E+06
         0.31722E+06
         0.33411E+06
         0.52703E+06
         0.67002E+06
         0.42228E+06
         0.40437E+06
        -0.28552E+06
         0.80495E+05
        -0.15182E+06
        -0.16864E+06
         0.47165E+06
         0.32373E+06
         0.18736E+06
        -0.34525E+06
        -0.21348E+06
        -0.34062E+06
         0.90522E+05
        -0.16395E+06
        -0.51539E+06
         0.17729E+06
         0.38163E+06
        -0.34714E+06
         0.14377E+06
         0.80780E+05
         0.17328E+06
         0.81748E+05
         0.27213E+06
         0.20449E+06
        -0.12252E+06
         0.17078E+06
         0.21984E+06
        -0.67758E+05
         0.42479E+05
        -0.21596E+05
        -0.90873E+05
        -0.32463E+06
        -0.36065E+06
        -0.11861E+06
         0.25830E+06
         0.22492E+06
         0.74894E+05
        -0.30808E+06
        -0.44648E+06
         0.46675E+06
         0.11303E+06
         0.31722E+06
         0.46117E+06
        -0.13636E+06
        -0.27791E+06
        -0.39112E+06
        -0.46734E+06
        -0.32639E+06
         0.41919E+06
         0.42216E+06
        -0.90236E+05
         0.10250E+06
         0.49518E+06
         0.56639E+05
        -0.23923E+06
         0.33183E+06
        -0.63941E+06
        -0.69023E+06
        -0.59177E+06
        -0.28776E+06
         0.75966E+05
         0.26492E+06
         0.34801E+06
         0.55955E+06
         0.64756E+06
         0.25885E+06
         0.12179E+06
         0.10988E+06
        -0.44867E+05
        -0.36177E+06
        -0.61819E+06
        -0.69347E+06
        -0.49270E+06
         0.13577E+06
         0.31702E+06
         0.33400E+06
         0.52683E+06
         0.66993E+06
         0.42204E+06
         0.40405E+06
        -0.28583E+06
         0.80878E+05
        -0.15198E+06
        -0.16974E+06
         0.47160E+06
         0.32397E+06
         0.18870E+06
        -0.34440E+06
        -0.21353E+06
        -0.33997E+06
         0.88524E+05
        -0.16434E+06
        -0.51548E+06
         0.17760E+06
         0.38119E+06
        -0.34712E+06
         0.14502E+06
         0.80422E+05
         0.17319E+06
         0.81065E+05
         0.27275E+06
         0.20463E+06
        -0.12269E+06
         0.17056E+06
         0.22019E+06
        -0.67659E+05
         0.43202E+05
        -0.21406E+05
        -0.90380E+05
        -0.32475E+06
        -0.36072E+06
        -0.11794E+06
         0.25822E+06
         0.22538E+06
         0.74122E+05
        -0.30829E+06
        -0.44650E+06
         0.46691E+06
         0.11386E+06
         0.31782E+06
         0.46136E+06
        -0.13562E+06
        -0.27799E+06
        -0.39150E+06
        -0.46744E+06
        -0.32623E+06
         0.41912E+06
         0.42216E+06
        -0.89509E+05
         0.10231E+06
         0.49512E+06
         0.55753E+05
        -0.23908E+06
         0.33190E+06
        -0.63947E+06
        -0.69023E+06
        -0.59169E+06
        -0.28775E+06
         0.76076E+05
         0.26513E+06
         0.34780E+06
         0.55948E+06
         0.64754E+06
         0.25902E+06
         0.12181E+06
         0.11010E+06
        -0.44475E+05
        -0.36190E+06
        -0.61834E+06
        -0.69351E+06
        -0.49260E+06
         0.13582E+06
         0.31681E+06
         0.33389E+06
         0.52665E+06
         0.66983E+06
         0.42179E+06
         0.40372E+06
        -0.28614E+06
         0.81281E+05
        -0.15211E+06
        -0.17084E+06
         0.47155E+06
         0.32420E+06
         0.19003E+06
        -0.34354E+06
        -0.21357E+06
        -0.33934E+06
         0.86516E+05
        -0.16472E+06
        -0.51557E+06
         0.17792E+06
         0.38075E+06
        -0.34711E+06
         0.14630E+06
         0.80061E+05
         0.17309E+06
         0.80392E+05
         0.27336E+06
         0.20478E+06
        -0.12286E+06
         0.17035E+06
         0.22049E+06
        -0.67551E+05
         0.43954E+05
        -0.21210E+05
        -0.89876E+05
        -0.32489E+06
        -0.36078E+06
        -0.11723E+06
         0.25813E+06
         0.22585E+06
         0.73342E+05
        -0.30851E+06
        -0.44652E+06
         0.46706E+06
         0.11469E+06
         0.31841E+06
         0.46155E+06
        -0.13487E+06
        -0.27807E+06
        -0.39189E+06
        -0.46754E+06
        -0.32609E+06
         0.41903E+06
         0.42216E+06
        -0.88754E+05
         0.10216E+06
         0.49507E+06
         0.54864E+05
        -0.23893E+06
         0.33198E+06
        -0.63954E+06
        -0.69023E+06
        -0.59162E+06
        -0.28774E+06
         0.76185E+05
         0.26534E+06
         0.34760E+06
         0.55941E+06
         0.64752E+06
         0.25919E+06
         0.12183E+06
         0.11032E+06
        -0.44082E+05
        -0.36203E+06
        -0.61849E+06
        -0.69355E+06
        -0.49251E+06
         0.13587E+06
         0.31660E+06
         0.33378E+06
         0.52646E+06
         0.66974E+06
         0.42155E+06
         0.40339E+06
        -0.28644E+06
         0.81689E+05
        -0.15225E+06
        -0.17195E+06
         0.47149E+06
         0.32443E+06
         0.19135E+06
        -0.34268E+06
        -0.21363E+06
        -0.33871E+06
         0.84513E+05
        -0.16511E+06
        -0.51565E+06
         0.17827E+06
         0.38031E+06
        -0.34710E+06
         0.14757E+06
         0.79701E+05
         0.17299E+06
         0.79712E+05
         0.27398E+06
         0.20492E+06
        -0.12303E+06
         0.17014E+06
         0.22080E+06
        -0.67443E+05
         0.44723E+05
        -0.21003E+05
        -0.89358E+05
        -0.32502E+06
        -0.36084E+06
        -0.11653E+06
         0.25803E+06
         0.22632E+06
         0.72559E+05
        -0.30872E+06
        -0.44654E+06
         0.46722E+06
         0.11552E+06
         0.31900E+06
         0.46173E+06
        -0.13413E+06
        -0.27814E+06
        -0.39227E+06
        -0.46765E+06
        -0.32595E+06
         0.41895E+06
         0.42216E+06
        -0.87997E+05
         0.10201E+06
         0.49502E+06
         0.53969E+05
        -0.23878E+06
         0.33205E+06
        -0.63960E+06
        -0.69023E+06
        -0.59154E+06
        -0.28773E+06
         0.76295E+05
         0.26555E+06
         0.34739E+06
         0.55935E+06
         0.64750E+06
         0.25936E+06
         0.12185E+06
         0.11054E+06
        -0.43690E+05
        -0.36215E+06
        -0.61864E+06
        -0.69358E+06
        -0.49241E+06
         0.13592E+06
         0.31639E+06
         0.33367E+06
         0.52628E+06
         0.66964E+06
         0.42130E+06
         0.40306E+06
        -0.28675E+06
         0.82102E+05
        -0.15238E+06
        -0.17305E+06
         0.47144E+06
         0.32465E+06
         0.19268E+06
        -0.34182E+06
        -0.21368E+06
        -0.33807E+06
         0.82505E+05
        -0.16550E+06
        -0.51574E+06
         0.17859E+06
         0.37987E+06
        -0.34709E+06
         0.14885E+06
         0.79345E+05
         0.17289E+06
         0.79034E+05
         0.27459E+06
         0.20507E+06
        -0.12320E+06
         0.16993E+06
         0.22110E+06
        -0.67333E+05
         0.45471E+05
        -0.20788E+05
        -0.88826E+05
        -0.32515E+06
        -0.36090E+06
        -0.11582E+06
         0.25792E+06
         0.22678E+06
         0.71778E+05
        -0.30895E+06
        -0.44657E+06
         0.46737E+06
         0.11635E+06
         0.31960E+06
         0.46191E+06
        -0.13339E+06
        -0.27822E+06
        -0.39265E+06
        -0.46776E+06
        -0.32580E+06
         0.41887E+06
         0.42218E+06
        -0.87246E+05
         0.10185E+06
         0.49496E+06
         0.53077E+05
        -0.23862E+06
         0.33213E+06
        -0.63967E+06
        -0.69023E+06
        -0.59146E+06
        -0.28772E+06
         0.76404E+05
         0.26576E+06
         0.34718E+06
         0.55928E+06
         0.64748E+06
         0.25952E+06
         0.12187E+06
         0.11076E+06
        -0.43300E+05
        -0.36228E+06
        -0.61878E+06
        -0.69362E+06
        -0.49231E+06
         0.13597E+06
         0.31618E+06
         0.33356E+06
         0.52609E+06
         0.66955E+06
         0.42106E+06
         0.40274E+06
        -0.28705E+06
         0.82511E+05
        -0.15252E+06
        -0.17414E+06
         0.47139E+06
         0.32488E+06
         0.19401E+06
        -0.34096E+06
        -0.21373E+06
        -0.33744E+06
         0.80491E+05
        -0.16589E+06
        -0.51582E+06
         0.17893E+06
         0.37943E+06
        -0.34708E+06
         0.15012E+06
         0.78989E+05
         0.17280E+06
         0.78349E+05
         0.27520E+06
         0.20521E+06
        -0.12337E+06
         0.16973E+06
         0.22139E+06
        -0.67221E+05
         0.46232E+05
        -0.20559E+05
        -0.88279E+05
        -0.32528E+06
        -0.36096E+06
        -0.11512E+06
         0.25780E+06
         0.22725E+06
         0.70993E+05
        -0.30916E+06
        -0.44659E+06
         0.46753E+06
         0.11717E+06
         0.32019E+06
         0.46210E+06
        -0.13265E+06
        -0.27829E+06
        -0.39303E+06
        -0.46786E+06
        -0.32567E+06
         0.41879E+06
         0.42218E+06
        -0.86485E+05
         0.10169E+06
         0.49491E+06
         0.52180E+05
        -0.23847E+06
         0.33220E+06
        -0.63973E+06
        -0.69023E+06
        -0.59138E+06
        -0.28772E+06
         0.76511E+05
         0.26596E+06
         0.34697E+06
         0.55921E+06
         0.64746E+06
         0.25969E+06
         0.12190E+06
         0.11098E+06
        -0.42908E+05
        -0.36241E+06
        -0.61893E+06
        -0.69366E+06
        -0.49221E+06
         0.13601E+06
         0.31596E+06
         0.33346E+06
         0.52591E+06
         0.66945E+06
         0.42082E+06
         0.40241E+06
        -0.28735E+06
         0.82918E+05
        -0.15264E+06
        -0.17524E+06
         0.47133E+06
         0.32511E+06
         0.19533E+06
        -0.34010E+06
        -0.21377E+06
        -0.33681E+06
         0.78479E+05
        -0.16628E+06
        -0.51591E+06
         0.17927E+06
         0.37899E+06
        -0.34708E+06
         0.15140E+06
         0.78630E+05
         0.17271E+06
         0.77676E+05
         0.27581E+06
         0.20534E+06
        -0.12354E+06
         0.16952E+06
         0.22169E+06
        -0.67115E+05
         0.46976E+05
        -0.20322E+05
        -0.87710E+05
        -0.32541E+06
        -0.36102E+06
        -0.11442E+06
         0.25767E+06
         0.22757E+06
         0.70204E+05
        -0.30938E+06
        -0.44661E+06
         0.46768E+06
         0.11800E+06
         0.32079E+06
         0.46228E+06
        -0.13191E+06
        -0.27837E+06
        -0.39341E+06
        -0.46797E+06
        -0.32553E+06
         0.41871E+06
         0.42219E+06
        -0.85722E+05
         0.10154E+06
         0.49485E+06
         0.51282E+05
        -0.23832E+06
         0.33227E+06
        -0.63979E+06
        -0.69023E+06
        -0.59130E+06
        -0.28771E+06
         0.76619E+05
         0.26617E+06
         0.34676E+06
         0.55914E+06
         0.64744E+06
         0.25986E+06
         0.12192E+06
         0.11120E+06
        -0.42514E+05
        -0.36254E+06
        -0.61908E+06
        -0.69369E+06
        -0.49212E+06
         0.13606E+06
         0.31575E+06
         0.33335E+06
         0.52572E+06
         0.66936E+06
         0.42058E+06
         0.40208E+06
        -0.28766E+06
         0.83330E+05
        -0.15277E+06
        -0.17634E+06
         0.47127E+06
         0.32534E+06
         0.19666E+06
        -0.33923E+06
        -0.21381E+06
        -0.33617E+06
         0.76470E+05
        -0.16666E+06
        -0.51600E+06
         0.17958E+06
         0.37855E+06
        -0.34706E+06
         0.15267E+06
         0.78269E+05
         0.17261E+06
         0.77004E+05
         0.27642E+06
         0.20548E+06
        -0.12371E+06
         0.16932E+06
         0.22197E+06
        -0.67000E+05
         0.47741E+05
        -0.20073E+05
        -0.87135E+05
        -0.32554E+06
        -0.36108E+06
        -0.11370E+06
         0.25752E+06
         0.22785E+06
         0.69417E+05
        -0.30960E+06
        -0.44664E+06
         0.46782E+06
         0.11882E+06
         0.32138E+06
         0.46246E+06
        -0.13118E+06
        -0.27844E+06
        -0.39379E+06
        -0.46807E+06
        -0.32538E+06
         0.41862E+06
         0.42220E+06
        -0.84955E+05
         0.10138E+06
         0.49480E+06
         0.50386E+05
        -0.23817E+06
         0.33235E+06
        -0.63985E+06
        -0.69023E+06
        -0.59122E+06
        -0.28770E+06
         0.76729E+05
         0.26638E+06
         0.34655E+06
         0.55907E+06
         0.64742E+06
         0.26003E+06
         0.12194E+06
         0.11142E+06
        -0.42122E+05
        -0.36266E+06
        -0.61923E+06
        -0.69373E+06
        -0.49202E+06
         0.13611E+06
         0.31554E+06
         0.33324E+06
         0.52554E+06
         0.66926E+06
         0.42034E+06
         0.40175E+06
        -0.28796E+06
         0.83735E+05
        -0.15290E+06
        -0.17743E+06
         0.47122E+06
         0.32556E+06
         0.19799E+06
        -0.33837E+06
        -0.21386E+06
        -0.33553E+06
         0.74462E+05
        -0.16705E+06
        -0.51608E+06
         0.17992E+06
         0.37811E+06
        -0.34705E+06
         0.15394E+06
         0.77914E+05
         0.17253E+06
         0.76337E+05
         0.27703E+06
         0.20562E+06
        -0.12388E+06
         0.16912E+06
         0.22225E+06
        -0.66885E+05
         0.48486E+05
        -0.19816E+05
        -0.86548E+05
        -0.32566E+06
        -0.36113E+06
        -0.11300E+06
         0.25737E+06
         0.22813E+06
         0.68626E+05
        -0.30982E+06
        -0.44666E+06
         0.46797E+06
         0.11964E+06
         0.32198E+06
         0.46265E+06
        -0.13044E+06
        -0.27852E+06
        -0.39416E+06
        -0.46818E+06
        -0.32524E+06
         0.41854E+06
         0.42220E+06
        -0.84190E+05
         0.10122E+06
         0.49474E+06
         0.49493E+05
        -0.23801E+06
         0.33242E+06
        -0.63992E+06
        -0.69023E+06
        -0.59115E+06
        -0.28769E+06
         0.76838E+05
         0.26658E+06
         0.34635E+06
         0.55900E+06
         0.64740E+06
         0.26019E+06
         0.12196E+06
         0.11165E+06
        -0.41732E+05
        -0.36279E+06
        -0.61938E+06
        -0.69377E+06
        -0.49192E+06
         0.13616E+06
         0.31532E+06
         0.33313E+06
         0.52536E+06
         0.66917E+06
         0.42010E+06
         0.40142E+06
        -0.28827E+06
         0.84137E+05
        -0.15303E+06
        -0.17852E+06
         0.47116E+06
         0.32579E+06
         0.19932E+06
        -0.33750E+06
        -0.21390E+06
        -0.33490E+06
         0.72451E+05
        -0.16744E+06
        -0.51617E+06
         0.18023E+06
         0.37766E+06
        -0.34704E+06
         0.15522E+06
         0.77560E+05
         0.17244E+06
         0.75663E+05
         0.27764E+06
         0.20576E+06
        -0.12404E+06
         0.16892E+06
         0.22253E+06
        -0.66769E+05
         0.49244E+05
        -0.19547E+05
        -0.85950E+05
        -0.32579E+06
        -0.36119E+06
        -0.11229E+06
         0.25720E+06
         0.22841E+06
         0.67836E+05
        -0.31004E+06
        -0.44668E+06
         0.46811E+06
         0.12046E+06
         0.32256E+06
         0.46283E+06
        -0.12970E+06
        -0.27859E+06
        -0.39454E+06
        -0.46828E+06
        -0.32510E+06
         0.41846E+06
         0.42222E+06
        -0.83410E+05
         0.10107E+06
         0.49469E+06
         0.48592E+05
        -0.23786E+06
         0.33249E+06
        -0.63998E+06
        -0.69023E+06
        -0.59107E+06
        -0.28768E+06
         0.76945E+05
         0.26679E+06
         0.34614E+06
         0.55893E+06
         0.64738E+06
         0.26036E+06
         0.12198E+06
         0.11187E+06
        -0.41340E+05
        -0.36292E+06
        -0.61952E+06
        -0.69380E+06
        -0.49182E+06
         0.13620E+06
         0.31511E+06
         0.33303E+06
         0.52517E+06
         0.66907E+06
         0.41986E+06
         0.40109E+06
        -0.28857E+06
         0.84550E+05
        -0.15315E+06
        -0.17960E+06
         0.47111E+06
         0.32601E+06
         0.20065E+06
        -0.33662E+06
        -0.21394E+06
        -0.33426E+06
         0.70437E+05
        -0.16783E+06
        -0.51625E+06
         0.18056E+06
         0.37722E+06
        -0.34703E+06
         0.15650E+06
         0.77207E+05
         0.17234E+06
         0.74997E+05
         0.27825E+06
         0.20589E+06
        -0.12421E+06
         0.16872E+06
         0.22279E+06
        -0.66652E+05
         0.49981E+05
        -0.19267E+05
        -0.85340E+05
        -0.32591E+06
        -0.36124E+06
        -0.11158E+06
         0.25703E+06
         0.22869E+06
         0.67040E+05
        -0.31025E+06
        -0.44670E+06
         0.46825E+06
         0.12128E+06
         0.32315E+06
         0.46302E+06
        -0.12897E+06
        -0.27867E+06
        -0.39491E+06
        -0.46839E+06
        -0.32495E+06
         0.41837E+06
         0.42222E+06
        -0.82639E+05
         0.10091E+06
         0.49463E+06
         0.47689E+05
        -0.23770E+06
         0.33256E+06
        -0.64004E+06
        -0.69023E+06
        -0.59099E+06
        -0.28767E+06
         0.77051E+05
         0.26699E+06
         0.34593E+06
         0.55886E+06
         0.64736E+06
         0.26053E+06
         0.12200E+06
         0.11208E+06
        -0.40948E+05
        -0.36304E+06
        -0.61967E+06
        -0.69384E+06
        -0.49172E+06
         0.13625E+06
         0.31490E+06
         0.33292E+06
         0.52499E+06
         0.66898E+06
         0.41962E+06
         0.40076E+06
        -0.28888E+06
         0.84956E+05
        -0.15328E+06
        -0.18069E+06
         0.47105E+06
         0.32623E+06
         0.20199E+06
        -0.33575E+06
        -0.21398E+06
        -0.33361E+06
         0.68422E+05
        -0.16822E+06
        -0.51634E+06
         0.18087E+06
         0.37677E+06
        -0.34702E+06
         0.15778E+06
         0.76852E+05
         0.17225E+06
         0.74335E+05
         0.27885E+06
         0.20602E+06
        -0.12437E+06
         0.16852E+06
         0.22304E+06
        -0.66531E+05
         0.50738E+05
        -0.18973E+05
        -0.84708E+05
        -0.32603E+06
        -0.36129E+06
        -0.11088E+06
         0.25684E+06
         0.22897E+06
         0.66243E+05
        -0.31047E+06
        -0.44672E+06
         0.46838E+06
         0.12211E+06
         0.32375E+06
         0.46320E+06
        -0.12824E+06
        -0.27875E+06
        -0.39528E+06
        -0.46849E+06
        -0.32482E+06
         0.41829E+06
         0.42223E+06
        -0.81869E+05
         0.10075E+06
         0.49458E+06
         0.46792E+05
        -0.23755E+06
         0.33263E+06
        -0.64010E+06
        -0.69023E+06
        -0.59091E+06
        -0.28766E+06
         0.77156E+05
         0.26720E+06
         0.34572E+06
         0.55880E+06
         0.64734E+06
         0.26070E+06
         0.12202E+06
         0.11230E+06
        -0.40559E+05
        -0.36317E+06
        -0.61982E+06
        -0.69388E+06
        -0.49163E+06
         0.13629E+06
         0.31468E+06
         0.33281E+06
         0.52480E+06
         0.66888E+06
         0.41938E+06
         0.40043E+06
        -0.28918E+06
         0.85361E+05
        -0.15341E+06
        -0.18177E+06
         0.47099E+06
         0.32645E+06
         0.20331E+06
        -0.33488E+06
        -0.21400E+06
        -0.33292E+06
         0.66407E+05
        -0.16861E+06
        -0.51642E+06
         0.18119E+06
         0.37633E+06
        -0.34701E+06
         0.15907E+06
         0.76496E+05
         0.17218E+06
         0.73706E+05
         0.27946E+06
         0.20615E+06
        -0.12454E+06
         0.16832E+06
         0.22327E+06
        -0.66418E+05
         0.51489E+05
        -0.18657E+05
        -0.84068E+05
        -0.32617E+06
        -0.36134E+06
        -0.11016E+06
         0.25664E+06
         0.22925E+06
         0.65446E+05
        -0.31069E+06
        -0.44675E+06
         0.46851E+06
         0.12296E+06
         0.32434E+06
         0.46339E+06
        -0.12751E+06
        -0.27884E+06
        -0.39566E+06
        -0.46860E+06
        -0.32467E+06
         0.41821E+06
         0.42224E+06
        -0.81101E+05
         0.10059E+06
         0.49453E+06
         0.45893E+05
        -0.23740E+06
         0.33270E+06
        -0.64016E+06
        -0.69023E+06
        -0.59083E+06
        -0.28765E+06
         0.77262E+05
         0.26740E+06
         0.34552E+06
         0.55873E+06
         0.64733E+06
         0.26086E+06
         0.12203E+06
         0.11252E+06
        -0.40170E+05
        -0.36329E+06
        -0.61996E+06
        -0.69391E+06
        -0.49153E+06
         0.13634E+06
         0.31447E+06
         0.33270E+06
         0.52462E+06
         0.66879E+06
         0.41915E+06
         0.40010E+06
        -0.28949E+06
         0.85764E+05
        -0.15353E+06
        -0.18285E+06
         0.47093E+06
         0.32667E+06
         0.20464E+06
        -0.33401E+06
        -0.21401E+06
        -0.33221E+06
         0.64396E+05
        -0.16900E+06
        -0.51651E+06
         0.18152E+06
         0.37587E+06
        -0.34699E+06
         0.16038E+06
         0.76140E+05
         0.17209E+06
         0.73095E+05
         0.28006E+06
         0.20627E+06
        -0.12471E+06
         0.16813E+06
         0.22345E+06
        -0.66294E+05
         0.52275E+05
        -0.18317E+05
        -0.83416E+05
        -0.32630E+06
        -0.36139E+06
        -0.10945E+06
         0.25643E+06
         0.22953E+06
         0.64644E+05
        -0.31090E+06
        -0.44677E+06
         0.46862E+06
         0.12384E+06
         0.32494E+06
         0.46358E+06
        -0.12679E+06
        -0.27894E+06
        -0.39603E+06
        -0.46870E+06
        -0.32453E+06
         0.41812E+06
         0.42225E+06
        -0.80321E+05
         0.10043E+06
         0.49447E+06
         0.44986E+05
        -0.23724E+06
         0.33277E+06
        -0.64022E+06
        -0.69023E+06
        -0.59075E+06
        -0.28764E+06
         0.77367E+05
         0.26760E+06
         0.34532E+06
         0.55866E+06
         0.64732E+06
         0.26102E+06
         0.12202E+06
         0.11273E+06
        -0.39779E+05
        -0.36342E+06
        -0.62011E+06
        -0.69395E+06
        -0.49143E+06
         0.13639E+06
         0.31426E+06
         0.33259E+06
         0.52444E+06
         0.66869E+06
         0.41892E+06
         0.39977E+06
        -0.28979E+06
         0.86169E+05
        -0.15366E+06
        -0.18393E+06
         0.47088E+06
         0.32689E+06
         0.20598E+06
        -0.33313E+06
        -0.21400E+06
        -0.33149E+06
         0.62397E+05
        -0.16938E+06
        -0.51659E+06
         0.18183E+06
         0.37542E+06
        -0.34698E+06
         0.16169E+06
         0.75789E+05
         0.17200E+06
         0.72503E+05
         0.28067E+06
         0.20639E+06
        -0.12487E+06
         0.16795E+06
         0.22363E+06
        -0.66179E+05
         0.53040E+05
        -0.17959E+05
        -0.82760E+05
        -0.32642E+06
        -0.36144E+06
        -0.10875E+06
         0.25622E+06
         0.22981E+06
         0.63849E+05
        -0.31111E+06
        -0.44678E+06
         0.46872E+06
         0.12473E+06
         0.32552E+06
         0.46377E+06
        -0.12608E+06
        -0.27905E+06
        -0.39639E+06
        -0.46880E+06
        -0.32439E+06
         0.41804E+06
         0.42226E+06
        -0.79550E+05
         0.10027E+06
         0.49442E+06
         0.44082E+05
        -0.23708E+06
         0.33284E+06
        -0.64028E+06
        -0.69023E+06
        -0.59068E+06
        -0.28763E+06
         0.77471E+05
         0.26780E+06
         0.34512E+06
         0.55859E+06
         0.64731E+06
         0.26118E+06
         0.12201E+06
         0.11295E+06
        -0.39388E+05
        -0.36354E+06
        -0.62026E+06
        -0.69399E+06
        -0.49133E+06
         0.13643E+06
         0.31405E+06
         0.33249E+06
         0.52425E+06
         0.66860E+06
         0.41869E+06
         0.39944E+06
        -0.27195E+06
         0.73949E+05
        -0.13033E+06
        -0.14832E+06
         0.43075E+06
         0.28408E+06
         0.15204E+06
        -0.30536E+06
        -0.18794E+06
        -0.30287E+06
         0.44513E+05
        -0.16283E+06
        -0.48915E+06
         0.15163E+06
         0.36100E+06
        -0.31446E+06
         0.12505E+06
         0.76091E+05
         0.13868E+06
         0.60897E+05
         0.26919E+06
         0.19635E+06
        -0.11913E+06
         0.12677E+06
         0.18911E+06
        -0.66688E+05
         0.44862E+05
        -0.16702E+05
        -0.62417E+05
        -0.27520E+06
        -0.31833E+06
        -0.85244E+05
         0.20344E+06
         0.17500E+06
         0.59005E+05
        -0.27278E+06
        -0.40938E+06
         0.44620E+06
         0.11679E+06
         0.30038E+06
         0.44243E+06
        -0.11928E+06
        -0.26666E+06
        -0.37386E+06
        -0.43339E+06
        -0.30548E+06
         0.37758E+06
         0.37618E+06
        -0.67642E+05
         0.87917E+05
         0.46171E+06
         0.38646E+05
        -0.23399E+06
         0.32925E+06
        -0.63369E+06
        -0.68343E+06
        -0.58517E+06
        -0.28506E+06
         0.76841E+05
         0.26470E+06
         0.34043E+06
         0.55184E+06
         0.63978E+06
         0.25853E+06
         0.12045E+06
         0.11175E+06
        -0.38615E+05
        -0.36025E+06
        -0.61492E+06
        -0.68799E+06
        -0.48582E+06
         0.13508E+06
         0.31043E+06
         0.32859E+06
         0.51842E+06
         0.66097E+06
         0.41411E+06
         0.39488E+06
        -0.73329E+05
         0.10489E+05
        -0.17738E+05
        -0.16797E+05
         0.91904E+05
         0.43239E+05
         0.12134E+05
        -0.67278E+05
        -0.30716E+05
        -0.64701E+05
         0.37524E+04
        -0.59274E+05
        -0.14769E+06
         0.18661E+05
         0.13776E+06
        -0.62435E+05
         0.12357E+05
         0.66021E+04
         0.15563E+05
         0.42119E+04
         0.93800E+05
         0.62534E+05
        -0.39125E+05
         0.11868E+05
         0.25131E+05
        -0.49760E+04
         0.56280E+04
        -0.86190E+03
        -0.40402E+04
        -0.36097E+05
        -0.52474E+05
        -0.75315E+04
         0.22188E+05
         0.16937E+05
         0.15135E+05
        -0.43309E+05
        -0.88325E+05
         0.14452E+06
         0.29287E+05
         0.68574E+05
         0.14774E+06
        -0.37736E+05
        -0.90405E+05
        -0.10605E+06
        -0.10051E+06
        -0.86506E+05
         0.72687E+05
         0.66000E+05
        -0.95719E+04
         0.14166E+05
         0.11936E+06
         0.68954E+04
        -0.14996E+06
         0.21900E+06
        -0.43017E+06
        -0.47253E+06
        -0.41301E+06
        -0.20411E+06
         0.53593E+05
         0.17167E+06
         0.21491E+06
         0.35857E+06
         0.41960E+06
         0.17541E+06
         0.77381E+05
         0.72319E+05
        -0.26235E+05
        -0.25386E+06
        -0.44000E+06
        -0.49270E+06
        -0.32298E+06
         0.91435E+05
         0.20724E+06
         0.21695E+06
         0.34789E+06
         0.43803E+06
         0.28171E+06
         0.26676E+06
  
SCALARS                      strain_xx  double 1
LOOKUP_TABLE default
         0.11860E-05
         0.55406E-04
         0.62845E-03
         0.31802E-05
        -0.31091E-19
        -0.39088E-20
        -0.43704E-19
        -0.17432E-20
         0.47713E-02
         0.21756E-02
        -0.39100E-18
        -0.31723E-18
         0.79109E-05
         0.13125E-03
        -0.59476E-20
        -0.13052E-18
         0.67301E-05
         0.12151E-03
        -0.68101E-19
        -0.15106E-18
         0.24208E-03
         0.64726E-03
         0.63832E-03
        -0.67354E-19
        -0.14322E-19
        -0.43714E-19
         0.72379E-03
         0.43576E-03
        -0.23600E-18
        -0.14851E-18
         0.36723E-04
         0.16701E-03
         0.17913E-05
        -0.24464E-20
        -0.36533E-19
        -0.13866E-19
         0.30847E-03
         0.64400E-04
        -0.80529E-19
        -0.91294E-19
         0.11755E-02
         0.21708E-02
        -0.40975E-18
        -0.22284E-18
         0.14408E-02
         0.42091E-03
        -0.49415E-18
        -0.11448E-18
         0.95129E-04
        -0.45107E-19
         0.68957E-03
        -0.34952E-20
         0.93106E-04
        -0.17222E-18
         0.50495E-04
        -0.12051E-19
         0.96718E-03
         0.80411E-04
        -0.88437E-20
        -0.51669E-19
         0.41802E-06
         0.30843E-03
        -0.35378E-19
        -0.16636E-19
         0.21874E-04
        -0.35794E-21
         0.23630E-03
        -0.15486E-19
         0.92653E-02
         0.43054E-02
        -0.60498E-18
        -0.31823E-18
         0.17399E-02
        -0.16872E-18
         0.72024E-04
        -0.80736E-19
         0.69372E-03
        -0.31099E-20
         0.31445E-02
        -0.74854E-20
         0.57638E-02
         0.30421E-02
        -0.10053E-18
        -0.13150E-18
         0.25962E-02
        -0.15209E-18
         0.21156E-02
        -0.31526E-18
         0.79057E-03
        -0.12825E-18
         0.18998E-02
         0.10096E-02
        -0.23361E-19
        -0.43934E-19
         0.53885E-04
        -0.60448E-19
         0.41214E-03
        -0.10657E-19
         0.23444E-02
        -0.64988E-19
         0.50999E-02
         0.24347E-02
        -0.34551E-18
        -0.37622E-18
         0.28370E-01
         0.36108E-01
        -0.11796E-17
        -0.11456E-17
         0.27646E-01
        -0.86093E-18
         0.23977E-01
        -0.48081E-18
         0.11830E-01
        -0.14520E-18
         0.56725E-02
        -0.16604E-20
         0.70866E-03
        -0.21063E-19
         0.11072E-02
        -0.13482E-19
         0.62656E-02
        -0.13025E-19
         0.13858E-01
        -0.66235E-19
         0.26778E-01
        -0.23974E-18
         0.44516E-01
        -0.34139E-18
         0.56862E-01
        -0.30392E-18
         0.55231E-01
        -0.35939E-18
         0.49535E-01
        -0.60535E-18
         0.41801E-01
        -0.84176E-18
         0.32470E-01
        -0.72741E-18
         0.18487E-01
        -0.48045E-18
         0.58956E-02
        -0.10707E-18
         0.42213E-04
        -0.39042E-20
         0.18733E-02
        -0.23013E-19
         0.46870E-02
        -0.61537E-19
         0.10222E-01
        -0.23569E-18
         0.17771E-01
        -0.63463E-18
         0.31561E-01
        -0.91606E-18
         0.43156E-01
        -0.95835E-18
        -0.23659E-05
        -0.63783E-06
        -0.87856E-06
        -0.35850E-05
        -0.52990E-04
        -0.31968E-04
        -0.72088E-06
        -0.15650E-05
        -0.42050E-06
        -0.13243E-05
        -0.39193E-06
        -0.73332E-05
        -0.32199E-04
        -0.32949E-05
        -0.47519E-05
        -0.63480E-05
        -0.44655E-05
        -0.96257E-06
        -0.23082E-05
        -0.26767E-05
        -0.79766E-04
        -0.90621E-04
        -0.73621E-04
        -0.71164E-05
        -0.11484E-05
        -0.63751E-06
        -0.65348E-05
        -0.82221E-07
        -0.85565E-05
        -0.40811E-05
        -0.50572E-05
        -0.19349E-06
        -0.11229E-05
        -0.11693E-06
        -0.11430E-03
        -0.46809E-04
        -0.38485E-04
        -0.18777E-04
        -0.60882E-05
        -0.27625E-04
        -0.11621E-03
        -0.10252E-03
        -0.10110E-03
        -0.54548E-04
        -0.27908E-04
        -0.16878E-04
        -0.60145E-06
        -0.10589E-04
        -0.88496E-06
        -0.88317E-05
        -0.62501E-04
        -0.44833E-04
        -0.95276E-03
        -0.10664E-02
        -0.85027E-03
        -0.61765E-03
        -0.34237E-03
        -0.88210E-04
        -0.30775E-06
        -0.44182E-04
        -0.10267E-03
        -0.30247E-03
        -0.80022E-03
        -0.12120E-02
        -0.10233E-02
        -0.94332E-03
        -0.10577E-02
        -0.10610E-02
        -0.87582E-03
        -0.66807E-03
        -0.16773E-03
        -0.42167E-05
        -0.62727E-04
        -0.77906E-04
        -0.22313E-03
        -0.56473E-03
        -0.96075E-03
        -0.10654E-02
        -0.12968E-04
        -0.54644E-06
        -0.19805E-05
        -0.16791E-04
        -0.70650E-04
        -0.51595E-04
        -0.43796E-05
        -0.20871E-04
        -0.44064E-05
        -0.18863E-04
        -0.76983E-06
        -0.10248E-04
        -0.11091E-03
        -0.65221E-04
        -0.69976E-04
        -0.50052E-04
        -0.15512E-04
        -0.55648E-05
        -0.25202E-05
        -0.77727E-05
        -0.27365E-03
        -0.24855E-03
        -0.24203E-03
        -0.14159E-04
        -0.45677E-05
        -0.20708E-05
        -0.60902E-04
        -0.10737E-05
        -0.68213E-05
        -0.12685E-04
        -0.29544E-04
        -0.12370E-04
        -0.12428E-04
        -0.92571E-05
        -0.22470E-03
        -0.68448E-04
        -0.90063E-04
        -0.86056E-04
        -0.24122E-05
        -0.20277E-04
        -0.27369E-03
        -0.28959E-03
        -0.27670E-03
        -0.14466E-03
        -0.85785E-04
        -0.29369E-04
        -0.34304E-04
        -0.47810E-04
        -0.83542E-06
        -0.12111E-05
        -0.12725E-03
        -0.98741E-04
        -0.39273E-02
        -0.39884E-02
        -0.32139E-02
        -0.21863E-02
        -0.12173E-02
        -0.25821E-03
        -0.15917E-04
        -0.16711E-03
        -0.28999E-03
        -0.97441E-03
        -0.30742E-02
        -0.42784E-02
        -0.30086E-02
        -0.27232E-02
        -0.33052E-02
        -0.35055E-02
        -0.29203E-02
        -0.26129E-02
        -0.67831E-03
        -0.45823E-04
        -0.22415E-03
        -0.23007E-03
        -0.72725E-03
        -0.21802E-02
        -0.35719E-02
        -0.35494E-02
        -0.13017E-04
        -0.55051E-06
        -0.19880E-05
        -0.16813E-04
        -0.70514E-04
        -0.51500E-04
        -0.44354E-05
        -0.20765E-04
        -0.44160E-05
        -0.18834E-04
        -0.73898E-06
        -0.10298E-04
        -0.11104E-03
        -0.64900E-04
        -0.69902E-04
        -0.50155E-04
        -0.15580E-04
        -0.55341E-05
        -0.25178E-05
        -0.77453E-05
        -0.27360E-03
        -0.24849E-03
        -0.24199E-03
        -0.14160E-04
        -0.45883E-05
        -0.20777E-05
        -0.60938E-04
        -0.10337E-05
        -0.69175E-05
        -0.12701E-04
        -0.29630E-04
        -0.12367E-04
        -0.12325E-04
        -0.92655E-05
        -0.22493E-03
        -0.68386E-04
        -0.90006E-04
        -0.86332E-04
        -0.24587E-05
        -0.20405E-04
        -0.27403E-03
        -0.28993E-03
        -0.27672E-03
        -0.14461E-03
        -0.85723E-04
        -0.29338E-04
        -0.34291E-04
        -0.47842E-04
        -0.82326E-06
        -0.12028E-05
        -0.12708E-03
        -0.98449E-04
        -0.39246E-02
        -0.39863E-02
        -0.32133E-02
        -0.21864E-02
        -0.12165E-02
        -0.25805E-03
        -0.15953E-04
        -0.16731E-03
        -0.28950E-03
        -0.97364E-03
        -0.30733E-02
        -0.42785E-02
        -0.30080E-02
        -0.27228E-02
        -0.33060E-02
        -0.35070E-02
        -0.29213E-02
        -0.26139E-02
        -0.67793E-03
        -0.45865E-04
        -0.22382E-03
        -0.22989E-03
        -0.72618E-03
        -0.21775E-02
        -0.35684E-02
        -0.35463E-02
        -0.13066E-04
        -0.55452E-06
        -0.19955E-05
        -0.16836E-04
        -0.70374E-04
        -0.51407E-04
        -0.44919E-05
        -0.20660E-04
        -0.44251E-05
        -0.18802E-04
        -0.70883E-06
        -0.10348E-04
        -0.11117E-03
        -0.64580E-04
        -0.69827E-04
        -0.50263E-04
        -0.15650E-04
        -0.55031E-05
        -0.25153E-05
        -0.77190E-05
        -0.27355E-03
        -0.24844E-03
        -0.24196E-03
        -0.14162E-04
        -0.46104E-05
        -0.20852E-05
        -0.60974E-04
        -0.99496E-06
        -0.70150E-05
        -0.12717E-04
        -0.29719E-04
        -0.12365E-04
        -0.12221E-04
        -0.92738E-05
        -0.22516E-03
        -0.68327E-04
        -0.89946E-04
        -0.86608E-04
        -0.25056E-05
        -0.20535E-04
        -0.27438E-03
        -0.29027E-03
        -0.27676E-03
        -0.14458E-03
        -0.85664E-04
        -0.29310E-04
        -0.34278E-04
        -0.47874E-04
        -0.81090E-06
        -0.11943E-05
        -0.12692E-03
        -0.98160E-04
        -0.39219E-02
        -0.39842E-02
        -0.32127E-02
        -0.21864E-02
        -0.12158E-02
        -0.25790E-03
        -0.15990E-04
        -0.16752E-03
        -0.28902E-03
        -0.97287E-03
        -0.30724E-02
        -0.42787E-02
        -0.30075E-02
        -0.27225E-02
        -0.33069E-02
        -0.35086E-02
        -0.29224E-02
        -0.26149E-02
        -0.67755E-03
        -0.45907E-04
        -0.22350E-03
        -0.22971E-03
        -0.72511E-03
        -0.21748E-02
        -0.35648E-02
        -0.35431E-02
        -0.13116E-04
        -0.55869E-06
        -0.20028E-05
        -0.16858E-04
        -0.70235E-04
        -0.51312E-04
        -0.45481E-05
        -0.20555E-04
        -0.44331E-05
        -0.18765E-04
        -0.67938E-06
        -0.10399E-04
        -0.11131E-03
        -0.64261E-04
        -0.69753E-04
        -0.50379E-04
        -0.15723E-04
        -0.54720E-05
        -0.25131E-05
        -0.76915E-05
        -0.27352E-03
        -0.24840E-03
        -0.24197E-03
        -0.14163E-04
        -0.46367E-05
        -0.20945E-05
        -0.61003E-04
        -0.95812E-06
        -0.71129E-05
        -0.12732E-04
        -0.29815E-04
        -0.12368E-04
        -0.12118E-04
        -0.92821E-05
        -0.22538E-03
        -0.68266E-04
        -0.89888E-04
        -0.86884E-04
        -0.25527E-05
        -0.20664E-04
        -0.27474E-03
        -0.29064E-03
        -0.27684E-03
        -0.14455E-03
        -0.85597E-04
        -0.29279E-04
        -0.34268E-04
        -0.47907E-04
        -0.79860E-06
        -0.11859E-05
        -0.12676E-03
        -0.97868E-04
        -0.39192E-02
        -0.39822E-02
        -0.32122E-02
        -0.21864E-02
        -0.12150E-02
        -0.25774E-03
        -0.16027E-04
        -0.16773E-03
        -0.28853E-03
        -0.97209E-03
        -0.30714E-02
        -0.42789E-02
        -0.30071E-02
        -0.27223E-02
        -0.33078E-02
        -0.35104E-02
        -0.29235E-02
        -0.26159E-02
        -0.67718E-03
        -0.45949E-04
        -0.22317E-03
        -0.22953E-03
        -0.72404E-03
        -0.21722E-02
        -0.35613E-02
        -0.35399E-02
        -0.13165E-04
        -0.56287E-06
        -0.20102E-05
        -0.16880E-04
        -0.70100E-04
        -0.51217E-04
        -0.46054E-05
        -0.20448E-04
        -0.44400E-05
        -0.18722E-04
        -0.65049E-06
        -0.10449E-04
        -0.11145E-03
        -0.63943E-04
        -0.69677E-04
        -0.50504E-04
        -0.15799E-04
        -0.54410E-05
        -0.25103E-05
        -0.76638E-05
        -0.27351E-03
        -0.24837E-03
        -0.24199E-03
        -0.14165E-04
        -0.46672E-05
        -0.21051E-05
        -0.61028E-04
        -0.92311E-06
        -0.72110E-05
        -0.12746E-04
        -0.29917E-04
        -0.12374E-04
        -0.12014E-04
        -0.92904E-05
        -0.22561E-03
        -0.68204E-04
        -0.89832E-04
        -0.87159E-04
        -0.26001E-05
        -0.20794E-04
        -0.27511E-03
        -0.29103E-03
        -0.27694E-03
        -0.14453E-03
        -0.85528E-04
        -0.29245E-04
        -0.34260E-04
        -0.47943E-04
        -0.78648E-06
        -0.11776E-05
        -0.12660E-03
        -0.97578E-04
        -0.39165E-02
        -0.39801E-02
        -0.32116E-02
        -0.21864E-02
        -0.12143E-02
        -0.25759E-03
        -0.16063E-04
        -0.16793E-03
        -0.28804E-03
        -0.97132E-03
        -0.30704E-02
        -0.42793E-02
        -0.30068E-02
        -0.27221E-02
        -0.33089E-02
        -0.35125E-02
        -0.29248E-02
        -0.26169E-02
        -0.67680E-03
        -0.45991E-04
        -0.22284E-03
        -0.22935E-03
        -0.72298E-03
        -0.21695E-02
        -0.35577E-02
        -0.35368E-02
        -0.13212E-04
        -0.56743E-06
        -0.20168E-05
        -0.16901E-04
        -0.69963E-04
        -0.51122E-04
        -0.46629E-05
        -0.20341E-04
        -0.44466E-05
        -0.18678E-04
        -0.62221E-06
        -0.10500E-04
        -0.11158E-03
        -0.63624E-04
        -0.69601E-04
        -0.50631E-04
        -0.15875E-04
        -0.54100E-05
        -0.25075E-05
        -0.76375E-05
        -0.27350E-03
        -0.24836E-03
        -0.24203E-03
        -0.14167E-04
        -0.46977E-05
        -0.21161E-05
        -0.61051E-04
        -0.88896E-06
        -0.73106E-05
        -0.12763E-04
        -0.30019E-04
        -0.12379E-04
        -0.11910E-04
        -0.92978E-05
        -0.22584E-03
        -0.68149E-04
        -0.89779E-04
        -0.87434E-04
        -0.26481E-05
        -0.20926E-04
        -0.27548E-03
        -0.29143E-03
        -0.27707E-03
        -0.14452E-03
        -0.85466E-04
        -0.29215E-04
        -0.34251E-04
        -0.47977E-04
        -0.77410E-06
        -0.11699E-05
        -0.12645E-03
        -0.97295E-04
        -0.39138E-02
        -0.39781E-02
        -0.32110E-02
        -0.21865E-02
        -0.12135E-02
        -0.25743E-03
        -0.16098E-04
        -0.16814E-03
        -0.28755E-03
        -0.97055E-03
        -0.30695E-02
        -0.42796E-02
        -0.30066E-02
        -0.27219E-02
        -0.33099E-02
        -0.35146E-02
        -0.29261E-02
        -0.26179E-02
        -0.67642E-03
        -0.46028E-04
        -0.22251E-03
        -0.22917E-03
        -0.72192E-03
        -0.21669E-02
        -0.35542E-02
        -0.35336E-02
        -0.13255E-04
        -0.57292E-06
        -0.20220E-05
        -0.16923E-04
        -0.69830E-04
        -0.51030E-04
        -0.47219E-05
        -0.20231E-04
        -0.44536E-05
        -0.18636E-04
        -0.59442E-06
        -0.10551E-04
        -0.11172E-03
        -0.63306E-04
        -0.69524E-04
        -0.50759E-04
        -0.15949E-04
        -0.53789E-05
        -0.25052E-05
        -0.76116E-05
        -0.27349E-03
        -0.24834E-03
        -0.24207E-03
        -0.14171E-04
        -0.47248E-05
        -0.21257E-05
        -0.61077E-04
        -0.85469E-06
        -0.74117E-05
        -0.12782E-04
        -0.30115E-04
        -0.12380E-04
        -0.11804E-04
        -0.93031E-05
        -0.22608E-03
        -0.68099E-04
        -0.89730E-04
        -0.87709E-04
        -0.26968E-05
        -0.21060E-04
        -0.27586E-03
        -0.29183E-03
        -0.27720E-03
        -0.14451E-03
        -0.85410E-04
        -0.29189E-04
        -0.34235E-04
        -0.48009E-04
        -0.76078E-06
        -0.11641E-05
        -0.12631E-03
        -0.97013E-04
        -0.39111E-02
        -0.39761E-02
        -0.32104E-02
        -0.21865E-02
        -0.12128E-02
        -0.25727E-03
        -0.16134E-04
        -0.16835E-03
        -0.28707E-03
        -0.96978E-03
        -0.30684E-02
        -0.42800E-02
        -0.30064E-02
        -0.27217E-02
        -0.33110E-02
        -0.35168E-02
        -0.29275E-02
        -0.26188E-02
        -0.67603E-03
        -0.46059E-04
        -0.22217E-03
        -0.22899E-03
        -0.72089E-03
        -0.21642E-02
        -0.35507E-02
        -0.35305E-02
        -0.13297E-04
        -0.57872E-06
        -0.20264E-05
        -0.16943E-04
        -0.69701E-04
        -0.50935E-04
        -0.47820E-05
        -0.20121E-04
        -0.44608E-05
        -0.18597E-04
        -0.56721E-06
        -0.10602E-04
        -0.11186E-03
        -0.62989E-04
        -0.69447E-04
        -0.50886E-04
        -0.16021E-04
        -0.53476E-05
        -0.25026E-05
        -0.75875E-05
        -0.27349E-03
        -0.24833E-03
        -0.24211E-03
        -0.14174E-04
        -0.47501E-05
        -0.21348E-05
        -0.61104E-04
        -0.82089E-06
        -0.75150E-05
        -0.12802E-04
        -0.30209E-04
        -0.12379E-04
        -0.11698E-04
        -0.93075E-05
        -0.22632E-03
        -0.68055E-04
        -0.89688E-04
        -0.87983E-04
        -0.27459E-05
        -0.21194E-04
        -0.27624E-03
        -0.29225E-03
        -0.27734E-03
        -0.14451E-03
        -0.85359E-04
        -0.29167E-04
        -0.34217E-04
        -0.48039E-04
        -0.74716E-06
        -0.11590E-05
        -0.12618E-03
        -0.96738E-04
        -0.39084E-02
        -0.39740E-02
        -0.32098E-02
        -0.21865E-02
        -0.12120E-02
        -0.25712E-03
        -0.16169E-04
        -0.16855E-03
        -0.28659E-03
        -0.96901E-03
        -0.30674E-02
        -0.42803E-02
        -0.30061E-02
        -0.27216E-02
        -0.33121E-02
        -0.35189E-02
        -0.29288E-02
        -0.26197E-02
        -0.67563E-03
        -0.46088E-04
        -0.22182E-03
        -0.22882E-03
        -0.71986E-03
        -0.21616E-02
        -0.35471E-02
        -0.35273E-02
        -0.13339E-04
        -0.58462E-06
        -0.20306E-05
        -0.16963E-04
        -0.69569E-04
        -0.50841E-04
        -0.48421E-05
        -0.20011E-04
        -0.44682E-05
        -0.18557E-04
        -0.54072E-06
        -0.10653E-04
        -0.11200E-03
        -0.62674E-04
        -0.69369E-04
        -0.51013E-04
        -0.16094E-04
        -0.53167E-05
        -0.24999E-05
        -0.75624E-05
        -0.27348E-03
        -0.24831E-03
        -0.24216E-03
        -0.14177E-04
        -0.47755E-05
        -0.21439E-05
        -0.61132E-04
        -0.78783E-06
        -0.76188E-05
        -0.12822E-04
        -0.30303E-04
        -0.12377E-04
        -0.11592E-04
        -0.93120E-05
        -0.22657E-03
        -0.68006E-04
        -0.89645E-04
        -0.88257E-04
        -0.27957E-05
        -0.21328E-04
        -0.27663E-03
        -0.29266E-03
        -0.27747E-03
        -0.14451E-03
        -0.85311E-04
        -0.29146E-04
        -0.34200E-04
        -0.48069E-04
        -0.73364E-06
        -0.11541E-05
        -0.12605E-03
        -0.96458E-04
        -0.39057E-02
        -0.39720E-02
        -0.32092E-02
        -0.21865E-02
        -0.12113E-02
        -0.25696E-03
        -0.16205E-04
        -0.16876E-03
        -0.28610E-03
        -0.96825E-03
        -0.30664E-02
        -0.42807E-02
        -0.30059E-02
        -0.27214E-02
        -0.33131E-02
        -0.35211E-02
        -0.29301E-02
        -0.26206E-02
        -0.67523E-03
        -0.46118E-04
        -0.22147E-03
        -0.22864E-03
        -0.71883E-03
        -0.21590E-02
        -0.35436E-02
        -0.35242E-02
        -0.13380E-04
        -0.59062E-06
        -0.20350E-05
        -0.16984E-04
        -0.69438E-04
        -0.50746E-04
        -0.49029E-05
        -0.19901E-04
        -0.44756E-05
        -0.18518E-04
        -0.51486E-06
        -0.10704E-04
        -0.11214E-03
        -0.62361E-04
        -0.69292E-04
        -0.51139E-04
        -0.16166E-04
        -0.52861E-05
        -0.24971E-05
        -0.75381E-05
        -0.27347E-03
        -0.24830E-03
        -0.24219E-03
        -0.14181E-04
        -0.48009E-05
        -0.21529E-05
        -0.61160E-04
        -0.75563E-06
        -0.77229E-05
        -0.12842E-04
        -0.30397E-04
        -0.12375E-04
        -0.11486E-04
        -0.93167E-05
        -0.22681E-03
        -0.67963E-04
        -0.89603E-04
        -0.88531E-04
        -0.28459E-05
        -0.21464E-04
        -0.27701E-03
        -0.29307E-03
        -0.27760E-03
        -0.14451E-03
        -0.85260E-04
        -0.29122E-04
        -0.34182E-04
        -0.48100E-04
        -0.72036E-06
        -0.11489E-05
        -0.12591E-03
        -0.96180E-04
        -0.39030E-02
        -0.39700E-02
        -0.32085E-02
        -0.21865E-02
        -0.12105E-02
        -0.25680E-03
        -0.16240E-04
        -0.16896E-03
        -0.28562E-03
        -0.96748E-03
        -0.30654E-02
        -0.42810E-02
        -0.30056E-02
        -0.27212E-02
        -0.33142E-02
        -0.35233E-02
        -0.29315E-02
        -0.26216E-02
        -0.67484E-03
        -0.46147E-04
        -0.22112E-03
        -0.22846E-03
        -0.71781E-03
        -0.21564E-02
        -0.35402E-02
        -0.35210E-02
        -0.13422E-04
        -0.59659E-06
        -0.20395E-05
        -0.17004E-04
        -0.69311E-04
        -0.50655E-04
        -0.49635E-05
        -0.19791E-04
        -0.44829E-05
        -0.18479E-04
        -0.48959E-06
        -0.10756E-04
        -0.11228E-03
        -0.62048E-04
        -0.69214E-04
        -0.51266E-04
        -0.16239E-04
        -0.52556E-05
        -0.24950E-05
        -0.75128E-05
        -0.27346E-03
        -0.24828E-03
        -0.24224E-03
        -0.14185E-04
        -0.48261E-05
        -0.21619E-05
        -0.61190E-04
        -0.72408E-06
        -0.78276E-05
        -0.12862E-04
        -0.30491E-04
        -0.12373E-04
        -0.11382E-04
        -0.93211E-05
        -0.22706E-03
        -0.67916E-04
        -0.89560E-04
        -0.88806E-04
        -0.28968E-05
        -0.21599E-04
        -0.27739E-03
        -0.29348E-03
        -0.27774E-03
        -0.14451E-03
        -0.85210E-04
        -0.29101E-04
        -0.34164E-04
        -0.48131E-04
        -0.70707E-06
        -0.11438E-05
        -0.12579E-03
        -0.95905E-04
        -0.39003E-02
        -0.39679E-02
        -0.32079E-02
        -0.21865E-02
        -0.12097E-02
        -0.25664E-03
        -0.16275E-04
        -0.16916E-03
        -0.28514E-03
        -0.96670E-03
        -0.30644E-02
        -0.42813E-02
        -0.30054E-02
        -0.27210E-02
        -0.33153E-02
        -0.35254E-02
        -0.29328E-02
        -0.26225E-02
        -0.67445E-03
        -0.46174E-04
        -0.22077E-03
        -0.22828E-03
        -0.71678E-03
        -0.21538E-02
        -0.35367E-02
        -0.35179E-02
        -0.13464E-04
        -0.60257E-06
        -0.20437E-05
        -0.17024E-04
        -0.69180E-04
        -0.50561E-04
        -0.50249E-05
        -0.19682E-04
        -0.44902E-05
        -0.18440E-04
        -0.46503E-06
        -0.10808E-04
        -0.11242E-03
        -0.61738E-04
        -0.69136E-04
        -0.51393E-04
        -0.16311E-04
        -0.52249E-05
        -0.24924E-05
        -0.74886E-05
        -0.27345E-03
        -0.24826E-03
        -0.24228E-03
        -0.14190E-04
        -0.48513E-05
        -0.21712E-05
        -0.61219E-04
        -0.69333E-06
        -0.79321E-05
        -0.12883E-04
        -0.30586E-04
        -0.12372E-04
        -0.11277E-04
        -0.93256E-05
        -0.22732E-03
        -0.67870E-04
        -0.89516E-04
        -0.89080E-04
        -0.29482E-05
        -0.21737E-04
        -0.27777E-03
        -0.29389E-03
        -0.27787E-03
        -0.14451E-03
        -0.85160E-04
        -0.29080E-04
        -0.34146E-04
        -0.48162E-04
        -0.69388E-06
        -0.11390E-05
        -0.12566E-03
        -0.95627E-04
        -0.38976E-02
        -0.39659E-02
        -0.32073E-02
        -0.21865E-02
        -0.12090E-02
        -0.25649E-03
        -0.16310E-04
        -0.16937E-03
        -0.28465E-03
        -0.96593E-03
        -0.30634E-02
        -0.42817E-02
        -0.30051E-02
        -0.27208E-02
        -0.33163E-02
        -0.35276E-02
        -0.29341E-02
        -0.26234E-02
        -0.67406E-03
        -0.46203E-04
        -0.22042E-03
        -0.22811E-03
        -0.71576E-03
        -0.21512E-02
        -0.35332E-02
        -0.35148E-02
        -0.13506E-04
        -0.60865E-06
        -0.20479E-05
        -0.17045E-04
        -0.69050E-04
        -0.50467E-04
        -0.50865E-05
        -0.19573E-04
        -0.44973E-05
        -0.18400E-04
        -0.44117E-06
        -0.10859E-04
        -0.11256E-03
        -0.61427E-04
        -0.69057E-04
        -0.51520E-04
        -0.16384E-04
        -0.51943E-05
        -0.24900E-05
        -0.74637E-05
        -0.27344E-03
        -0.24825E-03
        -0.24232E-03
        -0.14194E-04
        -0.48761E-05
        -0.21802E-05
        -0.61247E-04
        -0.66320E-06
        -0.80381E-05
        -0.12903E-04
        -0.30680E-04
        -0.12370E-04
        -0.11172E-04
        -0.93302E-05
        -0.22756E-03
        -0.67827E-04
        -0.89475E-04
        -0.89353E-04
        -0.30002E-05
        -0.21873E-04
        -0.27817E-03
        -0.29430E-03
        -0.27801E-03
        -0.14451E-03
        -0.85113E-04
        -0.29055E-04
        -0.34128E-04
        -0.48193E-04
        -0.68076E-06
        -0.11339E-05
        -0.12552E-03
        -0.95349E-04
        -0.38949E-02
        -0.39639E-02
        -0.32067E-02
        -0.21865E-02
        -0.12083E-02
        -0.25633E-03
        -0.16345E-04
        -0.16957E-03
        -0.28417E-03
        -0.96516E-03
        -0.30624E-02
        -0.42820E-02
        -0.30049E-02
        -0.27207E-02
        -0.33174E-02
        -0.35297E-02
        -0.29354E-02
        -0.26243E-02
        -0.67366E-03
        -0.46231E-04
        -0.22008E-03
        -0.22793E-03
        -0.71474E-03
        -0.21486E-02
        -0.35297E-02
        -0.35116E-02
        -0.13548E-04
        -0.61466E-06
        -0.20521E-05
        -0.17064E-04
        -0.68923E-04
        -0.50372E-04
        -0.51478E-05
        -0.19465E-04
        -0.45044E-05
        -0.18360E-04
        -0.41797E-06
        -0.10911E-04
        -0.11270E-03
        -0.61118E-04
        -0.68978E-04
        -0.51646E-04
        -0.16457E-04
        -0.51640E-05
        -0.24880E-05
        -0.74396E-05
        -0.27343E-03
        -0.24823E-03
        -0.24237E-03
        -0.14198E-04
        -0.49011E-05
        -0.21893E-05
        -0.61273E-04
        -0.63392E-06
        -0.81447E-05
        -0.12923E-04
        -0.30774E-04
        -0.12368E-04
        -0.11068E-04
        -0.93345E-05
        -0.22781E-03
        -0.67782E-04
        -0.89432E-04
        -0.89625E-04
        -0.30526E-05
        -0.22012E-04
        -0.27855E-03
        -0.29470E-03
        -0.27814E-03
        -0.14451E-03
        -0.85062E-04
        -0.29034E-04
        -0.34110E-04
        -0.48223E-04
        -0.66781E-06
        -0.11289E-05
        -0.12539E-03
        -0.95076E-04
        -0.38922E-02
        -0.39619E-02
        -0.32061E-02
        -0.21865E-02
        -0.12075E-02
        -0.25617E-03
        -0.16380E-04
        -0.16976E-03
        -0.28369E-03
        -0.96439E-03
        -0.30614E-02
        -0.42824E-02
        -0.30047E-02
        -0.27205E-02
        -0.33185E-02
        -0.35319E-02
        -0.29368E-02
        -0.26252E-02
        -0.67327E-03
        -0.46257E-04
        -0.21973E-03
        -0.22776E-03
        -0.71372E-03
        -0.21459E-02
        -0.35262E-02
        -0.35085E-02
        -0.13590E-04
        -0.62066E-06
        -0.20563E-05
        -0.17085E-04
        -0.68793E-04
        -0.50279E-04
        -0.52100E-05
        -0.19356E-04
        -0.45116E-05
        -0.18321E-04
        -0.39541E-06
        -0.10964E-04
        -0.11284E-03
        -0.60810E-04
        -0.68898E-04
        -0.51773E-04
        -0.16530E-04
        -0.51338E-05
        -0.24854E-05
        -0.74147E-05
        -0.27343E-03
        -0.24822E-03
        -0.24240E-03
        -0.14202E-04
        -0.49260E-05
        -0.21984E-05
        -0.61300E-04
        -0.60530E-06
        -0.82518E-05
        -0.12942E-04
        -0.30868E-04
        -0.12366E-04
        -0.10964E-04
        -0.93389E-05
        -0.22805E-03
        -0.67739E-04
        -0.89391E-04
        -0.89895E-04
        -0.31055E-05
        -0.22150E-04
        -0.27893E-03
        -0.29511E-03
        -0.27827E-03
        -0.14451E-03
        -0.85011E-04
        -0.29013E-04
        -0.34092E-04
        -0.48254E-04
        -0.65478E-06
        -0.11240E-05
        -0.12526E-03
        -0.94798E-04
        -0.38895E-02
        -0.39599E-02
        -0.32055E-02
        -0.21865E-02
        -0.12068E-02
        -0.25601E-03
        -0.16415E-04
        -0.16996E-03
        -0.28321E-03
        -0.96362E-03
        -0.30604E-02
        -0.42827E-02
        -0.30044E-02
        -0.27203E-02
        -0.33196E-02
        -0.35341E-02
        -0.29381E-02
        -0.26261E-02
        -0.67288E-03
        -0.46284E-04
        -0.21938E-03
        -0.22759E-03
        -0.71270E-03
        -0.21433E-02
        -0.35227E-02
        -0.35054E-02
        -0.13632E-04
        -0.62685E-06
        -0.20606E-05
        -0.17104E-04
        -0.68664E-04
        -0.50188E-04
        -0.52721E-05
        -0.19248E-04
        -0.45188E-05
        -0.18282E-04
        -0.37346E-06
        -0.11016E-04
        -0.11298E-03
        -0.60503E-04
        -0.68818E-04
        -0.51901E-04
        -0.16603E-04
        -0.51040E-05
        -0.24830E-05
        -0.73906E-05
        -0.27342E-03
        -0.24820E-03
        -0.24245E-03
        -0.14206E-04
        -0.49505E-05
        -0.22075E-05
        -0.61328E-04
        -0.57736E-06
        -0.83595E-05
        -0.12962E-04
        -0.30963E-04
        -0.12364E-04
        -0.10862E-04
        -0.93435E-05
        -0.22831E-03
        -0.67694E-04
        -0.89349E-04
        -0.90166E-04
        -0.31592E-05
        -0.22288E-04
        -0.27931E-03
        -0.29552E-03
        -0.27840E-03
        -0.14450E-03
        -0.84964E-04
        -0.28989E-04
        -0.34074E-04
        -0.48284E-04
        -0.64201E-06
        -0.11189E-05
        -0.12513E-03
        -0.94521E-04
        -0.38868E-02
        -0.39579E-02
        -0.32048E-02
        -0.21865E-02
        -0.12060E-02
        -0.25585E-03
        -0.16449E-04
        -0.17015E-03
        -0.28273E-03
        -0.96285E-03
        -0.30595E-02
        -0.42831E-02
        -0.30042E-02
        -0.27201E-02
        -0.33206E-02
        -0.35362E-02
        -0.29395E-02
        -0.26270E-02
        -0.67248E-03
        -0.46311E-04
        -0.21903E-03
        -0.22741E-03
        -0.71168E-03
        -0.21407E-02
        -0.35192E-02
        -0.35022E-02
        -0.13675E-04
        -0.63296E-06
        -0.20649E-05
        -0.17124E-04
        -0.68538E-04
        -0.50094E-04
        -0.53349E-05
        -0.19140E-04
        -0.45257E-05
        -0.18241E-04
        -0.35216E-06
        -0.11068E-04
        -0.11313E-03
        -0.60196E-04
        -0.68736E-04
        -0.52028E-04
        -0.16676E-04
        -0.50742E-05
        -0.24807E-05
        -0.73658E-05
        -0.27341E-03
        -0.24818E-03
        -0.24249E-03
        -0.14211E-04
        -0.49745E-05
        -0.22166E-05
        -0.61352E-04
        -0.54984E-06
        -0.84669E-05
        -0.12981E-04
        -0.31058E-04
        -0.12363E-04
        -0.10759E-04
        -0.93484E-05
        -0.22856E-03
        -0.67648E-04
        -0.89305E-04
        -0.90435E-04
        -0.32139E-05
        -0.22428E-04
        -0.27968E-03
        -0.29592E-03
        -0.27853E-03
        -0.14451E-03
        -0.84913E-04
        -0.28967E-04
        -0.34057E-04
        -0.48316E-04
        -0.62942E-06
        -0.11138E-05
        -0.12500E-03
        -0.94249E-04
        -0.38841E-02
        -0.39559E-02
        -0.32042E-02
        -0.21865E-02
        -0.12053E-02
        -0.25570E-03
        -0.16482E-04
        -0.17035E-03
        -0.28225E-03
        -0.96207E-03
        -0.30585E-02
        -0.42835E-02
        -0.30040E-02
        -0.27199E-02
        -0.33217E-02
        -0.35383E-02
        -0.29408E-02
        -0.26279E-02
        -0.67208E-03
        -0.46338E-04
        -0.21869E-03
        -0.22724E-03
        -0.71066E-03
        -0.21381E-02
        -0.35158E-02
        -0.34991E-02
        -0.13717E-04
        -0.63909E-06
        -0.20690E-05
        -0.17144E-04
        -0.68409E-04
        -0.50001E-04
        -0.53976E-05
        -0.19033E-04
        -0.45319E-05
        -0.18195E-04
        -0.33151E-06
        -0.11121E-04
        -0.11327E-03
        -0.59889E-04
        -0.68653E-04
        -0.52156E-04
        -0.16749E-04
        -0.50443E-05
        -0.24790E-05
        -0.73422E-05
        -0.27340E-03
        -0.24817E-03
        -0.24254E-03
        -0.14215E-04
        -0.49971E-05
        -0.22260E-05
        -0.61366E-04
        -0.52232E-06
        -0.85757E-05
        -0.13002E-04
        -0.31153E-04
        -0.12360E-04
        -0.10657E-04
        -0.93530E-05
        -0.22880E-03
        -0.67607E-04
        -0.89265E-04
        -0.90699E-04
        -0.32706E-05
        -0.22566E-04
        -0.28003E-03
        -0.29629E-03
        -0.27864E-03
        -0.14451E-03
        -0.84863E-04
        -0.28944E-04
        -0.34039E-04
        -0.48347E-04
        -0.61698E-06
        -0.11088E-05
        -0.12487E-03
        -0.93973E-04
        -0.38814E-02
        -0.39539E-02
        -0.32036E-02
        -0.21865E-02
        -0.12045E-02
        -0.25554E-03
        -0.16516E-04
        -0.17055E-03
        -0.28178E-03
        -0.96128E-03
        -0.30574E-02
        -0.42842E-02
        -0.30039E-02
        -0.27198E-02
        -0.33227E-02
        -0.35405E-02
        -0.29421E-02
        -0.26288E-02
        -0.67170E-03
        -0.46365E-04
        -0.21834E-03
        -0.22706E-03
        -0.70964E-03
        -0.21355E-02
        -0.35123E-02
        -0.34960E-02
        -0.13760E-04
        -0.64522E-06
        -0.20732E-05
        -0.17164E-04
        -0.68280E-04
        -0.49907E-04
        -0.54610E-05
        -0.18925E-04
        -0.45375E-05
        -0.18146E-04
        -0.31154E-06
        -0.11174E-04
        -0.11341E-03
        -0.59580E-04
        -0.68568E-04
        -0.52283E-04
        -0.16821E-04
        -0.50146E-05
        -0.24767E-05
        -0.73178E-05
        -0.27339E-03
        -0.24814E-03
        -0.24258E-03
        -0.14219E-04
        -0.50179E-05
        -0.22351E-05
        -0.61371E-04
        -0.49471E-06
        -0.86851E-05
        -0.13022E-04
        -0.31248E-04
        -0.12358E-04
        -0.10555E-04
        -0.93576E-05
        -0.22906E-03
        -0.67562E-04
        -0.89224E-04
        -0.90957E-04
        -0.33293E-05
        -0.22705E-04
        -0.28035E-03
        -0.29663E-03
        -0.27874E-03
        -0.14451E-03
        -0.84816E-04
        -0.28923E-04
        -0.34021E-04
        -0.48378E-04
        -0.60452E-06
        -0.11039E-05
        -0.12474E-03
        -0.93695E-04
        -0.38787E-02
        -0.39519E-02
        -0.32030E-02
        -0.21865E-02
        -0.12038E-02
        -0.25539E-03
        -0.16549E-04
        -0.17074E-03
        -0.28131E-03
        -0.96046E-03
        -0.30564E-02
        -0.42850E-02
        -0.30039E-02
        -0.27196E-02
        -0.33238E-02
        -0.35426E-02
        -0.29435E-02
        -0.26296E-02
        -0.67130E-03
        -0.46392E-04
        -0.21800E-03
        -0.22688E-03
        -0.70862E-03
        -0.21329E-02
        -0.35088E-02
        -0.34929E-02
        -0.13802E-04
        -0.65143E-06
        -0.20775E-05
        -0.17184E-04
        -0.68154E-04
        -0.49817E-04
        -0.55240E-05
        -0.18819E-04
        -0.45428E-05
        -0.18095E-04
        -0.29232E-06
        -0.11226E-04
        -0.11355E-03
        -0.59273E-04
        -0.68483E-04
        -0.52410E-04
        -0.16894E-04
        -0.49852E-05
        -0.24744E-05
        -0.72942E-05
        -0.27338E-03
        -0.24812E-03
        -0.24262E-03
        -0.14224E-04
        -0.50381E-05
        -0.22442E-05
        -0.61374E-04
        -0.46776E-06
        -0.87943E-05
        -0.13042E-04
        -0.31344E-04
        -0.12356E-04
        -0.10455E-04
        -0.93625E-05
        -0.22932E-03
        -0.67521E-04
        -0.89181E-04
        -0.91212E-04
        -0.33892E-05
        -0.22841E-04
        -0.28065E-03
        -0.29695E-03
        -0.27883E-03
        -0.14451E-03
        -0.84764E-04
        -0.28902E-04
        -0.34005E-04
        -0.48412E-04
        -0.59233E-06
        -0.10988E-05
        -0.12461E-03
        -0.93425E-04
        -0.38760E-02
        -0.39499E-02
        -0.32024E-02
        -0.21865E-02
        -0.12030E-02
        -0.25522E-03
        -0.16582E-04
        -0.17093E-03
        -0.28085E-03
        -0.95962E-03
        -0.30553E-02
        -0.42860E-02
        -0.30040E-02
        -0.27195E-02
        -0.33248E-02
        -0.35448E-02
        -0.29448E-02
        -0.26305E-02
        -0.67091E-03
        -0.46421E-04
        -0.21766E-03
        -0.22671E-03
        -0.70761E-03
        -0.21304E-02
        -0.35054E-02
        -0.34898E-02
        -0.13970E-04
        -0.66241E-06
        -0.21013E-05
        -0.17357E-04
        -0.68644E-04
        -0.50179E-04
        -0.56318E-05
        -0.18900E-04
        -0.45884E-05
        -0.18223E-04
        -0.27872E-06
        -0.11372E-04
        -0.11471E-03
        -0.59559E-04
        -0.69078E-04
        -0.52999E-04
        -0.17118E-04
        -0.50024E-05
        -0.24934E-05
        -0.73345E-05
        -0.27578E-03
        -0.25033E-03
        -0.24476E-03
        -0.14355E-04
        -0.51035E-05
        -0.22725E-05
        -0.61977E-04
        -0.44748E-06
        -0.89793E-05
        -0.13181E-04
        -0.31717E-04
        -0.12464E-04
        -0.10456E-04
        -0.94534E-05
        -0.23167E-03
        -0.68096E-04
        -0.89948E-04
        -0.92347E-04
        -0.34773E-05
        -0.23184E-04
        -0.28362E-03
        -0.30007E-03
        -0.28150E-03
        -0.14576E-03
        -0.85467E-04
        -0.29137E-04
        -0.34301E-04
        -0.48891E-04
        -0.58691E-06
        -0.11036E-05
        -0.12563E-03
        -0.94015E-04
        -0.39142E-02
        -0.39887E-02
        -0.32353E-02
        -0.22090E-02
        -0.12149E-02
        -0.25775E-03
        -0.16806E-04
        -0.17294E-03
        -0.28349E-03
        -0.96951E-03
        -0.30880E-02
        -0.43320E-02
        -0.30336E-02
        -0.27453E-02
        -0.33572E-02
        -0.35801E-02
        -0.29738E-02
        -0.26575E-02
        -0.67757E-03
        -0.46960E-04
        -0.21958E-03
        -0.22877E-03
        -0.71381E-03
        -0.21494E-02
        -0.35369E-02
        -0.35212E-02
        -0.31445E-04
        -0.15121E-05
        -0.47131E-05
        -0.39163E-04
        -0.14332E-03
        -0.10668E-03
        -0.12799E-04
        -0.42053E-04
        -0.10260E-04
        -0.40410E-04
        -0.59223E-06
        -0.23011E-04
        -0.23868E-03
        -0.12886E-03
        -0.14118E-03
        -0.11942E-03
        -0.38406E-04
        -0.11237E-04
        -0.54697E-05
        -0.16173E-04
        -0.57214E-03
        -0.53296E-03
        -0.51032E-03
        -0.31977E-04
        -0.11549E-04
        -0.51511E-05
        -0.13648E-03
        -0.97808E-06
        -0.20588E-04
        -0.29765E-04
        -0.71546E-04
        -0.27959E-04
        -0.23484E-04
        -0.21348E-04
        -0.46699E-03
        -0.14477E-03
        -0.19141E-03
        -0.19761E-03
        -0.77004E-05
        -0.51414E-04
        -0.61073E-03
        -0.65512E-03
        -0.61306E-03
        -0.30818E-03
        -0.17959E-03
        -0.57880E-04
        -0.71629E-04
        -0.10477E-03
        -0.12526E-05
        -0.23599E-05
        -0.25649E-03
        -0.19874E-03
        -0.62648E-02
        -0.63580E-02
        -0.51653E-02
        -0.35444E-02
        -0.19476E-02
        -0.41561E-03
        -0.27819E-04
        -0.29037E-03
        -0.47362E-03
        -0.16027E-02
        -0.51148E-02
        -0.71386E-02
        -0.50955E-02
        -0.46339E-02
        -0.55237E-02
        -0.57594E-02
        -0.47559E-02
        -0.42118E-02
        -0.10738E-02
        -0.74735E-04
        -0.35544E-03
        -0.37331E-03
        -0.11572E-02
        -0.35085E-02
        -0.57365E-02
        -0.56698E-02
  
SCALARS                      strain_yy  double 1
LOOKUP_TABLE default
         0.43553E-04
         0.45262E-05
         0.31801E-04
         0.90200E-05
        -0.29021E-19
        -0.22047E-20
        -0.44573E-19
        -0.25931E-19
         0.42843E-03
         0.18932E-03
        -0.98717E-19
        -0.76513E-19
         0.30069E-03
         0.77469E-06
        -0.50560E-19
        -0.20783E-21
         0.43137E-04
         0.49457E-03
        -0.10944E-22
        -0.11457E-20
         0.12353E-03
         0.16484E-02
         0.19589E-02
        -0.26568E-18
        -0.79238E-18
        -0.55362E-18
         0.16050E-04
         0.15506E-02
        -0.13747E-18
        -0.51737E-18
         0.56154E-04
         0.39324E-04
         0.33222E-04
        -0.36946E-19
        -0.38501E-19
        -0.16595E-22
         0.47329E-03
         0.39496E-03
        -0.12511E-18
        -0.75733E-19
         0.43870E-03
         0.16351E-03
        -0.71455E-19
        -0.59676E-19
         0.38634E-03
         0.47300E-04
        -0.78629E-22
        -0.18812E-19
         0.26692E-03
        -0.41702E-20
         0.33133E-05
        -0.27356E-22
         0.83334E-06
        -0.62397E-19
         0.35572E-04
        -0.21115E-19
         0.37860E-03
         0.13187E-04
        -0.15540E-22
        -0.64018E-22
         0.82448E-04
         0.10642E-02
        -0.28849E-20
        -0.40363E-19
         0.30645E-04
        -0.11754E-19
         0.54454E-03
        -0.17444E-19
         0.32537E-03
         0.90337E-04
        -0.26642E-21
        -0.46445E-19
         0.10790E-02
        -0.22395E-18
         0.24166E-02
        -0.20995E-18
         0.24209E-02
        -0.12098E-18
         0.16568E-02
        -0.84996E-19
         0.37313E-02
         0.23006E-02
        -0.34978E-19
        -0.17194E-20
         0.49220E-04
        -0.21528E-22
         0.94210E-03
        -0.84481E-19
         0.50707E-02
        -0.25891E-18
         0.96018E-02
         0.36250E-02
        -0.56955E-18
        -0.37314E-18
         0.18313E-02
        -0.22485E-18
         0.14966E-02
        -0.23534E-18
         0.13983E-02
        -0.27207E-18
         0.38545E-02
         0.26983E-02
        -0.23529E-18
        -0.54019E-19
         0.16088E-02
         0.23927E-03
        -0.29090E-19
        -0.44922E-19
         0.96590E-02
        -0.32195E-18
         0.20668E-01
        -0.68885E-18
         0.29697E-01
        -0.10507E-17
         0.37102E-01
        -0.10338E-17
         0.46662E-01
        -0.64740E-18
         0.45890E-01
        -0.38772E-18
         0.40431E-01
        -0.33540E-18
         0.32073E-01
        -0.30361E-18
         0.18217E-01
        -0.12400E-18
         0.93536E-02
        -0.13517E-19
         0.26609E-02
        -0.56435E-20
         0.14741E-04
        -0.12750E-19
         0.27696E-02
        -0.34012E-20
         0.92991E-02
        -0.31106E-19
         0.22240E-01
        -0.24783E-18
         0.25352E-01
        -0.60431E-18
         0.28099E-01
        -0.10386E-17
         0.44680E-01
        -0.10368E-17
         0.49987E-01
        -0.79011E-18
         0.43599E-01
        -0.75048E-18
         0.27806E-01
        -0.75985E-18
         0.12854E-01
        -0.47514E-18
         0.66293E-02
        -0.16615E-18
         0.35515E-02
        -0.99333E-19
        -0.24671E-04
        -0.65639E-05
        -0.50063E-05
        -0.48598E-06
        -0.52129E-05
        -0.59472E-05
        -0.65329E-07
        -0.15536E-04
        -0.11559E-04
        -0.24732E-04
        -0.66146E-05
        -0.12012E-03
        -0.56464E-04
        -0.75963E-06
        -0.12297E-03
        -0.17339E-05
        -0.13594E-05
        -0.56517E-06
        -0.95300E-06
        -0.54584E-06
        -0.45874E-06
        -0.31266E-06
        -0.35135E-05
        -0.24983E-07
        -0.11531E-04
        -0.25194E-06
        -0.67025E-09
        -0.20505E-06
        -0.29989E-06
        -0.70563E-05
        -0.16511E-05
        -0.19281E-05
        -0.87313E-06
        -0.51552E-07
        -0.13682E-06
        -0.40603E-05
        -0.20509E-04
        -0.95358E-04
        -0.79548E-04
        -0.56253E-04
        -0.49508E-04
        -0.31088E-05
        -0.21091E-05
        -0.15840E-04
        -0.42950E-04
        -0.11300E-03
        -0.49239E-04
        -0.25602E-04
        -0.29122E-04
        -0.32595E-04
        -0.44409E-04
        -0.93965E-05
        -0.31920E-04
        -0.46907E-04
        -0.34330E-03
        -0.65790E-03
        -0.10687E-02
        -0.14954E-02
        -0.14972E-02
        -0.12220E-02
        -0.11077E-02
        -0.98883E-03
        -0.41085E-03
        -0.81137E-04
        -0.15817E-04
        -0.30819E-05
        -0.72666E-05
        -0.11401E-03
        -0.38516E-03
        -0.65221E-03
        -0.93297E-03
        -0.12345E-02
        -0.11038E-02
        -0.98593E-03
        -0.85224E-03
        -0.40887E-03
        -0.14115E-03
        -0.10927E-03
        -0.11247E-03
        -0.44740E-04
        -0.38311E-04
        -0.21554E-05
        -0.64628E-04
        -0.13073E-04
        -0.82202E-05
        -0.10046E-03
        -0.43205E-04
        -0.88870E-04
        -0.24841E-04
        -0.46529E-03
        -0.16331E-03
        -0.33724E-05
        -0.45165E-03
        -0.16175E-04
        -0.14855E-05
        -0.13540E-05
        -0.27507E-04
        -0.10282E-05
        -0.20435E-04
        -0.10301E-04
        -0.34623E-05
        -0.24665E-05
        -0.40299E-04
        -0.24655E-05
        -0.15525E-06
        -0.53650E-06
        -0.13689E-05
        -0.40101E-04
        -0.18787E-04
        -0.13036E-05
        -0.78487E-05
        -0.59173E-05
        -0.13453E-05
        -0.12501E-04
        -0.45570E-04
        -0.26087E-03
        -0.20287E-03
        -0.15756E-03
        -0.85034E-04
        -0.51920E-05
        -0.22028E-04
        -0.34370E-04
        -0.56989E-04
        -0.23781E-03
        -0.80519E-04
        -0.35211E-04
        -0.55620E-04
        -0.77515E-04
        -0.83222E-04
        -0.46851E-06
        -0.12933E-03
        -0.26463E-03
        -0.14331E-02
        -0.23935E-02
        -0.39869E-02
        -0.57411E-02
        -0.55083E-02
        -0.42009E-02
        -0.38581E-02
        -0.37767E-02
        -0.14893E-02
        -0.16178E-03
        -0.25687E-04
        -0.18860E-04
        -0.40455E-05
        -0.29113E-03
        -0.11684E-02
        -0.22631E-02
        -0.38333E-02
        -0.47134E-02
        -0.36346E-02
        -0.32487E-02
        -0.32292E-02
        -0.16009E-02
        -0.43203E-03
        -0.38734E-03
        -0.11261E-03
        -0.44756E-04
        -0.38350E-04
        -0.21871E-05
        -0.64643E-04
        -0.13093E-04
        -0.82409E-05
        -0.10080E-03
        -0.43360E-04
        -0.89535E-04
        -0.24871E-04
        -0.46521E-03
        -0.16339E-03
        -0.33726E-05
        -0.45281E-03
        -0.16177E-04
        -0.15126E-05
        -0.13499E-05
        -0.27544E-04
        -0.10167E-05
        -0.20536E-04
        -0.10321E-04
        -0.34639E-05
        -0.24642E-05
        -0.40666E-04
        -0.24566E-05
        -0.15893E-06
        -0.54252E-06
        -0.13509E-05
        -0.40271E-04
        -0.18794E-04
        -0.12979E-05
        -0.78835E-05
        -0.59367E-05
        -0.13202E-05
        -0.12517E-04
        -0.45566E-04
        -0.26168E-03
        -0.20374E-03
        -0.15792E-03
        -0.85165E-04
        -0.51641E-05
        -0.22073E-04
        -0.34405E-04
        -0.56993E-04
        -0.23781E-03
        -0.80536E-04
        -0.35169E-04
        -0.55471E-04
        -0.77308E-04
        -0.83151E-04
        -0.45443E-06
        -0.12909E-03
        -0.26467E-03
        -0.14337E-02
        -0.23935E-02
        -0.39860E-02
        -0.57372E-02
        -0.55037E-02
        -0.41983E-02
        -0.38565E-02
        -0.37746E-02
        -0.14887E-02
        -0.16193E-03
        -0.25683E-04
        -0.18937E-04
        -0.39799E-05
        -0.29143E-03
        -0.11695E-02
        -0.22642E-02
        -0.38332E-02
        -0.47128E-02
        -0.36341E-02
        -0.32485E-02
        -0.32276E-02
        -0.15987E-02
        -0.43108E-03
        -0.38632E-03
        -0.11275E-03
        -0.44773E-04
        -0.38388E-04
        -0.22195E-05
        -0.64658E-04
        -0.13115E-04
        -0.82615E-05
        -0.10114E-03
        -0.43516E-04
        -0.90199E-04
        -0.24900E-04
        -0.46513E-03
        -0.16347E-03
        -0.33719E-05
        -0.45396E-03
        -0.16179E-04
        -0.15403E-05
        -0.13458E-05
        -0.27582E-04
        -0.10052E-05
        -0.20639E-04
        -0.10340E-04
        -0.34665E-05
        -0.24612E-05
        -0.41029E-04
        -0.24464E-05
        -0.16291E-06
        -0.54895E-06
        -0.13314E-05
        -0.40435E-04
        -0.18799E-04
        -0.12910E-05
        -0.79186E-05
        -0.59557E-05
        -0.12951E-05
        -0.12534E-04
        -0.45560E-04
        -0.26248E-03
        -0.20462E-03
        -0.15829E-03
        -0.85303E-04
        -0.51334E-05
        -0.22116E-04
        -0.34450E-04
        -0.57007E-04
        -0.23782E-03
        -0.80550E-04
        -0.35125E-04
        -0.55324E-04
        -0.77099E-04
        -0.83082E-04
        -0.44062E-06
        -0.12885E-03
        -0.26470E-03
        -0.14342E-02
        -0.23935E-02
        -0.39850E-02
        -0.57333E-02
        -0.54991E-02
        -0.41958E-02
        -0.38549E-02
        -0.37725E-02
        -0.14881E-02
        -0.16209E-03
        -0.25680E-04
        -0.19015E-04
        -0.39144E-05
        -0.29175E-03
        -0.11706E-02
        -0.22653E-02
        -0.38330E-02
        -0.47122E-02
        -0.36336E-02
        -0.32482E-02
        -0.32260E-02
        -0.15964E-02
        -0.43013E-03
        -0.38531E-03
        -0.11289E-03
        -0.44790E-04
        -0.38427E-04
        -0.22522E-05
        -0.64673E-04
        -0.13136E-04
        -0.82834E-05
        -0.10148E-03
        -0.43673E-04
        -0.90857E-04
        -0.24930E-04
        -0.46505E-03
        -0.16356E-03
        -0.33720E-05
        -0.45512E-03
        -0.16182E-04
        -0.15687E-05
        -0.13417E-05
        -0.27623E-04
        -0.99298E-06
        -0.20744E-04
        -0.10358E-04
        -0.34725E-05
        -0.24563E-05
        -0.41382E-04
        -0.24330E-05
        -0.16707E-06
        -0.55753E-06
        -0.13074E-05
        -0.40584E-04
        -0.18802E-04
        -0.12818E-05
        -0.79534E-05
        -0.59751E-05
        -0.12704E-05
        -0.12550E-04
        -0.45554E-04
        -0.26330E-03
        -0.20552E-03
        -0.15869E-03
        -0.85462E-04
        -0.50944E-05
        -0.22151E-04
        -0.34517E-04
        -0.57040E-04
        -0.23785E-03
        -0.80578E-04
        -0.35083E-04
        -0.55177E-04
        -0.76892E-04
        -0.83007E-04
        -0.42705E-06
        -0.12861E-03
        -0.26473E-03
        -0.14347E-02
        -0.23936E-02
        -0.39841E-02
        -0.57294E-02
        -0.54944E-02
        -0.41933E-02
        -0.38533E-02
        -0.37704E-02
        -0.14875E-02
        -0.16228E-03
        -0.25681E-04
        -0.19092E-04
        -0.38490E-05
        -0.29209E-03
        -0.11718E-02
        -0.22665E-02
        -0.38330E-02
        -0.47116E-02
        -0.36331E-02
        -0.32479E-02
        -0.32243E-02
        -0.15941E-02
        -0.42919E-03
        -0.38429E-03
        -0.11303E-03
        -0.44806E-04
        -0.38466E-04
        -0.22849E-05
        -0.64688E-04
        -0.13157E-04
        -0.83038E-05
        -0.10182E-03
        -0.43831E-04
        -0.91509E-04
        -0.24960E-04
        -0.46497E-03
        -0.16364E-03
        -0.33724E-05
        -0.45628E-03
        -0.16185E-04
        -0.15979E-05
        -0.13374E-05
        -0.27665E-04
        -0.98020E-06
        -0.20851E-04
        -0.10373E-04
        -0.34817E-05
        -0.24495E-05
        -0.41723E-04
        -0.24162E-05
        -0.17177E-06
        -0.56811E-06
        -0.12789E-05
        -0.40718E-04
        -0.18802E-04
        -0.12697E-05
        -0.79882E-05
        -0.59945E-05
        -0.12458E-05
        -0.12567E-04
        -0.45550E-04
        -0.26412E-03
        -0.20644E-03
        -0.15911E-03
        -0.85643E-04
        -0.50469E-05
        -0.22177E-04
        -0.34609E-04
        -0.57097E-04
        -0.23791E-03
        -0.80614E-04
        -0.35045E-04
        -0.55033E-04
        -0.76682E-04
        -0.82938E-04
        -0.41362E-06
        -0.12837E-03
        -0.26476E-03
        -0.14352E-02
        -0.23936E-02
        -0.39831E-02
        -0.57255E-02
        -0.54898E-02
        -0.41908E-02
        -0.38517E-02
        -0.37684E-02
        -0.14870E-02
        -0.16251E-03
        -0.25686E-04
        -0.19168E-04
        -0.37840E-05
        -0.29247E-03
        -0.11733E-02
        -0.22679E-02
        -0.38329E-02
        -0.47110E-02
        -0.36326E-02
        -0.32477E-02
        -0.32227E-02
        -0.15918E-02
        -0.42825E-03
        -0.38328E-03
        -0.11316E-03
        -0.44817E-04
        -0.38503E-04
        -0.23183E-05
        -0.64703E-04
        -0.13178E-04
        -0.83221E-05
        -0.10214E-03
        -0.43990E-04
        -0.92146E-04
        -0.24994E-04
        -0.46490E-03
        -0.16373E-03
        -0.33736E-05
        -0.45743E-03
        -0.16189E-04
        -0.16279E-05
        -0.13333E-05
        -0.27708E-04
        -0.96726E-06
        -0.20958E-04
        -0.10388E-04
        -0.34922E-05
        -0.24419E-05
        -0.42057E-04
        -0.23984E-05
        -0.17689E-06
        -0.57993E-06
        -0.12487E-05
        -0.40844E-04
        -0.18800E-04
        -0.12563E-05
        -0.80239E-05
        -0.60148E-05
        -0.12212E-05
        -0.12585E-04
        -0.45549E-04
        -0.26495E-03
        -0.20737E-03
        -0.15954E-03
        -0.85830E-04
        -0.49967E-05
        -0.22200E-04
        -0.34710E-04
        -0.57167E-04
        -0.23798E-03
        -0.80656E-04
        -0.35014E-04
        -0.54896E-04
        -0.76479E-04
        -0.82867E-04
        -0.40041E-06
        -0.12813E-03
        -0.26479E-03
        -0.14358E-02
        -0.23936E-02
        -0.39821E-02
        -0.57216E-02
        -0.54851E-02
        -0.41882E-02
        -0.38501E-02
        -0.37662E-02
        -0.14865E-02
        -0.16275E-03
        -0.25693E-04
        -0.19243E-04
        -0.37196E-05
        -0.29285E-03
        -0.11748E-02
        -0.22693E-02
        -0.38328E-02
        -0.47104E-02
        -0.36321E-02
        -0.32474E-02
        -0.32210E-02
        -0.15896E-02
        -0.42731E-03
        -0.38227E-03
        -0.11329E-03
        -0.44814E-04
        -0.38541E-04
        -0.23528E-05
        -0.64720E-04
        -0.13200E-04
        -0.83364E-05
        -0.10243E-03
        -0.44152E-04
        -0.92757E-04
        -0.25035E-04
        -0.46486E-03
        -0.16384E-03
        -0.33788E-05
        -0.45861E-03
        -0.16194E-04
        -0.16589E-05
        -0.13292E-05
        -0.27751E-04
        -0.95438E-06
        -0.21066E-04
        -0.10403E-04
        -0.35029E-05
        -0.24345E-05
        -0.42385E-04
        -0.23805E-05
        -0.18303E-06
        -0.59264E-06
        -0.12183E-05
        -0.40968E-04
        -0.18797E-04
        -0.12421E-05
        -0.80608E-05
        -0.60361E-05
        -0.11968E-05
        -0.12604E-04
        -0.45551E-04
        -0.26579E-03
        -0.20831E-03
        -0.15997E-03
        -0.86024E-04
        -0.49457E-05
        -0.22222E-04
        -0.34811E-04
        -0.57242E-04
        -0.23808E-03
        -0.80721E-04
        -0.35002E-04
        -0.54781E-04
        -0.76284E-04
        -0.82797E-04
        -0.38725E-06
        -0.12789E-03
        -0.26481E-03
        -0.14363E-02
        -0.23937E-02
        -0.39812E-02
        -0.57177E-02
        -0.54804E-02
        -0.41857E-02
        -0.38485E-02
        -0.37641E-02
        -0.14861E-02
        -0.16299E-03
        -0.25700E-04
        -0.19319E-04
        -0.36557E-05
        -0.29323E-03
        -0.11763E-02
        -0.22707E-02
        -0.38326E-02
        -0.47098E-02
        -0.36317E-02
        -0.32473E-02
        -0.32194E-02
        -0.15873E-02
        -0.42637E-03
        -0.38125E-03
        -0.11340E-03
        -0.44808E-04
        -0.38578E-04
        -0.23881E-05
        -0.64737E-04
        -0.13221E-04
        -0.83476E-05
        -0.10271E-03
        -0.44316E-04
        -0.93356E-04
        -0.25080E-04
        -0.46481E-03
        -0.16394E-03
        -0.33848E-05
        -0.45979E-03
        -0.16200E-04
        -0.16907E-05
        -0.13250E-05
        -0.27794E-04
        -0.94160E-06
        -0.21174E-04
        -0.10419E-04
        -0.35133E-05
        -0.24274E-05
        -0.42710E-04
        -0.23628E-05
        -0.18952E-06
        -0.60581E-06
        -0.11882E-05
        -0.41090E-04
        -0.18793E-04
        -0.12273E-05
        -0.80983E-05
        -0.60583E-05
        -0.11725E-05
        -0.12625E-04
        -0.45558E-04
        -0.26664E-03
        -0.20926E-03
        -0.16042E-03
        -0.86217E-04
        -0.48950E-05
        -0.22244E-04
        -0.34912E-04
        -0.57320E-04
        -0.23819E-03
        -0.80796E-04
        -0.34997E-04
        -0.54676E-04
        -0.76092E-04
        -0.82730E-04
        -0.37432E-06
        -0.12765E-03
        -0.26484E-03
        -0.14368E-02
        -0.23937E-02
        -0.39802E-02
        -0.57138E-02
        -0.54757E-02
        -0.41831E-02
        -0.38469E-02
        -0.37620E-02
        -0.14856E-02
        -0.16323E-03
        -0.25707E-04
        -0.19397E-04
        -0.35922E-05
        -0.29361E-03
        -0.11777E-02
        -0.22720E-02
        -0.38323E-02
        -0.47092E-02
        -0.36314E-02
        -0.32471E-02
        -0.32177E-02
        -0.15850E-02
        -0.42544E-03
        -0.38024E-03
        -0.11352E-03
        -0.44803E-04
        -0.38615E-04
        -0.24236E-05
        -0.64753E-04
        -0.13242E-04
        -0.83590E-05
        -0.10299E-03
        -0.44481E-04
        -0.93955E-04
        -0.25123E-04
        -0.46476E-03
        -0.16405E-03
        -0.33918E-05
        -0.46098E-03
        -0.16207E-04
        -0.17229E-05
        -0.13208E-05
        -0.27836E-04
        -0.92880E-06
        -0.21282E-04
        -0.10435E-04
        -0.35238E-05
        -0.24203E-05
        -0.43037E-04
        -0.23453E-05
        -0.19628E-06
        -0.61898E-06
        -0.11585E-05
        -0.41213E-04
        -0.18789E-04
        -0.12128E-05
        -0.81359E-05
        -0.60803E-05
        -0.11483E-05
        -0.12644E-04
        -0.45564E-04
        -0.26749E-03
        -0.21021E-03
        -0.16085E-03
        -0.86411E-04
        -0.48448E-05
        -0.22266E-04
        -0.35015E-04
        -0.57400E-04
        -0.23830E-03
        -0.80866E-04
        -0.34992E-04
        -0.54573E-04
        -0.75904E-04
        -0.82665E-04
        -0.36155E-06
        -0.12741E-03
        -0.26487E-03
        -0.14373E-02
        -0.23938E-02
        -0.39792E-02
        -0.57099E-02
        -0.54710E-02
        -0.41806E-02
        -0.38453E-02
        -0.37598E-02
        -0.14851E-02
        -0.16347E-03
        -0.25716E-04
        -0.19475E-04
        -0.35295E-05
        -0.29399E-03
        -0.11792E-02
        -0.22734E-02
        -0.38321E-02
        -0.47086E-02
        -0.36311E-02
        -0.32470E-02
        -0.32160E-02
        -0.15827E-02
        -0.42451E-03
        -0.37923E-03
        -0.11363E-03
        -0.44795E-04
        -0.38651E-04
        -0.24591E-05
        -0.64769E-04
        -0.13263E-04
        -0.83702E-05
        -0.10327E-03
        -0.44646E-04
        -0.94555E-04
        -0.25168E-04
        -0.46472E-03
        -0.16417E-03
        -0.33977E-05
        -0.46216E-03
        -0.16213E-04
        -0.17555E-05
        -0.13165E-05
        -0.27879E-04
        -0.91601E-06
        -0.21391E-04
        -0.10450E-04
        -0.35338E-05
        -0.24133E-05
        -0.43364E-04
        -0.23279E-05
        -0.20298E-06
        -0.63216E-06
        -0.11293E-05
        -0.41336E-04
        -0.18784E-04
        -0.11983E-05
        -0.81731E-05
        -0.61024E-05
        -0.11244E-05
        -0.12665E-04
        -0.45571E-04
        -0.26835E-03
        -0.21116E-03
        -0.16129E-03
        -0.86605E-04
        -0.47950E-05
        -0.22288E-04
        -0.35116E-04
        -0.57478E-04
        -0.23840E-03
        -0.80942E-04
        -0.34990E-04
        -0.54468E-04
        -0.75711E-04
        -0.82595E-04
        -0.34905E-06
        -0.12716E-03
        -0.26490E-03
        -0.14378E-02
        -0.23938E-02
        -0.39783E-02
        -0.57060E-02
        -0.54663E-02
        -0.41780E-02
        -0.38437E-02
        -0.37577E-02
        -0.14846E-02
        -0.16370E-03
        -0.25724E-04
        -0.19554E-04
        -0.34675E-05
        -0.29438E-03
        -0.11807E-02
        -0.22748E-02
        -0.38319E-02
        -0.47079E-02
        -0.36307E-02
        -0.32469E-02
        -0.32143E-02
        -0.15805E-02
        -0.42358E-03
        -0.37823E-03
        -0.11375E-03
        -0.44788E-04
        -0.38688E-04
        -0.24949E-05
        -0.64786E-04
        -0.13284E-04
        -0.83827E-05
        -0.10354E-03
        -0.44812E-04
        -0.95156E-04
        -0.25213E-04
        -0.46467E-03
        -0.16428E-03
        -0.34044E-05
        -0.46335E-03
        -0.16219E-04
        -0.17885E-05
        -0.13124E-05
        -0.27921E-04
        -0.90324E-06
        -0.21499E-04
        -0.10465E-04
        -0.35444E-05
        -0.24063E-05
        -0.43691E-04
        -0.23105E-05
        -0.20991E-06
        -0.64527E-06
        -0.11006E-05
        -0.41459E-04
        -0.18780E-04
        -0.11840E-05
        -0.82108E-05
        -0.61245E-05
        -0.11006E-05
        -0.12685E-04
        -0.45578E-04
        -0.26921E-03
        -0.21212E-03
        -0.16172E-03
        -0.86798E-04
        -0.47454E-05
        -0.22309E-04
        -0.35217E-04
        -0.57557E-04
        -0.23851E-03
        -0.81017E-04
        -0.34985E-04
        -0.54364E-04
        -0.75521E-04
        -0.82531E-04
        -0.33673E-06
        -0.12692E-03
        -0.26492E-03
        -0.14382E-02
        -0.23938E-02
        -0.39773E-02
        -0.57021E-02
        -0.54616E-02
        -0.41755E-02
        -0.38421E-02
        -0.37555E-02
        -0.14841E-02
        -0.16394E-03
        -0.25732E-04
        -0.19631E-04
        -0.34057E-05
        -0.29476E-03
        -0.11822E-02
        -0.22761E-02
        -0.38317E-02
        -0.47073E-02
        -0.36304E-02
        -0.32467E-02
        -0.32125E-02
        -0.15782E-02
        -0.42266E-03
        -0.37722E-03
        -0.11386E-03
        -0.44781E-04
        -0.38725E-04
        -0.25313E-05
        -0.64802E-04
        -0.13305E-04
        -0.83939E-05
        -0.10382E-03
        -0.44978E-04
        -0.95758E-04
        -0.25258E-04
        -0.46462E-03
        -0.16438E-03
        -0.34109E-05
        -0.46453E-03
        -0.16226E-04
        -0.18219E-05
        -0.13081E-05
        -0.27964E-04
        -0.89066E-06
        -0.21609E-04
        -0.10479E-04
        -0.35549E-05
        -0.23995E-05
        -0.44019E-04
        -0.22933E-05
        -0.21680E-06
        -0.65846E-06
        -0.10721E-05
        -0.41581E-04
        -0.18776E-04
        -0.11697E-05
        -0.82483E-05
        -0.61470E-05
        -0.10769E-05
        -0.12706E-04
        -0.45583E-04
        -0.27007E-03
        -0.21308E-03
        -0.16216E-03
        -0.86992E-04
        -0.46965E-05
        -0.22331E-04
        -0.35318E-04
        -0.57636E-04
        -0.23863E-03
        -0.81088E-04
        -0.34984E-04
        -0.54261E-04
        -0.75333E-04
        -0.82464E-04
        -0.32465E-06
        -0.12668E-03
        -0.26495E-03
        -0.14387E-02
        -0.23939E-02
        -0.39764E-02
        -0.56982E-02
        -0.54569E-02
        -0.41729E-02
        -0.38406E-02
        -0.37533E-02
        -0.14836E-02
        -0.16418E-03
        -0.25740E-04
        -0.19709E-04
        -0.33443E-05
        -0.29514E-03
        -0.11837E-02
        -0.22775E-02
        -0.38315E-02
        -0.47067E-02
        -0.36300E-02
        -0.32466E-02
        -0.32108E-02
        -0.15759E-02
        -0.42174E-03
        -0.37622E-03
        -0.11398E-03
        -0.44774E-04
        -0.38762E-04
        -0.25681E-05
        -0.64819E-04
        -0.13326E-04
        -0.84053E-05
        -0.10410E-03
        -0.45145E-04
        -0.96360E-04
        -0.25303E-04
        -0.46457E-03
        -0.16450E-03
        -0.34167E-05
        -0.46573E-03
        -0.16232E-04
        -0.18556E-05
        -0.13037E-05
        -0.28006E-04
        -0.87822E-06
        -0.21718E-04
        -0.10494E-04
        -0.35652E-05
        -0.23926E-05
        -0.44348E-04
        -0.22760E-05
        -0.22401E-06
        -0.67163E-06
        -0.10441E-05
        -0.41704E-04
        -0.18771E-04
        -0.11554E-05
        -0.82856E-05
        -0.61692E-05
        -0.10535E-05
        -0.12727E-04
        -0.45589E-04
        -0.27093E-03
        -0.21404E-03
        -0.16260E-03
        -0.87187E-04
        -0.46474E-05
        -0.22352E-04
        -0.35421E-04
        -0.57717E-04
        -0.23872E-03
        -0.81165E-04
        -0.34980E-04
        -0.54159E-04
        -0.75144E-04
        -0.82394E-04
        -0.31283E-06
        -0.12644E-03
        -0.26497E-03
        -0.14392E-02
        -0.23939E-02
        -0.39754E-02
        -0.56943E-02
        -0.54522E-02
        -0.41704E-02
        -0.38390E-02
        -0.37511E-02
        -0.14831E-02
        -0.16442E-03
        -0.25748E-04
        -0.19787E-04
        -0.32837E-05
        -0.29552E-03
        -0.11852E-02
        -0.22788E-02
        -0.38313E-02
        -0.47061E-02
        -0.36297E-02
        -0.32464E-02
        -0.32091E-02
        -0.15737E-02
        -0.42083E-03
        -0.37521E-03
        -0.11409E-03
        -0.44768E-04
        -0.38799E-04
        -0.26050E-05
        -0.64836E-04
        -0.13347E-04
        -0.84180E-05
        -0.10437E-03
        -0.45312E-04
        -0.96963E-04
        -0.25348E-04
        -0.46453E-03
        -0.16461E-03
        -0.34232E-05
        -0.46692E-03
        -0.16238E-04
        -0.18898E-05
        -0.12995E-05
        -0.28048E-04
        -0.86587E-06
        -0.21828E-04
        -0.10509E-04
        -0.35757E-05
        -0.23858E-05
        -0.44679E-04
        -0.22588E-05
        -0.23113E-06
        -0.68476E-06
        -0.10166E-05
        -0.41826E-04
        -0.18767E-04
        -0.11413E-05
        -0.83233E-05
        -0.61917E-05
        -0.10303E-05
        -0.12747E-04
        -0.45594E-04
        -0.27180E-03
        -0.21501E-03
        -0.16303E-03
        -0.87382E-04
        -0.45987E-05
        -0.22374E-04
        -0.35523E-04
        -0.57796E-04
        -0.23883E-03
        -0.81242E-04
        -0.34976E-04
        -0.54054E-04
        -0.74955E-04
        -0.82330E-04
        -0.30129E-06
        -0.12619E-03
        -0.26500E-03
        -0.14397E-02
        -0.23939E-02
        -0.39744E-02
        -0.56904E-02
        -0.54474E-02
        -0.41678E-02
        -0.38374E-02
        -0.37489E-02
        -0.14826E-02
        -0.16465E-03
        -0.25755E-04
        -0.19866E-04
        -0.32238E-05
        -0.29590E-03
        -0.11867E-02
        -0.22802E-02
        -0.38311E-02
        -0.47055E-02
        -0.36294E-02
        -0.32463E-02
        -0.32074E-02
        -0.15714E-02
        -0.41991E-03
        -0.37421E-03
        -0.11420E-03
        -0.44762E-04
        -0.38836E-04
        -0.26422E-05
        -0.64852E-04
        -0.13368E-04
        -0.84295E-05
        -0.10465E-03
        -0.45480E-04
        -0.97567E-04
        -0.25394E-04
        -0.46448E-03
        -0.16471E-03
        -0.34288E-05
        -0.46812E-03
        -0.16244E-04
        -0.19244E-05
        -0.12953E-05
        -0.28091E-04
        -0.85351E-06
        -0.21938E-04
        -0.10524E-04
        -0.35860E-05
        -0.23792E-05
        -0.45011E-04
        -0.22417E-05
        -0.23850E-06
        -0.69777E-06
        -0.98962E-06
        -0.41949E-04
        -0.18762E-04
        -0.11271E-05
        -0.83610E-05
        -0.62142E-05
        -0.10073E-05
        -0.12768E-04
        -0.45600E-04
        -0.27268E-03
        -0.21598E-03
        -0.16346E-03
        -0.87577E-04
        -0.45503E-05
        -0.22396E-04
        -0.35624E-04
        -0.57876E-04
        -0.23894E-03
        -0.81313E-04
        -0.34974E-04
        -0.53950E-04
        -0.74764E-04
        -0.82264E-04
        -0.28990E-06
        -0.12595E-03
        -0.26502E-03
        -0.14402E-02
        -0.23940E-02
        -0.39735E-02
        -0.56864E-02
        -0.54427E-02
        -0.41652E-02
        -0.38358E-02
        -0.37467E-02
        -0.14822E-02
        -0.16489E-03
        -0.25763E-04
        -0.19945E-04
        -0.31643E-05
        -0.29628E-03
        -0.11883E-02
        -0.22816E-02
        -0.38309E-02
        -0.47049E-02
        -0.36290E-02
        -0.32461E-02
        -0.32057E-02
        -0.15691E-02
        -0.41901E-03
        -0.37321E-03
        -0.11431E-03
        -0.44753E-04
        -0.38872E-04
        -0.26795E-05
        -0.64868E-04
        -0.13389E-04
        -0.84413E-05
        -0.10492E-03
        -0.45649E-04
        -0.98173E-04
        -0.25439E-04
        -0.46444E-03
        -0.16483E-03
        -0.34352E-05
        -0.46931E-03
        -0.16250E-04
        -0.19595E-05
        -0.12910E-05
        -0.28134E-04
        -0.84128E-06
        -0.22049E-04
        -0.10538E-04
        -0.35963E-05
        -0.23726E-05
        -0.45343E-04
        -0.22246E-05
        -0.24578E-06
        -0.71076E-06
        -0.96305E-06
        -0.42073E-04
        -0.18758E-04
        -0.11132E-05
        -0.83986E-05
        -0.62371E-05
        -0.98442E-06
        -0.12788E-04
        -0.45606E-04
        -0.27356E-03
        -0.21694E-03
        -0.16389E-03
        -0.87771E-04
        -0.45022E-05
        -0.22418E-04
        -0.35724E-04
        -0.57957E-04
        -0.23905E-03
        -0.81389E-04
        -0.34970E-04
        -0.53848E-04
        -0.74576E-04
        -0.82196E-04
        -0.27872E-06
        -0.12571E-03
        -0.26504E-03
        -0.14407E-02
        -0.23940E-02
        -0.39725E-02
        -0.56825E-02
        -0.54379E-02
        -0.41626E-02
        -0.38342E-02
        -0.37444E-02
        -0.14817E-02
        -0.16513E-03
        -0.25770E-04
        -0.20023E-04
        -0.31053E-05
        -0.29666E-03
        -0.11898E-02
        -0.22829E-02
        -0.38307E-02
        -0.47042E-02
        -0.36287E-02
        -0.32460E-02
        -0.32040E-02
        -0.15669E-02
        -0.41810E-03
        -0.37221E-03
        -0.11443E-03
        -0.44746E-04
        -0.38909E-04
        -0.27172E-05
        -0.64885E-04
        -0.13410E-04
        -0.84537E-05
        -0.10520E-03
        -0.45819E-04
        -0.98779E-04
        -0.25485E-04
        -0.46439E-03
        -0.16494E-03
        -0.34406E-05
        -0.47051E-03
        -0.16257E-04
        -0.19952E-05
        -0.12867E-05
        -0.28176E-04
        -0.82929E-06
        -0.22159E-04
        -0.10551E-04
        -0.36067E-05
        -0.23660E-05
        -0.45677E-04
        -0.22075E-05
        -0.25338E-06
        -0.72372E-06
        -0.93681E-06
        -0.42193E-04
        -0.18753E-04
        -0.10993E-05
        -0.84362E-05
        -0.62597E-05
        -0.96175E-06
        -0.12808E-04
        -0.45611E-04
        -0.27444E-03
        -0.21791E-03
        -0.16432E-03
        -0.87965E-04
        -0.44548E-05
        -0.22440E-04
        -0.35827E-04
        -0.58037E-04
        -0.23916E-03
        -0.81465E-04
        -0.34968E-04
        -0.53746E-04
        -0.74388E-04
        -0.82130E-04
        -0.26785E-06
        -0.12547E-03
        -0.26506E-03
        -0.14411E-02
        -0.23940E-02
        -0.39716E-02
        -0.56785E-02
        -0.54331E-02
        -0.41601E-02
        -0.38327E-02
        -0.37422E-02
        -0.14812E-02
        -0.16537E-03
        -0.25776E-04
        -0.20100E-04
        -0.30472E-05
        -0.29704E-03
        -0.11913E-02
        -0.22843E-02
        -0.38305E-02
        -0.47036E-02
        -0.36284E-02
        -0.32458E-02
        -0.32022E-02
        -0.15646E-02
        -0.41721E-03
        -0.37121E-03
        -0.11454E-03
        -0.44739E-04
        -0.38946E-04
        -0.27554E-05
        -0.64901E-04
        -0.13431E-04
        -0.84655E-05
        -0.10547E-03
        -0.45990E-04
        -0.99387E-04
        -0.25530E-04
        -0.46435E-03
        -0.16504E-03
        -0.34467E-05
        -0.47170E-03
        -0.16263E-04
        -0.20315E-05
        -0.12824E-05
        -0.28219E-04
        -0.81792E-06
        -0.22269E-04
        -0.10564E-04
        -0.36173E-05
        -0.23594E-05
        -0.46012E-04
        -0.21906E-05
        -0.26101E-06
        -0.73670E-06
        -0.91100E-06
        -0.42306E-04
        -0.18748E-04
        -0.10852E-05
        -0.84737E-05
        -0.62826E-05
        -0.93935E-06
        -0.12830E-04
        -0.45617E-04
        -0.27533E-03
        -0.21889E-03
        -0.16473E-03
        -0.88157E-04
        -0.44071E-05
        -0.22463E-04
        -0.35929E-04
        -0.58118E-04
        -0.23927E-03
        -0.81537E-04
        -0.34965E-04
        -0.53642E-04
        -0.74200E-04
        -0.82067E-04
        -0.25719E-06
        -0.12522E-03
        -0.26508E-03
        -0.14416E-02
        -0.23941E-02
        -0.39706E-02
        -0.56746E-02
        -0.54283E-02
        -0.41575E-02
        -0.38311E-02
        -0.37398E-02
        -0.14808E-02
        -0.16562E-03
        -0.25778E-04
        -0.20178E-04
        -0.29897E-05
        -0.29742E-03
        -0.11928E-02
        -0.22857E-02
        -0.38303E-02
        -0.47030E-02
        -0.36280E-02
        -0.32457E-02
        -0.32005E-02
        -0.15624E-02
        -0.41631E-03
        -0.37021E-03
        -0.11465E-03
        -0.44733E-04
        -0.38983E-04
        -0.27938E-05
        -0.64917E-04
        -0.13451E-04
        -0.84772E-05
        -0.10574E-03
        -0.46163E-04
        -0.99996E-04
        -0.25575E-04
        -0.46430E-03
        -0.16516E-03
        -0.34528E-05
        -0.47291E-03
        -0.16269E-04
        -0.20687E-05
        -0.12780E-05
        -0.28262E-04
        -0.80710E-06
        -0.22380E-04
        -0.10577E-04
        -0.36277E-05
        -0.23529E-05
        -0.46348E-04
        -0.21736E-05
        -0.26910E-06
        -0.74965E-06
        -0.88564E-06
        -0.42412E-04
        -0.18743E-04
        -0.10715E-05
        -0.85112E-05
        -0.63053E-05
        -0.91703E-06
        -0.12850E-04
        -0.45623E-04
        -0.27624E-03
        -0.21985E-03
        -0.16512E-03
        -0.88345E-04
        -0.43597E-05
        -0.22488E-04
        -0.36031E-04
        -0.58201E-04
        -0.23939E-03
        -0.81614E-04
        -0.34961E-04
        -0.53541E-04
        -0.74010E-04
        -0.81998E-04
        -0.24666E-06
        -0.12498E-03
        -0.26510E-03
        -0.14421E-02
        -0.23941E-02
        -0.39696E-02
        -0.56707E-02
        -0.54235E-02
        -0.41550E-02
        -0.38294E-02
        -0.37373E-02
        -0.14804E-02
        -0.16586E-03
        -0.25776E-04
        -0.20256E-04
        -0.29324E-05
        -0.29780E-03
        -0.11943E-02
        -0.22870E-02
        -0.38301E-02
        -0.47024E-02
        -0.36277E-02
        -0.32455E-02
        -0.31987E-02
        -0.15601E-02
        -0.41543E-03
        -0.36922E-03
        -0.11476E-03
        -0.44726E-04
        -0.39022E-04
        -0.28323E-05
        -0.64936E-04
        -0.13472E-04
        -0.84902E-05
        -0.10602E-03
        -0.46338E-04
        -0.10061E-03
        -0.25621E-04
        -0.46426E-03
        -0.16527E-03
        -0.34581E-05
        -0.47411E-03
        -0.16275E-04
        -0.21065E-05
        -0.12737E-05
        -0.28305E-04
        -0.79664E-06
        -0.22492E-04
        -0.10590E-04
        -0.36374E-05
        -0.23469E-05
        -0.46686E-04
        -0.21573E-05
        -0.27709E-06
        -0.76217E-06
        -0.86093E-06
        -0.42517E-04
        -0.18739E-04
        -0.10581E-05
        -0.85490E-05
        -0.63287E-05
        -0.89520E-06
        -0.12870E-04
        -0.45626E-04
        -0.27715E-03
        -0.22081E-03
        -0.16550E-03
        -0.88530E-04
        -0.43135E-05
        -0.22514E-04
        -0.36131E-04
        -0.58278E-04
        -0.23949E-03
        -0.81689E-04
        -0.34958E-04
        -0.53439E-04
        -0.73823E-04
        -0.81935E-04
        -0.23643E-06
        -0.12473E-03
        -0.26513E-03
        -0.14425E-02
        -0.23941E-02
        -0.39687E-02
        -0.56668E-02
        -0.54187E-02
        -0.41524E-02
        -0.38278E-02
        -0.37347E-02
        -0.14801E-02
        -0.16610E-03
        -0.25771E-04
        -0.20333E-04
        -0.28757E-05
        -0.29817E-03
        -0.11958E-02
        -0.22884E-02
        -0.38299E-02
        -0.47018E-02
        -0.36273E-02
        -0.32453E-02
        -0.31970E-02
        -0.15579E-02
        -0.41455E-03
        -0.36823E-03
        -0.11593E-03
        -0.45148E-04
        -0.39435E-04
        -0.28958E-05
        -0.65569E-04
        -0.13616E-04
        -0.85853E-05
        -0.10726E-03
        -0.46928E-04
        -0.10211E-03
        -0.25906E-04
        -0.46860E-03
        -0.16690E-03
        -0.34963E-05
        -0.47985E-03
        -0.16434E-04
        -0.21621E-05
        -0.12810E-05
        -0.28608E-04
        -0.79476E-06
        -0.22800E-04
        -0.10700E-04
        -0.36740E-05
        -0.23656E-05
        -0.47449E-04
        -0.21661E-05
        -0.28721E-06
        -0.77913E-06
        -0.84921E-06
        -0.43032E-04
        -0.18913E-04
        -0.10584E-05
        -0.86636E-05
        -0.64097E-05
        -0.88401E-06
        -0.12998E-04
        -0.46031E-04
        -0.28065E-03
        -0.22384E-03
        -0.16746E-03
        -0.89541E-04
        -0.43191E-05
        -0.22761E-04
        -0.36518E-04
        -0.58845E-04
        -0.24171E-03
        -0.82466E-04
        -0.35250E-04
        -0.53815E-04
        -0.74315E-04
        -0.82629E-04
        -0.22863E-06
        -0.12576E-03
        -0.26796E-03
        -0.14580E-02
        -0.24187E-02
        -0.40094E-02
        -0.57244E-02
        -0.54739E-02
        -0.41958E-02
        -0.38686E-02
        -0.37743E-02
        -0.14960E-02
        -0.16802E-03
        -0.26007E-04
        -0.20599E-04
        -0.28492E-05
        -0.30127E-03
        -0.12084E-02
        -0.23124E-02
        -0.38700E-02
        -0.47507E-02
        -0.36633E-02
        -0.32769E-02
        -0.32272E-02
        -0.15714E-02
        -0.41783E-03
        -0.37094E-03
        -0.26069E-03
        -0.10241E-03
        -0.88444E-04
        -0.66001E-05
        -0.13721E-03
        -0.29043E-04
        -0.19421E-04
        -0.23953E-03
        -0.10517E-03
        -0.22716E-03
        -0.56688E-04
        -0.94763E-03
        -0.34728E-03
        -0.75919E-05
        -0.98241E-03
        -0.37012E-04
        -0.49054E-05
        -0.28786E-05
        -0.62822E-04
        -0.17455E-05
        -0.47475E-04
        -0.22804E-04
        -0.76538E-05
        -0.52691E-05
        -0.10769E-03
        -0.49007E-05
        -0.64459E-06
        -0.17718E-05
        -0.19126E-05
        -0.97350E-04
        -0.42609E-04
        -0.23696E-05
        -0.19646E-04
        -0.14502E-04
        -0.17358E-05
        -0.27657E-04
        -0.97950E-04
        -0.60002E-03
        -0.49229E-03
        -0.37070E-03
        -0.19288E-03
        -0.93954E-05
        -0.49662E-04
        -0.77263E-04
        -0.12370E-03
        -0.48033E-03
        -0.17229E-03
        -0.75355E-04
        -0.11617E-03
        -0.15907E-03
        -0.16878E-03
        -0.46940E-06
        -0.20098E-03
        -0.42753E-03
        -0.23280E-02
        -0.38808E-02
        -0.64287E-02
        -0.92358E-02
        -0.90331E-02
        -0.70411E-02
        -0.64693E-02
        -0.62414E-02
        -0.24780E-02
        -0.27690E-03
        -0.43640E-04
        -0.34850E-04
        -0.46276E-05
        -0.48471E-03
        -0.19330E-02
        -0.36651E-02
        -0.61353E-02
        -0.75500E-02
        -0.59316E-02
        -0.53493E-02
        -0.52337E-02
        -0.25644E-02
        -0.67721E-03
        -0.59663E-03
  
SCALARS                      strain_zz  double 1
LOOKUP_TABLE default
         0.95735E+01
         0.94423E+01
         0.95250E+01
         0.96747E+01
        -0.31186E-08
        -0.34971E-08
        -0.33486E-08
        -0.30420E-08
         0.94326E+01
         0.94799E+01
        -0.31447E-08
        -0.30433E-08
         0.92520E+01
         0.92451E+01
        -0.37366E-08
        -0.35134E-08
         0.96528E+01
         0.92549E+01
        -0.27610E-08
        -0.30623E-08
         0.91090E+01
         0.89935E+01
         0.91739E+01
        -0.37034E-08
        -0.32342E-08
        -0.33397E-08
         0.89994E+01
         0.88322E+01
        -0.35529E-08
        -0.29962E-08
         0.96456E+01
         0.94727E+01
         0.98130E+01
        -0.30319E-08
        -0.28186E-08
        -0.27404E-08
         0.95450E+01
         0.93250E+01
        -0.32076E-08
        -0.29270E-08
         0.94570E+01
         0.92862E+01
        -0.27723E-08
        -0.24543E-08
         0.96005E+01
         0.96656E+01
        -0.30380E-08
        -0.33946E-08
         0.91517E+01
        -0.29679E-08
         0.96530E+01
        -0.34874E-08
         0.89523E+01
        -0.31342E-08
         0.89001E+01
        -0.30063E-08
         0.88997E+01
         0.90863E+01
        -0.30631E-08
        -0.29831E-08
         0.96421E+01
         0.95744E+01
        -0.30715E-08
        -0.34723E-08
         0.96836E+01
        -0.29638E-08
         0.96040E+01
        -0.32346E-08
         0.93873E+01
         0.93717E+01
        -0.31137E-08
        -0.32625E-08
         0.93263E+01
        -0.32899E-08
         0.87727E+01
        -0.25993E-08
         0.87430E+01
        -0.25230E-08
         0.87558E+01
        -0.26602E-08
         0.88314E+01
         0.89190E+01
        -0.25346E-08
        -0.26425E-08
         0.90897E+01
        -0.24611E-08
         0.95959E+01
        -0.32274E-08
         0.95142E+01
        -0.33032E-08
         0.94437E+01
         0.94150E+01
        -0.31721E-08
        -0.32091E-08
         0.94616E+01
        -0.29148E-08
         0.94928E+01
        -0.28732E-08
         0.94628E+01
        -0.30759E-08
         0.94476E+01
         0.94799E+01
        -0.30163E-08
        -0.31048E-08
         0.92701E+01
         0.93387E+01
        -0.23419E-08
        -0.22027E-08
         0.92485E+01
        -0.22362E-08
         0.93278E+01
        -0.21441E-08
         0.92454E+01
        -0.21143E-08
         0.90548E+01
        -0.19980E-08
         0.88663E+01
        -0.17750E-08
         0.87566E+01
        -0.15983E-08
         0.87456E+01
        -0.15872E-08
         0.87499E+01
        -0.17212E-08
         0.88703E+01
        -0.18089E-08
         0.90845E+01
        -0.16518E-08
         0.93235E+01
        -0.14889E-08
         0.94710E+01
        -0.14872E-08
         0.96153E+01
        -0.16623E-08
         0.97098E+01
        -0.18954E-08
         0.97028E+01
        -0.20363E-08
         0.94868E+01
        -0.21991E-08
         0.93385E+01
        -0.23560E-08
         0.92733E+01
        -0.21583E-08
         0.93511E+01
        -0.18934E-08
         0.93989E+01
        -0.18876E-08
         0.93350E+01
        -0.20652E-08
         0.93435E+01
        -0.22017E-08
         0.93919E+01
        -0.20894E-08
         0.94563E+01
        -0.20199E-08
        -0.49781E+00
        -0.49709E+00
        -0.49721E+00
        -0.49803E+00
        -0.49594E+00
        -0.49728E+00
        -0.49560E+00
        -0.49659E+00
        -0.49794E+00
        -0.49722E+00
        -0.49424E+00
        -0.49366E+00
        -0.49488E+00
        -0.49504E+00
        -0.49418E+00
        -0.49801E+00
        -0.49790E+00
        -0.49814E+00
        -0.49699E+00
        -0.49731E+00
        -0.49676E+00
        -0.49707E+00
        -0.49645E+00
        -0.49670E+00
        -0.49727E+00
        -0.49725E+00
        -0.49616E+00
        -0.49628E+00
        -0.49523E+00
        -0.49671E+00
        -0.49796E+00
        -0.49708E+00
        -0.49796E+00
        -0.49745E+00
        -0.49334E+00
        -0.49505E+00
        -0.49570E+00
        -0.49486E+00
        -0.49478E+00
        -0.49324E+00
        -0.49187E+00
        -0.49482E+00
        -0.49676E+00
        -0.49658E+00
        -0.49563E+00
        -0.49339E+00
        -0.49537E+00
        -0.49689E+00
        -0.49681E+00
        -0.49565E+00
        -0.49407E+00
        -0.49608E+00
        -0.48733E+00
        -0.49007E+00
        -0.48955E+00
        -0.49009E+00
        -0.48980E+00
        -0.48814E+00
        -0.48655E+00
        -0.48621E+00
        -0.48651E+00
        -0.48626E+00
        -0.48557E+00
        -0.48978E+00
        -0.49140E+00
        -0.49198E+00
        -0.49264E+00
        -0.49309E+00
        -0.49298E+00
        -0.49195E+00
        -0.48822E+00
        -0.48912E+00
        -0.49059E+00
        -0.49068E+00
        -0.49043E+00
        -0.48918E+00
        -0.49101E+00
        -0.49159E+00
         0.14490E-03
         0.54042E-04
         0.51908E-04
         0.40261E-04
         0.14924E-03
         0.88092E-04
         0.71494E-05
         0.10983E-03
         0.73001E-04
         0.94715E-04
         0.58500E-05
         0.47527E-03
         0.27978E-03
         0.26678E-04
         0.50822E-03
         0.72849E-04
         0.30683E-04
         0.24814E-04
         0.30700E-04
         0.11566E-04
         0.29153E-03
         0.26606E-03
         0.23580E-03
         0.12667E-04
         0.27606E-04
         0.27029E-05
         0.35843E-05
        -0.44617E-04
        -0.15385E-04
         0.38073E-04
         0.54216E-04
         0.13250E-04
         0.38317E-04
         0.43008E-04
         0.22708E-03
         0.82266E-04
         0.14098E-03
         0.33096E-03
         0.19206E-03
         0.17119E-03
         0.36004E-03
         0.29081E-03
         0.29693E-03
         0.17055E-03
         0.13589E-03
         0.26206E-03
         0.11614E-03
         0.87638E-04
         0.66805E-04
         0.95313E-04
         0.22618E-03
         0.12228E-03
         0.40355E-02
         0.42640E-02
         0.46375E-02
         0.45953E-02
         0.52398E-02
         0.60487E-02
         0.55644E-02
         0.44125E-02
         0.41843E-02
         0.47738E-02
         0.45819E-02
         0.44535E-02
         0.30375E-02
         0.27582E-02
         0.33033E-02
         0.37749E-02
         0.40695E-02
         0.48575E-02
         0.44989E-02
         0.47680E-02
         0.38685E-02
         0.34809E-02
         0.39472E-02
         0.37718E-02
         0.40083E-02
         0.39540E-02
         0.14399E-03
         0.52923E-04
         0.50827E-04
         0.39303E-04
         0.14782E-03
         0.86797E-04
         0.59805E-05
         0.10880E-03
         0.71995E-04
         0.93969E-04
         0.44501E-05
         0.47360E-03
         0.27856E-03
         0.24970E-04
         0.50767E-03
         0.71762E-04
         0.29470E-04
         0.23772E-04
         0.29401E-04
         0.10130E-04
         0.29016E-03
         0.26463E-03
         0.23430E-03
         0.11306E-04
         0.26478E-04
         0.14041E-05
         0.22829E-05
        -0.46054E-04
        -0.16807E-04
         0.36697E-04
         0.53155E-04
         0.12013E-04
         0.37205E-04
         0.42004E-04
         0.22582E-03
         0.80933E-04
         0.13963E-03
         0.33039E-03
         0.19143E-03
         0.17015E-03
         0.35889E-03
         0.28952E-03
         0.29549E-03
         0.16912E-03
         0.13448E-03
         0.26056E-03
         0.11477E-03
         0.86334E-04
         0.65459E-04
         0.93912E-04
         0.22459E-03
         0.12073E-03
         0.40300E-02
         0.42595E-02
         0.46350E-02
         0.45930E-02
         0.52356E-02
         0.60419E-02
         0.55571E-02
         0.44074E-02
         0.41794E-02
         0.47681E-02
         0.45774E-02
         0.44511E-02
         0.30347E-02
         0.27559E-02
         0.33019E-02
         0.37744E-02
         0.40692E-02
         0.48571E-02
         0.44959E-02
         0.47648E-02
         0.38651E-02
         0.34782E-02
         0.39422E-02
         0.37645E-02
         0.40015E-02
         0.39475E-02
         0.14444E-03
         0.53169E-04
         0.51113E-04
         0.39630E-04
         0.14803E-03
         0.87056E-04
         0.63133E-05
         0.10932E-03
         0.72355E-04
         0.94655E-04
         0.47333E-05
         0.47388E-03
         0.27905E-03
         0.24993E-04
         0.50914E-03
         0.71630E-04
         0.29498E-04
         0.24008E-04
         0.29108E-04
         0.98268E-05
         0.28998E-03
         0.26451E-03
         0.23331E-03
         0.10323E-04
         0.26212E-04
         0.49299E-06
         0.25878E-05
        -0.46271E-04
        -0.17332E-04
         0.35786E-04
         0.53251E-04
         0.11726E-04
         0.37417E-04
         0.42372E-04
         0.22641E-03
         0.81216E-04
         0.13985E-03
         0.33176E-03
         0.19260E-03
         0.17073E-03
         0.35933E-03
         0.28925E-03
         0.29476E-03
         0.16818E-03
         0.13420E-03
         0.26075E-03
         0.11502E-03
         0.86614E-04
         0.65626E-04
         0.94062E-04
         0.22475E-03
         0.12078E-03
         0.40278E-02
         0.42581E-02
         0.46357E-02
         0.45937E-02
         0.52343E-02
         0.60383E-02
         0.55530E-02
         0.44056E-02
         0.41778E-02
         0.47658E-02
         0.45762E-02
         0.44515E-02
         0.30342E-02
         0.27561E-02
         0.33030E-02
         0.37758E-02
         0.40708E-02
         0.48594E-02
         0.44961E-02
         0.47650E-02
         0.38650E-02
         0.34785E-02
         0.39403E-02
         0.37603E-02
         0.39976E-02
         0.39438E-02
         0.14448E-03
         0.53093E-04
         0.51065E-04
         0.39526E-04
         0.14779E-03
         0.86879E-04
         0.62847E-05
         0.10938E-03
         0.72183E-04
         0.94682E-04
         0.45894E-05
         0.47369E-03
         0.27916E-03
         0.24513E-04
         0.51003E-03
         0.70800E-04
         0.28828E-04
         0.23792E-04
         0.27980E-04
         0.86114E-05
         0.28898E-03
         0.26353E-03
         0.23108E-03
         0.81241E-05
         0.24793E-04
        -0.15806E-05
         0.22566E-05
        -0.47435E-04
        -0.19103E-04
         0.33333E-04
         0.52788E-04
         0.10613E-04
         0.37188E-04
         0.42233E-04
         0.22641E-03
         0.81042E-04
         0.13968E-03
         0.33254E-03
         0.19317E-03
         0.17056E-03
         0.35893E-03
         0.28777E-03
         0.29265E-03
         0.16597E-03
         0.13305E-03
         0.26015E-03
         0.11460E-03
         0.86365E-04
         0.65266E-04
         0.93624E-04
         0.22431E-03
         0.12034E-03
         0.40245E-02
         0.42559E-02
         0.46353E-02
         0.45934E-02
         0.52324E-02
         0.60340E-02
         0.55480E-02
         0.44028E-02
         0.41752E-02
         0.47624E-02
         0.45739E-02
         0.44505E-02
         0.30325E-02
         0.27553E-02
         0.33031E-02
         0.37760E-02
         0.40712E-02
         0.48606E-02
         0.44951E-02
         0.47641E-02
         0.38638E-02
         0.34776E-02
         0.39372E-02
         0.37550E-02
         0.39929E-02
         0.39395E-02
         0.14438E-03
         0.52917E-04
         0.50948E-04
         0.39417E-04
         0.14753E-03
         0.86661E-04
         0.61959E-05
         0.10934E-03
         0.71942E-04
         0.94672E-04
         0.44367E-05
         0.47355E-03
         0.27924E-03
         0.24016E-04
         0.51102E-03
         0.70286E-04
         0.28323E-04
         0.23589E-04
         0.27252E-04
         0.77241E-05
         0.28837E-03
         0.26283E-03
         0.22973E-03
         0.67592E-05
         0.23870E-04
        -0.29112E-05
         0.19687E-05
        -0.48277E-04
        -0.20304E-04
         0.31742E-04
         0.52305E-04
         0.98036E-05
         0.36805E-04
         0.42027E-04
         0.22642E-03
         0.80832E-04
         0.13947E-03
         0.33340E-03
         0.19381E-03
         0.17058E-03
         0.35883E-03
         0.28690E-03
         0.29133E-03
         0.16462E-03
         0.13230E-03
         0.25978E-03
         0.11424E-03
         0.85978E-04
         0.64759E-04
         0.93075E-04
         0.22376E-03
         0.11982E-03
         0.40213E-02
         0.42536E-02
         0.46349E-02
         0.45932E-02
         0.52305E-02
         0.60299E-02
         0.55432E-02
         0.44002E-02
         0.41728E-02
         0.47591E-02
         0.45718E-02
         0.44500E-02
         0.30313E-02
         0.27546E-02
         0.33036E-02
         0.37772E-02
         0.40724E-02
         0.48623E-02
         0.44945E-02
         0.47631E-02
         0.38626E-02
         0.34767E-02
         0.39339E-02
         0.37497E-02
         0.39881E-02
         0.39351E-02
         0.14387E-03
         0.52557E-04
         0.50830E-04
         0.39613E-04
         0.14758E-03
         0.86818E-04
         0.61560E-05
         0.10907E-03
         0.71540E-04
         0.94431E-04
         0.45618E-05
         0.47390E-03
         0.27961E-03
         0.23758E-04
         0.51255E-03
         0.70532E-04
         0.28287E-04
         0.23833E-04
         0.27448E-04
         0.78084E-05
         0.28868E-03
         0.26307E-03
         0.22981E-03
         0.67277E-05
         0.23681E-04
        -0.31021E-05
         0.19239E-05
        -0.48389E-04
        -0.20161E-04
         0.31822E-04
         0.51706E-04
         0.93730E-05
         0.36210E-04
         0.41998E-04
         0.22680E-03
         0.80814E-04
         0.13939E-03
         0.33479E-03
         0.19504E-03
         0.17143E-03
         0.35971E-03
         0.28744E-03
         0.29164E-03
         0.16462E-03
         0.13221E-03
         0.25977E-03
         0.11394E-03
         0.85205E-04
         0.63749E-04
         0.92414E-04
         0.22343E-03
         0.11963E-03
         0.40190E-02
         0.42522E-02
         0.46354E-02
         0.45936E-02
         0.52292E-02
         0.60263E-02
         0.55391E-02
         0.43984E-02
         0.41713E-02
         0.47571E-02
         0.45711E-02
         0.44511E-02
         0.30315E-02
         0.27550E-02
         0.33051E-02
         0.37801E-02
         0.40755E-02
         0.48650E-02
         0.44943E-02
         0.47628E-02
         0.38617E-02
         0.34760E-02
         0.39310E-02
         0.37448E-02
         0.39840E-02
         0.39313E-02
         0.14299E-03
         0.51895E-04
         0.50485E-04
         0.39570E-04
         0.14733E-03
         0.86736E-04
         0.57262E-05
         0.10832E-03
         0.70751E-04
         0.93773E-04
         0.42396E-05
         0.47377E-03
         0.27962E-03
         0.23003E-04
         0.51355E-03
         0.70471E-04
         0.27890E-04
         0.23746E-04
         0.27354E-04
         0.75736E-05
         0.28868E-03
         0.26300E-03
         0.22976E-03
         0.65594E-05
         0.23254E-04
        -0.34433E-05
         0.14139E-05
        -0.48827E-04
        -0.20226E-04
         0.31756E-04
         0.50821E-04
         0.86658E-05
         0.35337E-04
         0.41712E-04
         0.22678E-03
         0.80514E-04
         0.13904E-03
         0.33567E-03
         0.19580E-03
         0.17187E-03
         0.36023E-03
         0.28777E-03
         0.29178E-03
         0.16449E-03
         0.13182E-03
         0.25928E-03
         0.11321E-03
         0.84058E-04
         0.62393E-04
         0.91426E-04
         0.22280E-03
         0.11918E-03
         0.40158E-02
         0.42500E-02
         0.46351E-02
         0.45935E-02
         0.52272E-02
         0.60219E-02
         0.55342E-02
         0.43958E-02
         0.41690E-02
         0.47540E-02
         0.45695E-02
         0.44515E-02
         0.30313E-02
         0.27549E-02
         0.33060E-02
         0.37826E-02
         0.40783E-02
         0.48669E-02
         0.44931E-02
         0.47615E-02
         0.38602E-02
         0.34746E-02
         0.39274E-02
         0.37395E-02
         0.39792E-02
         0.39270E-02
         0.14285E-03
         0.51649E-04
         0.50367E-04
         0.39491E-04
         0.14707E-03
         0.86522E-04
         0.55416E-05
         0.10817E-03
         0.70641E-04
         0.93961E-04
         0.40182E-05
         0.47357E-03
         0.27964E-03
         0.22450E-04
         0.51448E-03
         0.70430E-04
         0.27790E-04
         0.23581E-04
         0.27271E-04
         0.73834E-05
         0.28863E-03
         0.26284E-03
         0.22967E-03
         0.64297E-05
         0.23325E-04
        -0.36404E-05
         0.12165E-05
        -0.49067E-04
        -0.20386E-04
         0.31701E-04
         0.50591E-04
         0.83756E-05
         0.35009E-04
         0.41564E-04
         0.22681E-03
         0.80345E-04
         0.13882E-03
         0.33649E-03
         0.19653E-03
         0.17218E-03
         0.36053E-03
         0.28792E-03
         0.29179E-03
         0.16439E-03
         0.13160E-03
         0.25911E-03
         0.11301E-03
         0.83793E-04
         0.61971E-04
         0.90957E-04
         0.22234E-03
         0.11871E-03
         0.40125E-02
         0.42477E-02
         0.46348E-02
         0.45933E-02
         0.52252E-02
         0.60176E-02
         0.55293E-02
         0.43931E-02
         0.41664E-02
         0.47506E-02
         0.45675E-02
         0.44519E-02
         0.30309E-02
         0.27544E-02
         0.33066E-02
         0.37847E-02
         0.40806E-02
         0.48687E-02
         0.44921E-02
         0.47606E-02
         0.38592E-02
         0.34740E-02
         0.39242E-02
         0.37342E-02
         0.39744E-02
         0.39225E-02
         0.14320E-03
         0.51816E-04
         0.50530E-04
         0.39593E-04
         0.14712E-03
         0.86493E-04
         0.57851E-05
         0.10857E-03
         0.70996E-04
         0.94748E-04
         0.42023E-05
         0.47377E-03
         0.28004E-03
         0.22398E-04
         0.51590E-03
         0.70786E-04
         0.28086E-04
         0.23673E-04
         0.27541E-04
         0.75466E-05
         0.28893E-03
         0.26304E-03
         0.22993E-03
         0.66518E-05
         0.23875E-04
        -0.34366E-05
         0.15852E-05
        -0.48821E-04
        -0.20119E-04
         0.32032E-04
         0.50866E-04
         0.85192E-05
         0.35071E-04
         0.41652E-04
         0.22725E-03
         0.80484E-04
         0.13892E-03
         0.33783E-03
         0.19770E-03
         0.17290E-03
         0.36129E-03
         0.28848E-03
         0.29216E-03
         0.16469E-03
         0.13179E-03
         0.25936E-03
         0.11323E-03
         0.84020E-04
         0.62056E-04
         0.90919E-04
         0.22226E-03
         0.11846E-03
         0.40101E-02
         0.42462E-02
         0.46350E-02
         0.45935E-02
         0.52238E-02
         0.60140E-02
         0.55251E-02
         0.43911E-02
         0.41645E-02
         0.47479E-02
         0.45664E-02
         0.44529E-02
         0.30311E-02
         0.27546E-02
         0.33079E-02
         0.37876E-02
         0.40837E-02
         0.48713E-02
         0.44918E-02
         0.47604E-02
         0.38590E-02
         0.34741E-02
         0.39218E-02
         0.37295E-02
         0.39703E-02
         0.39186E-02
         0.14330E-03
         0.51801E-04
         0.50539E-04
         0.39561E-04
         0.14697E-03
         0.86346E-04
         0.58242E-05
         0.10865E-03
         0.71028E-04
         0.95162E-04
         0.41194E-05
         0.47366E-03
         0.28026E-03
         0.21971E-04
         0.51683E-03
         0.70810E-04
         0.28059E-04
         0.23499E-04
         0.27478E-04
         0.73902E-05
         0.28896E-03
         0.26293E-03
         0.22990E-03
         0.65665E-05
         0.24144E-04
        -0.35217E-05
         0.15478E-05
        -0.48861E-04
        -0.20105E-04
         0.32082E-04
         0.50856E-04
         0.84201E-05
         0.34864E-04
         0.41551E-04
         0.22740E-03
         0.80396E-04
         0.13884E-03
         0.33870E-03
         0.19855E-03
         0.17334E-03
         0.36173E-03
         0.28876E-03
         0.29219E-03
         0.16473E-03
         0.13177E-03
         0.25936E-03
         0.11316E-03
         0.83916E-04
         0.61818E-04
         0.90615E-04
         0.22195E-03
         0.11806E-03
         0.40070E-02
         0.42441E-02
         0.46346E-02
         0.45933E-02
         0.52220E-02
         0.60097E-02
         0.55201E-02
         0.43884E-02
         0.41622E-02
         0.47446E-02
         0.45645E-02
         0.44533E-02
         0.30307E-02
         0.27544E-02
         0.33087E-02
         0.37900E-02
         0.40866E-02
         0.48735E-02
         0.44911E-02
         0.47595E-02
         0.38579E-02
         0.34735E-02
         0.39190E-02
         0.37246E-02
         0.39657E-02
         0.39143E-02
         0.14332E-03
         0.51673E-04
         0.50489E-04
         0.39567E-04
         0.14675E-03
         0.86228E-04
         0.57916E-05
         0.10869E-03
         0.71075E-04
         0.95579E-04
         0.40243E-05
         0.47350E-03
         0.28040E-03
         0.21574E-04
         0.51776E-03
         0.70792E-04
         0.28060E-04
         0.23384E-04
         0.27393E-04
         0.72623E-05
         0.28895E-03
         0.26283E-03
         0.22985E-03
         0.64349E-05
         0.24415E-04
        -0.36770E-05
         0.15324E-05
        -0.48932E-04
        -0.20100E-04
         0.32157E-04
         0.50801E-04
         0.82672E-05
         0.34718E-04
         0.41556E-04
         0.22745E-03
         0.80255E-04
         0.13871E-03
         0.33958E-03
         0.19939E-03
         0.17379E-03
         0.36223E-03
         0.28905E-03
         0.29224E-03
         0.16472E-03
         0.13169E-03
         0.25934E-03
         0.11311E-03
         0.83827E-04
         0.61587E-04
         0.90328E-04
         0.22166E-03
         0.11773E-03
         0.40037E-02
         0.42418E-02
         0.46343E-02
         0.45932E-02
         0.52202E-02
         0.60054E-02
         0.55149E-02
         0.43857E-02
         0.41599E-02
         0.47414E-02
         0.45629E-02
         0.44537E-02
         0.30301E-02
         0.27541E-02
         0.33096E-02
         0.37923E-02
         0.40892E-02
         0.48756E-02
         0.44903E-02
         0.47587E-02
         0.38570E-02
         0.34729E-02
         0.39160E-02
         0.37195E-02
         0.39611E-02
         0.39099E-02
         0.14357E-03
         0.51725E-04
         0.50575E-04
         0.39704E-04
         0.14675E-03
         0.86263E-04
         0.59744E-05
         0.10902E-03
         0.71333E-04
         0.96234E-04
         0.42032E-05
         0.47364E-03
         0.28069E-03
         0.21505E-04
         0.51915E-03
         0.71050E-04
         0.28242E-04
         0.23476E-04
         0.27572E-04
         0.73865E-05
         0.28921E-03
         0.26300E-03
         0.23004E-03
         0.65712E-05
         0.24861E-04
        -0.35494E-05
         0.17821E-05
        -0.48778E-04
        -0.19808E-04
         0.32506E-04
         0.51038E-04
         0.83604E-05
         0.34808E-04
         0.41732E-04
         0.22782E-03
         0.80337E-04
         0.13873E-03
         0.34089E-03
         0.20057E-03
         0.17459E-03
         0.36301E-03
         0.28956E-03
         0.29256E-03
         0.16494E-03
         0.13182E-03
         0.25952E-03
         0.11326E-03
         0.83978E-04
         0.61604E-04
         0.90268E-04
         0.22158E-03
         0.11757E-03
         0.40012E-02
         0.42402E-02
         0.46345E-02
         0.45935E-02
         0.52184E-02
         0.60013E-02
         0.55106E-02
         0.43837E-02
         0.41581E-02
         0.47388E-02
         0.45617E-02
         0.44545E-02
         0.30302E-02
         0.27543E-02
         0.33108E-02
         0.37951E-02
         0.40922E-02
         0.48780E-02
         0.44899E-02
         0.47584E-02
         0.38566E-02
         0.34728E-02
         0.39135E-02
         0.37149E-02
         0.39570E-02
         0.39061E-02
         0.14366E-03
         0.51623E-04
         0.50527E-04
         0.39661E-04
         0.14653E-03
         0.86084E-04
         0.59141E-05
         0.10908E-03
         0.71404E-04
         0.96618E-04
         0.40596E-05
         0.47345E-03
         0.28074E-03
         0.21045E-04
         0.52014E-03
         0.71061E-04
         0.28214E-04
         0.23293E-04
         0.27458E-04
         0.72087E-05
         0.28913E-03
         0.26282E-03
         0.22990E-03
         0.64198E-05
         0.25049E-04
        -0.36862E-05
         0.16201E-05
        -0.49005E-04
        -0.19905E-04
         0.32527E-04
         0.50994E-04
         0.82150E-05
         0.34571E-04
         0.41643E-04
         0.22787E-03
         0.80183E-04
         0.13853E-03
         0.34175E-03
         0.20132E-03
         0.17493E-03
         0.36334E-03
         0.28968E-03
         0.29253E-03
         0.16483E-03
         0.13166E-03
         0.25943E-03
         0.11316E-03
         0.83825E-04
         0.61341E-04
         0.89970E-04
         0.22125E-03
         0.11716E-03
         0.39979E-02
         0.42380E-02
         0.46341E-02
         0.45932E-02
         0.52163E-02
         0.59969E-02
         0.55057E-02
         0.43810E-02
         0.41556E-02
         0.47354E-02
         0.45598E-02
         0.44546E-02
         0.30296E-02
         0.27539E-02
         0.33116E-02
         0.37973E-02
         0.40945E-02
         0.48799E-02
         0.44890E-02
         0.47575E-02
         0.38556E-02
         0.34723E-02
         0.39107E-02
         0.37098E-02
         0.39523E-02
         0.39017E-02
         0.14380E-03
         0.51590E-04
         0.50542E-04
         0.39688E-04
         0.14641E-03
         0.85981E-04
         0.59638E-05
         0.10923E-03
         0.71585E-04
         0.97173E-04
         0.40557E-05
         0.47343E-03
         0.28095E-03
         0.20762E-04
         0.52126E-03
         0.71169E-04
         0.28325E-04
         0.23227E-04
         0.27483E-04
         0.71611E-05
         0.28919E-03
         0.26279E-03
         0.22991E-03
         0.63900E-05
         0.25386E-04
        -0.37298E-05
         0.16975E-05
        -0.49045E-04
        -0.19871E-04
         0.32643E-04
         0.51012E-04
         0.81491E-05
         0.34437E-04
         0.41648E-04
         0.22806E-03
         0.80115E-04
         0.13845E-03
         0.34276E-03
         0.20218E-03
         0.17541E-03
         0.36389E-03
         0.29002E-03
         0.29266E-03
         0.16489E-03
         0.13166E-03
         0.25948E-03
         0.11317E-03
         0.83780E-04
         0.61166E-04
         0.89756E-04
         0.22103E-03
         0.11684E-03
         0.39950E-02
         0.42360E-02
         0.46339E-02
         0.45931E-02
         0.52146E-02
         0.59928E-02
         0.55008E-02
         0.43784E-02
         0.41532E-02
         0.47323E-02
         0.45583E-02
         0.44551E-02
         0.30293E-02
         0.27536E-02
         0.33124E-02
         0.37997E-02
         0.40973E-02
         0.48821E-02
         0.44884E-02
         0.47568E-02
         0.38548E-02
         0.34719E-02
         0.39079E-02
         0.37048E-02
         0.39477E-02
         0.38974E-02
         0.14425E-03
         0.51908E-04
         0.50849E-04
         0.39951E-04
         0.14662E-03
         0.86154E-04
         0.64075E-05
         0.10975E-03
         0.71979E-04
         0.98001E-04
         0.44584E-05
         0.47387E-03
         0.28158E-03
         0.20858E-04
         0.52281E-03
         0.71572E-04
         0.28695E-04
         0.23430E-04
         0.27827E-04
         0.74548E-05
         0.28966E-03
         0.26313E-03
         0.23031E-03
         0.66870E-05
         0.26070E-04
        -0.34393E-05
         0.21531E-05
        -0.48611E-04
        -0.19368E-04
         0.33166E-04
         0.51397E-04
         0.84366E-05
         0.34613E-04
         0.41873E-04
         0.22864E-03
         0.80405E-04
         0.13873E-03
         0.34417E-03
         0.20354E-03
         0.17635E-03
         0.36482E-03
         0.29073E-03
         0.29313E-03
         0.16535E-03
         0.13205E-03
         0.25994E-03
         0.11355E-03
         0.84119E-04
         0.61318E-04
         0.89798E-04
         0.22108E-03
         0.11678E-03
         0.39927E-02
         0.42347E-02
         0.46343E-02
         0.45936E-02
         0.52135E-02
         0.59894E-02
         0.54967E-02
         0.43764E-02
         0.41517E-02
         0.47298E-02
         0.45573E-02
         0.44563E-02
         0.30295E-02
         0.27540E-02
         0.33140E-02
         0.38028E-02
         0.41008E-02
         0.48851E-02
         0.44884E-02
         0.47568E-02
         0.38546E-02
         0.34720E-02
         0.39056E-02
         0.37005E-02
         0.39439E-02
         0.38938E-02
         0.14428E-03
         0.51815E-04
         0.50807E-04
         0.39884E-04
         0.14637E-03
         0.85975E-04
         0.63625E-05
         0.10977E-03
         0.72009E-04
         0.98346E-04
         0.43197E-05
         0.47373E-03
         0.28174E-03
         0.20393E-04
         0.52373E-03
         0.71549E-04
         0.28634E-04
         0.23274E-04
         0.27665E-04
         0.72457E-05
         0.28963E-03
         0.26296E-03
         0.23024E-03
         0.65050E-05
         0.26232E-04
        -0.36300E-05
         0.20119E-05
        -0.48768E-04
        -0.19323E-04
         0.33223E-04
         0.51388E-04
         0.82743E-05
         0.34432E-04
         0.41759E-04
         0.22866E-03
         0.80259E-04
         0.13861E-03
         0.34501E-03
         0.20434E-03
         0.17682E-03
         0.36523E-03
         0.29090E-03
         0.29307E-03
         0.16529E-03
         0.13192E-03
         0.25987E-03
         0.11347E-03
         0.84044E-04
         0.61080E-04
         0.89448E-04
         0.22073E-03
         0.11636E-03
         0.39893E-02
         0.42324E-02
         0.46339E-02
         0.45934E-02
         0.52117E-02
         0.59851E-02
         0.54915E-02
         0.43736E-02
         0.41492E-02
         0.47264E-02
         0.45553E-02
         0.44563E-02
         0.30289E-02
         0.27537E-02
         0.33149E-02
         0.38053E-02
         0.41035E-02
         0.48870E-02
         0.44876E-02
         0.47559E-02
         0.38537E-02
         0.34714E-02
         0.39026E-02
         0.36954E-02
         0.39393E-02
         0.38894E-02
         0.14423E-03
         0.51582E-04
         0.50623E-04
         0.39774E-04
         0.14605E-03
         0.85694E-04
         0.62409E-05
         0.10975E-03
         0.71977E-04
         0.98523E-04
         0.41471E-05
         0.47349E-03
         0.28179E-03
         0.19923E-04
         0.52462E-03
         0.71492E-04
         0.28486E-04
         0.23100E-04
         0.27539E-04
         0.71266E-05
         0.28958E-03
         0.26275E-03
         0.23015E-03
         0.63490E-05
         0.26243E-04
        -0.38173E-05
         0.16345E-05
        -0.49016E-04
        -0.18745E-04
         0.33633E-04
         0.51302E-04
         0.80518E-05
         0.34252E-04
         0.41690E-04
         0.22866E-03
         0.80034E-04
         0.13838E-03
         0.34570E-03
         0.20515E-03
         0.17772E-03
         0.36578E-03
         0.29106E-03
         0.29293E-03
         0.16522E-03
         0.13174E-03
         0.25971E-03
         0.11330E-03
         0.83893E-04
         0.60823E-04
         0.89128E-04
         0.22039E-03
         0.11593E-03
         0.39861E-02
         0.42301E-02
         0.46335E-02
         0.45932E-02
         0.52097E-02
         0.59805E-02
         0.54863E-02
         0.43707E-02
         0.41467E-02
         0.47233E-02
         0.45531E-02
         0.44557E-02
         0.30282E-02
         0.27533E-02
         0.33156E-02
         0.38076E-02
         0.41060E-02
         0.48889E-02
         0.44866E-02
         0.47549E-02
         0.38527E-02
         0.34708E-02
         0.38995E-02
         0.36903E-02
         0.39346E-02
         0.38849E-02
         0.14466E-03
         0.51874E-04
         0.50952E-04
         0.40081E-04
         0.14628E-03
         0.85887E-04
         0.66397E-05
         0.11026E-03
         0.72305E-04
         0.99017E-04
         0.45133E-05
         0.47382E-03
         0.28231E-03
         0.19998E-04
         0.52611E-03
         0.71898E-04
         0.28774E-04
         0.23288E-04
         0.27931E-04
         0.76349E-05
         0.28999E-03
         0.26305E-03
         0.23049E-03
         0.66692E-05
         0.26681E-04
        -0.34998E-05
         0.15903E-05
        -0.48748E-04
        -0.17120E-04
         0.34943E-04
         0.51644E-04
         0.83444E-05
         0.34424E-04
         0.41980E-04
         0.22927E-03
         0.80361E-04
         0.13864E-03
         0.34688E-03
         0.20657E-03
         0.17955E-03
         0.36698E-03
         0.29173E-03
         0.29325E-03
         0.16563E-03
         0.13212E-03
         0.26020E-03
         0.11369E-03
         0.84205E-04
         0.61000E-04
         0.89258E-04
         0.22053E-03
         0.11591E-03
         0.39839E-02
         0.42289E-02
         0.46340E-02
         0.45938E-02
         0.52083E-02
         0.59768E-02
         0.54820E-02
         0.43689E-02
         0.41452E-02
         0.47212E-02
         0.45514E-02
         0.44556E-02
         0.30282E-02
         0.27536E-02
         0.33170E-02
         0.38104E-02
         0.41092E-02
         0.48917E-02
         0.44867E-02
         0.47550E-02
         0.38526E-02
         0.34711E-02
         0.38974E-02
         0.36861E-02
         0.39307E-02
         0.38813E-02
         0.14379E-03
         0.50801E-04
         0.49952E-04
         0.39145E-04
         0.14494E-03
         0.84652E-04
         0.55368E-05
         0.10922E-03
         0.71354E-04
         0.98082E-04
         0.32171E-05
         0.47230E-03
         0.28114E-03
         0.18327E-04
         0.52569E-03
         0.70995E-04
         0.27675E-04
         0.22250E-04
         0.26791E-04
         0.64845E-05
         0.28876E-03
         0.26172E-03
         0.22925E-03
         0.55313E-05
         0.25618E-04
        -0.45840E-05
        -0.23657E-07
        -0.50111E-04
        -0.17645E-04
         0.34272E-04
         0.50702E-04
         0.72110E-05
         0.33310E-04
         0.40900E-04
         0.22808E-03
         0.79067E-04
         0.13729E-03
         0.34625E-03
         0.20617E-03
         0.17925E-03
         0.36618E-03
         0.29060E-03
         0.29195E-03
         0.16446E-03
         0.13082E-03
         0.25878E-03
         0.11243E-03
         0.83032E-04
         0.59707E-04
         0.87791E-04
         0.21887E-03
         0.11433E-03
         0.39784E-02
         0.42244E-02
         0.46313E-02
         0.45912E-02
         0.52040E-02
         0.59702E-02
         0.54747E-02
         0.43638E-02
         0.41405E-02
         0.47156E-02
         0.45467E-02
         0.44531E-02
         0.30257E-02
         0.27515E-02
         0.33158E-02
         0.38107E-02
         0.41097E-02
         0.48914E-02
         0.44834E-02
         0.47518E-02
         0.38495E-02
         0.34684E-02
         0.38923E-02
         0.36789E-02
         0.39240E-02
         0.38749E-02
         0.14454E-03
         0.50875E-04
         0.50190E-04
         0.39584E-04
         0.14525E-03
         0.84964E-04
         0.57802E-05
         0.11012E-03
         0.72270E-04
         0.99710E-04
         0.36052E-05
         0.47234E-03
         0.28102E-03
         0.18913E-04
         0.52749E-03
         0.71933E-04
         0.28569E-04
         0.22761E-04
         0.27468E-04
         0.71137E-05
         0.28946E-03
         0.26216E-03
         0.23022E-03
         0.63825E-05
         0.27214E-04
        -0.37960E-05
         0.13788E-05
        -0.48567E-04
        -0.16273E-04
         0.35584E-04
         0.51429E-04
         0.76901E-05
         0.33545E-04
         0.40769E-04
         0.22853E-03
         0.78950E-04
         0.13688E-03
         0.34824E-03
         0.20820E-03
         0.18065E-03
         0.36726E-03
         0.29168E-03
         0.29292E-03
         0.16542E-03
         0.13134E-03
         0.25910E-03
         0.11269E-03
         0.83575E-04
         0.59990E-04
         0.87623E-04
         0.21878E-03
         0.11408E-03
         0.39764E-02
         0.42237E-02
         0.46315E-02
         0.45907E-02
         0.52011E-02
         0.59654E-02
         0.54712E-02
         0.43626E-02
         0.41394E-02
         0.47127E-02
         0.45454E-02
         0.44548E-02
         0.30267E-02
         0.27519E-02
         0.33178E-02
         0.38146E-02
         0.41137E-02
         0.48945E-02
         0.44833E-02
         0.47512E-02
         0.38493E-02
         0.34689E-02
         0.38908E-02
         0.36755E-02
         0.39209E-02
         0.38720E-02
         0.41499E-02
         0.42281E-02
         0.41953E-02
         0.38218E-02
         0.49411E-02
         0.45606E-02
         0.45274E-02
         0.46898E-02
         0.40085E-02
         0.46931E-02
         0.50396E-02
         0.62949E-02
         0.55024E-02
         0.52189E-02
         0.65207E-02
         0.39199E-02
         0.41686E-02
         0.36396E-02
         0.43434E-02
         0.45218E-02
         0.50905E-02
         0.51011E-02
         0.48379E-02
         0.41357E-02
         0.46350E-02
         0.39517E-02
         0.51509E-02
         0.49433E-02
         0.49800E-02
         0.48019E-02
         0.39402E-02
         0.40991E-02
         0.38407E-02
         0.40153E-02
         0.55639E-02
         0.48602E-02
         0.49254E-02
         0.60362E-02
         0.56831E-02
         0.55696E-02
         0.59156E-02
         0.55353E-02
         0.52631E-02
         0.46383E-02
         0.47980E-02
         0.56271E-02
         0.49701E-02
         0.46066E-02
         0.44747E-02
         0.46754E-02
         0.53030E-02
         0.47404E-02
         0.13346E-01
         0.13369E-01
         0.13963E-01
         0.13604E-01
         0.14476E-01
         0.15679E-01
         0.15234E-01
         0.14022E-01
         0.13885E-01
         0.14735E-01
         0.14276E-01
         0.13638E-01
         0.11193E-01
         0.10452E-01
         0.11144E-01
         0.11835E-01
         0.12234E-01
         0.13730E-01
         0.13937E-01
         0.14225E-01
         0.12545E-01
         0.11867E-01
         0.12592E-01
         0.12285E-01
         0.12458E-01
         0.12415E-01
         0.43638E-01
         0.45536E-01
         0.44894E-01
         0.41066E-01
         0.50374E-01
         0.47314E-01
         0.49103E-01
         0.49630E-01
         0.42608E-01
         0.49596E-01
         0.53793E-01
         0.60793E-01
         0.54994E-01
         0.55365E-01
         0.62974E-01
         0.41799E-01
         0.44762E-01
         0.39231E-01
         0.46196E-01
         0.48500E-01
         0.50527E-01
         0.51550E-01
         0.48493E-01
         0.44468E-01
         0.50063E-01
         0.42946E-01
         0.55170E-01
         0.54175E-01
         0.54425E-01
         0.51787E-01
         0.42213E-01
         0.44277E-01
         0.41380E-01
         0.43208E-01
         0.55144E-01
         0.50529E-01
         0.50767E-01
         0.60782E-01
         0.59042E-01
         0.58297E-01
         0.59591E-01
         0.56573E-01
         0.53591E-01
         0.47288E-01
         0.49125E-01
         0.55173E-01
         0.50941E-01
         0.47949E-01
         0.46990E-01
         0.48694E-01
         0.52920E-01
         0.48857E-01
         0.91917E-01
         0.90035E-01
         0.92438E-01
         0.89721E-01
         0.93068E-01
         0.98623E-01
         0.99487E-01
         0.97640E-01
         0.97907E-01
         0.10084E+00
         0.97918E-01
         0.92363E-01
         0.81447E-01
         0.76842E-01
         0.77840E-01
         0.79434E-01
         0.80561E-01
         0.87903E-01
         0.92974E-01
         0.93716E-01
         0.86056E-01
         0.83067E-01
         0.86243E-01
         0.85377E-01
         0.84802E-01
         0.84444E-01
  
SCALARS                      strain_yz  double 1
LOOKUP_TABLE default
        -0.16779E-01
         0.53814E-02
         0.14310E-01
         0.76673E-02
        -0.24125E-09
        -0.66493E-10
        -0.29898E-09
        -0.22804E-09
         0.52322E-01
        -0.34850E-01
        -0.44494E-09
        -0.39172E-09
         0.43545E-01
         0.22097E-02
         0.31842E-09
        -0.20415E-10
        -0.16752E-01
        -0.55852E-01
         0.46848E-11
         0.47935E-10
         0.27767E-01
         0.10101E+00
         0.11081E+00
         0.72993E-09
         0.12606E-08
         0.10537E-08
         0.99706E-02
         0.97463E-01
         0.52506E-09
         0.10186E-08
        -0.19108E-01
        -0.15881E-01
         0.14798E-01
         0.27220E-09
         0.27787E-09
        -0.57689E-11
        -0.55249E-01
        -0.50043E-01
         0.50090E-09
         0.38972E-09
        -0.53006E-01
        -0.32148E-01
         0.37855E-09
         0.34594E-09
        -0.50025E-01
        -0.17551E-01
        -0.12557E-10
         0.19423E-09
        -0.40878E-01
         0.91450E-10
        -0.46427E-02
        -0.74068E-11
        -0.22685E-02
         0.35374E-09
         0.14796E-01
         0.20578E-09
         0.48264E-01
        -0.90651E-02
         0.55826E-11
        -0.11331E-10
        -0.23150E-01
        -0.82940E-01
        -0.76062E-10
        -0.28451E-09
        -0.14138E-01
        -0.15353E-09
        -0.59402E-01
        -0.18704E-09
         0.45506E-01
         0.23970E-01
        -0.23115E-10
         0.30519E-09
         0.82705E-01
         0.67016E-09
         0.12145E+00
         0.64888E-09
         0.12145E+00
         0.49257E-09
         0.10049E+00
         0.41286E-09
         0.15110E+00
         0.11902E+00
         0.26485E-09
        -0.58722E-10
         0.17512E-01
        -0.65706E-11
        -0.78099E-01
        -0.41161E-09
        -0.18057E+00
        -0.72057E-09
        -0.24772E+00
        -0.15209E+00
        -0.10687E-08
        -0.86505E-09
        -0.10832E+00
        -0.67150E-09
        -0.98038E-01
        -0.68699E-09
        -0.94644E-01
        -0.73866E-09
        -0.15700E+00
        -0.13155E+00
        -0.68691E-09
        -0.32914E-09
         0.10062E+00
        -0.38894E-01
         0.24153E-09
        -0.30015E-09
         0.24625E+00
         0.80352E-09
         0.36116E+00
         0.11753E-08
         0.43162E+00
         0.14516E-08
         0.47900E+00
         0.14398E-08
         0.53350E+00
         0.11394E-08
         0.52719E+00
         0.88179E-09
         0.49469E+00
         0.82014E-09
         0.44068E+00
         0.78030E-09
         0.33344E+00
         0.49867E-09
         0.24060E+00
         0.16464E-09
         0.12946E+00
         0.10639E-09
        -0.96950E-02
         0.15990E-09
        -0.13369E+00
         0.82588E-10
        -0.24595E+00
        -0.24976E-09
        -0.38018E+00
        -0.70499E-09
        -0.40254E+00
        -0.11009E-08
        -0.42153E+00
        -0.14432E-08
        -0.52989E+00
        -0.14420E-08
        -0.56196E+00
        -0.12588E-08
        -0.52592E+00
        -0.12268E-08
        -0.41918E+00
        -0.12344E-08
        -0.28522E+00
        -0.97615E-09
        -0.20513E+00
        -0.57724E-09
        -0.15046E+00
        -0.44633E-09
        -0.76018E-02
        -0.39208E-02
        -0.34242E-02
        -0.10669E-02
        -0.34936E-02
        -0.37321E-02
        -0.39109E-03
        -0.60316E-02
        -0.52034E-02
        -0.76108E-02
         0.39346E-02
         0.16766E-01
         0.11497E-01
         0.13335E-02
         0.16964E-01
         0.20153E-02
        -0.17845E-02
         0.11506E-02
         0.14940E-02
        -0.11307E-02
         0.10365E-02
         0.85571E-03
        -0.28684E-02
         0.24188E-03
        -0.51968E-02
         0.76816E-03
         0.39616E-04
         0.69292E-03
         0.83789E-03
        -0.40651E-02
         0.19666E-02
        -0.21250E-02
         0.14301E-02
        -0.34748E-03
         0.56581E-03
         0.30830E-02
         0.69294E-02
         0.14940E-01
         0.13646E-01
         0.11473E-01
         0.10761E-01
         0.26976E-02
        -0.22224E-02
        -0.60904E-02
        -0.10028E-01
        -0.16260E-01
        -0.10737E-01
        -0.77432E-02
        -0.82584E-02
        -0.87357E-02
        -0.10195E-01
        -0.46906E-02
         0.86352E-02
        -0.10471E-01
         0.28326E-01
         0.39216E-01
         0.49980E-01
         0.59107E-01
         0.59131E-01
         0.53420E-01
         0.50862E-01
         0.48054E-01
         0.30972E-01
         0.13771E-01
         0.60817E-02
         0.26848E-02
        -0.41228E-02
        -0.16331E-01
        -0.30016E-01
        -0.39054E-01
        -0.46689E-01
        -0.53712E-01
        -0.50799E-01
        -0.48011E-01
        -0.44636E-01
        -0.30913E-01
        -0.18167E-01
        -0.15985E-01
        -0.15018E-01
        -0.94721E-02
        -0.87652E-02
        -0.20791E-02
        -0.11384E-01
        -0.51202E-02
        -0.40602E-02
        -0.14194E-01
        -0.93081E-02
        -0.13350E-01
         0.70581E-02
         0.30543E-01
         0.18096E-01
         0.26006E-02
         0.30092E-01
         0.56953E-02
        -0.17260E-02
         0.16478E-02
         0.74271E-02
         0.14359E-02
         0.64012E-02
         0.45449E-02
        -0.26349E-02
         0.22241E-02
        -0.89898E-02
         0.22236E-02
         0.55797E-03
         0.10373E-02
        -0.16569E-02
        -0.89676E-02
         0.61380E-02
         0.16169E-02
         0.39674E-02
         0.34448E-02
        -0.16424E-02
         0.50068E-02
         0.95594E-02
         0.22871E-01
         0.20169E-01
         0.17775E-01
         0.13058E-01
        -0.32266E-02
        -0.66460E-02
        -0.83019E-02
        -0.10690E-01
        -0.21837E-01
        -0.12707E-01
        -0.84030E-02
        -0.10561E-01
        -0.12468E-01
        -0.12918E-01
        -0.96929E-03
         0.16089E-01
        -0.23013E-01
         0.53548E-01
         0.69202E-01
         0.89301E-01
         0.10714E+00
         0.10496E+00
         0.91685E-01
         0.87870E-01
         0.86925E-01
         0.54588E-01
         0.17992E-01
         0.71718E-02
         0.61458E-02
        -0.28460E-02
        -0.24140E-01
        -0.48357E-01
        -0.67287E-01
        -0.87580E-01
        -0.97108E-01
        -0.85293E-01
        -0.80646E-01
        -0.80394E-01
        -0.56609E-01
        -0.29405E-01
        -0.27844E-01
        -0.15027E-01
        -0.94738E-02
        -0.87696E-02
        -0.20943E-02
        -0.11385E-01
        -0.51242E-02
        -0.40653E-02
        -0.14218E-01
        -0.93248E-02
        -0.13400E-01
         0.70623E-02
         0.30541E-01
         0.18100E-01
         0.26006E-02
         0.30131E-01
         0.56957E-02
        -0.17417E-02
         0.16453E-02
         0.74322E-02
         0.14279E-02
         0.64170E-02
         0.45492E-02
        -0.26355E-02
         0.22230E-02
        -0.90306E-02
         0.22196E-02
         0.56455E-03
         0.10431E-02
        -0.16460E-02
        -0.89866E-02
         0.61391E-02
         0.16133E-02
         0.39761E-02
         0.34504E-02
        -0.16270E-02
         0.50101E-02
         0.95590E-02
         0.22906E-01
         0.20213E-01
         0.17795E-01
         0.13068E-01
        -0.32179E-02
        -0.66528E-02
        -0.83061E-02
        -0.10691E-01
        -0.21837E-01
        -0.12708E-01
        -0.83980E-02
        -0.10547E-01
        -0.12451E-01
        -0.12913E-01
        -0.95461E-03
         0.16074E-01
        -0.23014E-01
         0.53558E-01
         0.69203E-01
         0.89290E-01
         0.10710E+00
         0.10491E+00
         0.91657E-01
         0.87851E-01
         0.86901E-01
         0.54577E-01
         0.18001E-01
         0.71713E-02
         0.61584E-02
        -0.28228E-02
        -0.24153E-01
        -0.48379E-01
        -0.67303E-01
        -0.87578E-01
        -0.97102E-01
        -0.85287E-01
        -0.80643E-01
        -0.80374E-01
        -0.56568E-01
        -0.29373E-01
        -0.27807E-01
        -0.15037E-01
        -0.94756E-02
        -0.87740E-02
        -0.21097E-02
        -0.11387E-01
        -0.51284E-02
        -0.40704E-02
        -0.14242E-01
        -0.93416E-02
        -0.13449E-01
         0.70665E-02
         0.30538E-01
         0.18105E-01
         0.26004E-02
         0.30169E-01
         0.56961E-02
        -0.17575E-02
         0.16429E-02
         0.74373E-02
         0.14198E-02
         0.64330E-02
         0.45535E-02
        -0.26365E-02
         0.22216E-02
        -0.90708E-02
         0.22150E-02
         0.57158E-03
         0.10492E-02
        -0.16340E-02
        -0.90049E-02
         0.61400E-02
         0.16091E-02
         0.39850E-02
         0.34560E-02
        -0.16115E-02
         0.50135E-02
         0.95583E-02
         0.22941E-01
         0.20256E-01
         0.17816E-01
         0.13078E-01
        -0.32083E-02
        -0.66592E-02
        -0.83115E-02
        -0.10692E-01
        -0.21838E-01
        -0.12709E-01
        -0.83928E-02
        -0.10533E-01
        -0.12434E-01
        -0.12907E-01
        -0.93999E-03
         0.16059E-01
        -0.23015E-01
         0.53568E-01
         0.69203E-01
         0.89280E-01
         0.10707E+00
         0.10487E+00
         0.91630E-01
         0.87833E-01
         0.86877E-01
         0.54565E-01
         0.18010E-01
         0.71709E-02
         0.61710E-02
        -0.27995E-02
        -0.24166E-01
        -0.48401E-01
        -0.67319E-01
        -0.87577E-01
        -0.97095E-01
        -0.85281E-01
        -0.80639E-01
        -0.80354E-01
        -0.56528E-01
        -0.29341E-01
        -0.27770E-01
        -0.15046E-01
        -0.94774E-02
        -0.87784E-02
        -0.21252E-02
        -0.11388E-01
        -0.51325E-02
        -0.40758E-02
        -0.14265E-01
        -0.93585E-02
        -0.13498E-01
         0.70707E-02
         0.30535E-01
         0.18110E-01
         0.26004E-02
         0.30207E-01
         0.56965E-02
        -0.17737E-02
         0.16403E-02
         0.74428E-02
         0.14112E-02
         0.64494E-02
         0.45573E-02
        -0.26388E-02
         0.22195E-02
        -0.91097E-02
         0.22089E-02
         0.57883E-03
         0.10574E-02
        -0.16192E-02
        -0.90215E-02
         0.61405E-02
         0.16033E-02
         0.39937E-02
         0.34616E-02
        -0.15961E-02
         0.50168E-02
         0.95577E-02
         0.22977E-01
         0.20301E-01
         0.17838E-01
         0.13090E-01
        -0.31961E-02
        -0.66645E-02
        -0.83196E-02
        -0.10695E-01
        -0.21839E-01
        -0.12712E-01
        -0.83877E-02
        -0.10519E-01
        -0.12418E-01
        -0.12901E-01
        -0.92541E-03
         0.16044E-01
        -0.23017E-01
         0.53578E-01
         0.69204E-01
         0.89269E-01
         0.10703E+00
         0.10483E+00
         0.91602E-01
         0.87815E-01
         0.86853E-01
         0.54555E-01
         0.18020E-01
         0.71710E-02
         0.61835E-02
        -0.27760E-02
        -0.24180E-01
        -0.48428E-01
        -0.67337E-01
        -0.87576E-01
        -0.97089E-01
        -0.85275E-01
        -0.80636E-01
        -0.80333E-01
        -0.56488E-01
        -0.29309E-01
        -0.27734E-01
        -0.15055E-01
        -0.94791E-02
        -0.87828E-02
        -0.21406E-02
        -0.11389E-01
        -0.51366E-02
        -0.40808E-02
        -0.14289E-01
        -0.93753E-02
        -0.13546E-01
         0.70750E-02
         0.30533E-01
         0.18114E-01
         0.26006E-02
         0.30246E-01
         0.56970E-02
        -0.17901E-02
         0.16377E-02
         0.74485E-02
         0.14020E-02
         0.64659E-02
         0.45607E-02
        -0.26422E-02
         0.22163E-02
        -0.91472E-02
         0.22013E-02
         0.58692E-03
         0.10674E-02
        -0.16015E-02
        -0.90363E-02
         0.61405E-02
         0.15957E-02
         0.40024E-02
         0.34672E-02
        -0.15805E-02
         0.50201E-02
         0.95573E-02
         0.23013E-01
         0.20346E-01
         0.17862E-01
         0.13104E-01
        -0.31811E-02
        -0.66685E-02
        -0.83307E-02
        -0.10700E-01
        -0.21841E-01
        -0.12714E-01
        -0.83831E-02
        -0.10505E-01
        -0.12401E-01
        -0.12896E-01
        -0.91074E-03
         0.16029E-01
        -0.23018E-01
         0.53588E-01
         0.69204E-01
         0.89258E-01
         0.10699E+00
         0.10478E+00
         0.91575E-01
         0.87796E-01
         0.86829E-01
         0.54546E-01
         0.18033E-01
         0.71717E-02
         0.61957E-02
        -0.27525E-02
        -0.24195E-01
        -0.48457E-01
        -0.67357E-01
        -0.87575E-01
        -0.97083E-01
        -0.85270E-01
        -0.80633E-01
        -0.80313E-01
        -0.56448E-01
        -0.29277E-01
        -0.27697E-01
        -0.15064E-01
        -0.94802E-02
        -0.87872E-02
        -0.21562E-02
        -0.11391E-01
        -0.51407E-02
        -0.40853E-02
        -0.14312E-01
        -0.93923E-02
        -0.13594E-01
         0.70798E-02
         0.30530E-01
         0.18119E-01
         0.26010E-02
         0.30284E-01
         0.56977E-02
        -0.18068E-02
         0.16352E-02
         0.74542E-02
         0.13928E-02
         0.64825E-02
         0.45640E-02
        -0.26462E-02
         0.22129E-02
        -0.91837E-02
         0.21931E-02
         0.59560E-03
         0.10784E-02
        -0.15824E-02
        -0.90503E-02
         0.61402E-02
         0.15873E-02
         0.40114E-02
         0.34731E-02
        -0.15649E-02
         0.50237E-02
         0.95572E-02
         0.23049E-01
         0.20392E-01
         0.17886E-01
         0.13119E-01
        -0.31653E-02
        -0.66720E-02
        -0.83428E-02
        -0.10707E-01
        -0.21845E-01
        -0.12718E-01
        -0.83794E-02
        -0.10492E-01
        -0.12384E-01
        -0.12891E-01
        -0.89607E-03
         0.16014E-01
        -0.23019E-01
         0.53597E-01
         0.69205E-01
         0.89247E-01
         0.10696E+00
         0.10474E+00
         0.91547E-01
         0.87778E-01
         0.86805E-01
         0.54538E-01
         0.18046E-01
         0.71727E-02
         0.62079E-02
        -0.27290E-02
        -0.24211E-01
        -0.48488E-01
        -0.67378E-01
        -0.87573E-01
        -0.97077E-01
        -0.85264E-01
        -0.80630E-01
        -0.80293E-01
        -0.56408E-01
        -0.29245E-01
        -0.27661E-01
        -0.15072E-01
        -0.94799E-02
        -0.87914E-02
        -0.21722E-02
        -0.11392E-01
        -0.51449E-02
        -0.40888E-02
        -0.14332E-01
        -0.94096E-02
        -0.13639E-01
         0.70856E-02
         0.30529E-01
         0.18125E-01
         0.26030E-02
         0.30323E-01
         0.56987E-02
        -0.18240E-02
         0.16327E-02
         0.74600E-02
         0.13834E-02
         0.64992E-02
         0.45673E-02
        -0.26503E-02
         0.22096E-02
        -0.92195E-02
         0.21850E-02
         0.60585E-03
         0.10902E-02
        -0.15631E-02
        -0.90640E-02
         0.61396E-02
         0.15783E-02
         0.40206E-02
         0.34792E-02
        -0.15492E-02
         0.50275E-02
         0.95574E-02
         0.23085E-01
         0.20438E-01
         0.17911E-01
         0.13133E-01
        -0.31491E-02
        -0.66753E-02
        -0.83549E-02
        -0.10714E-01
        -0.21849E-01
        -0.12723E-01
        -0.83780E-02
        -0.10481E-01
        -0.12368E-01
        -0.12885E-01
        -0.88122E-03
         0.15999E-01
        -0.23020E-01
         0.53607E-01
         0.69205E-01
         0.89237E-01
         0.10692E+00
         0.10469E+00
         0.91519E-01
         0.87760E-01
         0.86780E-01
         0.54529E-01
         0.18059E-01
         0.71737E-02
         0.62202E-02
        -0.27054E-02
        -0.24227E-01
        -0.48519E-01
        -0.67399E-01
        -0.87571E-01
        -0.97071E-01
        -0.85260E-01
        -0.80628E-01
        -0.80272E-01
        -0.56367E-01
        -0.29212E-01
        -0.27624E-01
        -0.15080E-01
        -0.94794E-02
        -0.87957E-02
        -0.21884E-02
        -0.11394E-01
        -0.51490E-02
        -0.40915E-02
        -0.14352E-01
        -0.94271E-02
        -0.13683E-01
         0.70920E-02
         0.30527E-01
         0.18131E-01
         0.26054E-02
         0.30362E-01
         0.56998E-02
        -0.18413E-02
         0.16301E-02
         0.74658E-02
         0.13742E-02
         0.65159E-02
         0.45707E-02
        -0.26542E-02
         0.22063E-02
        -0.92548E-02
         0.21768E-02
         0.61649E-03
         0.11022E-02
        -0.15436E-02
        -0.90775E-02
         0.61390E-02
         0.15689E-02
         0.40299E-02
         0.34856E-02
        -0.15333E-02
         0.50317E-02
         0.95581E-02
         0.23122E-01
         0.20484E-01
         0.17935E-01
         0.13148E-01
        -0.31329E-02
        -0.66785E-02
        -0.83671E-02
        -0.10721E-01
        -0.21854E-01
        -0.12729E-01
        -0.83774E-02
        -0.10471E-01
        -0.12353E-01
        -0.12880E-01
        -0.86639E-03
         0.15983E-01
        -0.23022E-01
         0.53616E-01
         0.69206E-01
         0.89226E-01
         0.10688E+00
         0.10465E+00
         0.91491E-01
         0.87742E-01
         0.86756E-01
         0.54520E-01
         0.18073E-01
         0.71747E-02
         0.62326E-02
        -0.26818E-02
        -0.24243E-01
        -0.48550E-01
        -0.67419E-01
        -0.87569E-01
        -0.97065E-01
        -0.85256E-01
        -0.80626E-01
        -0.80251E-01
        -0.56327E-01
        -0.29180E-01
        -0.27587E-01
        -0.15088E-01
        -0.94787E-02
        -0.87999E-02
        -0.22046E-02
        -0.11395E-01
        -0.51531E-02
        -0.40943E-02
        -0.14371E-01
        -0.94446E-02
        -0.13726E-01
         0.70980E-02
         0.30526E-01
         0.18137E-01
         0.26080E-02
         0.30401E-01
         0.57009E-02
        -0.18588E-02
         0.16275E-02
         0.74715E-02
         0.13648E-02
         0.65325E-02
         0.45742E-02
        -0.26582E-02
         0.22031E-02
        -0.92901E-02
         0.21687E-02
         0.62740E-03
         0.11142E-02
        -0.15243E-02
        -0.90911E-02
         0.61383E-02
         0.15596E-02
         0.40393E-02
         0.34919E-02
        -0.15174E-02
         0.50355E-02
         0.95587E-02
         0.23159E-01
         0.20531E-01
         0.17959E-01
         0.13163E-01
        -0.31168E-02
        -0.66818E-02
        -0.83794E-02
        -0.10729E-01
        -0.21859E-01
        -0.12734E-01
        -0.83769E-02
        -0.10461E-01
        -0.12337E-01
        -0.12875E-01
        -0.85148E-03
         0.15968E-01
        -0.23023E-01
         0.53626E-01
         0.69206E-01
         0.89215E-01
         0.10685E+00
         0.10460E+00
         0.91464E-01
         0.87724E-01
         0.86731E-01
         0.54511E-01
         0.18086E-01
         0.71759E-02
         0.62452E-02
        -0.26583E-02
        -0.24258E-01
        -0.48580E-01
        -0.67439E-01
        -0.87566E-01
        -0.97058E-01
        -0.85252E-01
        -0.80625E-01
        -0.80229E-01
        -0.56286E-01
        -0.29148E-01
        -0.27551E-01
        -0.15095E-01
        -0.94780E-02
        -0.88040E-02
        -0.22207E-02
        -0.11397E-01
        -0.51571E-02
        -0.40971E-02
        -0.14390E-01
        -0.94621E-02
        -0.13770E-01
         0.71044E-02
         0.30524E-01
         0.18143E-01
         0.26103E-02
         0.30440E-01
         0.57020E-02
        -0.18763E-02
         0.16249E-02
         0.74772E-02
         0.13554E-02
         0.65491E-02
         0.45775E-02
        -0.26620E-02
         0.21999E-02
        -0.93253E-02
         0.21606E-02
         0.63801E-03
         0.11260E-02
        -0.15049E-02
        -0.91047E-02
         0.61376E-02
         0.15502E-02
         0.40485E-02
         0.34982E-02
        -0.15015E-02
         0.50397E-02
         0.95594E-02
         0.23196E-01
         0.20577E-01
         0.17984E-01
         0.13178E-01
        -0.31007E-02
        -0.66851E-02
        -0.83915E-02
        -0.10736E-01
        -0.21864E-01
        -0.12740E-01
        -0.83766E-02
        -0.10451E-01
        -0.12322E-01
        -0.12869E-01
        -0.83663E-03
         0.15953E-01
        -0.23024E-01
         0.53635E-01
         0.69207E-01
         0.89204E-01
         0.10681E+00
         0.10456E+00
         0.91436E-01
         0.87706E-01
         0.86706E-01
         0.54502E-01
         0.18099E-01
         0.71770E-02
         0.62578E-02
        -0.26348E-02
        -0.24274E-01
        -0.48611E-01
        -0.67459E-01
        -0.87564E-01
        -0.97052E-01
        -0.85248E-01
        -0.80623E-01
        -0.80208E-01
        -0.56246E-01
        -0.29117E-01
        -0.27514E-01
        -0.15103E-01
        -0.94772E-02
        -0.88082E-02
        -0.22368E-02
        -0.11398E-01
        -0.51612E-02
        -0.41001E-02
        -0.14410E-01
        -0.94796E-02
        -0.13814E-01
         0.71107E-02
         0.30523E-01
         0.18149E-01
         0.26129E-02
         0.30479E-01
         0.57031E-02
        -0.18939E-02
         0.16223E-02
         0.74829E-02
         0.13459E-02
         0.65658E-02
         0.45807E-02
        -0.26659E-02
         0.21967E-02
        -0.93605E-02
         0.21526E-02
         0.64881E-03
         0.11376E-02
        -0.14856E-02
        -0.91182E-02
         0.61369E-02
         0.15409E-02
         0.40578E-02
         0.35046E-02
        -0.14856E-02
         0.50437E-02
         0.95602E-02
         0.23233E-01
         0.20624E-01
         0.18008E-01
         0.13192E-01
        -0.30847E-02
        -0.66883E-02
        -0.84035E-02
        -0.10743E-01
        -0.21869E-01
        -0.12746E-01
        -0.83760E-02
        -0.10441E-01
        -0.12306E-01
        -0.12864E-01
        -0.82174E-03
         0.15938E-01
        -0.23025E-01
         0.53644E-01
         0.69207E-01
         0.89194E-01
         0.10678E+00
         0.10451E+00
         0.91408E-01
         0.87688E-01
         0.86681E-01
         0.54493E-01
         0.18112E-01
         0.71782E-02
         0.62702E-02
        -0.26113E-02
        -0.24290E-01
        -0.48642E-01
        -0.67479E-01
        -0.87561E-01
        -0.97045E-01
        -0.85244E-01
        -0.80621E-01
        -0.80187E-01
        -0.56206E-01
        -0.29085E-01
        -0.27478E-01
        -0.15110E-01
        -0.94765E-02
        -0.88124E-02
        -0.22531E-02
        -0.11399E-01
        -0.51653E-02
        -0.41028E-02
        -0.14429E-01
        -0.94973E-02
        -0.13857E-01
         0.71171E-02
         0.30521E-01
         0.18155E-01
         0.26154E-02
         0.30518E-01
         0.57043E-02
        -0.19115E-02
         0.16196E-02
         0.74886E-02
         0.13365E-02
         0.65824E-02
         0.45840E-02
        -0.26699E-02
         0.21936E-02
        -0.93956E-02
         0.21446E-02
         0.65938E-03
         0.11491E-02
        -0.14663E-02
        -0.91317E-02
         0.61362E-02
         0.15316E-02
         0.40671E-02
         0.35110E-02
        -0.14695E-02
         0.50477E-02
         0.95607E-02
         0.23270E-01
         0.20670E-01
         0.18032E-01
         0.13207E-01
        -0.30687E-02
        -0.66915E-02
        -0.84156E-02
        -0.10751E-01
        -0.21874E-01
        -0.12752E-01
        -0.83758E-02
        -0.10431E-01
        -0.12291E-01
        -0.12859E-01
        -0.80687E-03
         0.15923E-01
        -0.23026E-01
         0.53653E-01
         0.69208E-01
         0.89183E-01
         0.10674E+00
         0.10447E+00
         0.91380E-01
         0.87670E-01
         0.86656E-01
         0.54484E-01
         0.18125E-01
         0.71793E-02
         0.62826E-02
        -0.25876E-02
        -0.24306E-01
        -0.48673E-01
        -0.67499E-01
        -0.87559E-01
        -0.97039E-01
        -0.85240E-01
        -0.80619E-01
        -0.80165E-01
        -0.56165E-01
        -0.29053E-01
        -0.27441E-01
        -0.15118E-01
        -0.94757E-02
        -0.88166E-02
        -0.22694E-02
        -0.11401E-01
        -0.51694E-02
        -0.41056E-02
        -0.14448E-01
        -0.95148E-02
        -0.13901E-01
         0.71234E-02
         0.30520E-01
         0.18162E-01
         0.26176E-02
         0.30557E-01
         0.57053E-02
        -0.19291E-02
         0.16170E-02
         0.74942E-02
         0.13271E-02
         0.65991E-02
         0.45872E-02
        -0.26738E-02
         0.21905E-02
        -0.94306E-02
         0.21365E-02
         0.67024E-03
         0.11606E-02
        -0.14471E-02
        -0.91451E-02
         0.61354E-02
         0.15222E-02
         0.40763E-02
         0.35173E-02
        -0.14535E-02
         0.50519E-02
         0.95614E-02
         0.23308E-01
         0.20717E-01
         0.18057E-01
         0.13222E-01
        -0.30527E-02
        -0.66947E-02
        -0.84279E-02
        -0.10758E-01
        -0.21879E-01
        -0.12758E-01
        -0.83754E-02
        -0.10422E-01
        -0.12276E-01
        -0.12854E-01
        -0.79204E-03
         0.15908E-01
        -0.23027E-01
         0.53662E-01
         0.69208E-01
         0.89172E-01
         0.10670E+00
         0.10442E+00
         0.91352E-01
         0.87652E-01
         0.86631E-01
         0.54475E-01
         0.18138E-01
         0.71803E-02
         0.62951E-02
        -0.25640E-02
        -0.24321E-01
        -0.48704E-01
        -0.67520E-01
        -0.87557E-01
        -0.97033E-01
        -0.85236E-01
        -0.80618E-01
        -0.80144E-01
        -0.56125E-01
        -0.29022E-01
        -0.27404E-01
        -0.15126E-01
        -0.94751E-02
        -0.88208E-02
        -0.22856E-02
        -0.11402E-01
        -0.51735E-02
        -0.41087E-02
        -0.14467E-01
        -0.95324E-02
        -0.13944E-01
         0.71298E-02
         0.30518E-01
         0.18168E-01
         0.26201E-02
         0.30596E-01
         0.57064E-02
        -0.19467E-02
         0.16143E-02
         0.74999E-02
         0.13177E-02
         0.66157E-02
         0.45905E-02
        -0.26777E-02
         0.21874E-02
        -0.94656E-02
         0.21284E-02
         0.68082E-03
         0.11719E-02
        -0.14279E-02
        -0.91585E-02
         0.61347E-02
         0.15129E-02
         0.40855E-02
         0.35238E-02
        -0.14373E-02
         0.50559E-02
         0.95619E-02
         0.23345E-01
         0.20764E-01
         0.18081E-01
         0.13237E-01
        -0.30366E-02
        -0.66980E-02
        -0.84399E-02
        -0.10766E-01
        -0.21884E-01
        -0.12764E-01
        -0.83749E-02
        -0.10411E-01
        -0.12260E-01
        -0.12849E-01
        -0.77730E-03
         0.15892E-01
        -0.23028E-01
         0.53671E-01
         0.69209E-01
         0.89162E-01
         0.10667E+00
         0.10438E+00
         0.91324E-01
         0.87634E-01
         0.86605E-01
         0.54466E-01
         0.18151E-01
         0.71814E-02
         0.63076E-02
        -0.25406E-02
        -0.24337E-01
        -0.48735E-01
        -0.67540E-01
        -0.87554E-01
        -0.97026E-01
        -0.85232E-01
        -0.80616E-01
        -0.80123E-01
        -0.56085E-01
        -0.28991E-01
        -0.27368E-01
        -0.15133E-01
        -0.94744E-02
        -0.88250E-02
        -0.23019E-02
        -0.11404E-01
        -0.51775E-02
        -0.41115E-02
        -0.14486E-01
        -0.95501E-02
        -0.13988E-01
         0.71362E-02
         0.30517E-01
         0.18173E-01
         0.26222E-02
         0.30636E-01
         0.57075E-02
        -0.19645E-02
         0.16117E-02
         0.75056E-02
         0.13083E-02
         0.66324E-02
         0.45937E-02
        -0.26815E-02
         0.21843E-02
        -0.95007E-02
         0.21203E-02
         0.69159E-03
         0.11829E-02
        -0.14088E-02
        -0.91720E-02
         0.61340E-02
         0.15035E-02
         0.40948E-02
         0.35302E-02
        -0.14212E-02
         0.50601E-02
         0.95625E-02
         0.23383E-01
         0.20811E-01
         0.18105E-01
         0.13251E-01
        -0.30206E-02
        -0.67012E-02
        -0.84520E-02
        -0.10773E-01
        -0.21889E-01
        -0.12769E-01
        -0.83747E-02
        -0.10401E-01
        -0.12245E-01
        -0.12844E-01
        -0.76245E-03
         0.15877E-01
        -0.23029E-01
         0.53680E-01
         0.69210E-01
         0.89151E-01
         0.10663E+00
         0.10433E+00
         0.91296E-01
         0.87616E-01
         0.86579E-01
         0.54457E-01
         0.18164E-01
         0.71825E-02
         0.63201E-02
        -0.25170E-02
        -0.24353E-01
        -0.48766E-01
        -0.67560E-01
        -0.87552E-01
        -0.97020E-01
        -0.85228E-01
        -0.80614E-01
        -0.80101E-01
        -0.56044E-01
        -0.28959E-01
        -0.27331E-01
        -0.15140E-01
        -0.94735E-02
        -0.88292E-02
        -0.23181E-02
        -0.11405E-01
        -0.51816E-02
        -0.41144E-02
        -0.14505E-01
        -0.95678E-02
        -0.14031E-01
         0.71425E-02
         0.30515E-01
         0.18180E-01
         0.26247E-02
         0.30674E-01
         0.57086E-02
        -0.19823E-02
         0.16091E-02
         0.75113E-02
         0.12989E-02
         0.66491E-02
         0.45967E-02
        -0.26854E-02
         0.21813E-02
        -0.95358E-02
         0.21122E-02
         0.70207E-03
         0.11939E-02
        -0.13897E-02
        -0.91854E-02
         0.61332E-02
         0.14941E-02
         0.41040E-02
         0.35366E-02
        -0.14050E-02
         0.50640E-02
         0.95632E-02
         0.23420E-01
         0.20857E-01
         0.18129E-01
         0.13266E-01
        -0.30046E-02
        -0.67046E-02
        -0.84639E-02
        -0.10781E-01
        -0.21894E-01
        -0.12775E-01
        -0.83742E-02
        -0.10392E-01
        -0.12229E-01
        -0.12838E-01
        -0.74761E-03
         0.15862E-01
        -0.23030E-01
         0.53688E-01
         0.69210E-01
         0.89140E-01
         0.10659E+00
         0.10429E+00
         0.91267E-01
         0.87598E-01
         0.86554E-01
         0.54449E-01
         0.18178E-01
         0.71835E-02
         0.63324E-02
        -0.24934E-02
        -0.24368E-01
        -0.48797E-01
        -0.67580E-01
        -0.87550E-01
        -0.97014E-01
        -0.85224E-01
        -0.80612E-01
        -0.80080E-01
        -0.56004E-01
        -0.28928E-01
        -0.27295E-01
        -0.15148E-01
        -0.94728E-02
        -0.88334E-02
        -0.23343E-02
        -0.11407E-01
        -0.51857E-02
        -0.41174E-02
        -0.14524E-01
        -0.95856E-02
        -0.14074E-01
         0.71489E-02
         0.30514E-01
         0.18186E-01
         0.26267E-02
         0.30714E-01
         0.57097E-02
        -0.20003E-02
         0.16064E-02
         0.75170E-02
         0.12896E-02
         0.66657E-02
         0.45997E-02
        -0.26893E-02
         0.21783E-02
        -0.95708E-02
         0.21040E-02
         0.71283E-03
         0.12047E-02
        -0.13707E-02
        -0.91985E-02
         0.61324E-02
         0.14848E-02
         0.41131E-02
         0.35431E-02
        -0.13887E-02
         0.50681E-02
         0.95637E-02
         0.23458E-01
         0.20904E-01
         0.18152E-01
         0.13281E-01
        -0.29887E-02
        -0.67079E-02
        -0.84760E-02
        -0.10788E-01
        -0.21899E-01
        -0.12781E-01
        -0.83740E-02
        -0.10382E-01
        -0.12214E-01
        -0.12833E-01
        -0.73289E-03
         0.15846E-01
        -0.23031E-01
         0.53697E-01
         0.69211E-01
         0.89129E-01
         0.10656E+00
         0.10424E+00
         0.91239E-01
         0.87580E-01
         0.86527E-01
         0.54440E-01
         0.18191E-01
         0.71843E-02
         0.63446E-02
        -0.24700E-02
        -0.24384E-01
        -0.48827E-01
        -0.67600E-01
        -0.87548E-01
        -0.97007E-01
        -0.85220E-01
        -0.80610E-01
        -0.80058E-01
        -0.55964E-01
        -0.28897E-01
        -0.27258E-01
        -0.15155E-01
        -0.94720E-02
        -0.88376E-02
        -0.23507E-02
        -0.11408E-01
        -0.51897E-02
        -0.41203E-02
        -0.14543E-01
        -0.96035E-02
        -0.14118E-01
         0.71553E-02
         0.30512E-01
         0.18192E-01
         0.26291E-02
         0.30753E-01
         0.57108E-02
        -0.20184E-02
         0.16036E-02
         0.75226E-02
         0.12807E-02
         0.66823E-02
         0.46026E-02
        -0.26932E-02
         0.21752E-02
        -0.96058E-02
         0.20960E-02
         0.72349E-03
         0.12155E-02
        -0.13517E-02
        -0.92109E-02
         0.61317E-02
         0.14753E-02
         0.41223E-02
         0.35495E-02
        -0.13724E-02
         0.50723E-02
         0.95643E-02
         0.23496E-01
         0.20950E-01
         0.18175E-01
         0.13295E-01
        -0.29727E-02
        -0.67114E-02
        -0.84881E-02
        -0.10796E-01
        -0.21904E-01
        -0.12787E-01
        -0.83736E-02
        -0.10372E-01
        -0.12198E-01
        -0.12828E-01
        -0.71815E-03
         0.15831E-01
        -0.23032E-01
         0.53706E-01
         0.69211E-01
         0.89119E-01
         0.10652E+00
         0.10419E+00
         0.91211E-01
         0.87562E-01
         0.86500E-01
         0.54433E-01
         0.18204E-01
         0.71846E-02
         0.63569E-02
        -0.24466E-02
        -0.24399E-01
        -0.48858E-01
        -0.67620E-01
        -0.87545E-01
        -0.97001E-01
        -0.85216E-01
        -0.80608E-01
        -0.80037E-01
        -0.55924E-01
        -0.28866E-01
        -0.27221E-01
        -0.15163E-01
        -0.94713E-02
        -0.88417E-02
        -0.23670E-02
        -0.11410E-01
        -0.51936E-02
        -0.41232E-02
        -0.14562E-01
        -0.96216E-02
        -0.14161E-01
         0.71616E-02
         0.30511E-01
         0.18198E-01
         0.26314E-02
         0.30792E-01
         0.57118E-02
        -0.20368E-02
         0.16009E-02
         0.75283E-02
         0.12722E-02
         0.66989E-02
         0.46054E-02
        -0.26971E-02
         0.21722E-02
        -0.96409E-02
         0.20878E-02
         0.73461E-03
         0.12261E-02
        -0.13327E-02
        -0.92225E-02
         0.61308E-02
         0.14659E-02
         0.41314E-02
         0.35559E-02
        -0.13560E-02
         0.50763E-02
         0.95649E-02
         0.23535E-01
         0.20996E-01
         0.18197E-01
         0.13309E-01
        -0.29567E-02
        -0.67150E-02
        -0.85001E-02
        -0.10803E-01
        -0.21909E-01
        -0.12793E-01
        -0.83731E-02
        -0.10362E-01
        -0.12183E-01
        -0.12823E-01
        -0.70330E-03
         0.15816E-01
        -0.23033E-01
         0.53715E-01
         0.69211E-01
         0.89108E-01
         0.10648E+00
         0.10415E+00
         0.91184E-01
         0.87543E-01
         0.86471E-01
         0.54426E-01
         0.18218E-01
         0.71843E-02
         0.63691E-02
        -0.24230E-02
        -0.24415E-01
        -0.48889E-01
        -0.67641E-01
        -0.87543E-01
        -0.96995E-01
        -0.85212E-01
        -0.80606E-01
        -0.80015E-01
        -0.55883E-01
        -0.28835E-01
        -0.27185E-01
        -0.15170E-01
        -0.94706E-02
        -0.88462E-02
        -0.23832E-02
        -0.11411E-01
        -0.51977E-02
        -0.41263E-02
        -0.14581E-01
        -0.96398E-02
        -0.14204E-01
         0.71680E-02
         0.30509E-01
         0.18204E-01
         0.26334E-02
         0.30831E-01
         0.57130E-02
        -0.20553E-02
         0.15982E-02
         0.75341E-02
         0.12640E-02
         0.67156E-02
         0.46082E-02
        -0.27007E-02
         0.21694E-02
        -0.96759E-02
         0.20800E-02
         0.74544E-03
         0.12363E-02
        -0.13140E-02
        -0.92338E-02
         0.61301E-02
         0.14567E-02
         0.41406E-02
         0.35625E-02
        -0.13398E-02
         0.50802E-02
         0.95652E-02
         0.23573E-01
         0.21042E-01
         0.18217E-01
         0.13323E-01
        -0.29410E-02
        -0.67189E-02
        -0.85119E-02
        -0.10810E-01
        -0.21914E-01
        -0.12799E-01
        -0.83728E-02
        -0.10352E-01
        -0.12167E-01
        -0.12818E-01
        -0.68856E-03
         0.15800E-01
        -0.23034E-01
         0.53723E-01
         0.69212E-01
         0.89097E-01
         0.10645E+00
         0.10410E+00
         0.91156E-01
         0.87525E-01
         0.86442E-01
         0.54419E-01
         0.18231E-01
         0.71836E-02
         0.63813E-02
        -0.23995E-02
        -0.24430E-01
        -0.48920E-01
        -0.67661E-01
        -0.87541E-01
        -0.96988E-01
        -0.85208E-01
        -0.80604E-01
        -0.79993E-01
        -0.55843E-01
        -0.28805E-01
        -0.27148E-01
        -0.15237E-01
        -0.95087E-02
        -0.88868E-02
        -0.24083E-02
        -0.11458E-01
        -0.52216E-02
        -0.41462E-02
        -0.14655E-01
        -0.96946E-02
        -0.14299E-01
         0.72018E-02
         0.30622E-01
         0.18278E-01
         0.26456E-02
         0.30986E-01
         0.57370E-02
        -0.20809E-02
         0.16018E-02
         0.75689E-02
         0.12615E-02
         0.67561E-02
         0.46282E-02
        -0.27122E-02
         0.21766E-02
        -0.97473E-02
         0.20829E-02
         0.75828E-03
         0.12490E-02
        -0.13039E-02
        -0.92822E-02
         0.61546E-02
         0.14559E-02
         0.41656E-02
         0.35829E-02
        -0.13302E-02
         0.51014E-02
         0.96000E-02
         0.23700E-01
         0.21167E-01
         0.18308E-01
         0.13387E-01
        -0.29403E-02
        -0.67500E-02
        -0.85510E-02
        -0.10854E-01
        -0.21996E-01
        -0.12849E-01
        -0.84013E-02
        -0.10381E-01
        -0.12198E-01
        -0.12861E-01
        -0.67659E-03
         0.15841E-01
        -0.23121E-01
         0.53926E-01
         0.69462E-01
         0.89414E-01
         0.10681E+00
         0.10446E+00
         0.91483E-01
         0.87847E-01
         0.86753E-01
         0.54622E-01
         0.18308E-01
         0.72066E-02
         0.64146E-02
        -0.23853E-02
        -0.24524E-01
        -0.49109E-01
        -0.67914E-01
        -0.87859E-01
        -0.97337E-01
        -0.85505E-01
        -0.80882E-01
        -0.80254E-01
        -0.56004E-01
        -0.28877E-01
        -0.27209E-01
        -0.22698E-01
        -0.14222E-01
        -0.13218E-01
        -0.36132E-02
        -0.16448E-01
        -0.75715E-02
        -0.61898E-02
        -0.21735E-01
        -0.14420E-01
        -0.21167E-01
         0.10567E-01
         0.43148E-01
         0.26147E-01
         0.38659E-02
         0.43916E-01
         0.85554E-02
        -0.31131E-02
         0.23870E-02
         0.11138E-01
         0.18558E-02
         0.96748E-02
         0.67041E-02
        -0.38860E-02
         0.32266E-02
        -0.14573E-01
         0.31125E-02
         0.11265E-02
         0.18680E-02
        -0.19407E-02
        -0.13852E-01
         0.91788E-02
         0.21638E-02
         0.62336E-02
         0.53540E-02
        -0.18485E-02
         0.73846E-02
         0.13897E-01
         0.34335E-01
         0.31110E-01
         0.27000E-01
         0.19471E-01
        -0.42995E-02
        -0.98900E-02
        -0.12349E-01
        -0.15621E-01
        -0.30750E-01
        -0.18430E-01
        -0.12195E-01
        -0.15144E-01
        -0.17715E-01
        -0.18235E-01
        -0.96231E-03
         0.19757E-01
        -0.28824E-01
         0.67230E-01
         0.86841E-01
         0.11170E+00
         0.13374E+00
         0.13225E+00
         0.11682E+00
         0.11197E+00
         0.10992E+00
         0.69295E-01
         0.23186E-01
         0.92238E-02
         0.82495E-02
        -0.30054E-02
        -0.30748E-01
        -0.61389E-01
        -0.84417E-01
        -0.10913E+00
        -0.12104E+00
        -0.10744E+00
        -0.10209E+00
        -0.10092E+00
        -0.70654E-01
        -0.36311E-01
        -0.34084E-01
  
SCALARS                      strain_xz  double 1
LOOKUP_TABLE default
        -0.27689E-02
         0.18828E-01
         0.63614E-01
        -0.45527E-02
        -0.24970E-09
         0.88537E-10
         0.29605E-09
         0.59126E-10
         0.17461E+00
         0.11814E+00
         0.88551E-09
         0.79761E-09
        -0.70631E-02
         0.28762E-01
        -0.10921E-09
        -0.51161E-09
         0.66170E-02
         0.27684E-01
        -0.36956E-09
        -0.55039E-09
         0.38870E-01
         0.63298E-01
         0.63256E-01
        -0.36752E-09
        -0.16948E-09
         0.29608E-09
         0.66956E-01
         0.51667E-01
        -0.68796E-09
        -0.54573E-09
        -0.15452E-01
         0.32727E-01
        -0.34362E-02
         0.70043E-10
        -0.27067E-09
        -0.16676E-09
        -0.44603E-01
        -0.20207E-01
        -0.40187E-09
        -0.42788E-09
        -0.86766E-01
        -0.11714E+00
        -0.90649E-09
        -0.66849E-09
        -0.96604E-01
        -0.52356E-01
        -0.99548E-09
        -0.47915E-09
         0.24403E-01
        -0.30076E-09
        -0.66978E-01
        -0.83722E-10
         0.23978E-01
        -0.58769E-09
        -0.17628E-01
        -0.15546E-09
        -0.77142E-01
        -0.22385E-01
        -0.13317E-09
        -0.32190E-09
         0.16484E-02
        -0.44651E-01
         0.26636E-09
         0.18266E-09
         0.11944E-01
        -0.26792E-10
         0.39131E-01
         0.17623E-09
         0.24284E+00
         0.16548E+00
         0.11015E-08
         0.79887E-09
         0.10503E+00
         0.58168E-09
        -0.20967E-01
        -0.40238E-09
        -0.65011E-01
        -0.78973E-10
        -0.13845E+00
        -0.12252E-09
        -0.18780E+00
        -0.13686E+00
        -0.44902E-09
        -0.51352E-09
        -0.12719E+00
        -0.55227E-09
        -0.11703E+00
        -0.79513E-09
        -0.71300E-01
        -0.50715E-09
        -0.11019E+00
        -0.80269E-01
        -0.21645E-09
         0.29683E-09
         0.18580E-01
         0.34817E-09
         0.51448E-01
         0.14619E-09
         0.12255E+00
         0.36101E-09
         0.18059E+00
         0.12496E+00
         0.83240E-09
         0.86861E-09
         0.42254E+00
         0.47779E+00
         0.15381E-08
         0.15157E-08
         0.41660E+00
         0.13140E-08
         0.38900E+00
         0.98195E-09
         0.27242E+00
         0.53963E-09
         0.18729E+00
         0.57704E-10
         0.65746E-01
        -0.20552E-09
        -0.81887E-01
        -0.16443E-09
        -0.19474E+00
        -0.16162E-09
        -0.28967E+00
        -0.36446E-09
        -0.40427E+00
        -0.69339E-09
        -0.52488E+00
        -0.82743E-09
        -0.59846E+00
        -0.78070E-09
        -0.59343E+00
        -0.84895E-09
        -0.56540E+00
        -0.11018E-08
        -0.52146E+00
        -0.12993E-08
        -0.45937E+00
        -0.12078E-08
        -0.34375E+00
        -0.98158E-09
        -0.19309E+00
        -0.46339E-09
        -0.16288E-01
         0.88486E-10
         0.10879E+00
         0.21483E-09
         0.17244E+00
         0.35129E-09
         0.25415E+00
         0.68750E-09
         0.33536E+00
         0.11281E-08
         0.44758E+00
         0.13554E-08
         0.52448E+00
         0.13863E-08
        -0.23541E-02
         0.12222E-02
         0.14345E-02
        -0.28979E-02
         0.11139E-01
         0.86529E-02
         0.12991E-02
        -0.19144E-02
        -0.99247E-03
        -0.17612E-02
         0.95776E-03
         0.41425E-02
         0.86816E-02
        -0.27773E-02
        -0.33349E-02
         0.38561E-02
         0.32342E-02
        -0.15016E-02
        -0.23250E-02
        -0.25038E-02
        -0.13667E-01
        -0.14568E-01
        -0.13130E-01
        -0.40823E-02
         0.16400E-02
        -0.12219E-02
        -0.39117E-02
        -0.43878E-03
        -0.44756E-02
        -0.30915E-02
         0.34418E-02
         0.67316E-03
        -0.16218E-02
        -0.52333E-03
         0.16354E-01
         0.10468E-01
         0.94922E-02
        -0.66297E-02
        -0.37750E-02
        -0.80398E-02
        -0.16487E-01
        -0.15491E-01
        -0.15387E-01
        -0.11302E-01
        -0.80833E-02
        -0.62844E-02
         0.11866E-02
         0.49797E-02
         0.14396E-02
         0.45472E-02
         0.12094E-01
         0.10246E-01
         0.47177E-01
         0.49928E-01
         0.44579E-01
         0.37997E-01
         0.28288E-01
         0.14356E-01
        -0.84777E-03
        -0.10158E-01
        -0.15485E-01
        -0.26577E-01
        -0.43225E-01
        -0.53225E-01
        -0.48917E-01
        -0.46970E-01
        -0.49741E-01
        -0.49820E-01
        -0.45263E-01
        -0.39527E-01
        -0.19797E-01
         0.31392E-02
         0.12110E-01
         0.13496E-01
         0.22839E-01
         0.36330E-01
         0.47396E-01
         0.49915E-01
        -0.50994E-02
         0.10468E-02
        -0.19929E-02
        -0.58028E-02
         0.11903E-01
         0.10172E-01
         0.29636E-02
        -0.64694E-02
        -0.29726E-02
        -0.61504E-02
        -0.12425E-02
         0.45328E-02
         0.14913E-01
        -0.11436E-01
        -0.11845E-01
         0.10019E-01
         0.55774E-02
        -0.33406E-02
        -0.22481E-02
        -0.39481E-02
        -0.23425E-01
        -0.22324E-01
        -0.22030E-01
        -0.53286E-02
         0.30266E-02
         0.20379E-02
        -0.11051E-01
         0.14674E-02
        -0.36986E-02
        -0.50437E-02
         0.76972E-02
         0.49808E-02
        -0.49923E-02
        -0.43086E-02
         0.21227E-01
         0.11716E-01
         0.13439E-01
        -0.13136E-01
        -0.21993E-02
        -0.63766E-02
        -0.23426E-01
        -0.24097E-01
        -0.23554E-01
        -0.17032E-01
        -0.13116E-01
        -0.76739E-02
         0.82940E-02
         0.97916E-02
        -0.12943E-02
         0.15584E-02
         0.15974E-01
         0.14071E-01
         0.88657E-01
         0.89339E-01
         0.80189E-01
         0.66140E-01
         0.49343E-01
         0.22721E-01
        -0.56420E-02
        -0.18286E-01
        -0.24090E-01
        -0.44153E-01
        -0.78429E-01
        -0.92525E-01
        -0.77617E-01
        -0.73849E-01
        -0.81347E-01
        -0.83767E-01
        -0.76450E-01
        -0.72300E-01
        -0.36841E-01
         0.95748E-02
         0.21181E-01
         0.21462E-01
         0.38152E-01
         0.66060E-01
         0.84551E-01
         0.84286E-01
        -0.51091E-02
         0.10507E-02
        -0.19967E-02
        -0.58067E-02
         0.11891E-01
         0.10162E-01
         0.29824E-02
        -0.64530E-02
        -0.29759E-02
        -0.61456E-02
        -0.12174E-02
         0.45438E-02
         0.14922E-01
        -0.11408E-01
        -0.11838E-01
         0.10029E-01
         0.55897E-02
        -0.33314E-02
        -0.22470E-02
        -0.39412E-02
        -0.23422E-01
        -0.22322E-01
        -0.22028E-01
        -0.53289E-02
         0.30334E-02
         0.20413E-02
        -0.11055E-01
         0.14398E-02
        -0.37246E-02
        -0.50469E-02
         0.77084E-02
         0.49801E-02
        -0.49715E-02
        -0.43106E-02
         0.21238E-01
         0.11711E-01
         0.13435E-01
        -0.13157E-01
        -0.22204E-02
        -0.63967E-02
        -0.23440E-01
        -0.24111E-01
        -0.23556E-01
        -0.17029E-01
        -0.13111E-01
        -0.76700E-02
         0.82924E-02
         0.97949E-02
        -0.12849E-02
         0.15531E-02
         0.15963E-01
         0.14051E-01
         0.88626E-01
         0.89316E-01
         0.80182E-01
         0.66141E-01
         0.49328E-01
         0.22715E-01
        -0.56484E-02
        -0.18298E-01
        -0.24070E-01
        -0.44135E-01
        -0.78417E-01
        -0.92527E-01
        -0.77610E-01
        -0.73844E-01
        -0.81358E-01
        -0.83784E-01
        -0.76463E-01
        -0.72314E-01
        -0.36831E-01
         0.95792E-02
         0.21166E-01
         0.21453E-01
         0.38124E-01
         0.66020E-01
         0.84509E-01
         0.84248E-01
        -0.51187E-02
         0.10545E-02
        -0.20004E-02
        -0.58106E-02
         0.11879E-01
         0.10153E-01
         0.30014E-02
        -0.64366E-02
        -0.29789E-02
        -0.61404E-02
        -0.11923E-02
         0.45548E-02
         0.14931E-01
        -0.11380E-01
        -0.11832E-01
         0.10040E-01
         0.56022E-02
        -0.33220E-02
        -0.22459E-02
        -0.39344E-02
        -0.23420E-01
        -0.22319E-01
        -0.22027E-01
        -0.53292E-02
         0.30407E-02
         0.20449E-02
        -0.11058E-01
         0.14126E-02
        -0.37508E-02
        -0.50501E-02
         0.77199E-02
         0.49797E-02
        -0.49506E-02
        -0.43125E-02
         0.21248E-01
         0.11706E-01
         0.13430E-01
        -0.13178E-01
        -0.22415E-02
        -0.64170E-02
        -0.23455E-01
        -0.24125E-01
        -0.23557E-01
        -0.17027E-01
        -0.13107E-01
        -0.76663E-02
         0.82909E-02
         0.97981E-02
        -0.12752E-02
         0.15476E-02
         0.15953E-01
         0.14030E-01
         0.88596E-01
         0.89293E-01
         0.80175E-01
         0.66141E-01
         0.49313E-01
         0.22708E-01
        -0.56549E-02
        -0.18309E-01
        -0.24050E-01
        -0.44118E-01
        -0.78405E-01
        -0.92529E-01
        -0.77603E-01
        -0.73840E-01
        -0.81368E-01
        -0.83803E-01
        -0.76477E-01
        -0.72328E-01
        -0.36820E-01
         0.95835E-02
         0.21150E-01
         0.21445E-01
         0.38096E-01
         0.65980E-01
         0.84467E-01
         0.84211E-01
        -0.51284E-02
         0.10585E-02
        -0.20041E-02
        -0.58144E-02
         0.11868E-01
         0.10144E-01
         0.30201E-02
        -0.64202E-02
        -0.29816E-02
        -0.61343E-02
        -0.11672E-02
         0.45661E-02
         0.14940E-01
        -0.11352E-01
        -0.11826E-01
         0.10051E-01
         0.56152E-02
        -0.33127E-02
        -0.22449E-02
        -0.39274E-02
        -0.23419E-01
        -0.22318E-01
        -0.22027E-01
        -0.53295E-02
         0.30493E-02
         0.20495E-02
        -0.11061E-01
         0.13862E-02
        -0.37768E-02
        -0.50530E-02
         0.77324E-02
         0.49802E-02
        -0.49296E-02
        -0.43144E-02
         0.21259E-01
         0.11700E-01
         0.13426E-01
        -0.13199E-01
        -0.22625E-02
        -0.64371E-02
        -0.23471E-01
        -0.24141E-01
        -0.23560E-01
        -0.17025E-01
        -0.13101E-01
        -0.76621E-02
         0.82897E-02
         0.98015E-02
        -0.12655E-02
         0.15421E-02
         0.15943E-01
         0.14009E-01
         0.88566E-01
         0.89270E-01
         0.80168E-01
         0.66142E-01
         0.49298E-01
         0.22701E-01
        -0.56614E-02
        -0.18320E-01
        -0.24030E-01
        -0.44100E-01
        -0.78393E-01
        -0.92532E-01
        -0.77597E-01
        -0.73837E-01
        -0.81380E-01
        -0.83825E-01
        -0.76492E-01
        -0.72342E-01
        -0.36810E-01
         0.95879E-02
         0.21135E-01
         0.21436E-01
         0.38068E-01
         0.65939E-01
         0.84425E-01
         0.84174E-01
        -0.51380E-02
         0.10624E-02
        -0.20078E-02
        -0.58182E-02
         0.11856E-01
         0.10135E-01
         0.30390E-02
        -0.64036E-02
        -0.29839E-02
        -0.61273E-02
        -0.11421E-02
         0.45772E-02
         0.14949E-01
        -0.11324E-01
        -0.11819E-01
         0.10064E-01
         0.56288E-02
        -0.33033E-02
        -0.22437E-02
        -0.39204E-02
        -0.23418E-01
        -0.22317E-01
        -0.22028E-01
        -0.53298E-02
         0.30594E-02
         0.20547E-02
        -0.11063E-01
         0.13606E-02
        -0.38028E-02
        -0.50558E-02
         0.77456E-02
         0.49814E-02
        -0.49085E-02
        -0.43164E-02
         0.21269E-01
         0.11695E-01
         0.13422E-01
        -0.13220E-01
        -0.22834E-02
        -0.64574E-02
        -0.23486E-01
        -0.24157E-01
        -0.23565E-01
        -0.17024E-01
        -0.13096E-01
        -0.76577E-02
         0.82887E-02
         0.98052E-02
        -0.12559E-02
         0.15367E-02
         0.15933E-01
         0.13988E-01
         0.88535E-01
         0.89247E-01
         0.80160E-01
         0.66142E-01
         0.49283E-01
         0.22694E-01
        -0.56678E-02
        -0.18332E-01
        -0.24009E-01
        -0.44083E-01
        -0.78381E-01
        -0.92535E-01
        -0.77594E-01
        -0.73834E-01
        -0.81393E-01
        -0.83849E-01
        -0.76509E-01
        -0.72356E-01
        -0.36800E-01
         0.95923E-02
         0.21119E-01
         0.21428E-01
         0.38040E-01
         0.65899E-01
         0.84383E-01
         0.84136E-01
        -0.51472E-02
         0.10667E-02
        -0.20111E-02
        -0.58219E-02
         0.11845E-01
         0.10125E-01
         0.30580E-02
        -0.63867E-02
        -0.29861E-02
        -0.61201E-02
        -0.11170E-02
         0.45882E-02
         0.14958E-01
        -0.11296E-01
        -0.11813E-01
         0.10076E-01
         0.56424E-02
        -0.32938E-02
        -0.22424E-02
        -0.39136E-02
        -0.23418E-01
        -0.22316E-01
        -0.22030E-01
        -0.53303E-02
         0.30693E-02
         0.20600E-02
        -0.11065E-01
         0.13352E-02
        -0.38290E-02
        -0.50591E-02
         0.77588E-02
         0.49825E-02
        -0.48872E-02
        -0.43181E-02
         0.21280E-01
         0.11690E-01
         0.13418E-01
        -0.13241E-01
        -0.23043E-02
        -0.64778E-02
        -0.23502E-01
        -0.24173E-01
        -0.23570E-01
        -0.17024E-01
        -0.13091E-01
        -0.76539E-02
         0.82875E-02
         0.98087E-02
        -0.12459E-02
         0.15317E-02
         0.15923E-01
         0.13968E-01
         0.88505E-01
         0.89224E-01
         0.80153E-01
         0.66142E-01
         0.49267E-01
         0.22687E-01
        -0.56740E-02
        -0.18343E-01
        -0.23989E-01
        -0.44065E-01
        -0.78368E-01
        -0.92539E-01
        -0.77591E-01
        -0.73832E-01
        -0.81406E-01
        -0.83875E-01
        -0.76526E-01
        -0.72369E-01
        -0.36790E-01
         0.95962E-02
         0.21104E-01
         0.21419E-01
         0.38012E-01
         0.65859E-01
         0.84342E-01
         0.84098E-01
        -0.51556E-02
         0.10719E-02
        -0.20137E-02
        -0.58255E-02
         0.11833E-01
         0.10116E-01
         0.30772E-02
        -0.63695E-02
        -0.29885E-02
        -0.61133E-02
        -0.10918E-02
         0.45993E-02
         0.14967E-01
        -0.11267E-01
        -0.11806E-01
         0.10089E-01
         0.56554E-02
        -0.32843E-02
        -0.22414E-02
        -0.39070E-02
        -0.23418E-01
        -0.22315E-01
        -0.22032E-01
        -0.53309E-02
         0.30782E-02
         0.20647E-02
        -0.11067E-01
         0.13092E-02
        -0.38554E-02
        -0.50628E-02
         0.77713E-02
         0.49827E-02
        -0.48654E-02
        -0.43193E-02
         0.21292E-01
         0.11686E-01
         0.13414E-01
        -0.13261E-01
        -0.23254E-02
        -0.64985E-02
        -0.23519E-01
        -0.24190E-01
        -0.23576E-01
        -0.17023E-01
        -0.13087E-01
        -0.76504E-02
         0.82857E-02
         0.98120E-02
        -0.12352E-02
         0.15279E-02
         0.15915E-01
         0.13948E-01
         0.88475E-01
         0.89201E-01
         0.80146E-01
         0.66142E-01
         0.49252E-01
         0.22680E-01
        -0.56803E-02
        -0.18354E-01
        -0.23969E-01
        -0.44048E-01
        -0.78355E-01
        -0.92543E-01
        -0.77588E-01
        -0.73829E-01
        -0.81419E-01
        -0.83901E-01
        -0.76543E-01
        -0.72382E-01
        -0.36779E-01
         0.95994E-02
         0.21087E-01
         0.21411E-01
         0.37985E-01
         0.65819E-01
         0.84300E-01
         0.84061E-01
        -0.51637E-02
         0.10773E-02
        -0.20158E-02
        -0.58290E-02
         0.11822E-01
         0.10107E-01
         0.30968E-02
        -0.63520E-02
        -0.29909E-02
        -0.61067E-02
        -0.10665E-02
         0.46104E-02
         0.14976E-01
        -0.11239E-01
        -0.11800E-01
         0.10102E-01
         0.56682E-02
        -0.32748E-02
        -0.22402E-02
        -0.39008E-02
        -0.23418E-01
        -0.22314E-01
        -0.22034E-01
        -0.53314E-02
         0.30864E-02
         0.20691E-02
        -0.11070E-01
         0.12831E-02
        -0.38821E-02
        -0.50669E-02
         0.77834E-02
         0.49824E-02
        -0.48434E-02
        -0.43203E-02
         0.21303E-01
         0.11682E-01
         0.13411E-01
        -0.13282E-01
        -0.23465E-02
        -0.65192E-02
        -0.23535E-01
        -0.24208E-01
        -0.23582E-01
        -0.17023E-01
        -0.13083E-01
        -0.76476E-02
         0.82835E-02
         0.98151E-02
        -0.12241E-02
         0.15245E-02
         0.15906E-01
         0.13928E-01
         0.88444E-01
         0.89178E-01
         0.80138E-01
         0.66143E-01
         0.49237E-01
         0.22673E-01
        -0.56866E-02
        -0.18365E-01
        -0.23949E-01
        -0.44031E-01
        -0.78342E-01
        -0.92546E-01
        -0.77585E-01
        -0.73827E-01
        -0.81432E-01
        -0.83926E-01
        -0.76561E-01
        -0.72394E-01
        -0.36768E-01
         0.96025E-02
         0.21071E-01
         0.21403E-01
         0.37958E-01
         0.65779E-01
         0.84258E-01
         0.84024E-01
        -0.51718E-02
         0.10828E-02
        -0.20180E-02
        -0.58325E-02
         0.11811E-01
         0.10097E-01
         0.31162E-02
        -0.63347E-02
        -0.29934E-02
        -0.61003E-02
        -0.10413E-02
         0.46215E-02
         0.14986E-01
        -0.11211E-01
        -0.11793E-01
         0.10114E-01
         0.56810E-02
        -0.32653E-02
        -0.22390E-02
        -0.38943E-02
        -0.23417E-01
        -0.22314E-01
        -0.22036E-01
        -0.53322E-02
         0.30946E-02
         0.20735E-02
        -0.11072E-01
         0.12570E-02
        -0.39088E-02
        -0.50709E-02
         0.77955E-02
         0.49821E-02
        -0.48214E-02
        -0.43214E-02
         0.21315E-01
         0.11678E-01
         0.13408E-01
        -0.13303E-01
        -0.23677E-02
        -0.65398E-02
        -0.23551E-01
        -0.24224E-01
        -0.23588E-01
        -0.17023E-01
        -0.13080E-01
        -0.76447E-02
         0.82814E-02
         0.98181E-02
        -0.12129E-02
         0.15213E-02
         0.15898E-01
         0.13908E-01
         0.88414E-01
         0.89155E-01
         0.80130E-01
         0.66143E-01
         0.49222E-01
         0.22666E-01
        -0.56929E-02
        -0.18376E-01
        -0.23928E-01
        -0.44013E-01
        -0.78330E-01
        -0.92550E-01
        -0.77582E-01
        -0.73824E-01
        -0.81445E-01
        -0.83952E-01
        -0.76578E-01
        -0.72407E-01
        -0.36757E-01
         0.96056E-02
         0.21054E-01
         0.21395E-01
         0.37931E-01
         0.65739E-01
         0.84217E-01
         0.83986E-01
        -0.51799E-02
         0.10883E-02
        -0.20201E-02
        -0.58361E-02
         0.11800E-01
         0.10088E-01
         0.31357E-02
        -0.63173E-02
        -0.29959E-02
        -0.60938E-02
        -0.10161E-02
         0.46326E-02
         0.14995E-01
        -0.11183E-01
        -0.11787E-01
         0.10127E-01
         0.56938E-02
        -0.32559E-02
        -0.22378E-02
        -0.38881E-02
        -0.23417E-01
        -0.22313E-01
        -0.22037E-01
        -0.53329E-02
         0.31029E-02
         0.20779E-02
        -0.11075E-01
         0.12310E-02
        -0.39355E-02
        -0.50749E-02
         0.78076E-02
         0.49817E-02
        -0.47995E-02
        -0.43225E-02
         0.21326E-01
         0.11674E-01
         0.13404E-01
        -0.13323E-01
        -0.23889E-02
        -0.65606E-02
        -0.23567E-01
        -0.24241E-01
        -0.23593E-01
        -0.17023E-01
        -0.13076E-01
        -0.76416E-02
         0.82792E-02
         0.98213E-02
        -0.12019E-02
         0.15179E-02
         0.15890E-01
         0.13888E-01
         0.88383E-01
         0.89133E-01
         0.80123E-01
         0.66143E-01
         0.49206E-01
         0.22659E-01
        -0.56991E-02
        -0.18387E-01
        -0.23908E-01
        -0.43996E-01
        -0.78317E-01
        -0.92554E-01
        -0.77579E-01
        -0.73822E-01
        -0.81458E-01
        -0.83978E-01
        -0.76595E-01
        -0.72419E-01
        -0.36747E-01
         0.96086E-02
         0.21038E-01
         0.21386E-01
         0.37904E-01
         0.65700E-01
         0.84175E-01
         0.83949E-01
        -0.51880E-02
         0.10938E-02
        -0.20224E-02
        -0.58395E-02
         0.11789E-01
         0.10079E-01
         0.31550E-02
        -0.62999E-02
        -0.29983E-02
        -0.60874E-02
        -0.99088E-03
         0.46438E-02
         0.15005E-01
        -0.11155E-01
        -0.11780E-01
         0.10139E-01
         0.57066E-02
        -0.32465E-02
        -0.22368E-02
        -0.38815E-02
        -0.23416E-01
        -0.22313E-01
        -0.22039E-01
        -0.53336E-02
         0.31110E-02
         0.20822E-02
        -0.11078E-01
         0.12050E-02
        -0.39621E-02
        -0.50788E-02
         0.78196E-02
         0.49814E-02
        -0.47775E-02
        -0.43235E-02
         0.21338E-01
         0.11670E-01
         0.13401E-01
        -0.13344E-01
        -0.24101E-02
        -0.65812E-02
        -0.23584E-01
        -0.24258E-01
        -0.23599E-01
        -0.17023E-01
        -0.13072E-01
        -0.76388E-02
         0.82770E-02
         0.98244E-02
        -0.11908E-02
         0.15145E-02
         0.15882E-01
         0.13868E-01
         0.88353E-01
         0.89110E-01
         0.80115E-01
         0.66143E-01
         0.49191E-01
         0.22653E-01
        -0.57051E-02
        -0.18398E-01
        -0.23888E-01
        -0.43978E-01
        -0.78304E-01
        -0.92558E-01
        -0.77576E-01
        -0.73820E-01
        -0.81471E-01
        -0.84003E-01
        -0.76613E-01
        -0.72432E-01
        -0.36736E-01
         0.96114E-02
         0.21021E-01
         0.21378E-01
         0.37877E-01
         0.65660E-01
         0.84134E-01
         0.83912E-01
        -0.51960E-02
         0.10993E-02
        -0.20244E-02
        -0.58430E-02
         0.11778E-01
         0.10069E-01
         0.31744E-02
        -0.62825E-02
        -0.30007E-02
        -0.60810E-02
        -0.96570E-03
         0.46550E-02
         0.15014E-01
        -0.11127E-01
        -0.11773E-01
         0.10152E-01
         0.57193E-02
        -0.32370E-02
        -0.22357E-02
        -0.38753E-02
        -0.23416E-01
        -0.22312E-01
        -0.22041E-01
        -0.53344E-02
         0.31191E-02
         0.20867E-02
        -0.11080E-01
         0.11792E-02
        -0.39884E-02
        -0.50829E-02
         0.78317E-02
         0.49810E-02
        -0.47554E-02
        -0.43245E-02
         0.21350E-01
         0.11666E-01
         0.13398E-01
        -0.13365E-01
        -0.24314E-02
        -0.66021E-02
        -0.23600E-01
        -0.24275E-01
        -0.23604E-01
        -0.17023E-01
        -0.13068E-01
        -0.76361E-02
         0.82749E-02
         0.98276E-02
        -0.11796E-02
         0.15113E-02
         0.15873E-01
         0.13848E-01
         0.88322E-01
         0.89087E-01
         0.80107E-01
         0.66143E-01
         0.49176E-01
         0.22646E-01
        -0.57112E-02
        -0.18410E-01
        -0.23868E-01
        -0.43961E-01
        -0.78291E-01
        -0.92561E-01
        -0.77573E-01
        -0.73817E-01
        -0.81484E-01
        -0.84029E-01
        -0.76630E-01
        -0.72444E-01
        -0.36725E-01
         0.96144E-02
         0.21005E-01
         0.21370E-01
         0.37850E-01
         0.65620E-01
         0.84093E-01
         0.83874E-01
        -0.52041E-02
         0.11048E-02
        -0.20265E-02
        -0.58465E-02
         0.11767E-01
         0.10060E-01
         0.31938E-02
        -0.62650E-02
        -0.30031E-02
        -0.60744E-02
        -0.94060E-03
         0.46660E-02
         0.15023E-01
        -0.11099E-01
        -0.11767E-01
         0.10164E-01
         0.57321E-02
        -0.32275E-02
        -0.22346E-02
        -0.38688E-02
        -0.23416E-01
        -0.22311E-01
        -0.22043E-01
        -0.53352E-02
         0.31271E-02
         0.20910E-02
        -0.11083E-01
         0.11533E-02
        -0.40150E-02
        -0.50868E-02
         0.78438E-02
         0.49806E-02
        -0.47334E-02
        -0.43256E-02
         0.21361E-01
         0.11663E-01
         0.13395E-01
        -0.13385E-01
        -0.24528E-02
        -0.66228E-02
        -0.23617E-01
        -0.24292E-01
        -0.23610E-01
        -0.17023E-01
        -0.13064E-01
        -0.76328E-02
         0.82727E-02
         0.98307E-02
        -0.11684E-02
         0.15079E-02
         0.15865E-01
         0.13828E-01
         0.88292E-01
         0.89065E-01
         0.80099E-01
         0.66143E-01
         0.49161E-01
         0.22639E-01
        -0.57175E-02
        -0.18420E-01
        -0.23848E-01
        -0.43943E-01
        -0.78279E-01
        -0.92565E-01
        -0.77570E-01
        -0.73815E-01
        -0.81497E-01
        -0.84055E-01
        -0.76647E-01
        -0.72457E-01
        -0.36715E-01
         0.96173E-02
         0.20988E-01
         0.21361E-01
         0.37823E-01
         0.65581E-01
         0.84051E-01
         0.83837E-01
        -0.52123E-02
         0.11102E-02
        -0.20286E-02
        -0.58499E-02
         0.11756E-01
         0.10051E-01
         0.32130E-02
        -0.62476E-02
        -0.30055E-02
        -0.60679E-02
        -0.91554E-03
         0.46771E-02
         0.15033E-01
        -0.11071E-01
        -0.11760E-01
         0.10177E-01
         0.57448E-02
        -0.32181E-02
        -0.22337E-02
        -0.38626E-02
        -0.23415E-01
        -0.22310E-01
        -0.22045E-01
        -0.53360E-02
         0.31351E-02
         0.20954E-02
        -0.11085E-01
         0.11275E-02
        -0.40415E-02
        -0.50907E-02
         0.78558E-02
         0.49803E-02
        -0.47113E-02
        -0.43266E-02
         0.21373E-01
         0.11659E-01
         0.13392E-01
        -0.13405E-01
        -0.24741E-02
        -0.66438E-02
        -0.23633E-01
        -0.24309E-01
        -0.23616E-01
        -0.17023E-01
        -0.13060E-01
        -0.76300E-02
         0.82705E-02
         0.98338E-02
        -0.11572E-02
         0.15046E-02
         0.15857E-01
         0.13808E-01
         0.88261E-01
         0.89042E-01
         0.80092E-01
         0.66143E-01
         0.49146E-01
         0.22632E-01
        -0.57236E-02
        -0.18431E-01
        -0.23827E-01
        -0.43926E-01
        -0.78266E-01
        -0.92569E-01
        -0.77566E-01
        -0.73812E-01
        -0.81511E-01
        -0.84080E-01
        -0.76665E-01
        -0.72469E-01
        -0.36704E-01
         0.96201E-02
         0.20972E-01
         0.21353E-01
         0.37796E-01
         0.65541E-01
         0.84010E-01
         0.83800E-01
        -0.52204E-02
         0.11156E-02
        -0.20307E-02
        -0.58533E-02
         0.11745E-01
         0.10041E-01
         0.32324E-02
        -0.62302E-02
        -0.30079E-02
        -0.60614E-02
        -0.89048E-03
         0.46885E-02
         0.15042E-01
        -0.11043E-01
        -0.11753E-01
         0.10189E-01
         0.57575E-02
        -0.32087E-02
        -0.22326E-02
        -0.38561E-02
        -0.23415E-01
        -0.22310E-01
        -0.22047E-01
        -0.53368E-02
         0.31430E-02
         0.20997E-02
        -0.11087E-01
         0.11018E-02
        -0.40680E-02
        -0.50946E-02
         0.78679E-02
         0.49798E-02
        -0.46892E-02
        -0.43276E-02
         0.21384E-01
         0.11655E-01
         0.13389E-01
        -0.13426E-01
        -0.24954E-02
        -0.66645E-02
        -0.23649E-01
        -0.24326E-01
        -0.23621E-01
        -0.17023E-01
        -0.13057E-01
        -0.76273E-02
         0.82683E-02
         0.98370E-02
        -0.11459E-02
         0.15013E-02
         0.15848E-01
         0.13788E-01
         0.88231E-01
         0.89020E-01
         0.80084E-01
         0.66143E-01
         0.49131E-01
         0.22625E-01
        -0.57296E-02
        -0.18442E-01
        -0.23807E-01
        -0.43908E-01
        -0.78253E-01
        -0.92572E-01
        -0.77563E-01
        -0.73810E-01
        -0.81524E-01
        -0.84106E-01
        -0.76682E-01
        -0.72482E-01
        -0.36693E-01
         0.96229E-02
         0.20955E-01
         0.21345E-01
         0.37769E-01
         0.65501E-01
         0.83968E-01
         0.83762E-01
        -0.52285E-02
         0.11212E-02
        -0.20328E-02
        -0.58567E-02
         0.11734E-01
         0.10032E-01
         0.32516E-02
        -0.62128E-02
        -0.30103E-02
        -0.60549E-02
        -0.86542E-03
         0.46996E-02
         0.15052E-01
        -0.11015E-01
        -0.11746E-01
         0.10202E-01
         0.57702E-02
        -0.31993E-02
        -0.22314E-02
        -0.38498E-02
        -0.23415E-01
        -0.22309E-01
        -0.22049E-01
        -0.53376E-02
         0.31508E-02
         0.21041E-02
        -0.11090E-01
         0.10760E-02
        -0.40945E-02
        -0.50984E-02
         0.78799E-02
         0.49795E-02
        -0.46671E-02
        -0.43287E-02
         0.21396E-01
         0.11651E-01
         0.13385E-01
        -0.13446E-01
        -0.25169E-02
        -0.66853E-02
        -0.23665E-01
        -0.24342E-01
        -0.23627E-01
        -0.17023E-01
        -0.13053E-01
        -0.76241E-02
         0.82662E-02
         0.98401E-02
        -0.11347E-02
         0.14979E-02
         0.15840E-01
         0.13768E-01
         0.88200E-01
         0.88997E-01
         0.80076E-01
         0.66143E-01
         0.49115E-01
         0.22618E-01
        -0.57355E-02
        -0.18452E-01
        -0.23787E-01
        -0.43891E-01
        -0.78241E-01
        -0.92576E-01
        -0.77560E-01
        -0.73807E-01
        -0.81537E-01
        -0.84132E-01
        -0.76699E-01
        -0.72494E-01
        -0.36682E-01
         0.96257E-02
         0.20938E-01
         0.21337E-01
         0.37742E-01
         0.65461E-01
         0.83927E-01
         0.83725E-01
        -0.52366E-02
         0.11266E-02
        -0.20349E-02
        -0.58601E-02
         0.11723E-01
         0.10023E-01
         0.32709E-02
        -0.61953E-02
        -0.30126E-02
        -0.60481E-02
        -0.84037E-03
         0.47108E-02
         0.15061E-01
        -0.10987E-01
        -0.11739E-01
         0.10215E-01
         0.57830E-02
        -0.31900E-02
        -0.22304E-02
        -0.38434E-02
        -0.23414E-01
        -0.22308E-01
        -0.22051E-01
        -0.53385E-02
         0.31585E-02
         0.21084E-02
        -0.11092E-01
         0.10501E-02
        -0.41207E-02
        -0.51022E-02
         0.78920E-02
         0.49792E-02
        -0.46451E-02
        -0.43298E-02
         0.21408E-01
         0.11647E-01
         0.13382E-01
        -0.13466E-01
        -0.25386E-02
        -0.67063E-02
        -0.23681E-01
        -0.24359E-01
        -0.23632E-01
        -0.17023E-01
        -0.13049E-01
        -0.76213E-02
         0.82641E-02
         0.98433E-02
        -0.11235E-02
         0.14945E-02
         0.15832E-01
         0.13748E-01
         0.88169E-01
         0.88975E-01
         0.80069E-01
         0.66143E-01
         0.49100E-01
         0.22611E-01
        -0.57413E-02
        -0.18463E-01
        -0.23767E-01
        -0.43873E-01
        -0.78228E-01
        -0.92581E-01
        -0.77558E-01
        -0.73805E-01
        -0.81550E-01
        -0.84157E-01
        -0.76717E-01
        -0.72506E-01
        -0.36672E-01
         0.96285E-02
         0.20922E-01
         0.21329E-01
         0.37715E-01
         0.65422E-01
         0.83885E-01
         0.83688E-01
        -0.52447E-02
         0.11321E-02
        -0.20370E-02
        -0.58635E-02
         0.11712E-01
         0.10013E-01
         0.32901E-02
        -0.61779E-02
        -0.30147E-02
        -0.60405E-02
        -0.81536E-03
         0.47220E-02
         0.15070E-01
        -0.10959E-01
        -0.11732E-01
         0.10227E-01
         0.57956E-02
        -0.31806E-02
        -0.22297E-02
        -0.38372E-02
        -0.23414E-01
        -0.22307E-01
        -0.22053E-01
        -0.53392E-02
         0.31656E-02
         0.21129E-02
        -0.11093E-01
         0.10235E-02
        -0.41471E-02
        -0.51063E-02
         0.79041E-02
         0.49787E-02
        -0.46229E-02
        -0.43309E-02
         0.21420E-01
         0.11644E-01
         0.13379E-01
        -0.13485E-01
        -0.25609E-02
        -0.67268E-02
        -0.23695E-01
        -0.24374E-01
        -0.23637E-01
        -0.17023E-01
        -0.13045E-01
        -0.76183E-02
         0.82619E-02
         0.98465E-02
        -0.11123E-02
         0.14912E-02
         0.15824E-01
         0.13728E-01
         0.88139E-01
         0.88953E-01
         0.80061E-01
         0.66143E-01
         0.49085E-01
         0.22604E-01
        -0.57472E-02
        -0.18474E-01
        -0.23747E-01
        -0.43855E-01
        -0.78215E-01
        -0.92588E-01
        -0.77557E-01
        -0.73803E-01
        -0.81562E-01
        -0.84182E-01
        -0.76734E-01
        -0.72518E-01
        -0.36661E-01
         0.96313E-02
         0.20905E-01
         0.21321E-01
         0.37688E-01
         0.65382E-01
         0.83844E-01
         0.83650E-01
        -0.52528E-02
         0.11375E-02
        -0.20390E-02
        -0.58669E-02
         0.11701E-01
         0.10004E-01
         0.33093E-02
        -0.61604E-02
        -0.30165E-02
        -0.60323E-02
        -0.79042E-03
         0.47332E-02
         0.15080E-01
        -0.10931E-01
        -0.11725E-01
         0.10239E-01
         0.58081E-02
        -0.31712E-02
        -0.22286E-02
        -0.38308E-02
        -0.23414E-01
        -0.22306E-01
        -0.22055E-01
        -0.53400E-02
         0.31722E-02
         0.21172E-02
        -0.11094E-01
         0.99606E-03
        -0.41734E-02
        -0.51103E-02
         0.79161E-02
         0.49783E-02
        -0.46008E-02
        -0.43319E-02
         0.21432E-01
         0.11640E-01
         0.13376E-01
        -0.13505E-01
        -0.25838E-02
        -0.67475E-02
        -0.23709E-01
        -0.24388E-01
        -0.23641E-01
        -0.17023E-01
        -0.13041E-01
        -0.76155E-02
         0.82597E-02
         0.98497E-02
        -0.11010E-02
         0.14879E-02
         0.15815E-01
         0.13707E-01
         0.88108E-01
         0.88930E-01
         0.80053E-01
         0.66143E-01
         0.49070E-01
         0.22597E-01
        -0.57530E-02
        -0.18484E-01
        -0.23727E-01
        -0.43836E-01
        -0.78201E-01
        -0.92597E-01
        -0.77557E-01
        -0.73801E-01
        -0.81575E-01
        -0.84208E-01
        -0.76751E-01
        -0.72530E-01
        -0.36650E-01
         0.96341E-02
         0.20889E-01
         0.21312E-01
         0.37661E-01
         0.65342E-01
         0.83803E-01
         0.83613E-01
        -0.52609E-02
         0.11430E-02
        -0.20411E-02
        -0.58703E-02
         0.11691E-01
         0.99951E-02
         0.33283E-02
        -0.61431E-02
        -0.30183E-02
        -0.60239E-02
        -0.76565E-03
         0.47442E-02
         0.15089E-01
        -0.10903E-01
        -0.11718E-01
         0.10252E-01
         0.58206E-02
        -0.31619E-02
        -0.22276E-02
        -0.38247E-02
        -0.23413E-01
        -0.22305E-01
        -0.22057E-01
        -0.53408E-02
         0.31786E-02
         0.21214E-02
        -0.11094E-01
         0.96854E-03
        -0.41996E-02
        -0.51141E-02
         0.79282E-02
         0.49779E-02
        -0.45788E-02
        -0.43331E-02
         0.21444E-01
         0.11636E-01
         0.13373E-01
        -0.13524E-01
        -0.26069E-02
        -0.67677E-02
        -0.23722E-01
        -0.24401E-01
        -0.23645E-01
        -0.17023E-01
        -0.13038E-01
        -0.76127E-02
         0.82577E-02
         0.98530E-02
        -0.10899E-02
         0.14844E-02
         0.15807E-01
         0.13687E-01
         0.88078E-01
         0.88908E-01
         0.80045E-01
         0.66143E-01
         0.49055E-01
         0.22590E-01
        -0.57588E-02
        -0.18494E-01
        -0.23708E-01
        -0.43817E-01
        -0.78188E-01
        -0.92608E-01
        -0.77558E-01
        -0.73799E-01
        -0.81589E-01
        -0.84233E-01
        -0.76769E-01
        -0.72543E-01
        -0.36639E-01
         0.96371E-02
         0.20873E-01
         0.21304E-01
         0.37634E-01
         0.65303E-01
         0.83762E-01
         0.83576E-01
        -0.52893E-02
         0.11518E-02
        -0.20513E-02
        -0.58960E-02
         0.11723E-01
         0.10024E-01
         0.33582E-02
        -0.61517E-02
        -0.30314E-02
        -0.60405E-02
        -0.74701E-03
         0.47703E-02
         0.15153E-01
        -0.10919E-01
        -0.11757E-01
         0.10303E-01
         0.58550E-02
        -0.31654E-02
        -0.22345E-02
        -0.38323E-02
        -0.23497E-01
        -0.22386E-01
        -0.22137E-01
        -0.53618E-02
         0.31967E-02
         0.21334E-02
        -0.11139E-01
         0.94653E-03
        -0.42400E-02
        -0.51373E-02
         0.79701E-02
         0.49962E-02
        -0.45763E-02
        -0.43512E-02
         0.21534E-01
         0.11676E-01
         0.13420E-01
        -0.13595E-01
        -0.26382E-02
        -0.68123E-02
        -0.23825E-01
        -0.24508E-01
        -0.23738E-01
        -0.17084E-01
        -0.13081E-01
        -0.76367E-02
         0.82869E-02
         0.98943E-02
        -0.10841E-02
         0.14865E-02
         0.15859E-01
         0.13720E-01
         0.88372E-01
         0.89207E-01
         0.80331E-01
         0.66382E-01
         0.49220E-01
         0.22665E-01
        -0.57881E-02
        -0.18573E-01
        -0.23780E-01
        -0.43968E-01
        -0.78477E-01
        -0.92960E-01
        -0.77833E-01
        -0.74053E-01
        -0.81878E-01
        -0.84539E-01
        -0.77042E-01
        -0.72807E-01
        -0.36763E-01
         0.96775E-02
         0.20934E-01
         0.21371E-01
         0.37743E-01
         0.65499E-01
         0.84017E-01
         0.83833E-01
        -0.78832E-02
         0.17281E-02
        -0.30514E-02
        -0.88016E-02
         0.16811E-01
         0.14511E-01
         0.50248E-02
        -0.91073E-02
        -0.45037E-02
        -0.89276E-02
        -0.10800E-02
         0.67237E-02
         0.21677E-01
        -0.15927E-01
        -0.16648E-01
         0.15368E-01
         0.87107E-02
        -0.47160E-02
        -0.32865E-02
        -0.56491E-02
        -0.33586E-01
        -0.32410E-01
        -0.31731E-01
        -0.79487E-02
         0.47723E-02
         0.31911E-02
        -0.16392E-01
         0.13879E-02
        -0.63673E-02
        -0.76593E-02
         0.11894E-01
         0.74327E-02
        -0.68154E-02
        -0.64960E-02
         0.30320E-01
         0.16895E-01
         0.19426E-01
        -0.19704E-01
        -0.38909E-02
        -0.10055E-01
        -0.34647E-01
        -0.35903E-01
        -0.34749E-01
        -0.24664E-01
        -0.18822E-01
        -0.10674E-01
         0.11883E-01
         0.14379E-01
        -0.15725E-02
         0.21578E-02
         0.22479E-01
         0.19801E-01
         0.11031E+00
         0.11116E+00
         0.10014E+00
         0.82993E-01
         0.61479E-01
         0.28371E-01
        -0.73392E-02
        -0.23722E-01
        -0.30296E-01
        -0.55700E-01
        -0.99556E-01
        -0.11773E+00
        -0.99669E-01
        -0.95126E-01
        -0.10383E+00
        -0.10599E+00
        -0.96292E-01
        -0.90494E-01
        -0.45655E-01
         0.12043E-01
         0.26301E-01
         0.26969E-01
         0.47455E-01
         0.82642E-01
         0.10568E+00
         0.10507E+00
  
SCALARS                      strain_xy  double 1
LOOKUP_TABLE default
         0.71869E-05
         0.15836E-04
         0.14137E-03
        -0.53559E-05
        -0.30038E-19
         0.29356E-20
         0.44137E-19
         0.67234E-20
         0.14298E-02
        -0.64178E-03
         0.19646E-18
         0.15580E-18
        -0.48772E-04
         0.10084E-04
         0.17341E-19
        -0.52082E-20
        -0.17039E-04
        -0.24514E-03
         0.86330E-21
         0.13156E-19
         0.17293E-03
         0.10329E-02
         0.11182E-02
         0.13377E-18
         0.10653E-18
        -0.15557E-18
         0.10778E-03
         0.82199E-03
         0.18012E-18
         0.27719E-18
         0.45411E-04
        -0.81039E-04
        -0.77143E-05
        -0.95070E-20
         0.37504E-19
        -0.47969E-21
         0.38209E-03
         0.15949E-03
         0.10037E-18
         0.83150E-19
         0.71812E-03
         0.59577E-03
         0.17111E-18
         0.11532E-18
         0.74607E-03
         0.14110E-03
        -0.62333E-20
         0.46408E-19
        -0.15935E-03
         0.13715E-19
         0.47799E-04
        -0.30922E-21
        -0.88085E-05
         0.10366E-18
        -0.42382E-04
         0.15952E-19
        -0.60512E-03
         0.32564E-04
         0.37072E-21
        -0.18187E-20
        -0.58707E-05
         0.57291E-03
         0.10103E-19
         0.25913E-19
        -0.25891E-04
        -0.20512E-20
        -0.35872E-03
         0.16436E-19
         0.17363E-02
         0.62365E-03
         0.12696E-19
        -0.12157E-18
         0.13701E-02
        -0.19438E-18
        -0.41720E-03
         0.13020E-18
        -0.12959E-02
         0.19397E-19
        -0.22825E-02
         0.25224E-19
        -0.46375E-02
        -0.26455E-02
         0.59300E-19
        -0.15037E-19
        -0.35747E-03
        -0.18095E-20
         0.14118E-02
        -0.16320E-18
         0.20022E-02
        -0.18222E-18
         0.42710E-02
         0.19131E-02
        -0.11535E-18
         0.12804E-18
        -0.31413E-03
         0.11658E-18
        -0.78537E-03
         0.50080E-19
        -0.18106E-02
         0.13297E-18
        -0.44337E-02
        -0.25631E-02
         0.28512E-18
         0.14256E-18
         0.67558E-02
        -0.29393E-02
        -0.18524E-18
         0.22686E-18
         0.16341E-01
        -0.52647E-18
         0.22261E-01
        -0.57550E-18
         0.18743E-01
        -0.39059E-18
         0.14507E-01
        -0.41430E-19
         0.57505E-02
         0.11677E-18
        -0.71279E-02
         0.72301E-19
        -0.15916E-01
         0.66095E-19
        -0.21083E-01
         0.14181E-18
        -0.22086E-01
         0.17242E-18
        -0.20405E-01
         0.67930E-19
        -0.12301E-01
         0.41415E-19
         0.90232E-03
         0.67692E-19
         0.11713E-01
         0.45375E-19
         0.19716E-01
        -0.16181E-18
         0.26872E-01
        -0.42459E-18
         0.21649E-01
        -0.53883E-18
         0.12871E-01
        -0.33348E-18
         0.13733E-02
         0.63623E-19
        -0.96769E-02
         0.13484E-18
        -0.14295E-01
         0.21490E-18
        -0.16859E-01
         0.42319E-18
        -0.15114E-01
         0.54913E-18
        -0.14465E-01
         0.39013E-18
        -0.12380E-01
         0.30854E-18
        -0.76400E-05
         0.20461E-05
         0.20972E-05
        -0.13199E-05
         0.16620E-04
         0.13788E-04
         0.21701E-06
        -0.49309E-05
        -0.22047E-05
        -0.57231E-05
        -0.16101E-05
        -0.29679E-04
        -0.42639E-04
         0.15821E-05
         0.24173E-04
        -0.33176E-05
         0.24638E-05
         0.73758E-06
         0.14831E-05
        -0.12087E-05
         0.60491E-05
         0.53229E-05
        -0.16083E-04
         0.42165E-06
         0.36390E-05
         0.40077E-06
         0.66181E-07
         0.12984E-06
         0.16019E-05
        -0.53663E-05
        -0.28896E-05
         0.61079E-06
         0.99017E-06
        -0.77640E-07
        -0.39545E-05
        -0.13786E-04
        -0.28094E-04
         0.42315E-04
         0.22007E-04
         0.39420E-04
         0.75850E-04
         0.17853E-04
        -0.14603E-04
        -0.29394E-04
        -0.34622E-04
        -0.43671E-04
         0.54419E-05
         0.16465E-04
         0.50766E-05
         0.16967E-04
         0.52684E-04
         0.20525E-04
        -0.17439E-03
         0.22365E-03
        -0.54028E-03
        -0.63746E-03
        -0.60490E-03
        -0.36319E-03
         0.21465E-04
         0.23236E-03
         0.33724E-03
         0.54689E-03
         0.57338E-03
         0.31359E-03
         0.12722E-03
         0.53919E-04
        -0.87671E-04
        -0.34780E-03
        -0.58080E-03
        -0.66009E-03
        -0.39559E-03
         0.72149E-04
         0.26313E-03
         0.27715E-03
         0.43607E-03
         0.48052E-03
         0.36826E-03
         0.34121E-03
        -0.38190E-04
         0.49445E-05
        -0.87107E-05
        -0.60159E-05
         0.67572E-04
         0.25971E-04
         0.60001E-05
        -0.45791E-04
        -0.13798E-04
        -0.40944E-04
         0.43730E-05
        -0.69053E-04
        -0.13458E-03
         0.14831E-04
         0.17778E-03
        -0.28453E-04
         0.48003E-05
         0.27449E-05
         0.83261E-05
         0.28270E-05
         0.74781E-04
         0.50600E-04
        -0.28948E-04
         0.59096E-05
         0.13567E-04
        -0.22596E-05
         0.30749E-05
        -0.75898E-06
        -0.30558E-05
        -0.22554E-04
        -0.23559E-04
        -0.40157E-05
         0.98764E-05
         0.74011E-05
         0.17387E-04
        -0.29252E-04
        -0.64064E-04
         0.14983E-03
         0.22122E-04
         0.56523E-04
         0.15255E-03
        -0.38776E-04
        -0.78071E-04
        -0.70511E-04
        -0.69920E-04
        -0.83571E-04
         0.52556E-04
         0.41030E-04
        -0.68166E-05
         0.96891E-05
         0.10291E-03
         0.68016E-05
        -0.71269E-03
         0.10274E-02
        -0.21461E-02
        -0.22876E-02
        -0.22030E-02
        -0.12175E-02
         0.29610E-03
         0.83785E-03
         0.10577E-02
         0.19184E-02
         0.21397E-02
         0.83196E-03
         0.27800E-03
         0.22662E-03
        -0.11563E-03
        -0.10102E-02
        -0.18472E-02
        -0.24317E-02
        -0.16125E-02
         0.46474E-03
         0.90261E-03
         0.86455E-03
         0.15325E-02
         0.18683E-02
         0.12422E-02
         0.11725E-02
        -0.38286E-04
         0.49637E-05
        -0.87315E-05
        -0.60641E-05
         0.67515E-04
         0.25967E-04
         0.60458E-05
        -0.45752E-04
        -0.13838E-04
        -0.41064E-04
         0.42871E-05
        -0.69214E-04
        -0.13469E-03
         0.14795E-04
         0.17791E-03
        -0.28484E-04
         0.48546E-05
         0.27332E-05
         0.83276E-05
         0.28062E-05
         0.74958E-04
         0.50643E-04
        -0.28952E-04
         0.59071E-05
         0.13660E-04
        -0.22592E-05
         0.31120E-05
        -0.74888E-06
        -0.30569E-05
        -0.22616E-04
        -0.23598E-04
        -0.40064E-05
         0.98570E-05
         0.74166E-05
         0.17232E-04
        -0.29257E-04
        -0.64041E-04
         0.15030E-03
         0.22382E-04
         0.56766E-04
         0.15277E-03
        -0.38694E-04
        -0.78155E-04
        -0.70537E-04
        -0.69897E-04
        -0.83528E-04
         0.52551E-04
         0.41019E-04
        -0.67577E-05
         0.96431E-05
         0.10280E-03
         0.66886E-05
        -0.71178E-03
         0.10272E-02
        -0.21463E-02
        -0.22876E-02
        -0.22020E-02
        -0.12168E-02
         0.29631E-03
         0.83812E-03
         0.10566E-02
         0.19171E-02
         0.21389E-02
         0.83236E-03
         0.27795E-03
         0.22708E-03
        -0.11471E-03
        -0.10110E-02
        -0.18483E-02
        -0.24328E-02
        -0.16120E-02
         0.46492E-03
         0.90188E-03
         0.86417E-03
         0.15310E-02
         0.18658E-02
         0.12403E-02
         0.11705E-02
        -0.38383E-04
         0.49827E-05
        -0.87523E-05
        -0.61128E-05
         0.67455E-04
         0.25965E-04
         0.60918E-05
        -0.45713E-04
        -0.13877E-04
        -0.41181E-04
         0.42012E-05
        -0.69376E-04
        -0.13481E-03
         0.14757E-04
         0.17804E-03
        -0.28517E-04
         0.49098E-05
         0.27214E-05
         0.83293E-05
         0.27855E-05
         0.75139E-04
         0.50684E-04
        -0.28962E-04
         0.59038E-05
         0.13753E-04
        -0.22586E-05
         0.31517E-05
        -0.73905E-06
        -0.30561E-05
        -0.22677E-04
        -0.23637E-04
        -0.39955E-05
         0.98374E-05
         0.74318E-05
         0.17076E-04
        -0.29265E-04
        -0.64015E-04
         0.15078E-03
         0.22643E-04
         0.57013E-04
         0.15299E-03
        -0.38602E-04
        -0.78236E-04
        -0.70574E-04
        -0.69881E-04
        -0.83490E-04
         0.52546E-04
         0.41007E-04
        -0.66979E-05
         0.95960E-05
         0.10269E-03
         0.65766E-05
        -0.71088E-03
         0.10269E-02
        -0.21465E-02
        -0.22876E-02
        -0.22011E-02
        -0.12160E-02
         0.29653E-03
         0.83838E-03
         0.10555E-02
         0.19158E-02
         0.21382E-02
         0.83279E-03
         0.27791E-03
         0.22753E-03
        -0.11377E-03
        -0.10117E-02
        -0.18495E-02
        -0.24338E-02
        -0.16116E-02
         0.46510E-03
         0.90116E-03
         0.86380E-03
         0.15294E-02
         0.18633E-02
         0.12383E-02
         0.11684E-02
        -0.38479E-04
         0.50024E-05
        -0.87728E-05
        -0.61617E-05
         0.67397E-04
         0.25962E-04
         0.61379E-05
        -0.45672E-04
        -0.13914E-04
        -0.41291E-04
         0.41155E-05
        -0.69541E-04
        -0.13493E-03
         0.14720E-04
         0.17817E-03
        -0.28552E-04
         0.49664E-05
         0.27095E-05
         0.83318E-05
         0.27636E-05
         0.75325E-04
         0.50724E-04
        -0.28987E-04
         0.58983E-05
         0.13852E-04
        -0.22574E-05
         0.31925E-05
        -0.73087E-06
        -0.30495E-05
        -0.22732E-04
        -0.23677E-04
        -0.39815E-05
         0.98171E-05
         0.74473E-05
         0.16921E-04
        -0.29271E-04
        -0.63990E-04
         0.15125E-03
         0.22905E-04
         0.57263E-04
         0.15323E-03
        -0.38479E-04
        -0.78308E-04
        -0.70636E-04
        -0.69875E-04
        -0.83450E-04
         0.52548E-04
         0.40996E-04
        -0.66381E-05
         0.95491E-05
         0.10258E-03
         0.64649E-05
        -0.70997E-03
         0.10267E-02
        -0.21467E-02
        -0.22877E-02
        -0.22002E-02
        -0.12152E-02
         0.29674E-03
         0.83865E-03
         0.10544E-02
         0.19145E-02
         0.21375E-02
         0.83331E-03
         0.27789E-03
         0.22798E-03
        -0.11284E-03
        -0.10126E-02
        -0.18509E-02
        -0.24350E-02
        -0.16111E-02
         0.46529E-03
         0.90044E-03
         0.86342E-03
         0.15279E-02
         0.18608E-02
         0.12363E-02
         0.11664E-02
        -0.38575E-04
         0.50220E-05
        -0.87935E-05
        -0.62104E-05
         0.67340E-04
         0.25959E-04
         0.61840E-05
        -0.45629E-04
        -0.13950E-04
        -0.41391E-04
         0.40294E-05
        -0.69704E-04
        -0.13504E-03
         0.14685E-04
         0.17830E-03
        -0.28590E-04
         0.50244E-05
         0.26976E-05
         0.83336E-05
         0.27408E-05
         0.75516E-04
         0.50758E-04
        -0.29026E-04
         0.58904E-05
         0.13955E-04
        -0.22553E-05
         0.32377E-05
        -0.72418E-06
        -0.30368E-05
        -0.22781E-04
        -0.23717E-04
        -0.39637E-05
         0.97965E-05
         0.74626E-05
         0.16765E-04
        -0.29276E-04
        -0.63968E-04
         0.15172E-03
         0.23168E-04
         0.57520E-04
         0.15350E-03
        -0.38325E-04
        -0.78370E-04
        -0.70726E-04
        -0.69881E-04
        -0.83411E-04
         0.52553E-04
         0.40990E-04
        -0.65789E-05
         0.95025E-05
         0.10247E-03
         0.63530E-05
        -0.70906E-03
         0.10265E-02
        -0.21469E-02
        -0.22877E-02
        -0.21992E-02
        -0.12144E-02
         0.29695E-03
         0.83891E-03
         0.10533E-02
         0.19132E-02
         0.21368E-02
         0.83392E-03
         0.27791E-03
         0.22842E-03
        -0.11190E-03
        -0.10135E-02
        -0.18524E-02
        -0.24362E-02
        -0.16106E-02
         0.46547E-03
         0.89972E-03
         0.86305E-03
         0.15264E-02
         0.18584E-02
         0.12343E-02
         0.11643E-02
        -0.38666E-04
         0.50428E-05
        -0.88122E-05
        -0.62596E-05
         0.67282E-04
         0.25955E-04
         0.62294E-05
        -0.45581E-04
        -0.13986E-04
        -0.41486E-04
         0.39435E-05
        -0.69867E-04
        -0.13516E-03
         0.14651E-04
         0.17843E-03
        -0.28630E-04
         0.50836E-05
         0.26858E-05
         0.83353E-05
         0.27180E-05
         0.75710E-04
         0.50793E-04
        -0.29072E-04
         0.58818E-05
         0.14056E-04
        -0.22528E-05
         0.32863E-05
        -0.71801E-06
        -0.30213E-05
        -0.22832E-04
        -0.23756E-04
        -0.39437E-05
         0.97757E-05
         0.74783E-05
         0.16607E-04
        -0.29286E-04
        -0.63948E-04
         0.15220E-03
         0.23434E-04
         0.57780E-04
         0.15377E-03
        -0.38160E-04
        -0.78429E-04
        -0.70826E-04
        -0.69899E-04
        -0.83384E-04
         0.52560E-04
         0.40986E-04
        -0.65188E-05
         0.94591E-05
         0.10236E-03
         0.62416E-05
        -0.70814E-03
         0.10263E-02
        -0.21471E-02
        -0.22877E-02
        -0.21983E-02
        -0.12136E-02
         0.29715E-03
         0.83917E-03
         0.10522E-02
         0.19119E-02
         0.21361E-02
         0.83457E-03
         0.27793E-03
         0.22886E-03
        -0.11096E-03
        -0.10145E-02
        -0.18541E-02
        -0.24374E-02
        -0.16101E-02
         0.46563E-03
         0.89899E-03
         0.86268E-03
         0.15249E-02
         0.18559E-02
         0.12324E-02
         0.11622E-02
        -0.38751E-04
         0.50670E-05
        -0.88277E-05
        -0.63100E-05
         0.67226E-04
         0.25953E-04
         0.62741E-05
        -0.45523E-04
        -0.14023E-04
        -0.41577E-04
         0.38576E-05
        -0.70033E-04
        -0.13529E-03
         0.14625E-04
         0.17856E-03
        -0.28670E-04
         0.51438E-05
         0.26739E-05
         0.83380E-05
         0.26952E-05
         0.75903E-04
         0.50829E-04
        -0.29119E-04
         0.58736E-05
         0.14151E-04
        -0.22495E-05
         0.33435E-05
        -0.71170E-06
        -0.30049E-05
        -0.22883E-04
        -0.23792E-04
        -0.39214E-05
         0.97545E-05
         0.74936E-05
         0.16449E-04
        -0.29298E-04
        -0.63932E-04
         0.15268E-03
         0.23702E-04
         0.58044E-04
         0.15405E-03
        -0.37991E-04
        -0.78486E-04
        -0.70926E-04
        -0.69922E-04
        -0.83363E-04
         0.52569E-04
         0.40993E-04
        -0.64557E-05
         0.94233E-05
         0.10226E-03
         0.61293E-05
        -0.70723E-03
         0.10261E-02
        -0.21473E-02
        -0.22877E-02
        -0.21973E-02
        -0.12129E-02
         0.29736E-03
         0.83943E-03
         0.10511E-02
         0.19106E-02
         0.21354E-02
         0.83522E-03
         0.27796E-03
         0.22931E-03
        -0.11002E-03
        -0.10155E-02
        -0.18557E-02
        -0.24385E-02
        -0.16096E-02
         0.46576E-03
         0.89825E-03
         0.86232E-03
         0.15234E-02
         0.18535E-02
         0.12304E-02
         0.11602E-02
        -0.38832E-04
         0.50923E-05
        -0.88415E-05
        -0.63609E-05
         0.67173E-04
         0.25950E-04
         0.63181E-05
        -0.45460E-04
        -0.14060E-04
        -0.41667E-04
         0.37717E-05
        -0.70198E-04
        -0.13542E-03
         0.14602E-04
         0.17869E-03
        -0.28712E-04
         0.52045E-05
         0.26619E-05
         0.83400E-05
         0.26729E-05
         0.76097E-04
         0.50865E-04
        -0.29165E-04
         0.58656E-05
         0.14244E-04
        -0.22459E-05
         0.34030E-05
        -0.70520E-06
        -0.29882E-05
        -0.22935E-04
        -0.23827E-04
        -0.38978E-05
         0.97330E-05
         0.75092E-05
         0.16290E-04
        -0.29312E-04
        -0.63922E-04
         0.15316E-03
         0.23971E-04
         0.58308E-04
         0.15433E-03
        -0.37823E-04
        -0.78544E-04
        -0.71030E-04
        -0.69948E-04
        -0.83351E-04
         0.52580E-04
         0.41003E-04
        -0.63915E-05
         0.93909E-05
         0.10217E-03
         0.60175E-05
        -0.70632E-03
         0.10259E-02
        -0.21475E-02
        -0.22878E-02
        -0.21964E-02
        -0.12121E-02
         0.29756E-03
         0.83969E-03
         0.10500E-02
         0.19093E-02
         0.21347E-02
         0.83587E-03
         0.27799E-03
         0.22976E-03
        -0.10908E-03
        -0.10165E-02
        -0.18573E-02
        -0.24397E-02
        -0.16091E-02
         0.46587E-03
         0.89750E-03
         0.86197E-03
         0.15219E-02
         0.18510E-02
         0.12285E-02
         0.11581E-02
        -0.38912E-04
         0.51179E-05
        -0.88551E-05
        -0.64118E-05
         0.67118E-04
         0.25947E-04
         0.63620E-05
        -0.45397E-04
        -0.14098E-04
        -0.41756E-04
         0.36857E-05
        -0.70363E-04
        -0.13555E-03
         0.14580E-04
         0.17882E-03
        -0.28753E-04
         0.52657E-05
         0.26499E-05
         0.83419E-05
         0.26503E-05
         0.76290E-04
         0.50902E-04
        -0.29211E-04
         0.58578E-05
         0.14336E-04
        -0.22423E-05
         0.34640E-05
        -0.69832E-06
        -0.29710E-05
        -0.22988E-04
        -0.23861E-04
        -0.38745E-05
         0.97113E-05
         0.75246E-05
         0.16130E-04
        -0.29324E-04
        -0.63910E-04
         0.15365E-03
         0.24242E-04
         0.58571E-04
         0.15461E-03
        -0.37655E-04
        -0.78601E-04
        -0.71135E-04
        -0.69978E-04
        -0.83339E-04
         0.52589E-04
         0.41013E-04
        -0.63275E-05
         0.93596E-05
         0.10208E-03
         0.59054E-05
        -0.70542E-03
         0.10257E-02
        -0.21477E-02
        -0.22878E-02
        -0.21954E-02
        -0.12113E-02
         0.29775E-03
         0.83994E-03
         0.10489E-02
         0.19080E-02
         0.21340E-02
         0.83651E-03
         0.27803E-03
         0.23022E-03
        -0.10814E-03
        -0.10174E-02
        -0.18589E-02
        -0.24409E-02
        -0.16086E-02
         0.46599E-03
         0.89676E-03
         0.86162E-03
         0.15204E-02
         0.18485E-02
         0.12265E-02
         0.11561E-02
        -0.38993E-04
         0.51436E-05
        -0.88687E-05
        -0.64627E-05
         0.67063E-04
         0.25943E-04
         0.64061E-05
        -0.45333E-04
        -0.14136E-04
        -0.41845E-04
         0.35997E-05
        -0.70528E-04
        -0.13568E-03
         0.14556E-04
         0.17895E-03
        -0.28794E-04
         0.53273E-05
         0.26381E-05
         0.83437E-05
         0.26277E-05
         0.76484E-04
         0.50937E-04
        -0.29255E-04
         0.58501E-05
         0.14429E-04
        -0.22387E-05
         0.35234E-05
        -0.69114E-06
        -0.29533E-05
        -0.23040E-04
        -0.23895E-04
        -0.38510E-05
         0.96892E-05
         0.75401E-05
         0.15969E-04
        -0.29339E-04
        -0.63900E-04
         0.15413E-03
         0.24514E-04
         0.58839E-04
         0.15489E-03
        -0.37487E-04
        -0.78659E-04
        -0.71237E-04
        -0.70004E-04
        -0.83323E-04
         0.52600E-04
         0.41025E-04
        -0.62639E-05
         0.93264E-05
         0.10198E-03
         0.57941E-05
        -0.70450E-03
         0.10255E-02
        -0.21478E-02
        -0.22878E-02
        -0.21945E-02
        -0.12105E-02
         0.29795E-03
         0.84019E-03
         0.10478E-02
         0.19067E-02
         0.21333E-02
         0.83715E-03
         0.27806E-03
         0.23067E-03
        -0.10720E-03
        -0.10184E-02
        -0.18605E-02
        -0.24420E-02
        -0.16081E-02
         0.46611E-03
         0.89601E-03
         0.86127E-03
         0.15190E-02
         0.18461E-02
         0.12246E-02
         0.11540E-02
        -0.39073E-04
         0.51691E-05
        -0.88828E-05
        -0.65134E-05
         0.67010E-04
         0.25940E-04
         0.64504E-05
        -0.45269E-04
        -0.14173E-04
        -0.41933E-04
         0.35134E-05
        -0.70695E-04
        -0.13581E-03
         0.14534E-04
         0.17908E-03
        -0.28836E-04
         0.53892E-05
         0.26263E-05
         0.83464E-05
         0.26050E-05
         0.76676E-04
         0.50972E-04
        -0.29302E-04
         0.58425E-05
         0.14521E-04
        -0.22350E-05
         0.35839E-05
        -0.68354E-06
        -0.29351E-05
        -0.23092E-04
        -0.23930E-04
        -0.38276E-05
         0.96670E-05
         0.75556E-05
         0.15808E-04
        -0.29352E-04
        -0.63890E-04
         0.15462E-03
         0.24788E-04
         0.59102E-04
         0.15517E-03
        -0.37319E-04
        -0.78716E-04
        -0.71338E-04
        -0.70032E-04
        -0.83312E-04
         0.52610E-04
         0.41035E-04
        -0.62000E-05
         0.92942E-05
         0.10189E-03
         0.56828E-05
        -0.70358E-03
         0.10253E-02
        -0.21480E-02
        -0.22878E-02
        -0.21935E-02
        -0.12097E-02
         0.29814E-03
         0.84044E-03
         0.10467E-02
         0.19054E-02
         0.21326E-02
         0.83779E-03
         0.27809E-03
         0.23112E-03
        -0.10626E-03
        -0.10194E-02
        -0.18621E-02
        -0.24432E-02
        -0.16076E-02
         0.46621E-03
         0.89526E-03
         0.86091E-03
         0.15175E-02
         0.18437E-02
         0.12226E-02
         0.11520E-02
        -0.39153E-04
         0.51946E-05
        -0.88961E-05
        -0.65646E-05
         0.66955E-04
         0.25936E-04
         0.64945E-05
        -0.45204E-04
        -0.14211E-04
        -0.42021E-04
         0.34272E-05
        -0.70862E-04
        -0.13594E-03
         0.14511E-04
         0.17921E-03
        -0.28877E-04
         0.54514E-05
         0.26143E-05
         0.83485E-05
         0.25826E-05
         0.76870E-04
         0.51006E-04
        -0.29348E-04
         0.58350E-05
         0.14613E-04
        -0.22314E-05
         0.36431E-05
        -0.67567E-06
        -0.29162E-05
        -0.23145E-04
        -0.23964E-04
        -0.38042E-05
         0.96443E-05
         0.75713E-05
         0.15646E-04
        -0.29366E-04
        -0.63878E-04
         0.15511E-03
         0.25064E-04
         0.59370E-04
         0.15545E-03
        -0.37152E-04
        -0.78772E-04
        -0.71441E-04
        -0.70059E-04
        -0.83301E-04
         0.52620E-04
         0.41047E-04
        -0.61360E-05
         0.92630E-05
         0.10179E-03
         0.55719E-05
        -0.70267E-03
         0.10251E-02
        -0.21481E-02
        -0.22878E-02
        -0.21926E-02
        -0.12089E-02
         0.29833E-03
         0.84069E-03
         0.10456E-02
         0.19041E-02
         0.21319E-02
         0.83843E-03
         0.27812E-03
         0.23157E-03
        -0.10531E-03
        -0.10204E-02
        -0.18637E-02
        -0.24443E-02
        -0.16071E-02
         0.46633E-03
         0.89451E-03
         0.86056E-03
         0.15160E-02
         0.18412E-02
         0.12207E-02
         0.11499E-02
        -0.39234E-04
         0.52203E-05
        -0.89096E-05
        -0.66160E-05
         0.66901E-04
         0.25933E-04
         0.65386E-05
        -0.45139E-04
        -0.14249E-04
        -0.42107E-04
         0.33411E-05
        -0.71027E-04
        -0.13607E-03
         0.14487E-04
         0.17934E-03
        -0.28918E-04
         0.55138E-05
         0.26023E-05
         0.83507E-05
         0.25602E-05
         0.77063E-04
         0.51041E-04
        -0.29393E-04
         0.58276E-05
         0.14705E-04
        -0.22276E-05
         0.37040E-05
        -0.66740E-06
        -0.28971E-05
        -0.23197E-04
        -0.23998E-04
        -0.37805E-05
         0.96213E-05
         0.75868E-05
         0.15483E-04
        -0.29381E-04
        -0.63868E-04
         0.15559E-03
         0.25341E-04
         0.59637E-04
         0.15573E-03
        -0.36983E-04
        -0.78829E-04
        -0.71545E-04
        -0.70089E-04
        -0.83283E-04
         0.52631E-04
         0.41058E-04
        -0.60720E-05
         0.92307E-05
         0.10170E-03
         0.54615E-05
        -0.70176E-03
         0.10249E-02
        -0.21483E-02
        -0.22879E-02
        -0.21916E-02
        -0.12081E-02
         0.29853E-03
         0.84093E-03
         0.10445E-02
         0.19027E-02
         0.21312E-02
         0.83907E-03
         0.27815E-03
         0.23202E-03
        -0.10437E-03
        -0.10213E-02
        -0.18653E-02
        -0.24455E-02
        -0.16065E-02
         0.46644E-03
         0.89376E-03
         0.86021E-03
         0.15145E-02
         0.18388E-02
         0.12188E-02
         0.11479E-02
        -0.39315E-04
         0.52457E-05
        -0.89230E-05
        -0.66673E-05
         0.66848E-04
         0.25929E-04
         0.65829E-05
        -0.45073E-04
        -0.14287E-04
        -0.42194E-04
         0.32550E-05
        -0.71192E-04
        -0.13620E-03
         0.14464E-04
         0.17946E-03
        -0.28959E-04
         0.55767E-05
         0.25905E-05
         0.83537E-05
         0.25381E-05
         0.77256E-04
         0.51075E-04
        -0.29439E-04
         0.58201E-05
         0.14798E-04
        -0.22238E-05
         0.37633E-05
        -0.65885E-06
        -0.28775E-05
        -0.23249E-04
        -0.24032E-04
        -0.37570E-05
         0.95981E-05
         0.76024E-05
         0.15320E-04
        -0.29394E-04
        -0.63856E-04
         0.15608E-03
         0.25619E-04
         0.59905E-04
         0.15601E-03
        -0.36814E-04
        -0.78886E-04
        -0.71647E-04
        -0.70116E-04
        -0.83272E-04
         0.52642E-04
         0.41069E-04
        -0.60081E-05
         0.91986E-05
         0.10160E-03
         0.53521E-05
        -0.70084E-03
         0.10246E-02
        -0.21484E-02
        -0.22879E-02
        -0.21907E-02
        -0.12074E-02
         0.29872E-03
         0.84115E-03
         0.10434E-02
         0.19014E-02
         0.21305E-02
         0.83971E-03
         0.27818E-03
         0.23248E-03
        -0.10343E-03
        -0.10223E-02
        -0.18669E-02
        -0.24466E-02
        -0.16060E-02
         0.46654E-03
         0.89302E-03
         0.85987E-03
         0.15130E-02
         0.18363E-02
         0.12168E-02
         0.11458E-02
        -0.39396E-04
         0.52709E-05
        -0.89364E-05
        -0.67187E-05
         0.66794E-04
         0.25925E-04
         0.66270E-05
        -0.45007E-04
        -0.14324E-04
        -0.42280E-04
         0.31687E-05
        -0.71361E-04
        -0.13633E-03
         0.14440E-04
         0.17959E-03
        -0.29000E-04
         0.56400E-05
         0.25787E-05
         0.83557E-05
         0.25156E-05
         0.77450E-04
         0.51109E-04
        -0.29483E-04
         0.58129E-05
         0.14890E-04
        -0.22199E-05
         0.38236E-05
        -0.64989E-06
        -0.28577E-05
        -0.23301E-04
        -0.24066E-04
        -0.37334E-05
         0.95747E-05
         0.76180E-05
         0.15157E-04
        -0.29409E-04
        -0.63846E-04
         0.15656E-03
         0.25898E-04
         0.60172E-04
         0.15629E-03
        -0.36645E-04
        -0.78944E-04
        -0.71749E-04
        -0.70143E-04
        -0.83261E-04
         0.52651E-04
         0.41081E-04
        -0.59435E-05
         0.91669E-05
         0.10151E-03
         0.52423E-05
        -0.69992E-03
         0.10244E-02
        -0.21486E-02
        -0.22879E-02
        -0.21898E-02
        -0.12066E-02
         0.29890E-03
         0.84138E-03
         0.10423E-02
         0.19001E-02
         0.21298E-02
         0.84035E-03
         0.27821E-03
         0.23293E-03
        -0.10249E-03
        -0.10233E-02
        -0.18685E-02
        -0.24478E-02
        -0.16055E-02
         0.46665E-03
         0.89227E-03
         0.85952E-03
         0.15115E-02
         0.18339E-02
         0.12149E-02
         0.11438E-02
        -0.39476E-04
         0.52965E-05
        -0.89499E-05
        -0.67699E-05
         0.66739E-04
         0.25922E-04
         0.66711E-05
        -0.44940E-04
        -0.14362E-04
        -0.42365E-04
         0.30823E-05
        -0.71527E-04
        -0.13647E-03
         0.14417E-04
         0.17971E-03
        -0.29041E-04
         0.57038E-05
         0.25670E-05
         0.83579E-05
         0.24935E-05
         0.77643E-04
         0.51142E-04
        -0.29528E-04
         0.58057E-05
         0.14982E-04
        -0.22160E-05
         0.38824E-05
        -0.64060E-06
        -0.28374E-05
        -0.23352E-04
        -0.24100E-04
        -0.37100E-05
         0.95510E-05
         0.76339E-05
         0.14992E-04
        -0.29422E-04
        -0.63835E-04
         0.15705E-03
         0.26179E-04
         0.60438E-04
         0.15657E-03
        -0.36476E-04
        -0.79001E-04
        -0.71849E-04
        -0.70173E-04
        -0.83245E-04
         0.52662E-04
         0.41091E-04
        -0.58797E-05
         0.91347E-05
         0.10142E-03
         0.51327E-05
        -0.69901E-03
         0.10242E-02
        -0.21487E-02
        -0.22879E-02
        -0.21888E-02
        -0.12058E-02
         0.29907E-03
         0.84160E-03
         0.10412E-02
         0.18988E-02
         0.21291E-02
         0.84099E-03
         0.27824E-03
         0.23337E-03
        -0.10155E-03
        -0.10242E-02
        -0.18701E-02
        -0.24489E-02
        -0.16050E-02
         0.46675E-03
         0.89152E-03
         0.85917E-03
         0.15100E-02
         0.18315E-02
         0.12130E-02
         0.11417E-02
        -0.39557E-04
         0.53219E-05
        -0.89635E-05
        -0.68213E-05
         0.66686E-04
         0.25918E-04
         0.67156E-05
        -0.44872E-04
        -0.14400E-04
        -0.42448E-04
         0.29958E-05
        -0.71694E-04
        -0.13660E-03
         0.14391E-04
         0.17984E-03
        -0.29083E-04
         0.57682E-05
         0.25552E-05
         0.83604E-05
         0.24715E-05
         0.77836E-04
         0.51173E-04
        -0.29573E-04
         0.57986E-05
         0.15074E-04
        -0.22120E-05
         0.39428E-05
        -0.63081E-06
        -0.28164E-05
        -0.23403E-04
        -0.24134E-04
        -0.36864E-05
         0.95272E-05
         0.76497E-05
         0.14826E-04
        -0.29436E-04
        -0.63822E-04
         0.15754E-03
         0.26464E-04
         0.60707E-04
         0.15685E-03
        -0.36308E-04
        -0.79059E-04
        -0.71953E-04
        -0.70201E-04
        -0.83234E-04
         0.52673E-04
         0.41104E-04
        -0.58163E-05
         0.91025E-05
         0.10132E-03
         0.50244E-05
        -0.69809E-03
         0.10240E-02
        -0.21489E-02
        -0.22879E-02
        -0.21879E-02
        -0.12050E-02
         0.29924E-03
         0.84183E-03
         0.10401E-02
         0.18974E-02
         0.21284E-02
         0.84165E-03
         0.27826E-03
         0.23382E-03
        -0.10061E-03
        -0.10252E-02
        -0.18717E-02
        -0.24501E-02
        -0.16045E-02
         0.46686E-03
         0.89077E-03
         0.85882E-03
         0.15085E-02
         0.18290E-02
         0.12111E-02
         0.11397E-02
        -0.39638E-04
         0.53472E-05
        -0.89767E-05
        -0.68731E-05
         0.66632E-04
         0.25914E-04
         0.67597E-05
        -0.44804E-04
        -0.14437E-04
        -0.42525E-04
         0.29092E-05
        -0.71861E-04
        -0.13673E-03
         0.14367E-04
         0.17996E-03
        -0.29124E-04
         0.58331E-05
         0.25434E-05
         0.83639E-05
         0.24506E-05
         0.78028E-04
         0.51203E-04
        -0.29620E-04
         0.57912E-05
         0.15163E-04
        -0.22083E-05
         0.40022E-05
        -0.62032E-06
        -0.27951E-05
        -0.23454E-04
        -0.24167E-04
        -0.36625E-05
         0.95028E-05
         0.76656E-05
         0.14660E-04
        -0.29451E-04
        -0.63812E-04
         0.15803E-03
         0.26756E-04
         0.60969E-04
         0.15712E-03
        -0.36135E-04
        -0.79116E-04
        -0.72056E-04
        -0.70229E-04
        -0.83220E-04
         0.52682E-04
         0.41115E-04
        -0.57530E-05
         0.90706E-05
         0.10123E-03
         0.49161E-05
        -0.69717E-03
         0.10238E-02
        -0.21490E-02
        -0.22879E-02
        -0.21869E-02
        -0.12042E-02
         0.29942E-03
         0.84206E-03
         0.10390E-02
         0.18960E-02
         0.21278E-02
         0.84233E-03
         0.27827E-03
         0.23426E-03
        -0.99669E-04
        -0.10262E-02
        -0.18733E-02
        -0.24512E-02
        -0.16040E-02
         0.46697E-03
         0.89003E-03
         0.85847E-03
         0.15070E-02
         0.18266E-02
         0.12092E-02
         0.11377E-02
        -0.39718E-04
         0.53724E-05
        -0.89899E-05
        -0.69247E-05
         0.66577E-04
         0.25910E-04
         0.68040E-05
        -0.44735E-04
        -0.14473E-04
        -0.42597E-04
         0.28227E-05
        -0.72028E-04
        -0.13686E-03
         0.14343E-04
         0.18007E-03
        -0.29165E-04
         0.58991E-05
         0.25315E-05
         0.83664E-05
         0.24303E-05
         0.78222E-04
         0.51231E-04
        -0.29665E-04
         0.57842E-05
         0.15250E-04
        -0.22041E-05
         0.40638E-05
        -0.60898E-06
        -0.27734E-05
        -0.23501E-04
        -0.24201E-04
        -0.36389E-05
         0.94782E-05
         0.76813E-05
         0.14493E-04
        -0.29464E-04
        -0.63802E-04
         0.15851E-03
         0.27054E-04
         0.61230E-04
         0.15738E-03
        -0.35961E-04
        -0.79173E-04
        -0.72157E-04
        -0.70259E-04
        -0.83209E-04
         0.52693E-04
         0.41126E-04
        -0.56892E-05
         0.90388E-05
         0.10113E-03
         0.48074E-05
        -0.69625E-03
         0.10235E-02
        -0.21492E-02
        -0.22880E-02
        -0.21860E-02
        -0.12034E-02
         0.29959E-03
         0.84228E-03
         0.10379E-02
         0.18946E-02
         0.21271E-02
         0.84304E-03
         0.27826E-03
         0.23471E-03
        -0.98725E-04
        -0.10271E-02
        -0.18749E-02
        -0.24524E-02
        -0.16035E-02
         0.46707E-03
         0.88929E-03
         0.85811E-03
         0.15056E-02
         0.18242E-02
         0.12073E-02
         0.11356E-02
        -0.39799E-04
         0.53978E-05
        -0.90037E-05
        -0.69763E-05
         0.66526E-04
         0.25906E-04
         0.68483E-05
        -0.44666E-04
        -0.14509E-04
        -0.42667E-04
         0.27367E-05
        -0.72192E-04
        -0.13699E-03
         0.14317E-04
         0.18019E-03
        -0.29206E-04
         0.59655E-05
         0.25199E-05
         0.83688E-05
         0.24106E-05
         0.78415E-04
         0.51260E-04
        -0.29707E-04
         0.57777E-05
         0.15337E-04
        -0.22003E-05
         0.41239E-05
        -0.59709E-06
        -0.27516E-05
        -0.23548E-04
        -0.24235E-04
        -0.36158E-05
         0.94539E-05
         0.76975E-05
         0.14328E-04
        -0.29478E-04
        -0.63788E-04
         0.15899E-03
         0.27356E-04
         0.61483E-04
         0.15763E-03
        -0.35790E-04
        -0.79232E-04
        -0.72258E-04
        -0.70285E-04
        -0.83197E-04
         0.52705E-04
         0.41139E-04
        -0.56262E-05
         0.90064E-05
         0.10104E-03
         0.46998E-05
        -0.69533E-03
         0.10233E-02
        -0.21493E-02
        -0.22880E-02
        -0.21851E-02
        -0.12026E-02
         0.29976E-03
         0.84248E-03
         0.10368E-02
         0.18931E-02
         0.21265E-02
         0.84374E-03
         0.27824E-03
         0.23515E-03
        -0.97782E-04
        -0.10281E-02
        -0.18765E-02
        -0.24535E-02
        -0.16030E-02
         0.46718E-03
         0.88855E-03
         0.85776E-03
         0.15041E-02
         0.18218E-02
         0.12055E-02
         0.11336E-02
        -0.40244E-04
         0.54687E-05
        -0.91030E-05
        -0.70894E-05
         0.67089E-04
         0.26139E-04
         0.69535E-05
        -0.45024E-04
        -0.14674E-04
        -0.43137E-04
         0.26871E-05
        -0.72998E-04
        -0.13837E-03
         0.14430E-04
         0.18206E-03
        -0.29512E-04
         0.60837E-05
         0.25314E-05
         0.84458E-05
         0.24144E-05
         0.79296E-04
         0.51754E-04
        -0.29988E-04
         0.58273E-05
         0.15561E-04
        -0.22187E-05
         0.42191E-05
        -0.59046E-06
        -0.27614E-05
        -0.23817E-04
        -0.24492E-04
        -0.36322E-05
         0.95179E-05
         0.77842E-05
         0.14311E-04
        -0.29751E-04
        -0.64346E-04
         0.16099E-03
         0.27899E-04
         0.62308E-04
         0.15936E-03
        -0.36001E-04
        -0.80045E-04
        -0.72957E-04
        -0.70917E-04
        -0.83921E-04
         0.53185E-04
         0.41514E-04
        -0.56200E-05
         0.90563E-05
         0.10189E-03
         0.46362E-05
        -0.70162E-03
         0.10338E-02
        -0.21719E-02
        -0.23115E-02
        -0.22071E-02
        -0.12147E-02
         0.30331E-03
         0.85184E-03
         0.10472E-02
         0.19129E-02
         0.21493E-02
         0.85314E-03
         0.28089E-03
         0.23780E-03
        -0.97803E-04
        -0.10386E-02
        -0.18956E-02
        -0.24790E-02
        -0.16193E-02
         0.47233E-03
         0.89688E-03
         0.86584E-03
         0.15178E-02
         0.18378E-02
         0.12156E-02
         0.11429E-02
        -0.90541E-04
         0.12444E-04
        -0.20417E-04
        -0.16077E-04
         0.14023E-03
         0.55662E-04
         0.15766E-04
        -0.10036E-03
        -0.32849E-04
        -0.95810E-04
         0.57942E-05
        -0.14767E-03
        -0.28790E-03
         0.31278E-04
         0.37242E-03
        -0.66484E-04
         0.13726E-04
         0.56874E-05
         0.18537E-04
         0.53131E-05
         0.16481E-03
         0.11024E-03
        -0.62497E-04
         0.12980E-04
         0.35266E-04
        -0.50243E-05
         0.93795E-05
        -0.13164E-05
        -0.62752E-05
        -0.53829E-04
        -0.55213E-04
        -0.81395E-05
         0.21480E-04
         0.17595E-04
         0.28471E-04
        -0.63276E-04
        -0.13693E-03
         0.34434E-03
         0.61570E-04
         0.13806E-03
         0.34321E-03
        -0.78455E-04
        -0.17449E-03
        -0.15431E-03
        -0.14905E-03
        -0.16674E-03
         0.11109E-03
         0.88853E-04
        -0.12063E-04
         0.19375E-04
         0.20806E-03
         0.96586E-05
        -0.11221E-02
         0.16487E-02
        -0.34677E-02
        -0.37088E-02
        -0.35384E-02
        -0.19592E-02
         0.50129E-03
         0.14299E-02
         0.17504E-02
         0.31628E-02
         0.35601E-02
         0.14059E-02
         0.47156E-03
         0.40186E-03
        -0.15988E-03
        -0.16708E-02
        -0.30320E-02
        -0.39289E-02
        -0.25667E-02
         0.75117E-03
         0.14520E-02
         0.14131E-02
         0.24610E-02
         0.29995E-02
         0.19710E-02
         0.18392E-02
  
SCALARS                      strain_eq  double 1
LOOKUP_TABLE default
         0.78168E+01
         0.77097E+01
         0.77775E+01
         0.78994E+01
         0.25777E-08
         0.28582E-08
         0.27769E-08
         0.24987E-08
         0.77046E+01
         0.77416E+01
         0.28111E-08
         0.26884E-08
         0.75544E+01
         0.75487E+01
         0.30756E-08
         0.29289E-08
         0.78815E+01
         0.75570E+01
         0.22944E-08
         0.25805E-08
         0.74376E+01
         0.73444E+01
         0.74919E+01
         0.31677E-08
         0.30217E-08
         0.30055E-08
         0.73484E+01
         0.72126E+01
         0.30682E-08
         0.27867E-08
         0.78757E+01
         0.77346E+01
         0.80123E+01
         0.24967E-08
         0.23446E-08
         0.22458E-08
         0.77939E+01
         0.76141E+01
         0.27220E-08
         0.24815E-08
         0.77225E+01
         0.75835E+01
         0.25319E-08
         0.21843E-08
         0.78398E+01
         0.78922E+01
         0.27340E-08
         0.28352E-08
         0.74726E+01
         0.24503E-08
         0.78820E+01
         0.28491E-08
         0.73095E+01
         0.26788E-08
         0.72669E+01
         0.24727E-08
         0.72673E+01
         0.74189E+01
         0.25057E-08
         0.24640E-08
         0.78728E+01
         0.78182E+01
         0.25282E-08
         0.28619E-08
         0.79067E+01
         0.24266E-08
         0.78420E+01
         0.26577E-08
         0.76700E+01
         0.76544E+01
         0.28428E-08
         0.28410E-08
         0.76165E+01
         0.28750E-08
         0.71643E+01
         0.22981E-08
         0.71404E+01
         0.21390E-08
         0.71518E+01
         0.22283E-08
         0.72162E+01
         0.72853E+01
         0.21553E-08
         0.22386E-08
         0.74232E+01
         0.21083E-08
         0.78367E+01
         0.28307E-08
         0.77715E+01
         0.28826E-08
         0.77171E+01
         0.76899E+01
         0.28799E-08
         0.28251E-08
         0.77264E+01
         0.25352E-08
         0.77519E+01
         0.24822E-08
         0.77284E+01
         0.26849E-08
         0.77189E+01
         0.77432E+01
         0.27602E-08
         0.27526E-08
         0.75856E+01
         0.76452E+01
         0.26246E-08
         0.25334E-08
         0.75721E+01
         0.25488E-08
         0.76408E+01
         0.24885E-08
         0.75719E+01
         0.24855E-08
         0.74171E+01
         0.23302E-08
         0.72660E+01
         0.19718E-08
         0.71763E+01
         0.16661E-08
         0.71672E+01
         0.16159E-08
         0.71703E+01
         0.17216E-08
         0.72679E+01
         0.17760E-08
         0.74475E+01
         0.16637E-08
         0.76455E+01
         0.15184E-08
         0.77634E+01
         0.15715E-08
         0.78796E+01
         0.18628E-08
         0.79561E+01
         0.21746E-08
         0.79523E+01
         0.23177E-08
         0.77701E+01
         0.24748E-08
         0.76437E+01
         0.26008E-08
         0.75964E+01
         0.24266E-08
         0.76638E+01
         0.21364E-08
         0.77008E+01
         0.21323E-08
         0.76430E+01
         0.23464E-08
         0.76459E+01
         0.24898E-08
         0.76896E+01
         0.24092E-08
         0.77468E+01
         0.23555E-08
         0.40657E+00
         0.40590E+00
         0.40600E+00
         0.40666E+00
         0.40516E+00
         0.40617E+00
         0.40465E+00
         0.40553E+00
         0.40661E+00
         0.40608E+00
         0.40358E+00
         0.40357E+00
         0.40441E+00
         0.40421E+00
         0.40399E+00
         0.40665E+00
         0.40656E+00
         0.40674E+00
         0.40580E+00
         0.40606E+00
         0.40591E+00
         0.40621E+00
         0.40565E+00
         0.40558E+00
         0.40607E+00
         0.40601E+00
         0.40514E+00
         0.40521E+00
         0.40439E+00
         0.40561E+00
         0.40661E+00
         0.40587E+00
         0.40659E+00
         0.40617E+00
         0.40325E+00
         0.40440E+00
         0.40497E+00
         0.40449E+00
         0.40431E+00
         0.40305E+00
         0.40225E+00
         0.40443E+00
         0.40600E+00
         0.40572E+00
         0.40495E+00
         0.40335E+00
         0.40466E+00
         0.40585E+00
         0.40576E+00
         0.40486E+00
         0.40382E+00
         0.40526E+00
         0.40174E+00
         0.40446E+00
         0.40434E+00
         0.40509E+00
         0.40538E+00
         0.40470E+00
         0.40310E+00
         0.40192E+00
         0.40195E+00
         0.40206E+00
         0.40119E+00
         0.40491E+00
         0.40524E+00
         0.40535E+00
         0.40635E+00
         0.40713E+00
         0.40737E+00
         0.40677E+00
         0.40291E+00
         0.40417E+00
         0.40508E+00
         0.40475E+00
         0.40460E+00
         0.40319E+00
         0.40517E+00
         0.40592E+00
         0.18314E-01
         0.11004E-01
         0.10380E-01
         0.71177E-02
         0.19019E-01
         0.13150E-01
         0.58044E-02
         0.18012E-01
         0.11283E-01
         0.16973E-01
         0.82754E-02
         0.35659E-01
         0.27078E-01
         0.13543E-01
         0.37347E-01
         0.13307E-01
         0.67417E-02
         0.43012E-02
         0.89605E-02
         0.48511E-02
         0.28042E-01
         0.26309E-01
         0.25621E-01
         0.66674E-02
         0.10953E-01
         0.34828E-02
         0.12777E-01
         0.20753E-02
         0.46797E-02
         0.11880E-01
         0.11368E-01
         0.60467E-02
         0.73633E-02
         0.63699E-02
         0.24585E-01
         0.14712E-01
         0.19044E-01
         0.30457E-01
         0.23429E-01
         0.21806E-01
         0.30971E-01
         0.28075E-01
         0.28262E-01
         0.21879E-01
         0.19539E-01
         0.26728E-01
         0.17522E-01
         0.14899E-01
         0.12286E-01
         0.14509E-01
         0.23723E-01
         0.16287E-01
         0.10415E+00
         0.10664E+00
         0.11147E+00
         0.11066E+00
         0.11796E+00
         0.12666E+00
         0.12154E+00
         0.10807E+00
         0.10532E+00
         0.11271E+00
         0.11046E+00
         0.10896E+00
         0.90075E-01
         0.85627E-01
         0.94067E-01
         0.10076E+00
         0.10456E+00
         0.11418E+00
         0.10983E+00
         0.11281E+00
         0.10158E+00
         0.96447E-01
         0.10286E+00
         0.10055E+00
         0.10347E+00
         0.10260E+00
         0.18328E-01
         0.11007E-01
         0.10386E-01
         0.71279E-02
         0.19010E-01
         0.13142E-01
         0.58220E-02
         0.18030E-01
         0.11303E-01
         0.17023E-01
         0.82752E-02
         0.35658E-01
         0.27089E-01
         0.13511E-01
         0.37386E-01
         0.13318E-01
         0.67605E-02
         0.42904E-02
         0.89657E-02
         0.48404E-02
         0.28044E-01
         0.26307E-01
         0.25619E-01
         0.66672E-02
         0.11000E-01
         0.34820E-02
         0.12782E-01
         0.20533E-02
         0.47021E-02
         0.11901E-01
         0.11379E-01
         0.60448E-02
         0.73509E-02
         0.63757E-02
         0.24596E-01
         0.14708E-01
         0.19040E-01
         0.30505E-01
         0.23481E-01
         0.21836E-01
         0.30991E-01
         0.28090E-01
         0.28266E-01
         0.21879E-01
         0.19535E-01
         0.26727E-01
         0.17522E-01
         0.14898E-01
         0.12269E-01
         0.14489E-01
         0.23710E-01
         0.16262E-01
         0.10411E+00
         0.10661E+00
         0.11147E+00
         0.11066E+00
         0.11795E+00
         0.12661E+00
         0.12149E+00
         0.10804E+00
         0.10529E+00
         0.11268E+00
         0.11045E+00
         0.10896E+00
         0.90066E-01
         0.85623E-01
         0.94078E-01
         0.10078E+00
         0.10459E+00
         0.11421E+00
         0.10983E+00
         0.11280E+00
         0.10157E+00
         0.96441E-01
         0.10282E+00
         0.10048E+00
         0.10341E+00
         0.10254E+00
         0.18342E-01
         0.11009E-01
         0.10391E-01
         0.71381E-02
         0.19002E-01
         0.13135E-01
         0.58397E-02
         0.18047E-01
         0.11322E-01
         0.17072E-01
         0.82751E-02
         0.35657E-01
         0.27099E-01
         0.13480E-01
         0.37424E-01
         0.13329E-01
         0.67798E-02
         0.42794E-02
         0.89710E-02
         0.48299E-02
         0.28047E-01
         0.26305E-01
         0.25618E-01
         0.66669E-02
         0.11047E-01
         0.34810E-02
         0.12786E-01
         0.20322E-02
         0.47242E-02
         0.11922E-01
         0.11390E-01
         0.60428E-02
         0.73384E-02
         0.63815E-02
         0.24607E-01
         0.14704E-01
         0.19035E-01
         0.30552E-01
         0.23534E-01
         0.21867E-01
         0.31012E-01
         0.28105E-01
         0.28270E-01
         0.21879E-01
         0.19532E-01
         0.26726E-01
         0.17523E-01
         0.14897E-01
         0.12252E-01
         0.14469E-01
         0.23697E-01
         0.16237E-01
         0.10407E+00
         0.10659E+00
         0.11147E+00
         0.11066E+00
         0.11793E+00
         0.12657E+00
         0.12144E+00
         0.10802E+00
         0.10526E+00
         0.11264E+00
         0.11043E+00
         0.10897E+00
         0.90058E-01
         0.85620E-01
         0.94089E-01
         0.10081E+00
         0.10461E+00
         0.11423E+00
         0.10982E+00
         0.11280E+00
         0.10156E+00
         0.96434E-01
         0.10279E+00
         0.10042E+00
         0.10335E+00
         0.10249E+00
         0.18356E-01
         0.11012E-01
         0.10397E-01
         0.71484E-02
         0.18993E-01
         0.13127E-01
         0.58575E-02
         0.18064E-01
         0.11342E-01
         0.17121E-01
         0.82751E-02
         0.35656E-01
         0.27110E-01
         0.13448E-01
         0.37463E-01
         0.13341E-01
         0.67997E-02
         0.42684E-02
         0.89767E-02
         0.48189E-02
         0.28051E-01
         0.26304E-01
         0.25618E-01
         0.66663E-02
         0.11093E-01
         0.34794E-02
         0.12789E-01
         0.20135E-02
         0.47450E-02
         0.11940E-01
         0.11402E-01
         0.60413E-02
         0.73259E-02
         0.63873E-02
         0.24618E-01
         0.14700E-01
         0.19031E-01
         0.30600E-01
         0.23588E-01
         0.21899E-01
         0.31035E-01
         0.28121E-01
         0.28275E-01
         0.21882E-01
         0.19529E-01
         0.26726E-01
         0.17524E-01
         0.14897E-01
         0.12234E-01
         0.14449E-01
         0.23683E-01
         0.16212E-01
         0.10404E+00
         0.10656E+00
         0.11147E+00
         0.11066E+00
         0.11791E+00
         0.12653E+00
         0.12139E+00
         0.10799E+00
         0.10524E+00
         0.11261E+00
         0.11041E+00
         0.10897E+00
         0.90052E-01
         0.85617E-01
         0.94102E-01
         0.10083E+00
         0.10464E+00
         0.11426E+00
         0.10982E+00
         0.11279E+00
         0.10154E+00
         0.96428E-01
         0.10275E+00
         0.10035E+00
         0.10330E+00
         0.10244E+00
         0.18370E-01
         0.11014E-01
         0.10403E-01
         0.71586E-02
         0.18985E-01
         0.13120E-01
         0.58752E-02
         0.18081E-01
         0.11361E-01
         0.17168E-01
         0.82753E-02
         0.35654E-01
         0.27121E-01
         0.13416E-01
         0.37501E-01
         0.13354E-01
         0.68204E-02
         0.42574E-02
         0.89826E-02
         0.48076E-02
         0.28055E-01
         0.26303E-01
         0.25619E-01
         0.66653E-02
         0.11137E-01
         0.34770E-02
         0.12792E-01
         0.19973E-02
         0.47646E-02
         0.11956E-01
         0.11414E-01
         0.60400E-02
         0.73133E-02
         0.63930E-02
         0.24629E-01
         0.14696E-01
         0.19026E-01
         0.30648E-01
         0.23642E-01
         0.21933E-01
         0.31058E-01
         0.28137E-01
         0.28281E-01
         0.21886E-01
         0.19529E-01
         0.26727E-01
         0.17526E-01
         0.14896E-01
         0.12217E-01
         0.14429E-01
         0.23670E-01
         0.16187E-01
         0.10400E+00
         0.10654E+00
         0.11147E+00
         0.11066E+00
         0.11789E+00
         0.12648E+00
         0.12134E+00
         0.10796E+00
         0.10521E+00
         0.11258E+00
         0.11039E+00
         0.10898E+00
         0.90048E-01
         0.85615E-01
         0.94115E-01
         0.10087E+00
         0.10468E+00
         0.11429E+00
         0.10981E+00
         0.11278E+00
         0.10153E+00
         0.96422E-01
         0.10271E+00
         0.10029E+00
         0.10324E+00
         0.10238E+00
         0.18383E-01
         0.11016E-01
         0.10409E-01
         0.71689E-02
         0.18976E-01
         0.13112E-01
         0.58924E-02
         0.18097E-01
         0.11380E-01
         0.17214E-01
         0.82762E-02
         0.35654E-01
         0.27132E-01
         0.13385E-01
         0.37540E-01
         0.13367E-01
         0.68412E-02
         0.42463E-02
         0.89885E-02
         0.47967E-02
         0.28060E-01
         0.26303E-01
         0.25622E-01
         0.66642E-02
         0.11181E-01
         0.34744E-02
         0.12795E-01
         0.19823E-02
         0.47841E-02
         0.11972E-01
         0.11425E-01
         0.60382E-02
         0.73008E-02
         0.63988E-02
         0.24640E-01
         0.14693E-01
         0.19023E-01
         0.30696E-01
         0.23698E-01
         0.21967E-01
         0.31082E-01
         0.28153E-01
         0.28288E-01
         0.21892E-01
         0.19529E-01
         0.26730E-01
         0.17529E-01
         0.14897E-01
         0.12201E-01
         0.14409E-01
         0.23658E-01
         0.16163E-01
         0.10396E+00
         0.10651E+00
         0.11147E+00
         0.11067E+00
         0.11787E+00
         0.12644E+00
         0.12128E+00
         0.10793E+00
         0.10518E+00
         0.11254E+00
         0.11037E+00
         0.10899E+00
         0.90044E-01
         0.85613E-01
         0.94130E-01
         0.10090E+00
         0.10472E+00
         0.11431E+00
         0.10980E+00
         0.11278E+00
         0.10152E+00
         0.96416E-01
         0.10268E+00
         0.10022E+00
         0.10318E+00
         0.10233E+00
         0.18395E-01
         0.11016E-01
         0.10414E-01
         0.71792E-02
         0.18968E-01
         0.13105E-01
         0.59090E-02
         0.18111E-01
         0.11400E-01
         0.17258E-01
         0.82783E-02
         0.35654E-01
         0.27144E-01
         0.13353E-01
         0.37579E-01
         0.13380E-01
         0.68616E-02
         0.42352E-02
         0.89945E-02
         0.47859E-02
         0.28065E-01
         0.26303E-01
         0.25625E-01
         0.66634E-02
         0.11223E-01
         0.34712E-02
         0.12799E-01
         0.19677E-02
         0.48038E-02
         0.11988E-01
         0.11436E-01
         0.60353E-02
         0.72882E-02
         0.64044E-02
         0.24652E-01
         0.14690E-01
         0.19019E-01
         0.30744E-01
         0.23753E-01
         0.22002E-01
         0.31107E-01
         0.28170E-01
         0.28295E-01
         0.21897E-01
         0.19530E-01
         0.26733E-01
         0.17532E-01
         0.14898E-01
         0.12187E-01
         0.14391E-01
         0.23646E-01
         0.16138E-01
         0.10392E+00
         0.10649E+00
         0.11147E+00
         0.11067E+00
         0.11785E+00
         0.12640E+00
         0.12123E+00
         0.10790E+00
         0.10516E+00
         0.11251E+00
         0.11036E+00
         0.10900E+00
         0.90041E-01
         0.85612E-01
         0.94144E-01
         0.10093E+00
         0.10475E+00
         0.11434E+00
         0.10980E+00
         0.11277E+00
         0.10151E+00
         0.96412E-01
         0.10264E+00
         0.10016E+00
         0.10312E+00
         0.10227E+00
         0.18406E-01
         0.11016E-01
         0.10420E-01
         0.71896E-02
         0.18960E-01
         0.13098E-01
         0.59251E-02
         0.18123E-01
         0.11420E-01
         0.17302E-01
         0.82812E-02
         0.35654E-01
         0.27156E-01
         0.13322E-01
         0.37618E-01
         0.13393E-01
         0.68819E-02
         0.42240E-02
         0.90005E-02
         0.47756E-02
         0.28069E-01
         0.26303E-01
         0.25628E-01
         0.66625E-02
         0.11265E-01
         0.34679E-02
         0.12802E-01
         0.19536E-02
         0.48241E-02
         0.12004E-01
         0.11447E-01
         0.60317E-02
         0.72755E-02
         0.64100E-02
         0.24664E-01
         0.14688E-01
         0.19017E-01
         0.30793E-01
         0.23809E-01
         0.22036E-01
         0.31132E-01
         0.28188E-01
         0.28303E-01
         0.21903E-01
         0.19532E-01
         0.26737E-01
         0.17537E-01
         0.14901E-01
         0.12174E-01
         0.14372E-01
         0.23635E-01
         0.16114E-01
         0.10388E+00
         0.10646E+00
         0.11146E+00
         0.11067E+00
         0.11783E+00
         0.12636E+00
         0.12118E+00
         0.10787E+00
         0.10513E+00
         0.11247E+00
         0.11034E+00
         0.10900E+00
         0.90038E-01
         0.85610E-01
         0.94158E-01
         0.10097E+00
         0.10479E+00
         0.11437E+00
         0.10979E+00
         0.11276E+00
         0.10150E+00
         0.96407E-01
         0.10261E+00
         0.10009E+00
         0.10306E+00
         0.10222E+00
         0.18418E-01
         0.11016E-01
         0.10425E-01
         0.71999E-02
         0.18952E-01
         0.13090E-01
         0.59412E-02
         0.18135E-01
         0.11441E-01
         0.17345E-01
         0.82838E-02
         0.35654E-01
         0.27169E-01
         0.13291E-01
         0.37658E-01
         0.13407E-01
         0.69021E-02
         0.42129E-02
         0.90065E-02
         0.47649E-02
         0.28074E-01
         0.26303E-01
         0.25631E-01
         0.66619E-02
         0.11307E-01
         0.34646E-02
         0.12806E-01
         0.19399E-02
         0.48446E-02
         0.12020E-01
         0.11457E-01
         0.60281E-02
         0.72629E-02
         0.64155E-02
         0.24676E-01
         0.14685E-01
         0.19014E-01
         0.30842E-01
         0.23865E-01
         0.22071E-01
         0.31157E-01
         0.28205E-01
         0.28310E-01
         0.21910E-01
         0.19534E-01
         0.26742E-01
         0.17541E-01
         0.14903E-01
         0.12161E-01
         0.14354E-01
         0.23624E-01
         0.16090E-01
         0.10385E+00
         0.10644E+00
         0.11146E+00
         0.11067E+00
         0.11781E+00
         0.12631E+00
         0.12113E+00
         0.10784E+00
         0.10510E+00
         0.11244E+00
         0.11032E+00
         0.10901E+00
         0.90035E-01
         0.85608E-01
         0.94172E-01
         0.10100E+00
         0.10482E+00
         0.11439E+00
         0.10978E+00
         0.11275E+00
         0.10150E+00
         0.96403E-01
         0.10257E+00
         0.10003E+00
         0.10301E+00
         0.10216E+00
         0.18429E-01
         0.11016E-01
         0.10430E-01
         0.72104E-02
         0.18944E-01
         0.13083E-01
         0.59574E-02
         0.18148E-01
         0.11461E-01
         0.17388E-01
         0.82870E-02
         0.35654E-01
         0.27181E-01
         0.13260E-01
         0.37697E-01
         0.13420E-01
         0.69225E-02
         0.42018E-02
         0.90123E-02
         0.47545E-02
         0.28079E-01
         0.26303E-01
         0.25633E-01
         0.66613E-02
         0.11348E-01
         0.34614E-02
         0.12809E-01
         0.19268E-02
         0.48652E-02
         0.12036E-01
         0.11468E-01
         0.60245E-02
         0.72504E-02
         0.64210E-02
         0.24688E-01
         0.14683E-01
         0.19012E-01
         0.30891E-01
         0.23922E-01
         0.22106E-01
         0.31181E-01
         0.28222E-01
         0.28318E-01
         0.21916E-01
         0.19536E-01
         0.26746E-01
         0.17545E-01
         0.14906E-01
         0.12148E-01
         0.14336E-01
         0.23612E-01
         0.16066E-01
         0.10381E+00
         0.10641E+00
         0.11146E+00
         0.11067E+00
         0.11779E+00
         0.12627E+00
         0.12108E+00
         0.10781E+00
         0.10508E+00
         0.11240E+00
         0.11030E+00
         0.10902E+00
         0.90031E-01
         0.85607E-01
         0.94187E-01
         0.10103E+00
         0.10486E+00
         0.11442E+00
         0.10978E+00
         0.11275E+00
         0.10149E+00
         0.96399E-01
         0.10254E+00
         0.99960E-01
         0.10295E+00
         0.10211E+00
         0.18440E-01
         0.11016E-01
         0.10436E-01
         0.72208E-02
         0.18936E-01
         0.13075E-01
         0.59738E-02
         0.18160E-01
         0.11481E-01
         0.17431E-01
         0.82901E-02
         0.35654E-01
         0.27194E-01
         0.13229E-01
         0.37736E-01
         0.13433E-01
         0.69429E-02
         0.41907E-02
         0.90183E-02
         0.47438E-02
         0.28084E-01
         0.26303E-01
         0.25636E-01
         0.66607E-02
         0.11390E-01
         0.34582E-02
         0.12813E-01
         0.19139E-02
         0.48861E-02
         0.12052E-01
         0.11478E-01
         0.60209E-02
         0.72380E-02
         0.64266E-02
         0.24700E-01
         0.14681E-01
         0.19009E-01
         0.30940E-01
         0.23978E-01
         0.22140E-01
         0.31206E-01
         0.28239E-01
         0.28325E-01
         0.21922E-01
         0.19538E-01
         0.26750E-01
         0.17549E-01
         0.14908E-01
         0.12135E-01
         0.14318E-01
         0.23601E-01
         0.16042E-01
         0.10377E+00
         0.10639E+00
         0.11146E+00
         0.11067E+00
         0.11777E+00
         0.12623E+00
         0.12103E+00
         0.10778E+00
         0.10505E+00
         0.11237E+00
         0.11028E+00
         0.10902E+00
         0.90027E-01
         0.85605E-01
         0.94201E-01
         0.10107E+00
         0.10490E+00
         0.11445E+00
         0.10977E+00
         0.11274E+00
         0.10148E+00
         0.96394E-01
         0.10250E+00
         0.99895E-01
         0.10289E+00
         0.10205E+00
         0.18451E-01
         0.11016E-01
         0.10441E-01
         0.72312E-02
         0.18928E-01
         0.13068E-01
         0.59901E-02
         0.18172E-01
         0.11501E-01
         0.17474E-01
         0.82934E-02
         0.35655E-01
         0.27206E-01
         0.13199E-01
         0.37775E-01
         0.13446E-01
         0.69632E-02
         0.41796E-02
         0.90242E-02
         0.47334E-02
         0.28089E-01
         0.26303E-01
         0.25639E-01
         0.66601E-02
         0.11431E-01
         0.34551E-02
         0.12817E-01
         0.19016E-02
         0.49068E-02
         0.12068E-01
         0.11489E-01
         0.60174E-02
         0.72255E-02
         0.64322E-02
         0.24712E-01
         0.14678E-01
         0.19006E-01
         0.30989E-01
         0.24034E-01
         0.22175E-01
         0.31231E-01
         0.28256E-01
         0.28332E-01
         0.21928E-01
         0.19540E-01
         0.26755E-01
         0.17554E-01
         0.14911E-01
         0.12122E-01
         0.14300E-01
         0.23590E-01
         0.16018E-01
         0.10373E+00
         0.10636E+00
         0.11146E+00
         0.11067E+00
         0.11775E+00
         0.12618E+00
         0.12097E+00
         0.10775E+00
         0.10503E+00
         0.11233E+00
         0.11027E+00
         0.10903E+00
         0.90024E-01
         0.85604E-01
         0.94215E-01
         0.10110E+00
         0.10493E+00
         0.11447E+00
         0.10976E+00
         0.11273E+00
         0.10147E+00
         0.96390E-01
         0.10247E+00
         0.99829E-01
         0.10284E+00
         0.10200E+00
         0.18463E-01
         0.11016E-01
         0.10446E-01
         0.72417E-02
         0.18920E-01
         0.13061E-01
         0.60063E-02
         0.18185E-01
         0.11521E-01
         0.17517E-01
         0.82969E-02
         0.35655E-01
         0.27218E-01
         0.13168E-01
         0.37815E-01
         0.13460E-01
         0.69836E-02
         0.41684E-02
         0.90302E-02
         0.47229E-02
         0.28093E-01
         0.26303E-01
         0.25641E-01
         0.66596E-02
         0.11473E-01
         0.34519E-02
         0.12821E-01
         0.18897E-02
         0.49280E-02
         0.12084E-01
         0.11499E-01
         0.60138E-02
         0.72131E-02
         0.64377E-02
         0.24724E-01
         0.14676E-01
         0.19004E-01
         0.31038E-01
         0.24090E-01
         0.22209E-01
         0.31256E-01
         0.28273E-01
         0.28340E-01
         0.21934E-01
         0.19543E-01
         0.26758E-01
         0.17558E-01
         0.14913E-01
         0.12109E-01
         0.14281E-01
         0.23578E-01
         0.15994E-01
         0.10370E+00
         0.10634E+00
         0.11146E+00
         0.11067E+00
         0.11773E+00
         0.12614E+00
         0.12092E+00
         0.10773E+00
         0.10500E+00
         0.11230E+00
         0.11025E+00
         0.10904E+00
         0.90021E-01
         0.85602E-01
         0.94230E-01
         0.10113E+00
         0.10497E+00
         0.11450E+00
         0.10975E+00
         0.11273E+00
         0.10146E+00
         0.96385E-01
         0.10243E+00
         0.99764E-01
         0.10278E+00
         0.10195E+00
         0.18474E-01
         0.11016E-01
         0.10451E-01
         0.72522E-02
         0.18912E-01
         0.13053E-01
         0.60228E-02
         0.18197E-01
         0.11541E-01
         0.17560E-01
         0.83004E-02
         0.35655E-01
         0.27230E-01
         0.13137E-01
         0.37854E-01
         0.13473E-01
         0.70041E-02
         0.41573E-02
         0.90361E-02
         0.47126E-02
         0.28098E-01
         0.26303E-01
         0.25644E-01
         0.66591E-02
         0.11514E-01
         0.34487E-02
         0.12824E-01
         0.18782E-02
         0.49494E-02
         0.12099E-01
         0.11509E-01
         0.60102E-02
         0.72008E-02
         0.64433E-02
         0.24737E-01
         0.14674E-01
         0.19001E-01
         0.31087E-01
         0.24147E-01
         0.22244E-01
         0.31280E-01
         0.28290E-01
         0.28347E-01
         0.21941E-01
         0.19545E-01
         0.26763E-01
         0.17562E-01
         0.14915E-01
         0.12096E-01
         0.14263E-01
         0.23568E-01
         0.15970E-01
         0.10366E+00
         0.10631E+00
         0.11146E+00
         0.11067E+00
         0.11771E+00
         0.12610E+00
         0.12087E+00
         0.10770E+00
         0.10497E+00
         0.11226E+00
         0.11023E+00
         0.10905E+00
         0.90017E-01
         0.85600E-01
         0.94244E-01
         0.10117E+00
         0.10500E+00
         0.11453E+00
         0.10975E+00
         0.11272E+00
         0.10145E+00
         0.96381E-01
         0.10239E+00
         0.99699E-01
         0.10272E+00
         0.10189E+00
         0.18485E-01
         0.11016E-01
         0.10457E-01
         0.72628E-02
         0.18904E-01
         0.13046E-01
         0.60391E-02
         0.18209E-01
         0.11562E-01
         0.17603E-01
         0.83041E-02
         0.35655E-01
         0.27243E-01
         0.13106E-01
         0.37894E-01
         0.13486E-01
         0.70246E-02
         0.41462E-02
         0.90421E-02
         0.47020E-02
         0.28103E-01
         0.26303E-01
         0.25647E-01
         0.66586E-02
         0.11555E-01
         0.34456E-02
         0.12828E-01
         0.18671E-02
         0.49710E-02
         0.12115E-01
         0.11520E-01
         0.60066E-02
         0.71885E-02
         0.64489E-02
         0.24748E-01
         0.14672E-01
         0.18999E-01
         0.31137E-01
         0.24203E-01
         0.22278E-01
         0.31305E-01
         0.28307E-01
         0.28354E-01
         0.21947E-01
         0.19547E-01
         0.26767E-01
         0.17566E-01
         0.14918E-01
         0.12083E-01
         0.14245E-01
         0.23556E-01
         0.15945E-01
         0.10362E+00
         0.10629E+00
         0.11145E+00
         0.11067E+00
         0.11769E+00
         0.12605E+00
         0.12082E+00
         0.10767E+00
         0.10495E+00
         0.11223E+00
         0.11021E+00
         0.10905E+00
         0.90014E-01
         0.85599E-01
         0.94258E-01
         0.10120E+00
         0.10504E+00
         0.11455E+00
         0.10974E+00
         0.11271E+00
         0.10144E+00
         0.96376E-01
         0.10236E+00
         0.99633E-01
         0.10266E+00
         0.10184E+00
         0.18496E-01
         0.11016E-01
         0.10462E-01
         0.72733E-02
         0.18896E-01
         0.13038E-01
         0.60555E-02
         0.18222E-01
         0.11582E-01
         0.17646E-01
         0.83078E-02
         0.35656E-01
         0.27255E-01
         0.13075E-01
         0.37933E-01
         0.13499E-01
         0.70452E-02
         0.41352E-02
         0.90480E-02
         0.46916E-02
         0.28108E-01
         0.26303E-01
         0.25650E-01
         0.66581E-02
         0.11597E-01
         0.34425E-02
         0.12831E-01
         0.18563E-02
         0.49928E-02
         0.12131E-01
         0.11530E-01
         0.60031E-02
         0.71764E-02
         0.64546E-02
         0.24761E-01
         0.14670E-01
         0.18996E-01
         0.31186E-01
         0.24260E-01
         0.22312E-01
         0.31330E-01
         0.28324E-01
         0.28361E-01
         0.21952E-01
         0.19549E-01
         0.26772E-01
         0.17571E-01
         0.14920E-01
         0.12071E-01
         0.14227E-01
         0.23545E-01
         0.15921E-01
         0.10358E+00
         0.10626E+00
         0.11145E+00
         0.11067E+00
         0.11767E+00
         0.12601E+00
         0.12077E+00
         0.10764E+00
         0.10492E+00
         0.11219E+00
         0.11019E+00
         0.10906E+00
         0.90010E-01
         0.85597E-01
         0.94272E-01
         0.10124E+00
         0.10508E+00
         0.11458E+00
         0.10973E+00
         0.11271E+00
         0.10143E+00
         0.96372E-01
         0.10232E+00
         0.99568E-01
         0.10261E+00
         0.10178E+00
         0.18508E-01
         0.11015E-01
         0.10467E-01
         0.72839E-02
         0.18888E-01
         0.13031E-01
         0.60720E-02
         0.18234E-01
         0.11603E-01
         0.17689E-01
         0.83117E-02
         0.35656E-01
         0.27268E-01
         0.13045E-01
         0.37972E-01
         0.13513E-01
         0.70658E-02
         0.41242E-02
         0.90539E-02
         0.46811E-02
         0.28113E-01
         0.26303E-01
         0.25652E-01
         0.66577E-02
         0.11638E-01
         0.34394E-02
         0.12835E-01
         0.18458E-02
         0.50145E-02
         0.12146E-01
         0.11541E-01
         0.59996E-02
         0.71643E-02
         0.64603E-02
         0.24773E-01
         0.14667E-01
         0.18994E-01
         0.31235E-01
         0.24316E-01
         0.22346E-01
         0.31354E-01
         0.28340E-01
         0.28368E-01
         0.21959E-01
         0.19551E-01
         0.26776E-01
         0.17575E-01
         0.14923E-01
         0.12058E-01
         0.14209E-01
         0.23534E-01
         0.15898E-01
         0.10354E+00
         0.10624E+00
         0.11145E+00
         0.11067E+00
         0.11765E+00
         0.12597E+00
         0.12071E+00
         0.10761E+00
         0.10489E+00
         0.11215E+00
         0.11018E+00
         0.10907E+00
         0.90007E-01
         0.85596E-01
         0.94286E-01
         0.10127E+00
         0.10511E+00
         0.11461E+00
         0.10972E+00
         0.11270E+00
         0.10142E+00
         0.96367E-01
         0.10229E+00
         0.99503E-01
         0.10255E+00
         0.10173E+00
         0.18519E-01
         0.11015E-01
         0.10472E-01
         0.72945E-02
         0.18880E-01
         0.13023E-01
         0.60884E-02
         0.18246E-01
         0.11623E-01
         0.17731E-01
         0.83157E-02
         0.35656E-01
         0.27280E-01
         0.13014E-01
         0.38011E-01
         0.13526E-01
         0.70864E-02
         0.41131E-02
         0.90600E-02
         0.46711E-02
         0.28117E-01
         0.26303E-01
         0.25655E-01
         0.66572E-02
         0.11679E-01
         0.34365E-02
         0.12837E-01
         0.18353E-02
         0.50366E-02
         0.12161E-01
         0.11551E-01
         0.59960E-02
         0.71522E-02
         0.64660E-02
         0.24785E-01
         0.14666E-01
         0.18991E-01
         0.31285E-01
         0.24373E-01
         0.22379E-01
         0.31377E-01
         0.28355E-01
         0.28375E-01
         0.21965E-01
         0.19553E-01
         0.26780E-01
         0.17580E-01
         0.14925E-01
         0.12045E-01
         0.14190E-01
         0.23523E-01
         0.15873E-01
         0.10351E+00
         0.10621E+00
         0.11145E+00
         0.11067E+00
         0.11763E+00
         0.12592E+00
         0.12066E+00
         0.10758E+00
         0.10487E+00
         0.11212E+00
         0.11016E+00
         0.10908E+00
         0.90006E-01
         0.85594E-01
         0.94301E-01
         0.10130E+00
         0.10515E+00
         0.11463E+00
         0.10972E+00
         0.11269E+00
         0.10141E+00
         0.96363E-01
         0.10225E+00
         0.99437E-01
         0.10249E+00
         0.10168E+00
         0.18530E-01
         0.11015E-01
         0.10478E-01
         0.73051E-02
         0.18872E-01
         0.13016E-01
         0.61049E-02
         0.18258E-01
         0.11643E-01
         0.17774E-01
         0.83198E-02
         0.35656E-01
         0.27292E-01
         0.12982E-01
         0.38051E-01
         0.13539E-01
         0.71071E-02
         0.41019E-02
         0.90660E-02
         0.46610E-02
         0.28122E-01
         0.26302E-01
         0.25658E-01
         0.66568E-02
         0.11720E-01
         0.34335E-02
         0.12838E-01
         0.18246E-02
         0.50588E-02
         0.12175E-01
         0.11562E-01
         0.59925E-02
         0.71402E-02
         0.64716E-02
         0.24798E-01
         0.14663E-01
         0.18989E-01
         0.31334E-01
         0.24429E-01
         0.22411E-01
         0.31398E-01
         0.28369E-01
         0.28381E-01
         0.21971E-01
         0.19555E-01
         0.26785E-01
         0.17584E-01
         0.14928E-01
         0.12032E-01
         0.14172E-01
         0.23511E-01
         0.15849E-01
         0.10347E+00
         0.10619E+00
         0.11145E+00
         0.11067E+00
         0.11761E+00
         0.12588E+00
         0.12061E+00
         0.10755E+00
         0.10484E+00
         0.11208E+00
         0.11014E+00
         0.10909E+00
         0.90006E-01
         0.85593E-01
         0.94315E-01
         0.10134E+00
         0.10519E+00
         0.11466E+00
         0.10971E+00
         0.11268E+00
         0.10141E+00
         0.96358E-01
         0.10221E+00
         0.99372E-01
         0.10244E+00
         0.10162E+00
         0.18541E-01
         0.11015E-01
         0.10483E-01
         0.73158E-02
         0.18865E-01
         0.13009E-01
         0.61215E-02
         0.18270E-01
         0.11664E-01
         0.17816E-01
         0.83240E-02
         0.35657E-01
         0.27304E-01
         0.12951E-01
         0.38090E-01
         0.13552E-01
         0.71278E-02
         0.40910E-02
         0.90720E-02
         0.46513E-02
         0.28127E-01
         0.26301E-01
         0.25661E-01
         0.66564E-02
         0.11760E-01
         0.34306E-02
         0.12839E-01
         0.18139E-02
         0.50811E-02
         0.12189E-01
         0.11572E-01
         0.59891E-02
         0.71284E-02
         0.64775E-02
         0.24811E-01
         0.14661E-01
         0.18986E-01
         0.31384E-01
         0.24485E-01
         0.22441E-01
         0.31419E-01
         0.28382E-01
         0.28386E-01
         0.21977E-01
         0.19557E-01
         0.26789E-01
         0.17588E-01
         0.14931E-01
         0.12020E-01
         0.14154E-01
         0.23501E-01
         0.15825E-01
         0.10343E+00
         0.10616E+00
         0.11144E+00
         0.11067E+00
         0.11760E+00
         0.12584E+00
         0.12056E+00
         0.10752E+00
         0.10482E+00
         0.11204E+00
         0.11012E+00
         0.10911E+00
         0.90007E-01
         0.85592E-01
         0.94329E-01
         0.10137E+00
         0.10522E+00
         0.11469E+00
         0.10970E+00
         0.11268E+00
         0.10140E+00
         0.96353E-01
         0.10218E+00
         0.99308E-01
         0.10238E+00
         0.10157E+00
         0.18930E-01
         0.11586E-01
         0.11075E-01
         0.79888E-02
         0.19354E-01
         0.13572E-01
         0.71849E-02
         0.18748E-01
         0.12177E-01
         0.18329E-01
         0.93183E-02
         0.36155E-01
         0.27782E-01
         0.13655E-01
         0.38640E-01
         0.13988E-01
         0.79414E-02
         0.50609E-02
         0.97785E-02
         0.59443E-02
         0.28536E-01
         0.26724E-01
         0.26055E-01
         0.74867E-02
         0.12435E-01
         0.47185E-02
         0.13561E-01
         0.44233E-02
         0.65399E-02
         0.12862E-01
         0.12065E-01
         0.68783E-02
         0.78035E-02
         0.72876E-02
         0.25324E-01
         0.15239E-01
         0.19473E-01
         0.31933E-01
         0.25064E-01
         0.23011E-01
         0.31925E-01
         0.28859E-01
         0.28821E-01
         0.22383E-01
         0.20015E-01
         0.27276E-01
         0.18116E-01
         0.15453E-01
         0.12594E-01
         0.14694E-01
         0.23972E-01
         0.16327E-01
         0.10429E+00
         0.10703E+00
         0.11237E+00
         0.11156E+00
         0.11852E+00
         0.12682E+00
         0.12153E+00
         0.10846E+00
         0.10575E+00
         0.11301E+00
         0.11108E+00
         0.11003E+00
         0.90755E-01
         0.86281E-01
         0.95061E-01
         0.10215E+00
         0.10602E+00
         0.11558E+00
         0.11062E+00
         0.11361E+00
         0.10221E+00
         0.97127E-01
         0.10297E+00
         0.10006E+00
         0.10314E+00
         0.10233E+00
         0.45160E-01
         0.40694E-01
         0.39863E-01
         0.35284E-01
         0.49287E-01
         0.43007E-01
         0.41136E-01
         0.48812E-01
         0.38918E-01
         0.48410E-01
         0.45602E-01
         0.70761E-01
         0.59620E-01
         0.49007E-01
         0.74738E-01
         0.39715E-01
         0.38077E-01
         0.32608E-01
         0.40031E-01
         0.40191E-01
         0.57715E-01
         0.56853E-01
         0.54134E-01
         0.37635E-01
         0.44547E-01
         0.35441E-01
         0.48878E-01
         0.44315E-01
         0.45098E-01
         0.46065E-01
         0.38586E-01
         0.37241E-01
         0.35430E-01
         0.36594E-01
         0.57076E-01
         0.46427E-01
         0.49788E-01
         0.67475E-01
         0.60289E-01
         0.58074E-01
         0.66887E-01
         0.62268E-01
         0.60459E-01
         0.50052E-01
         0.49057E-01
         0.58670E-01
         0.48695E-01
         0.44796E-01
         0.42203E-01
         0.44782E-01
         0.54628E-01
         0.45993E-01
         0.14968E+00
         0.15171E+00
         0.15853E+00
         0.15698E+00
         0.16582E+00
         0.17739E+00
         0.17334E+00
         0.15917E+00
         0.15609E+00
         0.16452E+00
         0.16139E+00
         0.15786E+00
         0.13341E+00
         0.12691E+00
         0.13582E+00
         0.14308E+00
         0.14746E+00
         0.16004E+00
         0.15639E+00
         0.16007E+00
         0.14587E+00
         0.13960E+00
         0.14686E+00
         0.14369E+00
         0.14653E+00
         0.14508E+00
  
SCALARS                     nodal_mass  double 1
LOOKUP_TABLE default
         0.24608E-05
         0.19551E-05
         0.20945E-05
         0.35953E-05
         0.12304E-05
         0.97770E-06
         0.10472E-05
         0.17973E-05
         0.19315E-05
         0.24627E-05
         0.96570E-06
         0.12312E-05
         0.13823E-05
         0.16614E-05
         0.69133E-06
         0.83095E-06
         0.27274E-05
         0.20125E-05
         0.13635E-05
         0.10066E-05
         0.81737E-06
         0.15393E-05
         0.16929E-05
         0.40889E-06
         0.76975E-06
         0.84649E-06
         0.13859E-05
         0.17532E-05
         0.69345E-06
         0.87672E-06
         0.32470E-05
         0.25355E-05
         0.32225E-05
         0.16233E-05
         0.12675E-05
         0.16109E-05
         0.18980E-05
         0.21673E-05
         0.94902E-06
         0.10836E-05
         0.20482E-05
         0.22683E-05
         0.10242E-05
         0.11342E-05
         0.17426E-05
         0.10823E-05
         0.87140E-06
         0.54121E-06
         0.20598E-05
         0.10301E-05
         0.17103E-05
         0.85523E-06
         0.17977E-05
         0.89958E-06
         0.18362E-05
         0.91859E-06
         0.15911E-05
         0.19369E-05
         0.79575E-06
         0.96860E-06
         0.24553E-05
         0.17361E-05
         0.12277E-05
         0.86816E-06
         0.27409E-05
         0.13702E-05
         0.23792E-05
         0.11891E-05
         0.10821E-05
         0.16705E-05
         0.54106E-06
         0.83538E-06
         0.18955E-05
         0.94787E-06
         0.20026E-05
         0.10014E-05
         0.19316E-05
         0.96578E-06
         0.15181E-05
         0.75906E-06
         0.95443E-06
         0.15782E-05
         0.47723E-06
         0.78918E-06
         0.20886E-05
         0.10443E-05
         0.16867E-05
         0.84342E-06
         0.14838E-05
         0.74203E-06
         0.97224E-06
         0.16569E-05
         0.48620E-06
         0.82849E-06
         0.22482E-05
         0.11241E-05
         0.23568E-05
         0.11783E-05
         0.19018E-05
         0.95085E-06
         0.11709E-05
         0.20091E-05
         0.58544E-06
         0.10044E-05
         0.74681E-06
         0.94889E-06
         0.37348E-06
         0.47447E-06
         0.88885E-06
         0.44455E-06
         0.10466E-05
         0.52333E-06
         0.10205E-05
         0.51021E-06
         0.99108E-06
         0.49550E-06
         0.10560E-05
         0.52791E-06
         0.11142E-05
         0.55694E-06
         0.10497E-05
         0.52469E-06
         0.82085E-06
         0.41039E-06
         0.66950E-06
         0.33475E-06
         0.86397E-06
         0.43199E-06
         0.11504E-05
         0.57519E-06
         0.12637E-05
         0.63182E-06
         0.12132E-05
         0.60658E-06
         0.10948E-05
         0.54745E-06
         0.99429E-06
         0.49718E-06
         0.80759E-06
         0.40382E-06
         0.67982E-06
         0.33995E-06
         0.88797E-06
         0.44401E-06
         0.11753E-05
         0.58766E-06
         0.12140E-05
         0.60702E-06
         0.98236E-06
         0.49125E-06
         0.79766E-06
         0.39889E-06
         0.97540E-06
         0.48769E-06
         0.11548E-05
         0.57743E-06
         0.24609E-05
         0.19547E-05
         0.20946E-05
         0.35969E-05
         0.19318E-05
         0.24634E-05
         0.13815E-05
         0.16603E-05
         0.27283E-05
         0.20111E-05
         0.81658E-06
         0.15390E-05
         0.16927E-05
         0.13839E-05
         0.17528E-05
         0.32479E-05
         0.25367E-05
         0.32241E-05
         0.18980E-05
         0.21675E-05
         0.20481E-05
         0.22684E-05
         0.17424E-05
         0.10822E-05
         0.20589E-05
         0.17102E-05
         0.17950E-05
         0.18344E-05
         0.15904E-05
         0.19365E-05
         0.24555E-05
         0.17359E-05
         0.27423E-05
         0.23814E-05
         0.10820E-05
         0.16702E-05
         0.18953E-05
         0.20025E-05
         0.19317E-05
         0.15181E-05
         0.95442E-06
         0.15780E-05
         0.20884E-05
         0.16864E-05
         0.14835E-05
         0.97197E-06
         0.16567E-05
         0.22482E-05
         0.23571E-05
         0.19022E-05
         0.11709E-05
         0.20101E-05
         0.74658E-06
         0.94886E-06
         0.88841E-06
         0.10467E-05
         0.10207E-05
         0.99128E-06
         0.10565E-05
         0.11150E-05
         0.10503E-05
         0.82102E-06
         0.66954E-06
         0.86398E-06
         0.11506E-05
         0.12640E-05
         0.12133E-05
         0.10948E-05
         0.99421E-06
         0.80751E-06
         0.67970E-06
         0.88789E-06
         0.11752E-05
         0.12140E-05
         0.98215E-06
         0.79747E-06
         0.97551E-06
         0.11548E-05
         0.24611E-05
         0.19543E-05
         0.20949E-05
         0.35987E-05
         0.19321E-05
         0.24642E-05
         0.13808E-05
         0.16594E-05
         0.27293E-05
         0.20098E-05
         0.81582E-06
         0.15388E-05
         0.16927E-05
         0.13821E-05
         0.17525E-05
         0.32489E-05
         0.25379E-05
         0.32257E-05
         0.18982E-05
         0.21678E-05
         0.20480E-05
         0.22685E-05
         0.17423E-05
         0.10821E-05
         0.20580E-05
         0.17101E-05
         0.17924E-05
         0.18326E-05
         0.15898E-05
         0.19361E-05
         0.24558E-05
         0.17357E-05
         0.27438E-05
         0.23836E-05
         0.10821E-05
         0.16699E-05
         0.18951E-05
         0.20024E-05
         0.19318E-05
         0.15183E-05
         0.95445E-06
         0.15778E-05
         0.20884E-05
         0.16862E-05
         0.14831E-05
         0.97174E-06
         0.16566E-05
         0.22483E-05
         0.23575E-05
         0.19026E-05
         0.11709E-05
         0.20112E-05
         0.74636E-06
         0.94886E-06
         0.88800E-06
         0.10467E-05
         0.10210E-05
         0.99152E-06
         0.10570E-05
         0.11159E-05
         0.10509E-05
         0.82122E-06
         0.66961E-06
         0.86402E-06
         0.11507E-05
         0.12643E-05
         0.12135E-05
         0.10948E-05
         0.99417E-06
         0.80747E-06
         0.67961E-06
         0.88784E-06
         0.11752E-05
         0.12140E-05
         0.98197E-06
         0.79731E-06
         0.97565E-06
         0.11548E-05
         0.24612E-05
         0.19539E-05
         0.20950E-05
         0.36004E-05
         0.19324E-05
         0.24650E-05
         0.13801E-05
         0.16584E-05
         0.27303E-05
         0.20085E-05
         0.81504E-06
         0.15385E-05
         0.16925E-05
         0.13801E-05
         0.17521E-05
         0.32498E-05
         0.25390E-05
         0.32274E-05
         0.18982E-05
         0.21681E-05
         0.20479E-05
         0.22686E-05
         0.17421E-05
         0.10820E-05
         0.20571E-05
         0.17099E-05
         0.17897E-05
         0.18308E-05
         0.15891E-05
         0.19356E-05
         0.24561E-05
         0.17355E-05
         0.27453E-05
         0.23857E-05
         0.10820E-05
         0.16696E-05
         0.18948E-05
         0.20022E-05
         0.19320E-05
         0.15183E-05
         0.95445E-06
         0.15776E-05
         0.20883E-05
         0.16859E-05
         0.14828E-05
         0.97149E-06
         0.16564E-05
         0.22483E-05
         0.23578E-05
         0.19030E-05
         0.11710E-05
         0.20122E-05
         0.74613E-06
         0.94884E-06
         0.88756E-06
         0.10467E-05
         0.10212E-05
         0.99173E-06
         0.10574E-05
         0.11167E-05
         0.10515E-05
         0.82140E-06
         0.66966E-06
         0.86404E-06
         0.11509E-05
         0.12646E-05
         0.12136E-05
         0.10947E-05
         0.99410E-06
         0.80740E-06
         0.67950E-06
         0.88777E-06
         0.11752E-05
         0.12140E-05
         0.98177E-06
         0.79713E-06
         0.97576E-06
         0.11547E-05
         0.24613E-05
         0.19535E-05
         0.20952E-05
         0.36022E-05
         0.19327E-05
         0.24657E-05
         0.13794E-05
         0.16574E-05
         0.27313E-05
         0.20072E-05
         0.81426E-06
         0.15382E-05
         0.16924E-05
         0.13782E-05
         0.17517E-05
         0.32508E-05
         0.25402E-05
         0.32290E-05
         0.18983E-05
         0.21684E-05
         0.20479E-05
         0.22687E-05
         0.17420E-05
         0.10819E-05
         0.20563E-05
         0.17098E-05
         0.17870E-05
         0.18290E-05
         0.15884E-05
         0.19352E-05
         0.24563E-05
         0.17353E-05
         0.27467E-05
         0.23879E-05
         0.10820E-05
         0.16693E-05
         0.18946E-05
         0.20021E-05
         0.19321E-05
         0.15184E-05
         0.95445E-06
         0.15773E-05
         0.20882E-05
         0.16857E-05
         0.14824E-05
         0.97124E-06
         0.16563E-05
         0.22484E-05
         0.23582E-05
         0.19034E-05
         0.11710E-05
         0.20132E-05
         0.74590E-06
         0.94883E-06
         0.88713E-06
         0.10468E-05
         0.10215E-05
         0.99194E-06
         0.10579E-05
         0.11175E-05
         0.10521E-05
         0.82159E-06
         0.66972E-06
         0.86406E-06
         0.11510E-05
         0.12649E-05
         0.12138E-05
         0.10947E-05
         0.99404E-06
         0.80734E-06
         0.67940E-06
         0.88771E-06
         0.11752E-05
         0.12140E-05
         0.98157E-06
         0.79696E-06
         0.97588E-06
         0.11547E-05
         0.24615E-05
         0.19531E-05
         0.20954E-05
         0.36039E-05
         0.19331E-05
         0.24665E-05
         0.13787E-05
         0.16564E-05
         0.27322E-05
         0.20059E-05
         0.81349E-06
         0.15380E-05
         0.16923E-05
         0.13763E-05
         0.17514E-05
         0.32518E-05
         0.25414E-05
         0.32306E-05
         0.18984E-05
         0.21687E-05
         0.20478E-05
         0.22688E-05
         0.17418E-05
         0.10818E-05
         0.20554E-05
         0.17096E-05
         0.17843E-05
         0.18272E-05
         0.15878E-05
         0.19347E-05
         0.24566E-05
         0.17351E-05
         0.27482E-05
         0.23901E-05
         0.10820E-05
         0.16690E-05
         0.18943E-05
         0.20019E-05
         0.19322E-05
         0.15185E-05
         0.95446E-06
         0.15771E-05
         0.20881E-05
         0.16855E-05
         0.14821E-05
         0.97100E-06
         0.16562E-05
         0.22484E-05
         0.23586E-05
         0.19038E-05
         0.11710E-05
         0.20142E-05
         0.74568E-06
         0.94882E-06
         0.88671E-06
         0.10468E-05
         0.10217E-05
         0.99216E-06
         0.10583E-05
         0.11183E-05
         0.10528E-05
         0.82178E-06
         0.66977E-06
         0.86408E-06
         0.11512E-05
         0.12652E-05
         0.12139E-05
         0.10947E-05
         0.99398E-06
         0.80728E-06
         0.67930E-06
         0.88766E-06
         0.11752E-05
         0.12140E-05
         0.98138E-06
         0.79679E-06
         0.97601E-06
         0.11547E-05
         0.24616E-05
         0.19527E-05
         0.20956E-05
         0.36056E-05
         0.19334E-05
         0.24672E-05
         0.13779E-05
         0.16554E-05
         0.27332E-05
         0.20046E-05
         0.81271E-06
         0.15377E-05
         0.16922E-05
         0.13744E-05
         0.17510E-05
         0.32527E-05
         0.25425E-05
         0.32322E-05
         0.18984E-05
         0.21689E-05
         0.20477E-05
         0.22689E-05
         0.17416E-05
         0.10816E-05
         0.20545E-05
         0.17095E-05
         0.17817E-05
         0.18254E-05
         0.15871E-05
         0.19343E-05
         0.24568E-05
         0.17349E-05
         0.27496E-05
         0.23922E-05
         0.10820E-05
         0.16686E-05
         0.18941E-05
         0.20018E-05
         0.19324E-05
         0.15186E-05
         0.95446E-06
         0.15769E-05
         0.20880E-05
         0.16852E-05
         0.14817E-05
         0.97074E-06
         0.16560E-05
         0.22484E-05
         0.23589E-05
         0.19042E-05
         0.11710E-05
         0.20152E-05
         0.74544E-06
         0.94880E-06
         0.88627E-06
         0.10469E-05
         0.10219E-05
         0.99237E-06
         0.10588E-05
         0.11191E-05
         0.10534E-05
         0.82196E-06
         0.66982E-06
         0.86410E-06
         0.11513E-05
         0.12654E-05
         0.12140E-05
         0.10947E-05
         0.99391E-06
         0.80721E-06
         0.67919E-06
         0.88759E-06
         0.11751E-05
         0.12140E-05
         0.98118E-06
         0.79661E-06
         0.97612E-06
         0.11546E-05
         0.24618E-05
         0.19523E-05
         0.20957E-05
         0.36073E-05
         0.19337E-05
         0.24680E-05
         0.13772E-05
         0.16545E-05
         0.27341E-05
         0.20033E-05
         0.81194E-06
         0.15374E-05
         0.16921E-05
         0.13725E-05
         0.17506E-05
         0.32537E-05
         0.25437E-05
         0.32339E-05
         0.18985E-05
         0.21692E-05
         0.20476E-05
         0.22690E-05
         0.17414E-05
         0.10815E-05
         0.20536E-05
         0.17093E-05
         0.17790E-05
         0.18236E-05
         0.15864E-05
         0.19339E-05
         0.24571E-05
         0.17347E-05
         0.27511E-05
         0.23944E-05
         0.10820E-05
         0.16683E-05
         0.18938E-05
         0.20016E-05
         0.19325E-05
         0.15186E-05
         0.95446E-06
         0.15767E-05
         0.20878E-05
         0.16850E-05
         0.14814E-05
         0.97050E-06
         0.16559E-05
         0.22484E-05
         0.23593E-05
         0.19046E-05
         0.11711E-05
         0.20162E-05
         0.74522E-06
         0.94878E-06
         0.88584E-06
         0.10469E-05
         0.10222E-05
         0.99258E-06
         0.10593E-05
         0.11199E-05
         0.10540E-05
         0.82215E-06
         0.66988E-06
         0.86413E-06
         0.11515E-05
         0.12657E-05
         0.12142E-05
         0.10946E-05
         0.99385E-06
         0.80715E-06
         0.67909E-06
         0.88752E-06
         0.11751E-05
         0.12140E-05
         0.98098E-06
         0.79643E-06
         0.97624E-06
         0.11546E-05
         0.24619E-05
         0.19519E-05
         0.20959E-05
         0.36091E-05
         0.19340E-05
         0.24688E-05
         0.13765E-05
         0.16535E-05
         0.27351E-05
         0.20020E-05
         0.81117E-06
         0.15372E-05
         0.16920E-05
         0.13706E-05
         0.17503E-05
         0.32546E-05
         0.25448E-05
         0.32355E-05
         0.18986E-05
         0.21695E-05
         0.20475E-05
         0.22691E-05
         0.17413E-05
         0.10814E-05
         0.20527E-05
         0.17092E-05
         0.17763E-05
         0.18219E-05
         0.15858E-05
         0.19334E-05
         0.24573E-05
         0.17345E-05
         0.27525E-05
         0.23966E-05
         0.10820E-05
         0.16680E-05
         0.18936E-05
         0.20015E-05
         0.19326E-05
         0.15187E-05
         0.95447E-06
         0.15765E-05
         0.20878E-05
         0.16848E-05
         0.14810E-05
         0.97025E-06
         0.16557E-05
         0.22485E-05
         0.23597E-05
         0.19050E-05
         0.11711E-05
         0.20172E-05
         0.74499E-06
         0.94877E-06
         0.88541E-06
         0.10469E-05
         0.10224E-05
         0.99280E-06
         0.10597E-05
         0.11207E-05
         0.10546E-05
         0.82234E-06
         0.66994E-06
         0.86415E-06
         0.11517E-05
         0.12660E-05
         0.12143E-05
         0.10946E-05
         0.99379E-06
         0.80709E-06
         0.67898E-06
         0.88746E-06
         0.11751E-05
         0.12140E-05
         0.98079E-06
         0.79626E-06
         0.97636E-06
         0.11546E-05
         0.24621E-05
         0.19515E-05
         0.20961E-05
         0.36108E-05
         0.19343E-05
         0.24695E-05
         0.13758E-05
         0.16525E-05
         0.27361E-05
         0.20006E-05
         0.81039E-06
         0.15369E-05
         0.16919E-05
         0.13686E-05
         0.17499E-05
         0.32556E-05
         0.25460E-05
         0.32371E-05
         0.18986E-05
         0.21697E-05
         0.20474E-05
         0.22692E-05
         0.17411E-05
         0.10813E-05
         0.20519E-05
         0.17091E-05
         0.17736E-05
         0.18201E-05
         0.15851E-05
         0.19330E-05
         0.24575E-05
         0.17342E-05
         0.27540E-05
         0.23987E-05
         0.10820E-05
         0.16677E-05
         0.18933E-05
         0.20014E-05
         0.19328E-05
         0.15188E-05
         0.95448E-06
         0.15763E-05
         0.20876E-05
         0.16845E-05
         0.14807E-05
         0.97000E-06
         0.16556E-05
         0.22485E-05
         0.23600E-05
         0.19053E-05
         0.11711E-05
         0.20182E-05
         0.74476E-06
         0.94875E-06
         0.88498E-06
         0.10470E-05
         0.10227E-05
         0.99301E-06
         0.10602E-05
         0.11215E-05
         0.10553E-05
         0.82252E-06
         0.66999E-06
         0.86417E-06
         0.11518E-05
         0.12663E-05
         0.12145E-05
         0.10946E-05
         0.99373E-06
         0.80702E-06
         0.67888E-06
         0.88740E-06
         0.11751E-05
         0.12140E-05
         0.98058E-06
         0.79608E-06
         0.97648E-06
         0.11546E-05
         0.24622E-05
         0.19511E-05
         0.20963E-05
         0.36125E-05
         0.19346E-05
         0.24703E-05
         0.13751E-05
         0.16515E-05
         0.27370E-05
         0.19993E-05
         0.80962E-06
         0.15366E-05
         0.16917E-05
         0.13667E-05
         0.17495E-05
         0.32565E-05
         0.25471E-05
         0.32388E-05
         0.18987E-05
         0.21700E-05
         0.20473E-05
         0.22693E-05
         0.17409E-05
         0.10812E-05
         0.20510E-05
         0.17089E-05
         0.17710E-05
         0.18183E-05
         0.15844E-05
         0.19325E-05
         0.24578E-05
         0.17340E-05
         0.27554E-05
         0.24009E-05
         0.10820E-05
         0.16674E-05
         0.18931E-05
         0.20012E-05
         0.19329E-05
         0.15189E-05
         0.95448E-06
         0.15760E-05
         0.20875E-05
         0.16843E-05
         0.14803E-05
         0.96975E-06
         0.16555E-05
         0.22485E-05
         0.23604E-05
         0.19057E-05
         0.11712E-05
         0.20192E-05
         0.74453E-06
         0.94874E-06
         0.88455E-06
         0.10470E-05
         0.10229E-05
         0.99322E-06
         0.10606E-05
         0.11223E-05
         0.10559E-05
         0.82270E-06
         0.67004E-06
         0.86419E-06
         0.11520E-05
         0.12666E-05
         0.12146E-05
         0.10945E-05
         0.99366E-06
         0.80696E-06
         0.67877E-06
         0.88733E-06
         0.11751E-05
         0.12140E-05
         0.98038E-06
         0.79590E-06
         0.97660E-06
         0.11545E-05
         0.24623E-05
         0.19507E-05
         0.20964E-05
         0.36142E-05
         0.19349E-05
         0.24710E-05
         0.13743E-05
         0.16505E-05
         0.27380E-05
         0.19980E-05
         0.80885E-06
         0.15364E-05
         0.16916E-05
         0.13648E-05
         0.17492E-05
         0.32575E-05
         0.25483E-05
         0.32404E-05
         0.18988E-05
         0.21703E-05
         0.20473E-05
         0.22694E-05
         0.17407E-05
         0.10811E-05
         0.20501E-05
         0.17088E-05
         0.17683E-05
         0.18165E-05
         0.15837E-05
         0.19321E-05
         0.24580E-05
         0.17338E-05
         0.27569E-05
         0.24031E-05
         0.10820E-05
         0.16670E-05
         0.18928E-05
         0.20011E-05
         0.19330E-05
         0.15189E-05
         0.95448E-06
         0.15758E-05
         0.20874E-05
         0.16840E-05
         0.14800E-05
         0.96950E-06
         0.16553E-05
         0.22485E-05
         0.23608E-05
         0.19061E-05
         0.11712E-05
         0.20202E-05
         0.74430E-06
         0.94872E-06
         0.88412E-06
         0.10470E-05
         0.10231E-05
         0.99344E-06
         0.10611E-05
         0.11231E-05
         0.10565E-05
         0.82289E-06
         0.67009E-06
         0.86422E-06
         0.11521E-05
         0.12669E-05
         0.12147E-05
         0.10945E-05
         0.99360E-06
         0.80690E-06
         0.67867E-06
         0.88727E-06
         0.11750E-05
         0.12140E-05
         0.98019E-06
         0.79573E-06
         0.97672E-06
         0.11545E-05
         0.24625E-05
         0.19503E-05
         0.20966E-05
         0.36160E-05
         0.19352E-05
         0.24718E-05
         0.13736E-05
         0.16496E-05
         0.27389E-05
         0.19967E-05
         0.80807E-06
         0.15361E-05
         0.16915E-05
         0.13629E-05
         0.17488E-05
         0.32584E-05
         0.25495E-05
         0.32420E-05
         0.18988E-05
         0.21705E-05
         0.20472E-05
         0.22695E-05
         0.17406E-05
         0.10810E-05
         0.20492E-05
         0.17086E-05
         0.17656E-05
         0.18147E-05
         0.15831E-05
         0.19317E-05
         0.24583E-05
         0.17336E-05
         0.27583E-05
         0.24053E-05
         0.10820E-05
         0.16667E-05
         0.18926E-05
         0.20009E-05
         0.19331E-05
         0.15190E-05
         0.95449E-06
         0.15756E-05
         0.20873E-05
         0.16838E-05
         0.14796E-05
         0.96925E-06
         0.16552E-05
         0.22486E-05
         0.23611E-05
         0.19065E-05
         0.11712E-05
         0.20212E-05
         0.74407E-06
         0.94870E-06
         0.88368E-06
         0.10471E-05
         0.10234E-05
         0.99365E-06
         0.10616E-05
         0.11239E-05
         0.10571E-05
         0.82307E-06
         0.67014E-06
         0.86424E-06
         0.11523E-05
         0.12672E-05
         0.12149E-05
         0.10945E-05
         0.99354E-06
         0.80683E-06
         0.67856E-06
         0.88721E-06
         0.11750E-05
         0.12140E-05
         0.97999E-06
         0.79555E-06
         0.97684E-06
         0.11545E-05
         0.24626E-05
         0.19499E-05
         0.20968E-05
         0.36177E-05
         0.19355E-05
         0.24725E-05
         0.13729E-05
         0.16486E-05
         0.27399E-05
         0.19954E-05
         0.80730E-06
         0.15358E-05
         0.16914E-05
         0.13610E-05
         0.17484E-05
         0.32594E-05
         0.25506E-05
         0.32437E-05
         0.18989E-05
         0.21708E-05
         0.20471E-05
         0.22696E-05
         0.17404E-05
         0.10808E-05
         0.20483E-05
         0.17085E-05
         0.17629E-05
         0.18129E-05
         0.15824E-05
         0.19312E-05
         0.24585E-05
         0.17334E-05
         0.27598E-05
         0.24074E-05
         0.10820E-05
         0.16664E-05
         0.18923E-05
         0.20008E-05
         0.19333E-05
         0.15191E-05
         0.95449E-06
         0.15754E-05
         0.20872E-05
         0.16835E-05
         0.14793E-05
         0.96901E-06
         0.16550E-05
         0.22486E-05
         0.23615E-05
         0.19069E-05
         0.11713E-05
         0.20222E-05
         0.74384E-06
         0.94869E-06
         0.88325E-06
         0.10471E-05
         0.10236E-05
         0.99386E-06
         0.10620E-05
         0.11247E-05
         0.10577E-05
         0.82326E-06
         0.67020E-06
         0.86426E-06
         0.11524E-05
         0.12674E-05
         0.12150E-05
         0.10944E-05
         0.99348E-06
         0.80677E-06
         0.67846E-06
         0.88714E-06
         0.11750E-05
         0.12140E-05
         0.97979E-06
         0.79538E-06
         0.97696E-06
         0.11544E-05
         0.24628E-05
         0.19495E-05
         0.20970E-05
         0.36194E-05
         0.19358E-05
         0.24733E-05
         0.13722E-05
         0.16476E-05
         0.27409E-05
         0.19941E-05
         0.80652E-06
         0.15355E-05
         0.16913E-05
         0.13591E-05
         0.17481E-05
         0.32604E-05
         0.25518E-05
         0.32453E-05
         0.18990E-05
         0.21711E-05
         0.20470E-05
         0.22697E-05
         0.17402E-05
         0.10807E-05
         0.20474E-05
         0.17084E-05
         0.17603E-05
         0.18111E-05
         0.15817E-05
         0.19308E-05
         0.24588E-05
         0.17332E-05
         0.27613E-05
         0.24096E-05
         0.10819E-05
         0.16661E-05
         0.18921E-05
         0.20006E-05
         0.19334E-05
         0.15192E-05
         0.95450E-06
         0.15752E-05
         0.20871E-05
         0.16833E-05
         0.14789E-05
         0.96876E-06
         0.16549E-05
         0.22486E-05
         0.23619E-05
         0.19073E-05
         0.11713E-05
         0.20232E-05
         0.74362E-06
         0.94868E-06
         0.88282E-06
         0.10472E-05
         0.10238E-05
         0.99408E-06
         0.10625E-05
         0.11255E-05
         0.10584E-05
         0.82345E-06
         0.67025E-06
         0.86428E-06
         0.11526E-05
         0.12677E-05
         0.12152E-05
         0.10944E-05
         0.99342E-06
         0.80671E-06
         0.67836E-06
         0.88709E-06
         0.11750E-05
         0.12140E-05
         0.97959E-06
         0.79521E-06
         0.97708E-06
         0.11544E-05
         0.24629E-05
         0.19491E-05
         0.20972E-05
         0.36212E-05
         0.19361E-05
         0.24741E-05
         0.13715E-05
         0.16466E-05
         0.27418E-05
         0.19928E-05
         0.80575E-06
         0.15353E-05
         0.16912E-05
         0.13572E-05
         0.17477E-05
         0.32613E-05
         0.25529E-05
         0.32469E-05
         0.18990E-05
         0.21714E-05
         0.20469E-05
         0.22698E-05
         0.17400E-05
         0.10806E-05
         0.20466E-05
         0.17082E-05
         0.17576E-05
         0.18093E-05
         0.15810E-05
         0.19303E-05
         0.24590E-05
         0.17330E-05
         0.27627E-05
         0.24118E-05
         0.10819E-05
         0.16658E-05
         0.18919E-05
         0.20005E-05
         0.19335E-05
         0.15192E-05
         0.95450E-06
         0.15750E-05
         0.20870E-05
         0.16831E-05
         0.14786E-05
         0.96851E-06
         0.16548E-05
         0.22487E-05
         0.23622E-05
         0.19077E-05
         0.11713E-05
         0.20242E-05
         0.74339E-06
         0.94866E-06
         0.88239E-06
         0.10472E-05
         0.10241E-05
         0.99429E-06
         0.10630E-05
         0.11263E-05
         0.10590E-05
         0.82363E-06
         0.67030E-06
         0.86430E-06
         0.11527E-05
         0.12680E-05
         0.12153E-05
         0.10944E-05
         0.99335E-06
         0.80665E-06
         0.67825E-06
         0.88702E-06
         0.11749E-05
         0.12140E-05
         0.97939E-06
         0.79503E-06
         0.97720E-06
         0.11544E-05
         0.24631E-05
         0.19487E-05
         0.20973E-05
         0.36229E-05
         0.19364E-05
         0.24748E-05
         0.13707E-05
         0.16456E-05
         0.27428E-05
         0.19915E-05
         0.80498E-06
         0.15350E-05
         0.16911E-05
         0.13553E-05
         0.17473E-05
         0.32623E-05
         0.25541E-05
         0.32486E-05
         0.18991E-05
         0.21716E-05
         0.20468E-05
         0.22699E-05
         0.17399E-05
         0.10805E-05
         0.20457E-05
         0.17081E-05
         0.17549E-05
         0.18075E-05
         0.15804E-05
         0.19299E-05
         0.24592E-05
         0.17328E-05
         0.27642E-05
         0.24140E-05
         0.10819E-05
         0.16654E-05
         0.18916E-05
         0.20003E-05
         0.19337E-05
         0.15193E-05
         0.95450E-06
         0.15748E-05
         0.20869E-05
         0.16828E-05
         0.14782E-05
         0.96826E-06
         0.16546E-05
         0.22487E-05
         0.23626E-05
         0.19081E-05
         0.11714E-05
         0.20253E-05
         0.74316E-06
         0.94864E-06
         0.88196E-06
         0.10472E-05
         0.10243E-05
         0.99450E-06
         0.10634E-05
         0.11271E-05
         0.10596E-05
         0.82381E-06
         0.67036E-06
         0.86432E-06
         0.11529E-05
         0.12683E-05
         0.12154E-05
         0.10943E-05
         0.99329E-06
         0.80658E-06
         0.67815E-06
         0.88696E-06
         0.11749E-05
         0.12140E-05
         0.97919E-06
         0.79485E-06
         0.97732E-06
         0.11544E-05
         0.24632E-05
         0.19483E-05
         0.20975E-05
         0.36246E-05
         0.19368E-05
         0.24756E-05
         0.13700E-05
         0.16447E-05
         0.27437E-05
         0.19902E-05
         0.80421E-06
         0.15347E-05
         0.16910E-05
         0.13534E-05
         0.17470E-05
         0.32632E-05
         0.25552E-05
         0.32502E-05
         0.18992E-05
         0.21719E-05
         0.20467E-05
         0.22700E-05
         0.17397E-05
         0.10804E-05
         0.20448E-05
         0.17079E-05
         0.17523E-05
         0.18057E-05
         0.15797E-05
         0.19295E-05
         0.24595E-05
         0.17326E-05
         0.27656E-05
         0.24161E-05
         0.10819E-05
         0.16651E-05
         0.18914E-05
         0.20002E-05
         0.19338E-05
         0.15194E-05
         0.95451E-06
         0.15745E-05
         0.20868E-05
         0.16826E-05
         0.14779E-05
         0.96801E-06
         0.16545E-05
         0.22487E-05
         0.23630E-05
         0.19085E-05
         0.11714E-05
         0.20263E-05
         0.74293E-06
         0.94863E-06
         0.88153E-06
         0.10473E-05
         0.10245E-05
         0.99472E-06
         0.10639E-05
         0.11279E-05
         0.10602E-05
         0.82400E-06
         0.67041E-06
         0.86435E-06
         0.11530E-05
         0.12686E-05
         0.12156E-05
         0.10943E-05
         0.99323E-06
         0.80652E-06
         0.67804E-06
         0.88690E-06
         0.11749E-05
         0.12140E-05
         0.97900E-06
         0.79468E-06
         0.97744E-06
         0.11543E-05
         0.24633E-05
         0.19479E-05
         0.20977E-05
         0.36264E-05
         0.19371E-05
         0.24763E-05
         0.13693E-05
         0.16437E-05
         0.27447E-05
         0.19888E-05
         0.80343E-06
         0.15345E-05
         0.16908E-05
         0.13515E-05
         0.17466E-05
         0.32642E-05
         0.25564E-05
         0.32518E-05
         0.18992E-05
         0.21722E-05
         0.20466E-05
         0.22701E-05
         0.17395E-05
         0.10803E-05
         0.20439E-05
         0.17078E-05
         0.17496E-05
         0.18039E-05
         0.15790E-05
         0.19290E-05
         0.24597E-05
         0.17323E-05
         0.27671E-05
         0.24183E-05
         0.10819E-05
         0.16648E-05
         0.18911E-05
         0.20001E-05
         0.19339E-05
         0.15195E-05
         0.95452E-06
         0.15743E-05
         0.20867E-05
         0.16823E-05
         0.14775E-05
         0.96776E-06
         0.16543E-05
         0.22487E-05
         0.23633E-05
         0.19089E-05
         0.11714E-05
         0.20273E-05
         0.74270E-06
         0.94861E-06
         0.88109E-06
         0.10473E-05
         0.10248E-05
         0.99493E-06
         0.10643E-05
         0.11287E-05
         0.10609E-05
         0.82418E-06
         0.67046E-06
         0.86437E-06
         0.11532E-05
         0.12689E-05
         0.12157E-05
         0.10943E-05
         0.99316E-06
         0.80646E-06
         0.67794E-06
         0.88683E-06
         0.11749E-05
         0.12140E-05
         0.97879E-06
         0.79450E-06
         0.97755E-06
         0.11543E-05
         0.24635E-05
         0.19475E-05
         0.20979E-05
         0.36281E-05
         0.19374E-05
         0.24771E-05
         0.13686E-05
         0.16427E-05
         0.27456E-05
         0.19875E-05
         0.80266E-06
         0.15342E-05
         0.16907E-05
         0.13496E-05
         0.17463E-05
         0.32651E-05
         0.25575E-05
         0.32534E-05
         0.18993E-05
         0.21724E-05
         0.20466E-05
         0.22702E-05
         0.17393E-05
         0.10802E-05
         0.20430E-05
         0.17076E-05
         0.17469E-05
         0.18021E-05
         0.15784E-05
         0.19286E-05
         0.24600E-05
         0.17321E-05
         0.27685E-05
         0.24205E-05
         0.10819E-05
         0.16645E-05
         0.18909E-05
         0.19999E-05
         0.19341E-05
         0.15195E-05
         0.95452E-06
         0.15741E-05
         0.20866E-05
         0.16821E-05
         0.14772E-05
         0.96751E-06
         0.16542E-05
         0.22488E-05
         0.23637E-05
         0.19092E-05
         0.11715E-05
         0.20283E-05
         0.74247E-06
         0.94860E-06
         0.88066E-06
         0.10473E-05
         0.10250E-05
         0.99514E-06
         0.10648E-05
         0.11295E-05
         0.10615E-05
         0.82437E-06
         0.67052E-06
         0.86439E-06
         0.11533E-05
         0.12691E-05
         0.12159E-05
         0.10942E-05
         0.99310E-06
         0.80639E-06
         0.67783E-06
         0.88676E-06
         0.11748E-05
         0.12140E-05
         0.97859E-06
         0.79433E-06
         0.97767E-06
         0.11543E-05
         0.24636E-05
         0.19471E-05
         0.20980E-05
         0.36298E-05
         0.19377E-05
         0.24779E-05
         0.13679E-05
         0.16417E-05
         0.27466E-05
         0.19862E-05
         0.80189E-06
         0.15339E-05
         0.16906E-05
         0.13477E-05
         0.17459E-05
         0.32661E-05
         0.25587E-05
         0.32551E-05
         0.18994E-05
         0.21727E-05
         0.20465E-05
         0.22703E-05
         0.17392E-05
         0.10800E-05
         0.20421E-05
         0.17075E-05
         0.17443E-05
         0.18003E-05
         0.15777E-05
         0.19281E-05
         0.24602E-05
         0.17319E-05
         0.27700E-05
         0.24227E-05
         0.10819E-05
         0.16642E-05
         0.18906E-05
         0.19998E-05
         0.19342E-05
         0.15196E-05
         0.95453E-06
         0.15739E-05
         0.20865E-05
         0.16819E-05
         0.14768E-05
         0.96727E-06
         0.16541E-05
         0.22488E-05
         0.23640E-05
         0.19096E-05
         0.11715E-05
         0.20293E-05
         0.74225E-06
         0.94859E-06
         0.88023E-06
         0.10474E-05
         0.10253E-05
         0.99535E-06
         0.10653E-05
         0.11303E-05
         0.10621E-05
         0.82456E-06
         0.67057E-06
         0.86441E-06
         0.11535E-05
         0.12694E-05
         0.12160E-05
         0.10942E-05
         0.99304E-06
         0.80633E-06
         0.67773E-06
         0.88671E-06
         0.11748E-05
         0.12140E-05
         0.97840E-06
         0.79415E-06
         0.97780E-06
         0.11542E-05
         0.24637E-05
         0.19466E-05
         0.20982E-05
         0.36315E-05
         0.19380E-05
         0.24786E-05
         0.13671E-05
         0.16407E-05
         0.27475E-05
         0.19849E-05
         0.80110E-06
         0.15336E-05
         0.16905E-05
         0.13457E-05
         0.17455E-05
         0.32669E-05
         0.25598E-05
         0.32567E-05
         0.18994E-05
         0.21729E-05
         0.20464E-05
         0.22703E-05
         0.17390E-05
         0.10799E-05
         0.20412E-05
         0.17073E-05
         0.17416E-05
         0.17985E-05
         0.15770E-05
         0.19277E-05
         0.24604E-05
         0.17317E-05
         0.27714E-05
         0.24248E-05
         0.10819E-05
         0.16638E-05
         0.18903E-05
         0.19996E-05
         0.19343E-05
         0.15196E-05
         0.95451E-06
         0.15737E-05
         0.20864E-05
         0.16816E-05
         0.14765E-05
         0.96700E-06
         0.16539E-05
         0.22488E-05
         0.23644E-05
         0.19100E-05
         0.11715E-05
         0.20303E-05
         0.74200E-06
         0.94855E-06
         0.87978E-06
         0.10474E-05
         0.10255E-05
         0.99555E-06
         0.10657E-05
         0.11311E-05
         0.10627E-05
         0.82472E-06
         0.67061E-06
         0.86442E-06
         0.11536E-05
         0.12697E-05
         0.12161E-05
         0.10941E-05
         0.99295E-06
         0.80625E-06
         0.67761E-06
         0.88662E-06
         0.11748E-05
         0.12140E-05
         0.97818E-06
         0.79396E-06
         0.97790E-06
         0.11542E-05
         0.24639E-05
         0.19463E-05
         0.20984E-05
         0.36333E-05
         0.19383E-05
         0.24794E-05
         0.13664E-05
         0.16398E-05
         0.27485E-05
         0.19836E-05
         0.80034E-06
         0.15334E-05
         0.16904E-05
         0.13439E-05
         0.17452E-05
         0.32679E-05
         0.25610E-05
         0.32583E-05
         0.18995E-05
         0.21732E-05
         0.20463E-05
         0.22704E-05
         0.17388E-05
         0.10798E-05
         0.20404E-05
         0.17072E-05
         0.17389E-05
         0.17967E-05
         0.15763E-05
         0.19272E-05
         0.24607E-05
         0.17315E-05
         0.27729E-05
         0.24270E-05
         0.10819E-05
         0.16635E-05
         0.18901E-05
         0.19995E-05
         0.19345E-05
         0.15197E-05
         0.95453E-06
         0.15735E-05
         0.20863E-05
         0.16814E-05
         0.14761E-05
         0.96677E-06
         0.16538E-05
         0.22488E-05
         0.23647E-05
         0.19104E-05
         0.11716E-05
         0.20313E-05
         0.74179E-06
         0.94855E-06
         0.87936E-06
         0.10475E-05
         0.10257E-05
         0.99577E-06
         0.10662E-05
         0.11319E-05
         0.10633E-05
         0.82492E-06
         0.67068E-06
         0.86446E-06
         0.11538E-05
         0.12700E-05
         0.12163E-05
         0.10941E-05
         0.99291E-06
         0.80620E-06
         0.67752E-06
         0.88657E-06
         0.11748E-05
         0.12140E-05
         0.97800E-06
         0.79380E-06
         0.97803E-06
         0.11542E-05
         0.12320E-05
         0.97306E-06
         0.10493E-05
         0.18171E-05
         0.96926E-06
         0.12399E-05
         0.68306E-06
         0.81967E-06
         0.13745E-05
         0.99152E-06
         0.39999E-06
         0.76665E-06
         0.84519E-06
         0.67148E-06
         0.87252E-06
         0.16343E-05
         0.12808E-05
         0.16296E-05
         0.94981E-06
         0.10867E-05
         0.10232E-05
         0.11353E-05
         0.86940E-06
         0.53990E-06
         0.10200E-05
         0.85360E-06
         0.86884E-06
         0.89793E-06
         0.78802E-06
         0.96354E-06
         0.12305E-05
         0.86572E-06
         0.13869E-05
         0.12141E-05
         0.54095E-06
         0.83170E-06
         0.94503E-06
         0.99975E-06
         0.96729E-06
         0.75992E-06
         0.47728E-06
         0.78670E-06
         0.10432E-05
         0.84065E-06
         0.73800E-06
         0.48334E-06
         0.82688E-06
         0.11245E-05
         0.11825E-05
         0.95534E-06
         0.58581E-06
         0.10159E-05
         0.37085E-06
         0.47429E-06
         0.43959E-06
         0.52375E-06
         0.51294E-06
         0.49796E-06
         0.53322E-06
         0.56619E-06
         0.53185E-06
         0.41252E-06
         0.33536E-06
         0.43225E-06
         0.57696E-06
         0.63509E-06
         0.60820E-06
         0.54708E-06
         0.49646E-06
         0.40310E-06
         0.33875E-06
         0.44329E-06
         0.58740E-06
         0.60700E-06
         0.48897E-06
         0.39687E-06
         0.48906E-06
         0.57710E-06
  
SCALARS                 Poissons_ratio  double 1
LOOKUP_TABLE default
         0.30000E+00
         0.30000E+00
         0.30000E+00
         0.30000E+00
         0.30000E+00
         0.30000E+00
         0.30000E+00
         0.30000E+00
         0.30000E+00
         0.30000E+00
         0.30000E+00
         0.30000E+00
         0.30000E+00
         0.30000E+00
         0.30000E+00
         0.30000E+00
         0.30000E+00
         0.30000E+00
         0.30000E+00
         0.30000E+00
         0.30000E+00
         0.30000E+00
         0.30000E+00
         0.30000E+00
         0.30000E+00
         0.30000E+00
         0.30000E+00
         0.30000E+00
         0.30000E+00
         0.30000E+00
         0.30000E+00
         0.30000E+00
         0.30000E+00
         0.30000E+00
         0.30000E+00
         0.30000E+00
         0.30000E+00
         0.30000E+00
         0.30000E+00
         0.30000E+00
         0.30000E+00
         0.30000E+00
         0.30000E+00
         0.30000E+00
         0.30000E+00
         0.30000E+00
         0.30000E+00
         0.30000E+00
         0.30000E+00
         0.30000E+00
         0.30000E+00
         0.30000E+00
         0.30000E+00
         0.30000E+00
         0.30000E+00
         0.30000E+00
         0.30000E+00
         0.30000E+00
         0.30000E+00
         0.30000E+00
         0.30000E+00
         0.30000E+00
         0.30000E+00
         0.30000E+00
         0.30000E+00
         0.30000E+00
         0.30000E+00
         0.30000E+00
         0.30000E+00
         0.30000E+00
         0.30000E+00
         0.30000E+00
         0.30000E+00
         0.30000E+00
         0.30000E+00
         0.30000E+00
         0.30000E+00
         0.30000E+00
         0.30000E+00
         0.30000E+00
         0.30000E+00
         0.30000E+00
         0.30000E+00
         0.30000E+00
         0.30000E+00
         0.30000E+00
         0.30000E+00
         0.30000E+00
         0.30000E+00
         0.30000E+00
         0.30000E+00
         0.30000E+00
         0.30000E+00
         0.30000E+00
         0.30000E+00
         0.30000E+00
         0.30000E+00
         0.30000E+00
         0.30000E+00
         0.30000E+00
         0.30000E+00
         0.30000E+00
         0.30000E+00
         0.30000E+00
         0.30000E+00
         0.30000E+00
         0.30000E+00
         0.30000E+00
         0.30000E+00
         0.30000E+00
         0.30000E+00
         0.30000E+00
         0.30000E+00
         0.30000E+00
         0.30000E+00
         0.30000E+00
         0.30000E+00
         0.30000E+00
         0.30000E+00
         0.30000E+00
         0.30000E+00
         0.30000E+00
         0.30000E+00
         0.30000E+00
         0.30000E+00
         0.30000E+00
         0.30000E+00
         0.30000E+00
         0.30000E+00
         0.30000E+00
         0.30000E+00
         0.30000E+00
         0.30000E+00
         0.30000E+00
         0.30000E+00
         0.30000E+00
         0.30000E+00
         0.30000E+00
         0.30000E+00
         0.30000E+00
         0.30000E+00
         0.30000E+00
         0.30000E+00
         0.30000E+00
         0.30000E+00
         0.30000E+00
         0.30000E+00
         0.30000E+00
         0.30000E+00
         0.30000E+00
         0.30000E+00
         0.30000E+00
         0.30000E+00
         0.30000E+00
         0.30000E+00
         0.30000E+00
         0.30000E+00
         0.30000E+00
         0.30000E+00
         0.30000E+00
         0.30000E+00
         0.30000E+00
         0.30000E+00
         0.30000E+00
         0.30000E+00
         0.30000E+00
         0.30000E+00
         0.30000E+00
         0.30000E+00
         0.30000E+00
         0.30000E+00
         0.30000E+00
         0.30000E+00
         0.30000E+00
         0.30000E+00
         0.30000E+00
         0.30000E+00
         0.30000E+00
         0.30000E+00
         0.30000E+00
         0.30000E+00
         0.30000E+00
         0.30000E+00
         0.30000E+00
         0.30000E+00
         0.30000E+00
         0.30000E+00
         0.30000E+00
         0.30000E+00
         0.30000E+00
         0.30000E+00
         0.30000E+00
         0.30000E+00
         0.30000E+00
         0.30000E+00
         0.30000E+00
         0.30000E+00
         0.30000E+00
         0.30000E+00
         0.30000E+00
         0.30000E+00
         0.30000E+00
         0.30000E+00
         0.30000E+00
         0.30000E+00
         0.30000E+00
         0.30000E+00
         0.30000E+00
         0.30000E+00
         0.30000E+00
         0.30000E+00
         0.30000E+00
         0.30000E+00
         0.30000E+00
         0.30000E+00
         0.30000E+00
         0.30000E+00
         0.30000E+00
         0.30000E+00
         0.30000E+00
         0.30000E+00
         0.30000E+00
         0.30000E+00
         0.30000E+00
         0.30000E+00
         0.30000E+00
         0.30000E+00
         0.30000E+00
         0.30000E+00
         0.30000E+00
         0.30000E+00
         0.30000E+00
         0.30000E+00
         0.30000E+00
         0.30000E+00
         0.30000E+00
         0.30000E+00
         0.30000E+00
         0.30000E+00
         0.30000E+00
         0.30000E+00
         0.30000E+00
         0.30000E+00
         0.30000E+00
         0.30000E+00
         0.30000E+00
         0.30000E+00
         0.30000E+00
         0.30000E+00
         0.30000E+00
         0.30000E+00
         0.30000E+00
         0.30000E+00
         0.30000E+00
         0.30000E+00
         0.30000E+00
         0.30000E+00
         0.30000E+00
         0.30000E+00
         0.30000E+00
         0.30000E+00
         0.30000E+00
         0.30000E+00
         0.30000E+00
         0.30000E+00
         0.30000E+00
         0.30000E+00
         0.30000E+00
         0.30000E+00
         0.30000E+00
         0.30000E+00
         0.30000E+00
         0.30000E+00
         0.30000E+00
         0.30000E+00
         0.30000E+00
         0.30000E+00
         0.30000E+00
         0.30000E+00
         0.30000E+00
         0.30000E+00
         0.30000E+00
         0.30000E+00
         0.30000E+00
         0.30000E+00
         0.30000E+00
         0.30000E+00
         0.30000E+00
         0.30000E+00
         0.30000E+00
         0.30000E+00
         0.30000E+00
         0.30000E+00
         0.30000E+00
         0.30000E+00
         0.30000E+00
         0.30000E+00
         0.30000E+00
         0.30000E+00
         0.30000E+00
         0.30000E+00
         0.30000E+00
         0.30000E+00
         0.30000E+00
         0.30000E+00
         0.30000E+00
         0.30000E+00
         0.30000E+00
         0.30000E+00
         0.30000E+00
         0.30000E+00
         0.30000E+00
         0.30000E+00
         0.30000E+00
         0.30000E+00
         0.30000E+00
         0.30000E+00
         0.30000E+00
         0.30000E+00
         0.30000E+00
         0.30000E+00
         0.30000E+00
         0.30000E+00
         0.30000E+00
         0.30000E+00
         0.30000E+00
         0.30000E+00
         0.30000E+00
         0.30000E+00
         0.30000E+00
         0.30000E+00
         0.30000E+00
         0.30000E+00
         0.30000E+00
         0.30000E+00
         0.30000E+00
         0.30000E+00
         0.30000E+00
         0.30000E+00
         0.30000E+00
         0.30000E+00
         0.30000E+00
         0.30000E+00
         0.30000E+00
         0.30000E+00
         0.30000E+00
         0.30000E+00
         0.30000E+00
         0.30000E+00
         0.30000E+00
         0.30000E+00
         0.30000E+00
         0.30000E+00
         0.30000E+00
         0.30000E+00
         0.30000E+00
         0.30000E+00
         0.30000E+00
         0.30000E+00
         0.30000E+00
         0.30000E+00
         0.30000E+00
         0.30000E+00
         0.30000E+00
         0.30000E+00
         0.30000E+00
         0.30000E+00
         0.30000E+00
         0.30000E+00
         0.30000E+00
         0.30000E+00
         0.30000E+00
         0.30000E+00
         0.30000E+00
         0.30000E+00
         0.30000E+00
         0.30000E+00
         0.30000E+00
         0.30000E+00
         0.30000E+00
         0.30000E+00
         0.30000E+00
         0.30000E+00
         0.30000E+00
         0.30000E+00
         0.30000E+00
         0.30000E+00
         0.30000E+00
         0.30000E+00
         0.30000E+00
         0.30000E+00
         0.30000E+00
         0.30000E+00
         0.30000E+00
         0.30000E+00
         0.30000E+00
         0.30000E+00
         0.30000E+00
         0.30000E+00
         0.30000E+00
         0.30000E+00
         0.30000E+00
         0.30000E+00
         0.30000E+00
         0.30000E+00
         0.30000E+00
         0.30000E+00
         0.30000E+00
         0.30000E+00
         0.30000E+00
         0.30000E+00
         0.30000E+00
         0.30000E+00
         0.30000E+00
         0.30000E+00
         0.30000E+00
         0.30000E+00
         0.30000E+00
         0.30000E+00
         0.30000E+00
         0.30000E+00
         0.30000E+00
         0.30000E+00
         0.30000E+00
         0.30000E+00
         0.30000E+00
         0.30000E+00
         0.30000E+00
         0.30000E+00
         0.30000E+00
         0.30000E+00
         0.30000E+00
         0.30000E+00
         0.30000E+00
         0.30000E+00
         0.30000E+00
         0.30000E+00
         0.30000E+00
         0.30000E+00
         0.30000E+00
         0.30000E+00
         0.30000E+00
         0.30000E+00
         0.30000E+00
         0.30000E+00
         0.30000E+00
         0.30000E+00
         0.30000E+00
         0.30000E+00
         0.30000E+00
         0.30000E+00
         0.30000E+00
         0.30000E+00
         0.30000E+00
         0.30000E+00
         0.30000E+00
         0.30000E+00
         0.30000E+00
         0.30000E+00
         0.30000E+00
         0.30000E+00
         0.30000E+00
         0.30000E+00
         0.30000E+00
         0.30000E+00
         0.30000E+00
         0.30000E+00
         0.30000E+00
         0.30000E+00
         0.30000E+00
         0.30000E+00
         0.30000E+00
         0.30000E+00
         0.30000E+00
         0.30000E+00
         0.30000E+00
         0.30000E+00
         0.30000E+00
         0.30000E+00
         0.30000E+00
         0.30000E+00
         0.30000E+00
         0.30000E+00
         0.30000E+00
         0.30000E+00
         0.30000E+00
         0.30000E+00
         0.30000E+00
         0.30000E+00
         0.30000E+00
         0.30000E+00
         0.30000E+00
         0.30000E+00
         0.30000E+00
         0.30000E+00
         0.30000E+00
         0.30000E+00
         0.30000E+00
         0.30000E+00
         0.30000E+00
         0.30000E+00
         0.30000E+00
         0.30000E+00
         0.30000E+00
         0.30000E+00
         0.30000E+00
         0.30000E+00
         0.30000E+00
         0.30000E+00
         0.30000E+00
         0.30000E+00
         0.30000E+00
         0.30000E+00
         0.30000E+00
         0.30000E+00
         0.30000E+00
         0.30000E+00
         0.30000E+00
         0.30000E+00
         0.30000E+00
         0.30000E+00
         0.30000E+00
         0.30000E+00
         0.30000E+00
         0.30000E+00
         0.30000E+00
         0.30000E+00
         0.30000E+00
         0.30000E+00
         0.30000E+00
         0.30000E+00
         0.30000E+00
         0.30000E+00
         0.30000E+00
         0.30000E+00
         0.30000E+00
         0.30000E+00
         0.30000E+00
         0.30000E+00
         0.30000E+00
         0.30000E+00
         0.30000E+00
         0.30000E+00
         0.30000E+00
         0.30000E+00
         0.30000E+00
         0.30000E+00
         0.30000E+00
         0.30000E+00
         0.30000E+00
         0.30000E+00
         0.30000E+00
         0.30000E+00
         0.30000E+00
         0.30000E+00
         0.30000E+00
         0.30000E+00
         0.30000E+00
         0.30000E+00
         0.30000E+00
         0.30000E+00
         0.30000E+00
         0.30000E+00
         0.30000E+00
         0.30000E+00
         0.30000E+00
         0.30000E+00
         0.30000E+00
         0.30000E+00
         0.30000E+00
         0.30000E+00
         0.30000E+00
         0.30000E+00
         0.30000E+00
         0.30000E+00
         0.30000E+00
         0.30000E+00
         0.30000E+00
         0.30000E+00
         0.30000E+00
         0.30000E+00
         0.30000E+00
         0.30000E+00
         0.30000E+00
         0.30000E+00
         0.30000E+00
         0.30000E+00
         0.30000E+00
         0.30000E+00
         0.30000E+00
         0.30000E+00
         0.30000E+00
         0.30000E+00
         0.30000E+00
         0.30000E+00
         0.30000E+00
         0.30000E+00
         0.30000E+00
         0.30000E+00
         0.30000E+00
         0.30000E+00
         0.30000E+00
         0.30000E+00
         0.30000E+00
         0.30000E+00
         0.30000E+00
         0.30000E+00
         0.30000E+00
         0.30000E+00
         0.30000E+00
         0.30000E+00
         0.30000E+00
         0.30000E+00
         0.30000E+00
         0.30000E+00
         0.30000E+00
         0.30000E+00
         0.30000E+00
         0.30000E+00
         0.30000E+00
         0.30000E+00
         0.30000E+00
         0.30000E+00
         0.30000E+00
         0.30000E+00
         0.30000E+00
         0.30000E+00
         0.30000E+00
         0.30000E+00
         0.30000E+00
         0.30000E+00
         0.30000E+00
         0.30000E+00
         0.30000E+00
         0.30000E+00
         0.30000E+00
         0.30000E+00
         0.30000E+00
         0.30000E+00
         0.30000E+00
         0.30000E+00
         0.30000E+00
         0.30000E+00
         0.30000E+00
         0.30000E+00
         0.30000E+00
         0.30000E+00
         0.30000E+00
         0.30000E+00
         0.30000E+00
         0.30000E+00
         0.30000E+00
         0.30000E+00
         0.30000E+00
         0.30000E+00
         0.30000E+00
         0.30000E+00
         0.30000E+00
         0.30000E+00
         0.30000E+00
         0.30000E+00
         0.30000E+00
         0.30000E+00
         0.30000E+00
         0.30000E+00
         0.30000E+00
         0.30000E+00
         0.30000E+00
         0.30000E+00
         0.30000E+00
         0.30000E+00
         0.30000E+00
         0.30000E+00
         0.30000E+00
         0.30000E+00
         0.30000E+00
         0.30000E+00
         0.30000E+00
         0.30000E+00
         0.30000E+00
         0.30000E+00
         0.30000E+00
         0.30000E+00
         0.30000E+00
         0.30000E+00
         0.30000E+00
         0.30000E+00
         0.30000E+00
         0.30000E+00
         0.30000E+00
         0.30000E+00
         0.30000E+00
         0.30000E+00
         0.30000E+00
         0.30000E+00
         0.30000E+00
         0.30000E+00
         0.30000E+00
         0.30000E+00
         0.30000E+00
         0.30000E+00
         0.30000E+00
         0.30000E+00
         0.30000E+00
         0.30000E+00
         0.30000E+00
         0.30000E+00
         0.30000E+00
         0.30000E+00
         0.30000E+00
         0.30000E+00
         0.30000E+00
         0.30000E+00
         0.30000E+00
         0.30000E+00
         0.30000E+00
         0.30000E+00
         0.30000E+00
         0.30000E+00
         0.30000E+00
         0.30000E+00
         0.30000E+00
         0.30000E+00
         0.30000E+00
         0.30000E+00
         0.30000E+00
         0.30000E+00
         0.30000E+00
         0.30000E+00
         0.30000E+00
         0.30000E+00
         0.30000E+00
         0.30000E+00
         0.30000E+00
         0.30000E+00
         0.30000E+00
         0.30000E+00
         0.30000E+00
         0.30000E+00
         0.30000E+00
         0.30000E+00
         0.30000E+00
         0.30000E+00
         0.30000E+00
         0.30000E+00
         0.30000E+00
         0.30000E+00
         0.30000E+00
         0.30000E+00
         0.30000E+00
         0.30000E+00
         0.30000E+00
         0.30000E+00
         0.30000E+00
         0.30000E+00
         0.30000E+00
         0.30000E+00
         0.30000E+00
         0.30000E+00
         0.30000E+00
         0.30000E+00
         0.30000E+00
         0.30000E+00
         0.30000E+00
         0.30000E+00
         0.30000E+00
         0.30000E+00
         0.30000E+00
         0.30000E+00
         0.30000E+00
         0.30000E+00
         0.30000E+00
         0.30000E+00
         0.30000E+00
         0.30000E+00
         0.30000E+00
         0.30000E+00
         0.30000E+00
         0.30000E+00
         0.30000E+00
         0.30000E+00
         0.30000E+00
         0.30000E+00
         0.30000E+00
         0.30000E+00
         0.30000E+00
         0.30000E+00
         0.30000E+00
         0.30000E+00
         0.30000E+00
         0.30000E+00
         0.30000E+00
         0.30000E+00
         0.30000E+00
         0.30000E+00
         0.30000E+00
         0.30000E+00
         0.30000E+00
         0.30000E+00
         0.30000E+00
         0.30000E+00
         0.30000E+00
         0.30000E+00
         0.30000E+00
         0.30000E+00
         0.30000E+00
         0.30000E+00
         0.30000E+00
         0.30000E+00
         0.30000E+00
         0.30000E+00
         0.30000E+00
         0.30000E+00
         0.30000E+00
         0.30000E+00
         0.30000E+00
         0.30000E+00
         0.30000E+00
         0.30000E+00
         0.30000E+00
         0.30000E+00
         0.30000E+00
         0.30000E+00
         0.30000E+00
         0.30000E+00
         0.30000E+00
         0.30000E+00
         0.30000E+00
         0.30000E+00
         0.30000E+00
         0.30000E+00
         0.30000E+00
         0.30000E+00
         0.30000E+00
         0.30000E+00
         0.30000E+00
         0.30000E+00
         0.30000E+00
         0.30000E+00
         0.30000E+00
         0.30000E+00
         0.30000E+00
         0.30000E+00
         0.30000E+00
         0.30000E+00
         0.30000E+00
         0.30000E+00
         0.30000E+00
         0.30000E+00
         0.30000E+00
         0.30000E+00
         0.30000E+00
         0.30000E+00
         0.30000E+00
         0.30000E+00
         0.30000E+00
         0.30000E+00
         0.30000E+00
         0.30000E+00
         0.30000E+00
         0.30000E+00
         0.30000E+00
         0.30000E+00
         0.30000E+00
         0.30000E+00
         0.30000E+00
         0.30000E+00
         0.30000E+00
         0.30000E+00
         0.30000E+00
         0.30000E+00
         0.30000E+00
         0.30000E+00
         0.30000E+00
         0.30000E+00
         0.30000E+00
         0.30000E+00
         0.30000E+00
         0.30000E+00
         0.30000E+00
         0.30000E+00
         0.30000E+00
         0.30000E+00
         0.30000E+00
         0.30000E+00
         0.30000E+00
         0.30000E+00
         0.30000E+00
         0.30000E+00
         0.30000E+00
         0.30000E+00
         0.30000E+00
         0.30000E+00
         0.30000E+00
         0.30000E+00
         0.30000E+00
         0.30000E+00
         0.30000E+00
         0.30000E+00
         0.30000E+00
         0.30000E+00
         0.30000E+00
         0.30000E+00
         0.30000E+00
         0.30000E+00
         0.30000E+00
         0.30000E+00
         0.30000E+00
         0.30000E+00
         0.30000E+00
         0.30000E+00
         0.30000E+00
         0.30000E+00
         0.30000E+00
         0.30000E+00
         0.30000E+00
         0.30000E+00
         0.30000E+00
         0.30000E+00
         0.30000E+00
         0.30000E+00
         0.30000E+00
         0.30000E+00
         0.30000E+00
         0.30000E+00
         0.30000E+00
         0.30000E+00
         0.30000E+00
         0.30000E+00
         0.30000E+00
         0.30000E+00
         0.30000E+00
         0.30000E+00
         0.30000E+00
         0.30000E+00
         0.30000E+00
         0.30000E+00
         0.30000E+00
         0.30000E+00
         0.30000E+00
         0.30000E+00
         0.30000E+00
         0.30000E+00
         0.30000E+00
         0.30000E+00
         0.30000E+00
         0.30000E+00
         0.30000E+00
         0.30000E+00
         0.30000E+00
         0.30000E+00
         0.30000E+00
         0.30000E+00
         0.30000E+00
         0.30000E+00
         0.30000E+00
         0.30000E+00
         0.30000E+00
         0.30000E+00
         0.30000E+00
         0.30000E+00
         0.30000E+00
         0.30000E+00
         0.30000E+00
         0.30000E+00
         0.30000E+00
         0.30000E+00
         0.30000E+00
         0.30000E+00
         0.30000E+00
         0.30000E+00
         0.30000E+00
         0.30000E+00
         0.30000E+00
         0.30000E+00
         0.30000E+00
         0.30000E+00
         0.30000E+00
         0.30000E+00
         0.30000E+00
         0.30000E+00
         0.30000E+00
         0.30000E+00
         0.30000E+00
         0.30000E+00
         0.30000E+00
         0.30000E+00
         0.30000E+00
         0.30000E+00
         0.30000E+00
         0.30000E+00
         0.30000E+00
         0.30000E+00
         0.30000E+00
         0.30000E+00
         0.30000E+00
         0.30000E+00
         0.30000E+00
         0.30000E+00
         0.30000E+00
         0.30000E+00
         0.30000E+00
         0.30000E+00
         0.30000E+00
         0.30000E+00
         0.30000E+00
         0.30000E+00
         0.30000E+00
         0.30000E+00
         0.30000E+00
         0.30000E+00
         0.30000E+00
         0.30000E+00
         0.30000E+00
         0.30000E+00
         0.30000E+00
         0.30000E+00
         0.30000E+00
         0.30000E+00
         0.30000E+00
         0.30000E+00
         0.30000E+00
         0.30000E+00
         0.30000E+00
         0.30000E+00
         0.30000E+00
         0.30000E+00
         0.30000E+00
         0.30000E+00
         0.30000E+00
         0.30000E+00
         0.30000E+00
         0.30000E+00
         0.30000E+00
         0.30000E+00
         0.30000E+00
         0.30000E+00
         0.30000E+00
         0.30000E+00
         0.30000E+00
         0.30000E+00
         0.30000E+00
         0.30000E+00
         0.30000E+00
         0.30000E+00
         0.30000E+00
         0.30000E+00
         0.30000E+00
         0.30000E+00
         0.30000E+00
         0.30000E+00
         0.30000E+00
         0.30000E+00
         0.30000E+00
         0.30000E+00
         0.30000E+00
         0.30000E+00
         0.30000E+00
         0.30000E+00
         0.30000E+00
         0.30000E+00
         0.30000E+00
         0.30000E+00
         0.30000E+00
         0.30000E+00
         0.30000E+00
         0.30000E+00
         0.30000E+00
         0.30000E+00
         0.30000E+00
         0.30000E+00
         0.30000E+00
         0.30000E+00
         0.30000E+00
         0.30000E+00
         0.30000E+00
         0.30000E+00
         0.30000E+00
         0.30000E+00
         0.30000E+00
         0.30000E+00
         0.30000E+00
         0.30000E+00
         0.30000E+00
         0.30000E+00
         0.30000E+00
         0.30000E+00
         0.30000E+00
         0.30000E+00
         0.30000E+00
         0.30000E+00
         0.30000E+00
         0.30000E+00
         0.30000E+00
         0.30000E+00
         0.30000E+00
         0.30000E+00
         0.30000E+00
         0.30000E+00
         0.30000E+00
         0.30000E+00
         0.30000E+00
         0.30000E+00
         0.30000E+00
         0.30000E+00
         0.30000E+00
         0.30000E+00
         0.30000E+00
         0.30000E+00
         0.30000E+00
         0.30000E+00
         0.30000E+00
         0.30000E+00
         0.30000E+00
         0.30000E+00
         0.30000E+00
         0.30000E+00
         0.30000E+00
         0.30000E+00
         0.30000E+00
         0.30000E+00
         0.30000E+00
         0.30000E+00
         0.30000E+00
         0.30000E+00
         0.30000E+00
         0.30000E+00
         0.30000E+00
         0.30000E+00
         0.30000E+00
         0.30000E+00
         0.30000E+00
         0.30000E+00
         0.30000E+00
         0.30000E+00
         0.30000E+00
         0.30000E+00
         0.30000E+00
         0.30000E+00
         0.30000E+00
         0.30000E+00
         0.30000E+00
         0.30000E+00
         0.30000E+00
         0.30000E+00
         0.30000E+00
         0.30000E+00
         0.30000E+00
         0.30000E+00
         0.30000E+00
         0.30000E+00
         0.30000E+00
         0.30000E+00
         0.30000E+00
         0.30000E+00
         0.30000E+00
         0.30000E+00
         0.30000E+00
         0.30000E+00
         0.30000E+00
         0.30000E+00
         0.30000E+00
         0.30000E+00
         0.30000E+00
         0.30000E+00
         0.30000E+00
         0.30000E+00
         0.30000E+00
         0.30000E+00
         0.30000E+00
         0.30000E+00
         0.30000E+00
         0.30000E+00
         0.30000E+00
         0.30000E+00
         0.30000E+00
         0.30000E+00
         0.30000E+00
         0.30000E+00
         0.30000E+00
         0.30000E+00
         0.30000E+00
         0.30000E+00
         0.30000E+00
         0.30000E+00
         0.30000E+00
         0.30000E+00
         0.30000E+00
         0.30000E+00
         0.30000E+00
         0.30000E+00
         0.30000E+00
         0.30000E+00
         0.30000E+00
         0.30000E+00
         0.30000E+00
         0.30000E+00
         0.30000E+00
         0.30000E+00
         0.30000E+00
         0.30000E+00
         0.30000E+00
         0.30000E+00
         0.30000E+00
         0.30000E+00
         0.30000E+00
         0.30000E+00
         0.30000E+00
         0.30000E+00
         0.30000E+00
         0.30000E+00
         0.30000E+00
         0.30000E+00
         0.30000E+00
         0.30000E+00
         0.30000E+00
         0.30000E+00
         0.30000E+00
         0.30000E+00
         0.30000E+00
         0.30000E+00
         0.30000E+00
         0.30000E+00
         0.30000E+00
         0.30000E+00
         0.30000E+00
         0.30000E+00
         0.30000E+00
         0.30000E+00
         0.30000E+00
         0.30000E+00
         0.30000E+00
         0.30000E+00
         0.30000E+00
         0.30000E+00
         0.30000E+00
         0.30000E+00
         0.30000E+00
         0.30000E+00
         0.30000E+00
         0.30000E+00
         0.30000E+00
         0.30000E+00
         0.30000E+00
         0.30000E+00
         0.30000E+00
         0.30000E+00
         0.30000E+00
         0.30000E+00
         0.30000E+00
         0.30000E+00
         0.30000E+00
         0.30000E+00
         0.30000E+00
         0.30000E+00
         0.30000E+00
         0.30000E+00
         0.30000E+00
         0.30000E+00
         0.30000E+00
         0.30000E+00
         0.30000E+00
         0.30000E+00
         0.30000E+00
         0.30000E+00
         0.30000E+00
         0.30000E+00
         0.30000E+00
         0.30000E+00
         0.30000E+00
         0.30000E+00
         0.30000E+00
         0.30000E+00
         0.30000E+00
         0.30000E+00
         0.30000E+00
         0.30000E+00
         0.30000E+00
         0.30000E+00
         0.30000E+00
         0.30000E+00
         0.30000E+00
         0.30000E+00
         0.30000E+00
         0.30000E+00
         0.30000E+00
         0.30000E+00
         0.30000E+00
         0.30000E+00
         0.30000E+00
         0.30000E+00
         0.30000E+00
         0.30000E+00
         0.30000E+00
         0.30000E+00
         0.30000E+00
         0.30000E+00
         0.30000E+00
         0.30000E+00
         0.30000E+00
         0.30000E+00
         0.30000E+00
         0.30000E+00
         0.30000E+00
         0.30000E+00
         0.30000E+00
         0.30000E+00
         0.30000E+00
         0.30000E+00
         0.30000E+00
         0.30000E+00
         0.30000E+00
         0.30000E+00
         0.30000E+00
         0.30000E+00
         0.30000E+00
         0.30000E+00
         0.30000E+00
         0.30000E+00
         0.30000E+00
         0.30000E+00
         0.30000E+00
         0.30000E+00
         0.30000E+00
         0.30000E+00
         0.30000E+00
         0.30000E+00
         0.30000E+00
         0.30000E+00
         0.30000E+00
         0.30000E+00
         0.30000E+00
         0.30000E+00
         0.30000E+00
         0.30000E+00
         0.30000E+00
         0.30000E+00
         0.30000E+00
         0.30000E+00
         0.30000E+00
         0.30000E+00
         0.30000E+00
         0.30000E+00
         0.30000E+00
         0.30000E+00
         0.30000E+00
         0.30000E+00
         0.30000E+00
         0.30000E+00
         0.30000E+00
         0.30000E+00
         0.30000E+00
         0.30000E+00
         0.30000E+00
         0.30000E+00
         0.30000E+00
         0.30000E+00
         0.30000E+00
         0.30000E+00
         0.30000E+00
         0.30000E+00
         0.30000E+00
         0.30000E+00
         0.30000E+00
         0.30000E+00
         0.30000E+00
         0.30000E+00
         0.30000E+00
         0.30000E+00
         0.30000E+00
         0.30000E+00
         0.30000E+00
         0.30000E+00
         0.30000E+00
         0.30000E+00
         0.30000E+00
         0.30000E+00
         0.30000E+00
         0.30000E+00
         0.30000E+00
         0.30000E+00
         0.30000E+00
         0.30000E+00
         0.30000E+00
         0.30000E+00
         0.30000E+00
         0.30000E+00
         0.30000E+00
         0.30000E+00
         0.30000E+00
         0.30000E+00
         0.30000E+00
         0.30000E+00
         0.30000E+00
         0.30000E+00
         0.30000E+00
         0.30000E+00
         0.30000E+00
         0.30000E+00
         0.30000E+00
         0.30000E+00
         0.30000E+00
         0.30000E+00
         0.30000E+00
         0.30000E+00
         0.30000E+00
         0.30000E+00
         0.30000E+00
         0.30000E+00
         0.30000E+00
         0.30000E+00
         0.30000E+00
         0.30000E+00
         0.30000E+00
         0.30000E+00
         0.30000E+00
         0.30000E+00
         0.30000E+00
         0.30000E+00
         0.30000E+00
         0.30000E+00
         0.30000E+00
         0.30000E+00
         0.30000E+00
         0.30000E+00
         0.30000E+00
         0.30000E+00
         0.30000E+00
         0.30000E+00
         0.30000E+00
         0.30000E+00
         0.30000E+00
         0.30000E+00
         0.30000E+00
         0.30000E+00
         0.30000E+00
         0.30000E+00
         0.30000E+00
         0.30000E+00
         0.30000E+00
         0.30000E+00
         0.30000E+00
         0.30000E+00
         0.30000E+00
         0.30000E+00
         0.30000E+00
         0.30000E+00
         0.30000E+00
         0.30000E+00
         0.30000E+00
         0.30000E+00
         0.30000E+00
         0.30000E+00
         0.30000E+00
         0.30000E+00
         0.30000E+00
         0.30000E+00
         0.30000E+00
         0.30000E+00
         0.30000E+00
         0.30000E+00
         0.30000E+00
         0.30000E+00
         0.30000E+00
         0.30000E+00
         0.30000E+00
         0.30000E+00
         0.30000E+00
         0.30000E+00
         0.30000E+00
         0.30000E+00
         0.30000E+00
         0.30000E+00
         0.30000E+00
         0.30000E+00
         0.30000E+00
         0.30000E+00
         0.30000E+00
         0.30000E+00
         0.30000E+00
         0.30000E+00
         0.30000E+00
         0.30000E+00
         0.30000E+00
         0.30000E+00
         0.30000E+00
         0.30000E+00
         0.30000E+00
         0.30000E+00
         0.30000E+00
         0.30000E+00
         0.30000E+00
         0.30000E+00
         0.30000E+00
         0.30000E+00
         0.30000E+00
         0.30000E+00
         0.30000E+00
         0.30000E+00
         0.30000E+00
         0.30000E+00
         0.30000E+00
         0.30000E+00
         0.30000E+00
         0.30000E+00
         0.30000E+00
         0.30000E+00
         0.30000E+00
         0.30000E+00
         0.30000E+00
         0.30000E+00
         0.30000E+00
         0.30000E+00
         0.30000E+00
         0.30000E+00
         0.30000E+00
         0.30000E+00
         0.30000E+00
         0.30000E+00
         0.30000E+00
         0.30000E+00
         0.30000E+00
         0.30000E+00
         0.30000E+00
         0.30000E+00
         0.30000E+00
         0.30000E+00
         0.30000E+00
         0.30000E+00
         0.30000E+00
         0.30000E+00
         0.30000E+00
         0.30000E+00
         0.30000E+00
         0.30000E+00
         0.30000E+00
         0.30000E+00
         0.30000E+00
         0.30000E+00
         0.30000E+00
         0.30000E+00
         0.30000E+00
         0.30000E+00
         0.30000E+00
         0.30000E+00
         0.30000E+00
         0.30000E+00
         0.30000E+00
         0.30000E+00
         0.30000E+00
         0.30000E+00
         0.30000E+00
         0.30000E+00
         0.30000E+00
         0.30000E+00
         0.30000E+00
         0.30000E+00
         0.30000E+00
         0.30000E+00
         0.30000E+00
         0.30000E+00
         0.30000E+00
         0.30000E+00
         0.30000E+00
         0.30000E+00
         0.30000E+00
         0.30000E+00
         0.30000E+00
         0.30000E+00
         0.30000E+00
         0.30000E+00
         0.30000E+00
         0.30000E+00
         0.30000E+00
         0.30000E+00
         0.30000E+00
         0.30000E+00
         0.30000E+00
         0.30000E+00
         0.30000E+00
         0.30000E+00
         0.30000E+00
         0.30000E+00
         0.30000E+00
         0.30000E+00
         0.30000E+00
         0.30000E+00
         0.30000E+00
         0.30000E+00
         0.30000E+00
         0.30000E+00
         0.30000E+00
         0.30000E+00
         0.30000E+00
         0.30000E+00
         0.30000E+00
         0.30000E+00
         0.30000E+00
         0.30000E+00
         0.30000E+00
         0.30000E+00
         0.30000E+00
         0.30000E+00
         0.30000E+00
         0.30000E+00
         0.30000E+00
         0.30000E+00
         0.30000E+00
         0.30000E+00
         0.30000E+00
         0.30000E+00
         0.30000E+00
         0.30000E+00
         0.30000E+00
         0.30000E+00
         0.30000E+00
         0.30000E+00
         0.30000E+00
         0.30000E+00
         0.30000E+00
         0.30000E+00
         0.30000E+00
         0.30000E+00
         0.30000E+00
         0.30000E+00
         0.30000E+00
         0.30000E+00
         0.30000E+00
         0.30000E+00
         0.30000E+00
         0.30000E+00
         0.30000E+00
         0.30000E+00
         0.30000E+00
         0.30000E+00
         0.30000E+00
         0.30000E+00
         0.30000E+00
         0.30000E+00
         0.30000E+00
         0.30000E+00
         0.30000E+00
         0.30000E+00
         0.30000E+00
         0.30000E+00
         0.30000E+00
         0.30000E+00
         0.30000E+00
         0.30000E+00
         0.30000E+00
         0.30000E+00
         0.30000E+00
         0.30000E+00
         0.30000E+00
         0.30000E+00
         0.30000E+00
         0.30000E+00
         0.30000E+00
         0.30000E+00
         0.30000E+00
         0.30000E+00
         0.30000E+00
         0.30000E+00
         0.30000E+00
         0.30000E+00
         0.30000E+00
         0.30000E+00
         0.30000E+00
         0.30000E+00
         0.30000E+00
         0.30000E+00
         0.30000E+00
         0.30000E+00
         0.30000E+00
         0.30000E+00
         0.30000E+00
         0.30000E+00
         0.30000E+00
         0.30000E+00
         0.30000E+00
         0.30000E+00
         0.30000E+00
         0.30000E+00
         0.30000E+00
         0.30000E+00
         0.30000E+00
         0.30000E+00
         0.30000E+00
         0.30000E+00
         0.30000E+00
         0.30000E+00
         0.30000E+00
         0.30000E+00
         0.30000E+00
         0.30000E+00
         0.30000E+00
         0.30000E+00
         0.30000E+00
         0.30000E+00
         0.30000E+00
         0.30000E+00
         0.30000E+00
         0.30000E+00
         0.30000E+00
         0.30000E+00
         0.30000E+00
         0.30000E+00
         0.30000E+00
         0.30000E+00
         0.30000E+00
         0.30000E+00
         0.30000E+00
         0.30000E+00
         0.30000E+00
         0.30000E+00
         0.30000E+00
         0.30000E+00
         0.30000E+00
         0.30000E+00
         0.30000E+00
         0.30000E+00
         0.30000E+00
         0.30000E+00
         0.30000E+00
         0.30000E+00
         0.30000E+00
         0.30000E+00
         0.30000E+00
         0.30000E+00
         0.30000E+00
         0.30000E+00
         0.30000E+00
         0.30000E+00
         0.30000E+00
         0.30000E+00
         0.30000E+00
         0.30000E+00
         0.30000E+00
         0.30000E+00
         0.30000E+00
         0.30000E+00
         0.30000E+00
         0.30000E+00
         0.30000E+00
         0.30000E+00
         0.30000E+00
         0.30000E+00
         0.30000E+00
         0.30000E+00
         0.30000E+00
         0.30000E+00
         0.30000E+00
         0.30000E+00
         0.30000E+00
         0.30000E+00
         0.30000E+00
         0.30000E+00
         0.30000E+00
         0.30000E+00
         0.30000E+00
         0.30000E+00
         0.30000E+00
         0.30000E+00
         0.30000E+00
         0.30000E+00
         0.30000E+00
         0.30000E+00
         0.30000E+00
         0.30000E+00
         0.30000E+00
         0.30000E+00
         0.30000E+00
         0.30000E+00
         0.30000E+00
         0.30000E+00
         0.30000E+00
         0.30000E+00
         0.30000E+00
         0.30000E+00
         0.30000E+00
         0.30000E+00
         0.30000E+00
         0.30000E+00
         0.30000E+00
         0.30000E+00
         0.30000E+00
         0.30000E+00
         0.30000E+00
         0.30000E+00
         0.30000E+00
         0.30000E+00
         0.30000E+00
         0.30000E+00
         0.30000E+00
         0.30000E+00
         0.30000E+00
         0.30000E+00
         0.30000E+00
         0.30000E+00
         0.30000E+00
         0.30000E+00
         0.30000E+00
         0.30000E+00
         0.30000E+00
         0.30000E+00
         0.30000E+00
         0.30000E+00
         0.30000E+00
         0.30000E+00
         0.30000E+00
         0.30000E+00
         0.30000E+00
         0.30000E+00
         0.30000E+00
         0.30000E+00
         0.30000E+00
         0.30000E+00
         0.30000E+00
         0.30000E+00
         0.30000E+00
         0.30000E+00
         0.30000E+00
         0.30000E+00
         0.30000E+00
         0.30000E+00
         0.30000E+00
         0.30000E+00
         0.30000E+00
         0.30000E+00
         0.30000E+00
         0.30000E+00
         0.30000E+00
         0.30000E+00
         0.30000E+00
         0.30000E+00
         0.30000E+00
         0.30000E+00
         0.30000E+00
         0.30000E+00
         0.30000E+00
         0.30000E+00
         0.30000E+00
         0.30000E+00
         0.30000E+00
         0.30000E+00
         0.30000E+00
         0.30000E+00
         0.30000E+00
         0.30000E+00
         0.30000E+00
         0.30000E+00
         0.30000E+00
         0.30000E+00
         0.30000E+00
         0.30000E+00
         0.30000E+00
         0.30000E+00
         0.30000E+00
         0.30000E+00
         0.30000E+00
         0.30000E+00
         0.30000E+00
         0.30000E+00
         0.30000E+00
         0.30000E+00
         0.30000E+00
         0.30000E+00
         0.30000E+00
         0.30000E+00
         0.30000E+00
         0.30000E+00
         0.30000E+00
         0.30000E+00
         0.30000E+00
         0.30000E+00
         0.30000E+00
         0.30000E+00
         0.30000E+00
         0.30000E+00
         0.30000E+00
         0.30000E+00
         0.30000E+00
         0.30000E+00
         0.30000E+00
         0.30000E+00
         0.30000E+00
         0.30000E+00
         0.30000E+00
         0.30000E+00
         0.30000E+00
         0.30000E+00
         0.30000E+00
         0.30000E+00
         0.30000E+00
         0.30000E+00
         0.30000E+00
         0.30000E+00
         0.30000E+00
         0.30000E+00
         0.30000E+00
         0.30000E+00
         0.30000E+00
         0.30000E+00
         0.30000E+00
         0.30000E+00
         0.30000E+00
         0.30000E+00
         0.30000E+00
         0.30000E+00
         0.30000E+00
         0.30000E+00
         0.30000E+00
         0.30000E+00
         0.30000E+00
         0.30000E+00
         0.30000E+00
         0.30000E+00
         0.30000E+00
         0.30000E+00
         0.30000E+00
         0.30000E+00
         0.30000E+00
         0.30000E+00
         0.30000E+00
         0.30000E+00
         0.30000E+00
         0.30000E+00
         0.30000E+00
         0.30000E+00
         0.30000E+00
         0.30000E+00
         0.30000E+00
         0.30000E+00
         0.30000E+00
         0.30000E+00
         0.30000E+00
         0.30000E+00
         0.30000E+00
         0.30000E+00
         0.30000E+00
         0.30000E+00
         0.30000E+00
         0.30000E+00
         0.30000E+00
         0.30000E+00
         0.30000E+00
         0.30000E+00
         0.30000E+00
         0.30000E+00
         0.30000E+00
  
SCALARS                 Youngs_modulus  double 1
LOOKUP_TABLE default
         0.78200E+11
         0.78200E+11
         0.78200E+11
         0.78200E+11
         0.78200E+11
         0.78200E+11
         0.78200E+11
         0.78200E+11
         0.78200E+11
         0.78200E+11
         0.78200E+11
         0.78200E+11
         0.78200E+11
         0.78200E+11
         0.78200E+11
         0.78200E+11
         0.78200E+11
         0.78200E+11
         0.78200E+11
         0.78200E+11
         0.78200E+11
         0.78200E+11
         0.78200E+11
         0.78200E+11
         0.78200E+11
         0.78200E+11
         0.78200E+11
         0.78200E+11
         0.78200E+11
         0.78200E+11
         0.78200E+11
         0.78200E+11
         0.78200E+11
         0.78200E+11
         0.78200E+11
         0.78200E+11
         0.78200E+11
         0.78200E+11
         0.78200E+11
         0.78200E+11
         0.78200E+11
         0.78200E+11
         0.78200E+11
         0.78200E+11
         0.78200E+11
         0.78200E+11
         0.78200E+11
         0.78200E+11
         0.78200E+11
         0.78200E+11
         0.78200E+11
         0.78200E+11
         0.78200E+11
         0.78200E+11
         0.78200E+11
         0.78200E+11
         0.78200E+11
         0.78200E+11
         0.78200E+11
         0.78200E+11
         0.78200E+11
         0.78200E+11
         0.78200E+11
         0.78200E+11
         0.78200E+11
         0.78200E+11
         0.78200E+11
         0.78200E+11
         0.78200E+11
         0.78200E+11
         0.78200E+11
         0.78200E+11
         0.78200E+11
         0.78200E+11
         0.78200E+11
         0.78200E+11
         0.78200E+11
         0.78200E+11
         0.78200E+11
         0.78200E+11
         0.78200E+11
         0.78200E+11
         0.78200E+11
         0.78200E+11
         0.78200E+11
         0.78200E+11
         0.78200E+11
         0.78200E+11
         0.78200E+11
         0.78200E+11
         0.78200E+11
         0.78200E+11
         0.78200E+11
         0.78200E+11
         0.78200E+11
         0.78200E+11
         0.78200E+11
         0.78200E+11
         0.78200E+11
         0.78200E+11
         0.78200E+11
         0.78200E+11
         0.78200E+11
         0.78200E+11
         0.78200E+11
         0.78200E+11
         0.78200E+11
         0.78200E+11
         0.78200E+11
         0.78200E+11
         0.78200E+11
         0.78200E+11
         0.78200E+11
         0.78200E+11
         0.78200E+11
         0.78200E+11
         0.78200E+11
         0.78200E+11
         0.78200E+11
         0.78200E+11
         0.78200E+11
         0.78200E+11
         0.78200E+11
         0.78200E+11
         0.78200E+11
         0.78200E+11
         0.78200E+11
         0.78200E+11
         0.78200E+11
         0.78200E+11
         0.78200E+11
         0.78200E+11
         0.78200E+11
         0.78200E+11
         0.78200E+11
         0.78200E+11
         0.78200E+11
         0.78200E+11
         0.78200E+11
         0.78200E+11
         0.78200E+11
         0.78200E+11
         0.78200E+11
         0.78200E+11
         0.78200E+11
         0.78200E+11
         0.78200E+11
         0.78200E+11
         0.78200E+11
         0.78200E+11
         0.78200E+11
         0.78200E+11
         0.78200E+11
         0.78200E+11
         0.78200E+11
         0.78200E+11
         0.78200E+11
         0.78200E+11
         0.78200E+11
         0.78200E+11
         0.78200E+11
         0.78200E+11
         0.78200E+11
         0.78200E+11
         0.78200E+11
         0.78200E+11
         0.78200E+11
         0.78200E+11
         0.78200E+11
         0.78200E+11
         0.78200E+11
         0.78200E+11
         0.78200E+11
         0.78200E+11
         0.78200E+11
         0.78200E+11
         0.78200E+11
         0.78200E+11
         0.78200E+11
         0.78200E+11
         0.78200E+11
         0.78200E+11
         0.78200E+11
         0.78200E+11
         0.78200E+11
         0.78200E+11
         0.78200E+11
         0.78200E+11
         0.78200E+11
         0.78200E+11
         0.78200E+11
         0.78200E+11
         0.78200E+11
         0.78200E+11
         0.78200E+11
         0.78200E+11
         0.78200E+11
         0.78200E+11
         0.78200E+11
         0.78200E+11
         0.78200E+11
         0.78200E+11
         0.78200E+11
         0.78200E+11
         0.78200E+11
         0.78200E+11
         0.78200E+11
         0.78200E+11
         0.78200E+11
         0.78200E+11
         0.78200E+11
         0.78200E+11
         0.78200E+11
         0.78200E+11
         0.78200E+11
         0.78200E+11
         0.78200E+11
         0.78200E+11
         0.78200E+11
         0.78200E+11
         0.78200E+11
         0.78200E+11
         0.78200E+11
         0.78200E+11
         0.78200E+11
         0.78200E+11
         0.78200E+11
         0.78200E+11
         0.78200E+11
         0.78200E+11
         0.78200E+11
         0.78200E+11
         0.78200E+11
         0.78200E+11
         0.78200E+11
         0.78200E+11
         0.78200E+11
         0.78200E+11
         0.78200E+11
         0.78200E+11
         0.78200E+11
         0.78200E+11
         0.78200E+11
         0.78200E+11
         0.78200E+11
         0.78200E+11
         0.78200E+11
         0.78200E+11
         0.78200E+11
         0.78200E+11
         0.78200E+11
         0.78200E+11
         0.78200E+11
         0.78200E+11
         0.78200E+11
         0.78200E+11
         0.78200E+11
         0.78200E+11
         0.78200E+11
         0.78200E+11
         0.78200E+11
         0.78200E+11
         0.78200E+11
         0.78200E+11
         0.78200E+11
         0.78200E+11
         0.78200E+11
         0.78200E+11
         0.78200E+11
         0.78200E+11
         0.78200E+11
         0.78200E+11
         0.78200E+11
         0.78200E+11
         0.78200E+11
         0.78200E+11
         0.78200E+11
         0.78200E+11
         0.78200E+11
         0.78200E+11
         0.78200E+11
         0.78200E+11
         0.78200E+11
         0.78200E+11
         0.78200E+11
         0.78200E+11
         0.78200E+11
         0.78200E+11
         0.78200E+11
         0.78200E+11
         0.78200E+11
         0.78200E+11
         0.78200E+11
         0.78200E+11
         0.78200E+11
         0.78200E+11
         0.78200E+11
         0.78200E+11
         0.78200E+11
         0.78200E+11
         0.78200E+11
         0.78200E+11
         0.78200E+11
         0.78200E+11
         0.78200E+11
         0.78200E+11
         0.78200E+11
         0.78200E+11
         0.78200E+11
         0.78200E+11
         0.78200E+11
         0.78200E+11
         0.78200E+11
         0.78200E+11
         0.78200E+11
         0.78200E+11
         0.78200E+11
         0.78200E+11
         0.78200E+11
         0.78200E+11
         0.78200E+11
         0.78200E+11
         0.78200E+11
         0.78200E+11
         0.78200E+11
         0.78200E+11
         0.78200E+11
         0.78200E+11
         0.78200E+11
         0.78200E+11
         0.78200E+11
         0.78200E+11
         0.78200E+11
         0.78200E+11
         0.78200E+11
         0.78200E+11
         0.78200E+11
         0.78200E+11
         0.78200E+11
         0.78200E+11
         0.78200E+11
         0.78200E+11
         0.78200E+11
         0.78200E+11
         0.78200E+11
         0.78200E+11
         0.78200E+11
         0.78200E+11
         0.78200E+11
         0.78200E+11
         0.78200E+11
         0.78200E+11
         0.78200E+11
         0.78200E+11
         0.78200E+11
         0.78200E+11
         0.78200E+11
         0.78200E+11
         0.78200E+11
         0.78200E+11
         0.78200E+11
         0.78200E+11
         0.78200E+11
         0.78200E+11
         0.78200E+11
         0.78200E+11
         0.78200E+11
         0.78200E+11
         0.78200E+11
         0.78200E+11
         0.78200E+11
         0.78200E+11
         0.78200E+11
         0.78200E+11
         0.78200E+11
         0.78200E+11
         0.78200E+11
         0.78200E+11
         0.78200E+11
         0.78200E+11
         0.78200E+11
         0.78200E+11
         0.78200E+11
         0.78200E+11
         0.78200E+11
         0.78200E+11
         0.78200E+11
         0.78200E+11
         0.78200E+11
         0.78200E+11
         0.78200E+11
         0.78200E+11
         0.78200E+11
         0.78200E+11
         0.78200E+11
         0.78200E+11
         0.78200E+11
         0.78200E+11
         0.78200E+11
         0.78200E+11
         0.78200E+11
         0.78200E+11
         0.78200E+11
         0.78200E+11
         0.78200E+11
         0.78200E+11
         0.78200E+11
         0.78200E+11
         0.78200E+11
         0.78200E+11
         0.78200E+11
         0.78200E+11
         0.78200E+11
         0.78200E+11
         0.78200E+11
         0.78200E+11
         0.78200E+11
         0.78200E+11
         0.78200E+11
         0.78200E+11
         0.78200E+11
         0.78200E+11
         0.78200E+11
         0.78200E+11
         0.78200E+11
         0.78200E+11
         0.78200E+11
         0.78200E+11
         0.78200E+11
         0.78200E+11
         0.78200E+11
         0.78200E+11
         0.78200E+11
         0.78200E+11
         0.78200E+11
         0.78200E+11
         0.78200E+11
         0.78200E+11
         0.78200E+11
         0.78200E+11
         0.78200E+11
         0.78200E+11
         0.78200E+11
         0.78200E+11
         0.78200E+11
         0.78200E+11
         0.78200E+11
         0.78200E+11
         0.78200E+11
         0.78200E+11
         0.78200E+11
         0.78200E+11
         0.78200E+11
         0.78200E+11
         0.78200E+11
         0.78200E+11
         0.78200E+11
         0.78200E+11
         0.78200E+11
         0.78200E+11
         0.78200E+11
         0.78200E+11
         0.78200E+11
         0.78200E+11
         0.78200E+11
         0.78200E+11
         0.78200E+11
         0.78200E+11
         0.78200E+11
         0.78200E+11
         0.78200E+11
         0.78200E+11
         0.78200E+11
         0.78200E+11
         0.78200E+11
         0.78200E+11
         0.78200E+11
         0.78200E+11
         0.78200E+11
         0.78200E+11
         0.78200E+11
         0.78200E+11
         0.78200E+11
         0.78200E+11
         0.78200E+11
         0.78200E+11
         0.78200E+11
         0.78200E+11
         0.78200E+11
         0.78200E+11
         0.78200E+11
         0.78200E+11
         0.78200E+11
         0.78200E+11
         0.78200E+11
         0.78200E+11
         0.78200E+11
         0.78200E+11
         0.78200E+11
         0.78200E+11
         0.78200E+11
         0.78200E+11
         0.78200E+11
         0.78200E+11
         0.78200E+11
         0.78200E+11
         0.78200E+11
         0.78200E+11
         0.78200E+11
         0.78200E+11
         0.78200E+11
         0.78200E+11
         0.78200E+11
         0.78200E+11
         0.78200E+11
         0.78200E+11
         0.78200E+11
         0.78200E+11
         0.78200E+11
         0.78200E+11
         0.78200E+11
         0.78200E+11
         0.78200E+11
         0.78200E+11
         0.78200E+11
         0.78200E+11
         0.78200E+11
         0.78200E+11
         0.78200E+11
         0.78200E+11
         0.78200E+11
         0.78200E+11
         0.78200E+11
         0.78200E+11
         0.78200E+11
         0.78200E+11
         0.78200E+11
         0.78200E+11
         0.78200E+11
         0.78200E+11
         0.78200E+11
         0.78200E+11
         0.78200E+11
         0.78200E+11
         0.78200E+11
         0.78200E+11
         0.78200E+11
         0.78200E+11
         0.78200E+11
         0.78200E+11
         0.78200E+11
         0.78200E+11
         0.78200E+11
         0.78200E+11
         0.78200E+11
         0.78200E+11
         0.78200E+11
         0.78200E+11
         0.78200E+11
         0.78200E+11
         0.78200E+11
         0.78200E+11
         0.78200E+11
         0.78200E+11
         0.78200E+11
         0.78200E+11
         0.78200E+11
         0.78200E+11
         0.78200E+11
         0.78200E+11
         0.78200E+11
         0.78200E+11
         0.78200E+11
         0.78200E+11
         0.78200E+11
         0.78200E+11
         0.78200E+11
         0.78200E+11
         0.78200E+11
         0.78200E+11
         0.78200E+11
         0.78200E+11
         0.78200E+11
         0.78200E+11
         0.78200E+11
         0.78200E+11
         0.78200E+11
         0.78200E+11
         0.78200E+11
         0.78200E+11
         0.78200E+11
         0.78200E+11
         0.78200E+11
         0.78200E+11
         0.78200E+11
         0.78200E+11
         0.78200E+11
         0.78200E+11
         0.78200E+11
         0.78200E+11
         0.78200E+11
         0.78200E+11
         0.78200E+11
         0.78200E+11
         0.78200E+11
         0.78200E+11
         0.78200E+11
         0.78200E+11
         0.78200E+11
         0.78200E+11
         0.78200E+11
         0.78200E+11
         0.78200E+11
         0.78200E+11
         0.78200E+11
         0.78200E+11
         0.78200E+11
         0.78200E+11
         0.78200E+11
         0.78200E+11
         0.78200E+11
         0.78200E+11
         0.78200E+11
         0.78200E+11
         0.78200E+11
         0.78200E+11
         0.78200E+11
         0.78200E+11
         0.78200E+11
         0.78200E+11
         0.78200E+11
         0.78200E+11
         0.78200E+11
         0.78200E+11
         0.78200E+11
         0.78200E+11
         0.78200E+11
         0.78200E+11
         0.78200E+11
         0.78200E+11
         0.78200E+11
         0.78200E+11
         0.78200E+11
         0.78200E+11
         0.78200E+11
         0.78200E+11
         0.78200E+11
         0.78200E+11
         0.78200E+11
         0.78200E+11
         0.78200E+11
         0.78200E+11
         0.78200E+11
         0.78200E+11
         0.78200E+11
         0.78200E+11
         0.78200E+11
         0.78200E+11
         0.78200E+11
         0.78200E+11
         0.78200E+11
         0.78200E+11
         0.78200E+11
         0.78200E+11
         0.78200E+11
         0.78200E+11
         0.78200E+11
         0.78200E+11
         0.78200E+11
         0.78200E+11
         0.78200E+11
         0.78200E+11
         0.78200E+11
         0.78200E+11
         0.78200E+11
         0.78200E+11
         0.78200E+11
         0.78200E+11
         0.78200E+11
         0.78200E+11
         0.78200E+11
         0.78200E+11
         0.78200E+11
         0.78200E+11
         0.78200E+11
         0.78200E+11
         0.78200E+11
         0.78200E+11
         0.78200E+11
         0.78200E+11
         0.78200E+11
         0.78200E+11
         0.78200E+11
         0.78200E+11
         0.78200E+11
         0.78200E+11
         0.78200E+11
         0.78200E+11
         0.78200E+11
         0.78200E+11
         0.78200E+11
         0.78200E+11
         0.78200E+11
         0.78200E+11
         0.78200E+11
         0.78200E+11
         0.78200E+11
         0.78200E+11
         0.78200E+11
         0.78200E+11
         0.78200E+11
         0.78200E+11
         0.78200E+11
         0.78200E+11
         0.78200E+11
         0.78200E+11
         0.78200E+11
         0.78200E+11
         0.78200E+11
         0.78200E+11
         0.78200E+11
         0.78200E+11
         0.78200E+11
         0.78200E+11
         0.78200E+11
         0.78200E+11
         0.78200E+11
         0.78200E+11
         0.78200E+11
         0.78200E+11
         0.78200E+11
         0.78200E+11
         0.78200E+11
         0.78200E+11
         0.78200E+11
         0.78200E+11
         0.78200E+11
         0.78200E+11
         0.78200E+11
         0.78200E+11
         0.78200E+11
         0.78200E+11
         0.78200E+11
         0.78200E+11
         0.78200E+11
         0.78200E+11
         0.78200E+11
         0.78200E+11
         0.78200E+11
         0.78200E+11
         0.78200E+11
         0.78200E+11
         0.78200E+11
         0.78200E+11
         0.78200E+11
         0.78200E+11
         0.78200E+11
         0.78200E+11
         0.78200E+11
         0.78200E+11
         0.78200E+11
         0.78200E+11
         0.78200E+11
         0.78200E+11
         0.78200E+11
         0.78200E+11
         0.78200E+11
         0.78200E+11
         0.78200E+11
         0.78200E+11
         0.78200E+11
         0.78200E+11
         0.78200E+11
         0.78200E+11
         0.78200E+11
         0.78200E+11
         0.78200E+11
         0.78200E+11
         0.78200E+11
         0.78200E+11
         0.78200E+11
         0.78200E+11
         0.78200E+11
         0.78200E+11
         0.78200E+11
         0.78200E+11
         0.78200E+11
         0.78200E+11
         0.78200E+11
         0.78200E+11
         0.78200E+11
         0.78200E+11
         0.78200E+11
         0.78200E+11
         0.78200E+11
         0.78200E+11
         0.78200E+11
         0.78200E+11
         0.78200E+11
         0.78200E+11
         0.78200E+11
         0.78200E+11
         0.78200E+11
         0.78200E+11
         0.78200E+11
         0.78200E+11
         0.78200E+11
         0.78200E+11
         0.78200E+11
         0.78200E+11
         0.78200E+11
         0.78200E+11
         0.78200E+11
         0.78200E+11
         0.78200E+11
         0.78200E+11
         0.78200E+11
         0.78200E+11
         0.78200E+11
         0.78200E+11
         0.78200E+11
         0.78200E+11
         0.78200E+11
         0.78200E+11
         0.78200E+11
         0.78200E+11
         0.78200E+11
         0.78200E+11
         0.78200E+11
         0.78200E+11
         0.78200E+11
         0.78200E+11
         0.78200E+11
         0.78200E+11
         0.78200E+11
         0.78200E+11
         0.78200E+11
         0.78200E+11
         0.78200E+11
         0.78200E+11
         0.78200E+11
         0.78200E+11
         0.78200E+11
         0.78200E+11
         0.78200E+11
         0.78200E+11
         0.78200E+11
         0.78200E+11
         0.78200E+11
         0.78200E+11
         0.78200E+11
         0.78200E+11
         0.78200E+11
         0.78200E+11
         0.78200E+11
         0.78200E+11
         0.78200E+11
         0.78200E+11
         0.78200E+11
         0.78200E+11
         0.78200E+11
         0.78200E+11
         0.78200E+11
         0.78200E+11
         0.78200E+11
         0.78200E+11
         0.78200E+11
         0.78200E+11
         0.78200E+11
         0.78200E+11
         0.78200E+11
         0.78200E+11
         0.78200E+11
         0.78200E+11
         0.78200E+11
         0.78200E+11
         0.78200E+11
         0.78200E+11
         0.78200E+11
         0.78200E+11
         0.78200E+11
         0.78200E+11
         0.78200E+11
         0.78200E+11
         0.78200E+11
         0.78200E+11
         0.78200E+11
         0.78200E+11
         0.78200E+11
         0.78200E+11
         0.78200E+11
         0.78200E+11
         0.78200E+11
         0.78200E+11
         0.78200E+11
         0.78200E+11
         0.78200E+11
         0.78200E+11
         0.78200E+11
         0.78200E+11
         0.78200E+11
         0.78200E+11
         0.78200E+11
         0.78200E+11
         0.78200E+11
         0.78200E+11
         0.78200E+11
         0.78200E+11
         0.78200E+11
         0.78200E+11
         0.78200E+11
         0.78200E+11
         0.78200E+11
         0.78200E+11
         0.78200E+11
         0.78200E+11
         0.78200E+11
         0.78200E+11
         0.78200E+11
         0.78200E+11
         0.78200E+11
         0.78200E+11
         0.78200E+11
         0.78200E+11
         0.78200E+11
         0.78200E+11
         0.78200E+11
         0.78200E+11
         0.78200E+11
         0.78200E+11
         0.78200E+11
         0.78200E+11
         0.78200E+11
         0.78200E+11
         0.78200E+11
         0.78200E+11
         0.78200E+11
         0.78200E+11
         0.78200E+11
         0.78200E+11
         0.78200E+11
         0.78200E+11
         0.78200E+11
         0.78200E+11
         0.78200E+11
         0.78200E+11
         0.78200E+11
         0.78200E+11
         0.78200E+11
         0.78200E+11
         0.78200E+11
         0.78200E+11
         0.78200E+11
         0.78200E+11
         0.78200E+11
         0.78200E+11
         0.78200E+11
         0.78200E+11
         0.78200E+11
         0.78200E+11
         0.78200E+11
         0.78200E+11
         0.78200E+11
         0.78200E+11
         0.78200E+11
         0.78200E+11
         0.78200E+11
         0.78200E+11
         0.78200E+11
         0.78200E+11
         0.78200E+11
         0.78200E+11
         0.78200E+11
         0.78200E+11
         0.78200E+11
         0.78200E+11
         0.78200E+11
         0.78200E+11
         0.78200E+11
         0.78200E+11
         0.78200E+11
         0.78200E+11
         0.78200E+11
         0.78200E+11
         0.78200E+11
         0.78200E+11
         0.78200E+11
         0.78200E+11
         0.78200E+11
         0.78200E+11
         0.78200E+11
         0.78200E+11
         0.78200E+11
         0.78200E+11
         0.78200E+11
         0.78200E+11
         0.78200E+11
         0.78200E+11
         0.78200E+11
         0.78200E+11
         0.78200E+11
         0.78200E+11
         0.78200E+11
         0.78200E+11
         0.78200E+11
         0.78200E+11
         0.78200E+11
         0.78200E+11
         0.78200E+11
         0.78200E+11
         0.78200E+11
         0.78200E+11
         0.78200E+11
         0.78200E+11
         0.78200E+11
         0.78200E+11
         0.78200E+11
         0.78200E+11
         0.78200E+11
         0.78200E+11
         0.78200E+11
         0.78200E+11
         0.78200E+11
         0.78200E+11
         0.78200E+11
         0.78200E+11
         0.78200E+11
         0.78200E+11
         0.78200E+11
         0.78200E+11
         0.78200E+11
         0.78200E+11
         0.78200E+11
         0.78200E+11
         0.78200E+11
         0.78200E+11
         0.78200E+11
         0.78200E+11
         0.78200E+11
         0.78200E+11
         0.78200E+11
         0.78200E+11
         0.78200E+11
         0.78200E+11
         0.78200E+11
         0.78200E+11
         0.78200E+11
         0.78200E+11
         0.78200E+11
         0.78200E+11
         0.78200E+11
         0.78200E+11
         0.78200E+11
         0.78200E+11
         0.78200E+11
         0.78200E+11
         0.78200E+11
         0.78200E+11
         0.78200E+11
         0.78200E+11
         0.78200E+11
         0.78200E+11
         0.78200E+11
         0.78200E+11
         0.78200E+11
         0.78200E+11
         0.78200E+11
         0.78200E+11
         0.78200E+11
         0.78200E+11
         0.78200E+11
         0.78200E+11
         0.78200E+11
         0.78200E+11
         0.78200E+11
         0.78200E+11
         0.78200E+11
         0.78200E+11
         0.78200E+11
         0.78200E+11
         0.78200E+11
         0.78200E+11
         0.78200E+11
         0.78200E+11
         0.78200E+11
         0.78200E+11
         0.78200E+11
         0.78200E+11
         0.78200E+11
         0.78200E+11
         0.78200E+11
         0.78200E+11
         0.78200E+11
         0.78200E+11
         0.78200E+11
         0.78200E+11
         0.78200E+11
         0.78200E+11
         0.78200E+11
         0.78200E+11
         0.78200E+11
         0.78200E+11
         0.78200E+11
         0.78200E+11
         0.78200E+11
         0.78200E+11
         0.78200E+11
         0.78200E+11
         0.78200E+11
         0.78200E+11
         0.78200E+11
         0.78200E+11
         0.78200E+11
         0.78200E+11
         0.78200E+11
         0.78200E+11
         0.78200E+11
         0.78200E+11
         0.78200E+11
         0.78200E+11
         0.78200E+11
         0.78200E+11
         0.78200E+11
         0.78200E+11
         0.78200E+11
         0.78200E+11
         0.78200E+11
         0.78200E+11
         0.78200E+11
         0.78200E+11
         0.78200E+11
         0.78200E+11
         0.78200E+11
         0.78200E+11
         0.78200E+11
         0.78200E+11
         0.78200E+11
         0.78200E+11
         0.78200E+11
         0.78200E+11
         0.78200E+11
         0.78200E+11
         0.78200E+11
         0.78200E+11
         0.78200E+11
         0.78200E+11
         0.78200E+11
         0.78200E+11
         0.78200E+11
         0.78200E+11
         0.78200E+11
         0.78200E+11
         0.78200E+11
         0.78200E+11
         0.78200E+11
         0.78200E+11
         0.78200E+11
         0.78200E+11
         0.78200E+11
         0.78200E+11
         0.78200E+11
         0.78200E+11
         0.78200E+11
         0.78200E+11
         0.78200E+11
         0.78200E+11
         0.78200E+11
         0.78200E+11
         0.78200E+11
         0.78200E+11
         0.78200E+11
         0.78200E+11
         0.78200E+11
         0.78200E+11
         0.78200E+11
         0.78200E+11
         0.78200E+11
         0.78200E+11
         0.78200E+11
         0.78200E+11
         0.78200E+11
         0.78200E+11
         0.78200E+11
         0.78200E+11
         0.78200E+11
         0.78200E+11
         0.78200E+11
         0.78200E+11
         0.78200E+11
         0.78200E+11
         0.78200E+11
         0.78200E+11
         0.78200E+11
         0.78200E+11
         0.78200E+11
         0.78200E+11
         0.78200E+11
         0.78200E+11
         0.78200E+11
         0.78200E+11
         0.78200E+11
         0.78200E+11
         0.78200E+11
         0.78200E+11
         0.78200E+11
         0.78200E+11
         0.78200E+11
         0.78200E+11
         0.78200E+11
         0.78200E+11
         0.78200E+11
         0.78200E+11
         0.78200E+11
         0.78200E+11
         0.78200E+11
         0.78200E+11
         0.78200E+11
         0.78200E+11
         0.78200E+11
         0.78200E+11
         0.78200E+11
         0.78200E+11
         0.78200E+11
         0.78200E+11
         0.78200E+11
         0.78200E+11
         0.78200E+11
         0.78200E+11
         0.78200E+11
         0.78200E+11
         0.78200E+11
         0.78200E+11
         0.78200E+11
         0.78200E+11
         0.78200E+11
         0.78200E+11
         0.78200E+11
         0.78200E+11
         0.78200E+11
         0.78200E+11
         0.78200E+11
         0.78200E+11
         0.78200E+11
         0.78200E+11
         0.78200E+11
         0.78200E+11
         0.78200E+11
         0.78200E+11
         0.78200E+11
         0.78200E+11
         0.78200E+11
         0.78200E+11
         0.78200E+11
         0.78200E+11
         0.78200E+11
         0.78200E+11
         0.78200E+11
         0.78200E+11
         0.78200E+11
         0.78200E+11
         0.78200E+11
         0.78200E+11
         0.78200E+11
         0.78200E+11
         0.78200E+11
         0.78200E+11
         0.78200E+11
         0.78200E+11
         0.78200E+11
         0.78200E+11
         0.78200E+11
         0.78200E+11
         0.78200E+11
         0.78200E+11
         0.78200E+11
         0.78200E+11
         0.78200E+11
         0.78200E+11
         0.78200E+11
         0.78200E+11
         0.78200E+11
         0.78200E+11
         0.78200E+11
         0.78200E+11
         0.78200E+11
         0.78200E+11
         0.78200E+11
         0.78200E+11
         0.78200E+11
         0.78200E+11
         0.78200E+11
         0.78200E+11
         0.78200E+11
         0.78200E+11
         0.78200E+11
         0.78200E+11
         0.78200E+11
         0.78200E+11
         0.78200E+11
         0.78200E+11
         0.78200E+11
         0.78200E+11
         0.78200E+11
         0.78200E+11
         0.78200E+11
         0.78200E+11
         0.78200E+11
         0.78200E+11
         0.78200E+11
         0.78200E+11
         0.78200E+11
         0.78200E+11
         0.78200E+11
         0.78200E+11
         0.78200E+11
         0.78200E+11
         0.78200E+11
         0.78200E+11
         0.78200E+11
         0.78200E+11
         0.78200E+11
         0.78200E+11
         0.78200E+11
         0.78200E+11
         0.78200E+11
         0.78200E+11
         0.78200E+11
         0.78200E+11
         0.78200E+11
         0.78200E+11
         0.78200E+11
         0.78200E+11
         0.78200E+11
         0.78200E+11
         0.78200E+11
         0.78200E+11
         0.78200E+11
         0.78200E+11
         0.78200E+11
         0.78200E+11
         0.78200E+11
         0.78200E+11
         0.78200E+11
         0.78200E+11
         0.78200E+11
         0.78200E+11
         0.78200E+11
         0.78200E+11
         0.78200E+11
         0.78200E+11
         0.78200E+11
         0.78200E+11
         0.78200E+11
         0.78200E+11
         0.78200E+11
         0.78200E+11
         0.78200E+11
         0.78200E+11
         0.78200E+11
         0.78200E+11
         0.78200E+11
         0.78200E+11
         0.78200E+11
         0.78200E+11
         0.78200E+11
         0.78200E+11
         0.78200E+11
         0.78200E+11
         0.78200E+11
         0.78200E+11
         0.78200E+11
         0.78200E+11
         0.78200E+11
         0.78200E+11
         0.78200E+11
         0.78200E+11
         0.78200E+11
         0.78200E+11
         0.78200E+11
         0.78200E+11
         0.78200E+11
         0.78200E+11
         0.78200E+11
         0.78200E+11
         0.78200E+11
         0.78200E+11
         0.78200E+11
         0.78200E+11
         0.78200E+11
         0.78200E+11
         0.78200E+11
         0.78200E+11
         0.78200E+11
         0.78200E+11
         0.78200E+11
         0.78200E+11
         0.78200E+11
         0.78200E+11
         0.78200E+11
         0.78200E+11
         0.78200E+11
         0.78200E+11
         0.78200E+11
         0.78200E+11
         0.78200E+11
         0.78200E+11
         0.78200E+11
         0.78200E+11
         0.78200E+11
         0.78200E+11
         0.78200E+11
         0.78200E+11
         0.78200E+11
         0.78200E+11
         0.78200E+11
         0.78200E+11
         0.78200E+11
         0.78200E+11
         0.78200E+11
         0.78200E+11
         0.78200E+11
         0.78200E+11
         0.78200E+11
         0.78200E+11
         0.78200E+11
         0.78200E+11
         0.78200E+11
         0.78200E+11
         0.78200E+11
         0.78200E+11
         0.78200E+11
         0.78200E+11
         0.78200E+11
         0.78200E+11
         0.78200E+11
         0.78200E+11
         0.78200E+11
         0.78200E+11
         0.78200E+11
         0.78200E+11
         0.78200E+11
         0.78200E+11
         0.78200E+11
         0.78200E+11
         0.78200E+11
         0.78200E+11
         0.78200E+11
         0.78200E+11
         0.78200E+11
         0.78200E+11
         0.78200E+11
         0.78200E+11
         0.78200E+11
         0.78200E+11
         0.78200E+11
         0.78200E+11
         0.78200E+11
         0.78200E+11
         0.78200E+11
         0.78200E+11
         0.78200E+11
         0.78200E+11
         0.78200E+11
         0.78200E+11
         0.78200E+11
         0.78200E+11
         0.78200E+11
         0.78200E+11
         0.78200E+11
         0.78200E+11
         0.78200E+11
         0.78200E+11
         0.78200E+11
         0.78200E+11
         0.78200E+11
         0.78200E+11
         0.78200E+11
         0.78200E+11
         0.78200E+11
         0.78200E+11
         0.78200E+11
         0.78200E+11
         0.78200E+11
         0.78200E+11
         0.78200E+11
         0.78200E+11
         0.78200E+11
         0.78200E+11
         0.78200E+11
         0.78200E+11
         0.78200E+11
         0.78200E+11
         0.78200E+11
         0.78200E+11
         0.78200E+11
         0.78200E+11
         0.78200E+11
         0.78200E+11
         0.78200E+11
         0.78200E+11
         0.78200E+11
         0.78200E+11
         0.78200E+11
         0.78200E+11
         0.78200E+11
         0.78200E+11
         0.78200E+11
         0.78200E+11
         0.78200E+11
         0.78200E+11
         0.78200E+11
         0.78200E+11
         0.78200E+11
         0.78200E+11
         0.78200E+11
         0.78200E+11
         0.78200E+11
         0.78200E+11
         0.78200E+11
         0.78200E+11
         0.78200E+11
         0.78200E+11
         0.78200E+11
         0.78200E+11
         0.78200E+11
         0.78200E+11
         0.78200E+11
         0.78200E+11
         0.78200E+11
         0.78200E+11
         0.78200E+11
         0.78200E+11
         0.78200E+11
         0.78200E+11
         0.78200E+11
         0.78200E+11
         0.78200E+11
         0.78200E+11
         0.78200E+11
         0.78200E+11
         0.78200E+11
         0.78200E+11
         0.78200E+11
         0.78200E+11
         0.78200E+11
         0.78200E+11
         0.78200E+11
         0.78200E+11
         0.78200E+11
         0.78200E+11
         0.78200E+11
         0.78200E+11
         0.78200E+11
         0.78200E+11
         0.78200E+11
         0.78200E+11
         0.78200E+11
         0.78200E+11
         0.78200E+11
         0.78200E+11
         0.78200E+11
         0.78200E+11
         0.78200E+11
         0.78200E+11
         0.78200E+11
         0.78200E+11
         0.78200E+11
         0.78200E+11
         0.78200E+11
         0.78200E+11
         0.78200E+11
         0.78200E+11
         0.78200E+11
         0.78200E+11
         0.78200E+11
         0.78200E+11
         0.78200E+11
         0.78200E+11
         0.78200E+11
         0.78200E+11
         0.78200E+11
         0.78200E+11
         0.78200E+11
         0.78200E+11
         0.78200E+11
         0.78200E+11
         0.78200E+11
         0.78200E+11
         0.78200E+11
         0.78200E+11
         0.78200E+11
         0.78200E+11
         0.78200E+11
         0.78200E+11
         0.78200E+11
         0.78200E+11
         0.78200E+11
         0.78200E+11
         0.78200E+11
         0.78200E+11
         0.78200E+11
         0.78200E+11
         0.78200E+11
         0.78200E+11
         0.78200E+11
         0.78200E+11
         0.78200E+11
         0.78200E+11
         0.78200E+11
         0.78200E+11
         0.78200E+11
         0.78200E+11
         0.78200E+11
         0.78200E+11
         0.78200E+11
         0.78200E+11
         0.78200E+11
         0.78200E+11
         0.78200E+11
         0.78200E+11
         0.78200E+11
         0.78200E+11
         0.78200E+11
         0.78200E+11
         0.78200E+11
         0.78200E+11
         0.78200E+11
         0.78200E+11
         0.78200E+11
         0.78200E+11
         0.78200E+11
         0.78200E+11
         0.78200E+11
         0.78200E+11
         0.78200E+11
         0.78200E+11
         0.78200E+11
         0.78200E+11
         0.78200E+11
         0.78200E+11
         0.78200E+11
         0.78200E+11
         0.78200E+11
         0.78200E+11
         0.78200E+11
         0.78200E+11
         0.78200E+11
         0.78200E+11
         0.78200E+11
         0.78200E+11
         0.78200E+11
         0.78200E+11
         0.78200E+11
         0.78200E+11
         0.78200E+11
         0.78200E+11
         0.78200E+11
         0.78200E+11
         0.78200E+11
         0.78200E+11
         0.78200E+11
         0.78200E+11
         0.78200E+11
         0.78200E+11
         0.78200E+11
         0.78200E+11
         0.78200E+11
         0.78200E+11
         0.78200E+11
         0.78200E+11
         0.78200E+11
         0.78200E+11
         0.78200E+11
         0.78200E+11
         0.78200E+11
         0.78200E+11
         0.78200E+11
         0.78200E+11
         0.78200E+11
         0.78200E+11
         0.78200E+11
         0.78200E+11
         0.78200E+11
         0.78200E+11
         0.78200E+11
         0.78200E+11
         0.78200E+11
         0.78200E+11
         0.78200E+11
         0.78200E+11
         0.78200E+11
         0.78200E+11
         0.78200E+11
         0.78200E+11
         0.78200E+11
         0.78200E+11
         0.78200E+11
         0.78200E+11
         0.78200E+11
         0.78200E+11
         0.78200E+11
         0.78200E+11
         0.78200E+11
         0.78200E+11
         0.78200E+11
         0.78200E+11
         0.78200E+11
         0.78200E+11
         0.78200E+11
         0.78200E+11
         0.78200E+11
         0.78200E+11
         0.78200E+11
         0.78200E+11
         0.78200E+11
         0.78200E+11
         0.78200E+11
         0.78200E+11
         0.78200E+11
         0.78200E+11
         0.78200E+11
         0.78200E+11
         0.78200E+11
         0.78200E+11
         0.78200E+11
         0.78200E+11
         0.78200E+11
         0.78200E+11
         0.78200E+11
         0.78200E+11
         0.78200E+11
         0.78200E+11
         0.78200E+11
         0.78200E+11
         0.78200E+11
         0.78200E+11
         0.78200E+11
         0.78200E+11
         0.78200E+11
         0.78200E+11
         0.78200E+11
         0.78200E+11
         0.78200E+11
         0.78200E+11
         0.78200E+11
         0.78200E+11
         0.78200E+11
         0.78200E+11
         0.78200E+11
         0.78200E+11
         0.78200E+11
         0.78200E+11
         0.78200E+11
         0.78200E+11
         0.78200E+11
         0.78200E+11
         0.78200E+11
         0.78200E+11
         0.78200E+11
         0.78200E+11
         0.78200E+11
         0.78200E+11
         0.78200E+11
         0.78200E+11
         0.78200E+11
         0.78200E+11
         0.78200E+11
         0.78200E+11
         0.78200E+11
         0.78200E+11
         0.78200E+11
         0.78200E+11
         0.78200E+11
         0.78200E+11
         0.78200E+11
         0.78200E+11
         0.78200E+11
         0.78200E+11
         0.78200E+11
         0.78200E+11
         0.78200E+11
         0.78200E+11
         0.78200E+11
         0.78200E+11
         0.78200E+11
         0.78200E+11
         0.78200E+11
         0.78200E+11
         0.78200E+11
         0.78200E+11
         0.78200E+11
         0.78200E+11
         0.78200E+11
         0.78200E+11
         0.78200E+11
         0.78200E+11
         0.78200E+11
         0.78200E+11
         0.78200E+11
         0.78200E+11
         0.78200E+11
         0.78200E+11
         0.78200E+11
         0.78200E+11
         0.78200E+11
         0.78200E+11
         0.78200E+11
         0.78200E+11
         0.78200E+11
         0.78200E+11
         0.78200E+11
         0.78200E+11
         0.78200E+11
         0.78200E+11
         0.78200E+11
         0.78200E+11
         0.78200E+11
         0.78200E+11
         0.78200E+11
         0.78200E+11
         0.78200E+11
         0.78200E+11
         0.78200E+11
         0.78200E+11
         0.78200E+11
         0.78200E+11
         0.78200E+11
         0.78200E+11
         0.78200E+11
         0.78200E+11
         0.78200E+11
         0.78200E+11
         0.78200E+11
         0.78200E+11
         0.78200E+11
         0.78200E+11
         0.78200E+11
         0.78200E+11
         0.78200E+11
         0.78200E+11
         0.78200E+11
         0.78200E+11
         0.78200E+11
         0.78200E+11
         0.78200E+11
         0.78200E+11
         0.78200E+11
         0.78200E+11
         0.78200E+11
         0.78200E+11
         0.78200E+11
         0.78200E+11
         0.78200E+11
         0.78200E+11
         0.78200E+11
         0.78200E+11
         0.78200E+11
         0.78200E+11
         0.78200E+11
         0.78200E+11
         0.78200E+11
         0.78200E+11
         0.78200E+11
         0.78200E+11
         0.78200E+11
         0.78200E+11
         0.78200E+11
         0.78200E+11
         0.78200E+11
         0.78200E+11
         0.78200E+11
         0.78200E+11
         0.78200E+11
         0.78200E+11
         0.78200E+11
         0.78200E+11
         0.78200E+11
         0.78200E+11
         0.78200E+11
         0.78200E+11
         0.78200E+11
         0.78200E+11
         0.78200E+11
         0.78200E+11
         0.78200E+11
         0.78200E+11
         0.78200E+11
         0.78200E+11
         0.78200E+11
         0.78200E+11
         0.78200E+11
         0.78200E+11
         0.78200E+11
         0.78200E+11
         0.78200E+11
         0.78200E+11
         0.78200E+11
         0.78200E+11
         0.78200E+11
         0.78200E+11
         0.78200E+11
         0.78200E+11
         0.78200E+11
         0.78200E+11
         0.78200E+11
         0.78200E+11
         0.78200E+11
         0.78200E+11
         0.78200E+11
         0.78200E+11
         0.78200E+11
         0.78200E+11
         0.78200E+11
         0.78200E+11
         0.78200E+11
         0.78200E+11
         0.78200E+11
         0.78200E+11
         0.78200E+11
         0.78200E+11
         0.78200E+11
         0.78200E+11
         0.78200E+11
         0.78200E+11
         0.78200E+11
         0.78200E+11
         0.78200E+11
         0.78200E+11
         0.78200E+11
         0.78200E+11
         0.78200E+11
         0.78200E+11
         0.78200E+11
         0.78200E+11
         0.78200E+11
         0.78200E+11
         0.78200E+11
         0.78200E+11
         0.78200E+11
         0.78200E+11
         0.78200E+11
         0.78200E+11
         0.78200E+11
         0.78200E+11
         0.78200E+11
         0.78200E+11
         0.78200E+11
         0.78200E+11
         0.78200E+11
         0.78200E+11
  
SCALARS                        density  double 1
LOOKUP_TABLE default
         0.27000E+04
         0.27000E+04
         0.27000E+04
         0.27000E+04
         0.27000E+04
         0.27000E+04
         0.27000E+04
         0.27000E+04
         0.27000E+04
         0.27000E+04
         0.27000E+04
         0.27000E+04
         0.27000E+04
         0.27000E+04
         0.27000E+04
         0.27000E+04
         0.27000E+04
         0.27000E+04
         0.27000E+04
         0.27000E+04
         0.27000E+04
         0.27000E+04
         0.27000E+04
         0.27000E+04
         0.27000E+04
         0.27000E+04
         0.27000E+04
         0.27000E+04
         0.27000E+04
         0.27000E+04
         0.27000E+04
         0.27000E+04
         0.27000E+04
         0.27000E+04
         0.27000E+04
         0.27000E+04
         0.27000E+04
         0.27000E+04
         0.27000E+04
         0.27000E+04
         0.27000E+04
         0.27000E+04
         0.27000E+04
         0.27000E+04
         0.27000E+04
         0.27000E+04
         0.27000E+04
         0.27000E+04
         0.27000E+04
         0.27000E+04
         0.27000E+04
         0.27000E+04
         0.27000E+04
         0.27000E+04
         0.27000E+04
         0.27000E+04
         0.27000E+04
         0.27000E+04
         0.27000E+04
         0.27000E+04
         0.27000E+04
         0.27000E+04
         0.27000E+04
         0.27000E+04
         0.27000E+04
         0.27000E+04
         0.27000E+04
         0.27000E+04
         0.27000E+04
         0.27000E+04
         0.27000E+04
         0.27000E+04
         0.27000E+04
         0.27000E+04
         0.27000E+04
         0.27000E+04
         0.27000E+04
         0.27000E+04
         0.27000E+04
         0.27000E+04
         0.27000E+04
         0.27000E+04
         0.27000E+04
         0.27000E+04
         0.27000E+04
         0.27000E+04
         0.27000E+04
         0.27000E+04
         0.27000E+04
         0.27000E+04
         0.27000E+04
         0.27000E+04
         0.27000E+04
         0.27000E+04
         0.27000E+04
         0.27000E+04
         0.27000E+04
         0.27000E+04
         0.27000E+04
         0.27000E+04
         0.27000E+04
         0.27000E+04
         0.27000E+04
         0.27000E+04
         0.27000E+04
         0.27000E+04
         0.27000E+04
         0.27000E+04
         0.27000E+04
         0.27000E+04
         0.27000E+04
         0.27000E+04
         0.27000E+04
         0.27000E+04
         0.27000E+04
         0.27000E+04
         0.27000E+04
         0.27000E+04
         0.27000E+04
         0.27000E+04
         0.27000E+04
         0.27000E+04
         0.27000E+04
         0.27000E+04
         0.27000E+04
         0.27000E+04
         0.27000E+04
         0.27000E+04
         0.27000E+04
         0.27000E+04
         0.27000E+04
         0.27000E+04
         0.27000E+04
         0.27000E+04
         0.27000E+04
         0.27000E+04
         0.27000E+04
         0.27000E+04
         0.27000E+04
         0.27000E+04
         0.27000E+04
         0.27000E+04
         0.27000E+04
         0.27000E+04
         0.27000E+04
         0.27000E+04
         0.27000E+04
         0.27000E+04
         0.27000E+04
         0.27000E+04
         0.27000E+04
         0.27000E+04
         0.27000E+04
         0.27000E+04
         0.27000E+04
         0.27000E+04
         0.27000E+04
         0.27000E+04
         0.27000E+04
         0.27000E+04
         0.27000E+04
         0.27000E+04
         0.27000E+04
         0.27000E+04
         0.27000E+04
         0.27000E+04
         0.27000E+04
         0.27000E+04
         0.27000E+04
         0.27000E+04
         0.27000E+04
         0.27000E+04
         0.27000E+04
         0.27000E+04
         0.27000E+04
         0.27000E+04
         0.27000E+04
         0.27000E+04
         0.27000E+04
         0.27000E+04
         0.27000E+04
         0.27000E+04
         0.27000E+04
         0.27000E+04
         0.27000E+04
         0.27000E+04
         0.27000E+04
         0.27000E+04
         0.27000E+04
         0.27000E+04
         0.27000E+04
         0.27000E+04
         0.27000E+04
         0.27000E+04
         0.27000E+04
         0.27000E+04
         0.27000E+04
         0.27000E+04
         0.27000E+04
         0.27000E+04
         0.27000E+04
         0.27000E+04
         0.27000E+04
         0.27000E+04
         0.27000E+04
         0.27000E+04
         0.27000E+04
         0.27000E+04
         0.27000E+04
         0.27000E+04
         0.27000E+04
         0.27000E+04
         0.27000E+04
         0.27000E+04
         0.27000E+04
         0.27000E+04
         0.27000E+04
         0.27000E+04
         0.27000E+04
         0.27000E+04
         0.27000E+04
         0.27000E+04
         0.27000E+04
         0.27000E+04
         0.27000E+04
         0.27000E+04
         0.27000E+04
         0.27000E+04
         0.27000E+04
         0.27000E+04
         0.27000E+04
         0.27000E+04
         0.27000E+04
         0.27000E+04
         0.27000E+04
         0.27000E+04
         0.27000E+04
         0.27000E+04
         0.27000E+04
         0.27000E+04
         0.27000E+04
         0.27000E+04
         0.27000E+04
         0.27000E+04
         0.27000E+04
         0.27000E+04
         0.27000E+04
         0.27000E+04
         0.27000E+04
         0.27000E+04
         0.27000E+04
         0.27000E+04
         0.27000E+04
         0.27000E+04
         0.27000E+04
         0.27000E+04
         0.27000E+04
         0.27000E+04
         0.27000E+04
         0.27000E+04
         0.27000E+04
         0.27000E+04
         0.27000E+04
         0.27000E+04
         0.27000E+04
         0.27000E+04
         0.27000E+04
         0.27000E+04
         0.27000E+04
         0.27000E+04
         0.27000E+04
         0.27000E+04
         0.27000E+04
         0.27000E+04
         0.27000E+04
         0.27000E+04
         0.27000E+04
         0.27000E+04
         0.27000E+04
         0.27000E+04
         0.27000E+04
         0.27000E+04
         0.27000E+04
         0.27000E+04
         0.27000E+04
         0.27000E+04
         0.27000E+04
         0.27000E+04
         0.27000E+04
         0.27000E+04
         0.27000E+04
         0.27000E+04
         0.27000E+04
         0.27000E+04
         0.27000E+04
         0.27000E+04
         0.27000E+04
         0.27000E+04
         0.27000E+04
         0.27000E+04
         0.27000E+04
         0.27000E+04
         0.27000E+04
         0.27000E+04
         0.27000E+04
         0.27000E+04
         0.27000E+04
         0.27000E+04
         0.27000E+04
         0.27000E+04
         0.27000E+04
         0.27000E+04
         0.27000E+04
         0.27000E+04
         0.27000E+04
         0.27000E+04
         0.27000E+04
         0.27000E+04
         0.27000E+04
         0.27000E+04
         0.27000E+04
         0.27000E+04
         0.27000E+04
         0.27000E+04
         0.27000E+04
         0.27000E+04
         0.27000E+04
         0.27000E+04
         0.27000E+04
         0.27000E+04
         0.27000E+04
         0.27000E+04
         0.27000E+04
         0.27000E+04
         0.27000E+04
         0.27000E+04
         0.27000E+04
         0.27000E+04
         0.27000E+04
         0.27000E+04
         0.27000E+04
         0.27000E+04
         0.27000E+04
         0.27000E+04
         0.27000E+04
         0.27000E+04
         0.27000E+04
         0.27000E+04
         0.27000E+04
         0.27000E+04
         0.27000E+04
         0.27000E+04
         0.27000E+04
         0.27000E+04
         0.27000E+04
         0.27000E+04
         0.27000E+04
         0.27000E+04
         0.27000E+04
         0.27000E+04
         0.27000E+04
         0.27000E+04
         0.27000E+04
         0.27000E+04
         0.27000E+04
         0.27000E+04
         0.27000E+04
         0.27000E+04
         0.27000E+04
         0.27000E+04
         0.27000E+04
         0.27000E+04
         0.27000E+04
         0.27000E+04
         0.27000E+04
         0.27000E+04
         0.27000E+04
         0.27000E+04
         0.27000E+04
         0.27000E+04
         0.27000E+04
         0.27000E+04
         0.27000E+04
         0.27000E+04
         0.27000E+04
         0.27000E+04
         0.27000E+04
         0.27000E+04
         0.27000E+04
         0.27000E+04
         0.27000E+04
         0.27000E+04
         0.27000E+04
         0.27000E+04
         0.27000E+04
         0.27000E+04
         0.27000E+04
         0.27000E+04
         0.27000E+04
         0.27000E+04
         0.27000E+04
         0.27000E+04
         0.27000E+04
         0.27000E+04
         0.27000E+04
         0.27000E+04
         0.27000E+04
         0.27000E+04
         0.27000E+04
         0.27000E+04
         0.27000E+04
         0.27000E+04
         0.27000E+04
         0.27000E+04
         0.27000E+04
         0.27000E+04
         0.27000E+04
         0.27000E+04
         0.27000E+04
         0.27000E+04
         0.27000E+04
         0.27000E+04
         0.27000E+04
         0.27000E+04
         0.27000E+04
         0.27000E+04
         0.27000E+04
         0.27000E+04
         0.27000E+04
         0.27000E+04
         0.27000E+04
         0.27000E+04
         0.27000E+04
         0.27000E+04
         0.27000E+04
         0.27000E+04
         0.27000E+04
         0.27000E+04
         0.27000E+04
         0.27000E+04
         0.27000E+04
         0.27000E+04
         0.27000E+04
         0.27000E+04
         0.27000E+04
         0.27000E+04
         0.27000E+04
         0.27000E+04
         0.27000E+04
         0.27000E+04
         0.27000E+04
         0.27000E+04
         0.27000E+04
         0.27000E+04
         0.27000E+04
         0.27000E+04
         0.27000E+04
         0.27000E+04
         0.27000E+04
         0.27000E+04
         0.27000E+04
         0.27000E+04
         0.27000E+04
         0.27000E+04
         0.27000E+04
         0.27000E+04
         0.27000E+04
         0.27000E+04
         0.27000E+04
         0.27000E+04
         0.27000E+04
         0.27000E+04
         0.27000E+04
         0.27000E+04
         0.27000E+04
         0.27000E+04
         0.27000E+04
         0.27000E+04
         0.27000E+04
         0.27000E+04
         0.27000E+04
         0.27000E+04
         0.27000E+04
         0.27000E+04
         0.27000E+04
         0.27000E+04
         0.27000E+04
         0.27000E+04
         0.27000E+04
         0.27000E+04
         0.27000E+04
         0.27000E+04
         0.27000E+04
         0.27000E+04
         0.27000E+04
         0.27000E+04
         0.27000E+04
         0.27000E+04
         0.27000E+04
         0.27000E+04
         0.27000E+04
         0.27000E+04
         0.27000E+04
         0.27000E+04
         0.27000E+04
         0.27000E+04
         0.27000E+04
         0.27000E+04
         0.27000E+04
         0.27000E+04
         0.27000E+04
         0.27000E+04
         0.27000E+04
         0.27000E+04
         0.27000E+04
         0.27000E+04
         0.27000E+04
         0.27000E+04
         0.27000E+04
         0.27000E+04
         0.27000E+04
         0.27000E+04
         0.27000E+04
         0.27000E+04
         0.27000E+04
         0.27000E+04
         0.27000E+04
         0.27000E+04
         0.27000E+04
         0.27000E+04
         0.27000E+04
         0.27000E+04
         0.27000E+04
         0.27000E+04
         0.27000E+04
         0.27000E+04
         0.27000E+04
         0.27000E+04
         0.27000E+04
         0.27000E+04
         0.27000E+04
         0.27000E+04
         0.27000E+04
         0.27000E+04
         0.27000E+04
         0.27000E+04
         0.27000E+04
         0.27000E+04
         0.27000E+04
         0.27000E+04
         0.27000E+04
         0.27000E+04
         0.27000E+04
         0.27000E+04
         0.27000E+04
         0.27000E+04
         0.27000E+04
         0.27000E+04
         0.27000E+04
         0.27000E+04
         0.27000E+04
         0.27000E+04
         0.27000E+04
         0.27000E+04
         0.27000E+04
         0.27000E+04
         0.27000E+04
         0.27000E+04
         0.27000E+04
         0.27000E+04
         0.27000E+04
         0.27000E+04
         0.27000E+04
         0.27000E+04
         0.27000E+04
         0.27000E+04
         0.27000E+04
         0.27000E+04
         0.27000E+04
         0.27000E+04
         0.27000E+04
         0.27000E+04
         0.27000E+04
         0.27000E+04
         0.27000E+04
         0.27000E+04
         0.27000E+04
         0.27000E+04
         0.27000E+04
         0.27000E+04
         0.27000E+04
         0.27000E+04
         0.27000E+04
         0.27000E+04
         0.27000E+04
         0.27000E+04
         0.27000E+04
         0.27000E+04
         0.27000E+04
         0.27000E+04
         0.27000E+04
         0.27000E+04
         0.27000E+04
         0.27000E+04
         0.27000E+04
         0.27000E+04
         0.27000E+04
         0.27000E+04
         0.27000E+04
         0.27000E+04
         0.27000E+04
         0.27000E+04
         0.27000E+04
         0.27000E+04
         0.27000E+04
         0.27000E+04
         0.27000E+04
         0.27000E+04
         0.27000E+04
         0.27000E+04
         0.27000E+04
         0.27000E+04
         0.27000E+04
         0.27000E+04
         0.27000E+04
         0.27000E+04
         0.27000E+04
         0.27000E+04
         0.27000E+04
         0.27000E+04
         0.27000E+04
         0.27000E+04
         0.27000E+04
         0.27000E+04
         0.27000E+04
         0.27000E+04
         0.27000E+04
         0.27000E+04
         0.27000E+04
         0.27000E+04
         0.27000E+04
         0.27000E+04
         0.27000E+04
         0.27000E+04
         0.27000E+04
         0.27000E+04
         0.27000E+04
         0.27000E+04
         0.27000E+04
         0.27000E+04
         0.27000E+04
         0.27000E+04
         0.27000E+04
         0.27000E+04
         0.27000E+04
         0.27000E+04
         0.27000E+04
         0.27000E+04
         0.27000E+04
         0.27000E+04
         0.27000E+04
         0.27000E+04
         0.27000E+04
         0.27000E+04
         0.27000E+04
         0.27000E+04
         0.27000E+04
         0.27000E+04
         0.27000E+04
         0.27000E+04
         0.27000E+04
         0.27000E+04
         0.27000E+04
         0.27000E+04
         0.27000E+04
         0.27000E+04
         0.27000E+04
         0.27000E+04
         0.27000E+04
         0.27000E+04
         0.27000E+04
         0.27000E+04
         0.27000E+04
         0.27000E+04
         0.27000E+04
         0.27000E+04
         0.27000E+04
         0.27000E+04
         0.27000E+04
         0.27000E+04
         0.27000E+04
         0.27000E+04
         0.27000E+04
         0.27000E+04
         0.27000E+04
         0.27000E+04
         0.27000E+04
         0.27000E+04
         0.27000E+04
         0.27000E+04
         0.27000E+04
         0.27000E+04
         0.27000E+04
         0.27000E+04
         0.27000E+04
         0.27000E+04
         0.27000E+04
         0.27000E+04
         0.27000E+04
         0.27000E+04
         0.27000E+04
         0.27000E+04
         0.27000E+04
         0.27000E+04
         0.27000E+04
         0.27000E+04
         0.27000E+04
         0.27000E+04
         0.27000E+04
         0.27000E+04
         0.27000E+04
         0.27000E+04
         0.27000E+04
         0.27000E+04
         0.27000E+04
         0.27000E+04
         0.27000E+04
         0.27000E+04
         0.27000E+04
         0.27000E+04
         0.27000E+04
         0.27000E+04
         0.27000E+04
         0.27000E+04
         0.27000E+04
         0.27000E+04
         0.27000E+04
         0.27000E+04
         0.27000E+04
         0.27000E+04
         0.27000E+04
         0.27000E+04
         0.27000E+04
         0.27000E+04
         0.27000E+04
         0.27000E+04
         0.27000E+04
         0.27000E+04
         0.27000E+04
         0.27000E+04
         0.27000E+04
         0.27000E+04
         0.27000E+04
         0.27000E+04
         0.27000E+04
         0.27000E+04
         0.27000E+04
         0.27000E+04
         0.27000E+04
         0.27000E+04
         0.27000E+04
         0.27000E+04
         0.27000E+04
         0.27000E+04
         0.27000E+04
         0.27000E+04
         0.27000E+04
         0.27000E+04
         0.27000E+04
         0.27000E+04
         0.27000E+04
         0.27000E+04
         0.27000E+04
         0.27000E+04
         0.27000E+04
         0.27000E+04
         0.27000E+04
         0.27000E+04
         0.27000E+04
         0.27000E+04
         0.27000E+04
         0.27000E+04
         0.27000E+04
         0.27000E+04
         0.27000E+04
         0.27000E+04
         0.27000E+04
         0.27000E+04
         0.27000E+04
         0.27000E+04
         0.27000E+04
         0.27000E+04
         0.27000E+04
         0.27000E+04
         0.27000E+04
         0.27000E+04
         0.27000E+04
         0.27000E+04
         0.27000E+04
         0.27000E+04
         0.27000E+04
         0.27000E+04
         0.27000E+04
         0.27000E+04
         0.27000E+04
         0.27000E+04
         0.27000E+04
         0.27000E+04
         0.27000E+04
         0.27000E+04
         0.27000E+04
         0.27000E+04
         0.27000E+04
         0.27000E+04
         0.27000E+04
         0.27000E+04
         0.27000E+04
         0.27000E+04
         0.27000E+04
         0.27000E+04
         0.27000E+04
         0.27000E+04
         0.27000E+04
         0.27000E+04
         0.27000E+04
         0.27000E+04
         0.27000E+04
         0.27000E+04
         0.27000E+04
         0.27000E+04
         0.27000E+04
         0.27000E+04
         0.27000E+04
         0.27000E+04
         0.27000E+04
         0.27000E+04
         0.27000E+04
         0.27000E+04
         0.27000E+04
         0.27000E+04
         0.27000E+04
         0.27000E+04
         0.27000E+04
         0.27000E+04
         0.27000E+04
         0.27000E+04
         0.27000E+04
         0.27000E+04
         0.27000E+04
         0.27000E+04
         0.27000E+04
         0.27000E+04
         0.27000E+04
         0.27000E+04
         0.27000E+04
         0.27000E+04
         0.27000E+04
         0.27000E+04
         0.27000E+04
         0.27000E+04
         0.27000E+04
         0.27000E+04
         0.27000E+04
         0.27000E+04
         0.27000E+04
         0.27000E+04
         0.27000E+04
         0.27000E+04
         0.27000E+04
         0.27000E+04
         0.27000E+04
         0.27000E+04
         0.27000E+04
         0.27000E+04
         0.27000E+04
         0.27000E+04
         0.27000E+04
         0.27000E+04
         0.27000E+04
         0.27000E+04
         0.27000E+04
         0.27000E+04
         0.27000E+04
         0.27000E+04
         0.27000E+04
         0.27000E+04
         0.27000E+04
         0.27000E+04
         0.27000E+04
         0.27000E+04
         0.27000E+04
         0.27000E+04
         0.27000E+04
         0.27000E+04
         0.27000E+04
         0.27000E+04
         0.27000E+04
         0.27000E+04
         0.27000E+04
         0.27000E+04
         0.27000E+04
         0.27000E+04
         0.27000E+04
         0.27000E+04
         0.27000E+04
         0.27000E+04
         0.27000E+04
         0.27000E+04
         0.27000E+04
         0.27000E+04
         0.27000E+04
         0.27000E+04
         0.27000E+04
         0.27000E+04
         0.27000E+04
         0.27000E+04
         0.27000E+04
         0.27000E+04
         0.27000E+04
         0.27000E+04
         0.27000E+04
         0.27000E+04
         0.27000E+04
         0.27000E+04
         0.27000E+04
         0.27000E+04
         0.27000E+04
         0.27000E+04
         0.27000E+04
         0.27000E+04
         0.27000E+04
         0.27000E+04
         0.27000E+04
         0.27000E+04
         0.27000E+04
         0.27000E+04
         0.27000E+04
         0.27000E+04
         0.27000E+04
         0.27000E+04
         0.27000E+04
         0.27000E+04
         0.27000E+04
         0.27000E+04
         0.27000E+04
         0.27000E+04
         0.27000E+04
         0.27000E+04
         0.27000E+04
         0.27000E+04
         0.27000E+04
         0.27000E+04
         0.27000E+04
         0.27000E+04
         0.27000E+04
         0.27000E+04
         0.27000E+04
         0.27000E+04
         0.27000E+04
         0.27000E+04
         0.27000E+04
         0.27000E+04
         0.27000E+04
         0.27000E+04
         0.27000E+04
         0.27000E+04
         0.27000E+04
         0.27000E+04
         0.27000E+04
         0.27000E+04
         0.27000E+04
         0.27000E+04
         0.27000E+04
         0.27000E+04
         0.27000E+04
         0.27000E+04
         0.27000E+04
         0.27000E+04
         0.27000E+04
         0.27000E+04
         0.27000E+04
         0.27000E+04
         0.27000E+04
         0.27000E+04
         0.27000E+04
         0.27000E+04
         0.27000E+04
         0.27000E+04
         0.27000E+04
         0.27000E+04
         0.27000E+04
         0.27000E+04
         0.27000E+04
         0.27000E+04
         0.27000E+04
         0.27000E+04
         0.27000E+04
         0.27000E+04
         0.27000E+04
         0.27000E+04
         0.27000E+04
         0.27000E+04
         0.27000E+04
         0.27000E+04
         0.27000E+04
         0.27000E+04
         0.27000E+04
         0.27000E+04
         0.27000E+04
         0.27000E+04
         0.27000E+04
         0.27000E+04
         0.27000E+04
         0.27000E+04
         0.27000E+04
         0.27000E+04
         0.27000E+04
         0.27000E+04
         0.27000E+04
         0.27000E+04
         0.27000E+04
         0.27000E+04
         0.27000E+04
         0.27000E+04
         0.27000E+04
         0.27000E+04
         0.27000E+04
         0.27000E+04
         0.27000E+04
         0.27000E+04
         0.27000E+04
         0.27000E+04
         0.27000E+04
         0.27000E+04
         0.27000E+04
         0.27000E+04
         0.27000E+04
         0.27000E+04
         0.27000E+04
         0.27000E+04
         0.27000E+04
         0.27000E+04
         0.27000E+04
         0.27000E+04
         0.27000E+04
         0.27000E+04
         0.27000E+04
         0.27000E+04
         0.27000E+04
         0.27000E+04
         0.27000E+04
         0.27000E+04
         0.27000E+04
         0.27000E+04
         0.27000E+04
         0.27000E+04
         0.27000E+04
         0.27000E+04
         0.27000E+04
         0.27000E+04
         0.27000E+04
         0.27000E+04
         0.27000E+04
         0.27000E+04
         0.27000E+04
         0.27000E+04
         0.27000E+04
         0.27000E+04
         0.27000E+04
         0.27000E+04
         0.27000E+04
         0.27000E+04
         0.27000E+04
         0.27000E+04
         0.27000E+04
         0.27000E+04
         0.27000E+04
         0.27000E+04
         0.27000E+04
         0.27000E+04
         0.27000E+04
         0.27000E+04
         0.27000E+04
         0.27000E+04
         0.27000E+04
         0.27000E+04
         0.27000E+04
         0.27000E+04
         0.27000E+04
         0.27000E+04
         0.27000E+04
         0.27000E+04
         0.27000E+04
         0.27000E+04
         0.27000E+04
         0.27000E+04
         0.27000E+04
         0.27000E+04
         0.27000E+04
         0.27000E+04
         0.27000E+04
         0.27000E+04
         0.27000E+04
         0.27000E+04
         0.27000E+04
         0.27000E+04
         0.27000E+04
         0.27000E+04
         0.27000E+04
         0.27000E+04
         0.27000E+04
         0.27000E+04
         0.27000E+04
         0.27000E+04
         0.27000E+04
         0.27000E+04
         0.27000E+04
         0.27000E+04
         0.27000E+04
         0.27000E+04
         0.27000E+04
         0.27000E+04
         0.27000E+04
         0.27000E+04
         0.27000E+04
         0.27000E+04
         0.27000E+04
         0.27000E+04
         0.27000E+04
         0.27000E+04
         0.27000E+04
         0.27000E+04
         0.27000E+04
         0.27000E+04
         0.27000E+04
         0.27000E+04
         0.27000E+04
         0.27000E+04
         0.27000E+04
         0.27000E+04
         0.27000E+04
         0.27000E+04
         0.27000E+04
         0.27000E+04
         0.27000E+04
         0.27000E+04
         0.27000E+04
         0.27000E+04
         0.27000E+04
         0.27000E+04
         0.27000E+04
         0.27000E+04
         0.27000E+04
         0.27000E+04
         0.27000E+04
         0.27000E+04
         0.27000E+04
         0.27000E+04
         0.27000E+04
         0.27000E+04
         0.27000E+04
         0.27000E+04
         0.27000E+04
         0.27000E+04
         0.27000E+04
         0.27000E+04
         0.27000E+04
         0.27000E+04
         0.27000E+04
         0.27000E+04
         0.27000E+04
         0.27000E+04
         0.27000E+04
         0.27000E+04
         0.27000E+04
         0.27000E+04
         0.27000E+04
         0.27000E+04
         0.27000E+04
         0.27000E+04
         0.27000E+04
         0.27000E+04
         0.27000E+04
         0.27000E+04
         0.27000E+04
         0.27000E+04
         0.27000E+04
         0.27000E+04
         0.27000E+04
         0.27000E+04
         0.27000E+04
         0.27000E+04
         0.27000E+04
         0.27000E+04
         0.27000E+04
         0.27000E+04
         0.27000E+04
         0.27000E+04
         0.27000E+04
         0.27000E+04
         0.27000E+04
         0.27000E+04
         0.27000E+04
         0.27000E+04
         0.27000E+04
         0.27000E+04
         0.27000E+04
         0.27000E+04
         0.27000E+04
         0.27000E+04
         0.27000E+04
         0.27000E+04
         0.27000E+04
         0.27000E+04
         0.27000E+04
         0.27000E+04
         0.27000E+04
         0.27000E+04
         0.27000E+04
         0.27000E+04
         0.27000E+04
         0.27000E+04
         0.27000E+04
         0.27000E+04
         0.27000E+04
         0.27000E+04
         0.27000E+04
         0.27000E+04
         0.27000E+04
         0.27000E+04
         0.27000E+04
         0.27000E+04
         0.27000E+04
         0.27000E+04
         0.27000E+04
         0.27000E+04
         0.27000E+04
         0.27000E+04
         0.27000E+04
         0.27000E+04
         0.27000E+04
         0.27000E+04
         0.27000E+04
         0.27000E+04
         0.27000E+04
         0.27000E+04
         0.27000E+04
         0.27000E+04
         0.27000E+04
         0.27000E+04
         0.27000E+04
         0.27000E+04
         0.27000E+04
         0.27000E+04
         0.27000E+04
         0.27000E+04
         0.27000E+04
         0.27000E+04
         0.27000E+04
         0.27000E+04
         0.27000E+04
         0.27000E+04
         0.27000E+04
         0.27000E+04
         0.27000E+04
         0.27000E+04
         0.27000E+04
         0.27000E+04
         0.27000E+04
         0.27000E+04
         0.27000E+04
         0.27000E+04
         0.27000E+04
         0.27000E+04
         0.27000E+04
         0.27000E+04
         0.27000E+04
         0.27000E+04
         0.27000E+04
         0.27000E+04
         0.27000E+04
         0.27000E+04
         0.27000E+04
         0.27000E+04
         0.27000E+04
         0.27000E+04
         0.27000E+04
         0.27000E+04
         0.27000E+04
         0.27000E+04
         0.27000E+04
         0.27000E+04
         0.27000E+04
         0.27000E+04
         0.27000E+04
         0.27000E+04
         0.27000E+04
         0.27000E+04
         0.27000E+04
         0.27000E+04
         0.27000E+04
         0.27000E+04
         0.27000E+04
         0.27000E+04
         0.27000E+04
         0.27000E+04
         0.27000E+04
         0.27000E+04
         0.27000E+04
         0.27000E+04
         0.27000E+04
         0.27000E+04
         0.27000E+04
         0.27000E+04
         0.27000E+04
         0.27000E+04
         0.27000E+04
         0.27000E+04
         0.27000E+04
         0.27000E+04
         0.27000E+04
         0.27000E+04
         0.27000E+04
         0.27000E+04
         0.27000E+04
         0.27000E+04
         0.27000E+04
         0.27000E+04
         0.27000E+04
         0.27000E+04
         0.27000E+04
         0.27000E+04
         0.27000E+04
         0.27000E+04
         0.27000E+04
         0.27000E+04
         0.27000E+04
         0.27000E+04
         0.27000E+04
         0.27000E+04
         0.27000E+04
         0.27000E+04
         0.27000E+04
         0.27000E+04
         0.27000E+04
         0.27000E+04
         0.27000E+04
         0.27000E+04
         0.27000E+04
         0.27000E+04
         0.27000E+04
         0.27000E+04
         0.27000E+04
         0.27000E+04
         0.27000E+04
         0.27000E+04
         0.27000E+04
         0.27000E+04
         0.27000E+04
         0.27000E+04
         0.27000E+04
         0.27000E+04
         0.27000E+04
         0.27000E+04
         0.27000E+04
         0.27000E+04
         0.27000E+04
         0.27000E+04
         0.27000E+04
         0.27000E+04
         0.27000E+04
         0.27000E+04
         0.27000E+04
         0.27000E+04
         0.27000E+04
         0.27000E+04
         0.27000E+04
         0.27000E+04
         0.27000E+04
         0.27000E+04
         0.27000E+04
         0.27000E+04
         0.27000E+04
         0.27000E+04
         0.27000E+04
         0.27000E+04
         0.27000E+04
         0.27000E+04
         0.27000E+04
         0.27000E+04
         0.27000E+04
         0.27000E+04
         0.27000E+04
         0.27000E+04
         0.27000E+04
         0.27000E+04
         0.27000E+04
         0.27000E+04
         0.27000E+04
         0.27000E+04
         0.27000E+04
         0.27000E+04
         0.27000E+04
         0.27000E+04
         0.27000E+04
         0.27000E+04
         0.27000E+04
         0.27000E+04
         0.27000E+04
         0.27000E+04
         0.27000E+04
         0.27000E+04
         0.27000E+04
         0.27000E+04
         0.27000E+04
         0.27000E+04
         0.27000E+04
         0.27000E+04
         0.27000E+04
         0.27000E+04
         0.27000E+04
         0.27000E+04
         0.27000E+04
         0.27000E+04
         0.27000E+04
         0.27000E+04
         0.27000E+04
         0.27000E+04
         0.27000E+04
         0.27000E+04
         0.27000E+04
         0.27000E+04
         0.27000E+04
         0.27000E+04
         0.27000E+04
         0.27000E+04
         0.27000E+04
         0.27000E+04
         0.27000E+04
         0.27000E+04
         0.27000E+04
         0.27000E+04
         0.27000E+04
         0.27000E+04
         0.27000E+04
         0.27000E+04
         0.27000E+04
         0.27000E+04
         0.27000E+04
         0.27000E+04
         0.27000E+04
         0.27000E+04
         0.27000E+04
         0.27000E+04
         0.27000E+04
         0.27000E+04
         0.27000E+04
         0.27000E+04
         0.27000E+04
         0.27000E+04
         0.27000E+04
         0.27000E+04
         0.27000E+04
         0.27000E+04
         0.27000E+04
         0.27000E+04
         0.27000E+04
         0.27000E+04
         0.27000E+04
         0.27000E+04
         0.27000E+04
         0.27000E+04
         0.27000E+04
         0.27000E+04
         0.27000E+04
         0.27000E+04
         0.27000E+04
         0.27000E+04
         0.27000E+04
         0.27000E+04
         0.27000E+04
         0.27000E+04
         0.27000E+04
         0.27000E+04
         0.27000E+04
         0.27000E+04
         0.27000E+04
         0.27000E+04
         0.27000E+04
         0.27000E+04
         0.27000E+04
         0.27000E+04
         0.27000E+04
         0.27000E+04
         0.27000E+04
         0.27000E+04
         0.27000E+04
         0.27000E+04
         0.27000E+04
         0.27000E+04
         0.27000E+04
         0.27000E+04
         0.27000E+04
         0.27000E+04
         0.27000E+04
         0.27000E+04
         0.27000E+04
         0.27000E+04
         0.27000E+04
         0.27000E+04
         0.27000E+04
         0.27000E+04
         0.27000E+04
         0.27000E+04
         0.27000E+04
         0.27000E+04
         0.27000E+04
         0.27000E+04
         0.27000E+04
         0.27000E+04
         0.27000E+04
         0.27000E+04
         0.27000E+04
         0.27000E+04
         0.27000E+04
         0.27000E+04
         0.27000E+04
         0.27000E+04
         0.27000E+04
         0.27000E+04
         0.27000E+04
         0.27000E+04
         0.27000E+04
         0.27000E+04
         0.27000E+04
         0.27000E+04
         0.27000E+04
         0.27000E+04
         0.27000E+04
         0.27000E+04
         0.27000E+04
         0.27000E+04
         0.27000E+04
         0.27000E+04
         0.27000E+04
         0.27000E+04
         0.27000E+04
         0.27000E+04
         0.27000E+04
         0.27000E+04
         0.27000E+04
         0.27000E+04
         0.27000E+04
         0.27000E+04
         0.27000E+04
         0.27000E+04
         0.27000E+04
         0.27000E+04
         0.27000E+04
         0.27000E+04
         0.27000E+04
         0.27000E+04
         0.27000E+04
         0.27000E+04
         0.27000E+04
         0.27000E+04
         0.27000E+04
         0.27000E+04
         0.27000E+04
         0.27000E+04
         0.27000E+04
         0.27000E+04
         0.27000E+04
         0.27000E+04
         0.27000E+04
         0.27000E+04
         0.27000E+04
         0.27000E+04
         0.27000E+04
         0.27000E+04
         0.27000E+04
         0.27000E+04
         0.27000E+04
         0.27000E+04
         0.27000E+04
         0.27000E+04
         0.27000E+04
         0.27000E+04
         0.27000E+04
         0.27000E+04
         0.27000E+04
         0.27000E+04
         0.27000E+04
         0.27000E+04
         0.27000E+04
         0.27000E+04
         0.27000E+04
         0.27000E+04
         0.27000E+04
         0.27000E+04
         0.27000E+04
         0.27000E+04
         0.27000E+04
         0.27000E+04
         0.27000E+04
         0.27000E+04
         0.27000E+04
         0.27000E+04
         0.27000E+04
         0.27000E+04
         0.27000E+04
         0.27000E+04
         0.27000E+04
         0.27000E+04
         0.27000E+04
         0.27000E+04
         0.27000E+04
         0.27000E+04
         0.27000E+04
         0.27000E+04
         0.27000E+04
         0.27000E+04
         0.27000E+04
         0.27000E+04
         0.27000E+04
         0.27000E+04
         0.27000E+04
         0.27000E+04
         0.27000E+04
         0.27000E+04
         0.27000E+04
         0.27000E+04
         0.27000E+04
         0.27000E+04
         0.27000E+04
         0.27000E+04
         0.27000E+04
         0.27000E+04
         0.27000E+04
         0.27000E+04
         0.27000E+04
         0.27000E+04
         0.27000E+04
         0.27000E+04
         0.27000E+04
         0.27000E+04
         0.27000E+04
         0.27000E+04
         0.27000E+04
         0.27000E+04
         0.27000E+04
         0.27000E+04
         0.27000E+04
         0.27000E+04
         0.27000E+04
         0.27000E+04
         0.27000E+04
         0.27000E+04
         0.27000E+04
         0.27000E+04
         0.27000E+04
         0.27000E+04
         0.27000E+04
         0.27000E+04
         0.27000E+04
         0.27000E+04
         0.27000E+04
         0.27000E+04
         0.27000E+04
         0.27000E+04
         0.27000E+04
         0.27000E+04
         0.27000E+04
         0.27000E+04
         0.27000E+04
         0.27000E+04
         0.27000E+04
         0.27000E+04
         0.27000E+04
         0.27000E+04
         0.27000E+04
         0.27000E+04
         0.27000E+04
         0.27000E+04
         0.27000E+04
         0.27000E+04
         0.27000E+04
         0.27000E+04
         0.27000E+04
         0.27000E+04
         0.27000E+04
         0.27000E+04
         0.27000E+04
         0.27000E+04
         0.27000E+04
         0.27000E+04
         0.27000E+04
         0.27000E+04
         0.27000E+04
         0.27000E+04
         0.27000E+04
         0.27000E+04
         0.27000E+04
         0.27000E+04
         0.27000E+04
         0.27000E+04
         0.27000E+04
         0.27000E+04
         0.27000E+04
         0.27000E+04
         0.27000E+04
         0.27000E+04
         0.27000E+04
         0.27000E+04
         0.27000E+04
         0.27000E+04
         0.27000E+04
         0.27000E+04
         0.27000E+04
         0.27000E+04
         0.27000E+04
         0.27000E+04
         0.27000E+04
         0.27000E+04
         0.27000E+04
         0.27000E+04
         0.27000E+04
         0.27000E+04
         0.27000E+04
         0.27000E+04
         0.27000E+04
         0.27000E+04
         0.27000E+04
         0.27000E+04
         0.27000E+04
         0.27000E+04
         0.27000E+04
         0.27000E+04
         0.27000E+04
         0.27000E+04
         0.27000E+04
         0.27000E+04
         0.27000E+04
         0.27000E+04
         0.27000E+04
         0.27000E+04
         0.27000E+04
         0.27000E+04
         0.27000E+04
         0.27000E+04
         0.27000E+04
         0.27000E+04
         0.27000E+04
         0.27000E+04
         0.27000E+04
         0.27000E+04
         0.27000E+04
         0.27000E+04
         0.27000E+04
         0.27000E+04
         0.27000E+04
         0.27000E+04
         0.27000E+04
         0.27000E+04
         0.27000E+04
         0.27000E+04
         0.27000E+04
         0.27000E+04
         0.27000E+04
         0.27000E+04
         0.27000E+04
         0.27000E+04
         0.27000E+04
         0.27000E+04
         0.27000E+04
         0.27000E+04
         0.27000E+04
         0.27000E+04
         0.27000E+04
         0.27000E+04
         0.27000E+04
         0.27000E+04
         0.27000E+04
         0.27000E+04
         0.27000E+04
         0.27000E+04
         0.27000E+04
         0.27000E+04
         0.27000E+04
         0.27000E+04
         0.27000E+04
         0.27000E+04
         0.27000E+04
         0.27000E+04
         0.27000E+04
         0.27000E+04
         0.27000E+04
         0.27000E+04
         0.27000E+04
         0.27000E+04
         0.27000E+04
         0.27000E+04
         0.27000E+04
         0.27000E+04
         0.27000E+04
         0.27000E+04
         0.27000E+04
         0.27000E+04
         0.27000E+04
         0.27000E+04
         0.27000E+04
         0.27000E+04
         0.27000E+04
         0.27000E+04
         0.27000E+04
         0.27000E+04
         0.27000E+04
         0.27000E+04
         0.27000E+04
         0.27000E+04
         0.27000E+04
         0.27000E+04
         0.27000E+04
         0.27000E+04
         0.27000E+04
         0.27000E+04
         0.27000E+04
         0.27000E+04
         0.27000E+04
         0.27000E+04
         0.27000E+04
         0.27000E+04
         0.27000E+04
         0.27000E+04
         0.27000E+04
         0.27000E+04
         0.27000E+04
         0.27000E+04
         0.27000E+04
         0.27000E+04
         0.27000E+04
         0.27000E+04
         0.27000E+04
         0.27000E+04
         0.27000E+04
         0.27000E+04
         0.27000E+04
         0.27000E+04
         0.27000E+04
         0.27000E+04
         0.27000E+04
         0.27000E+04
         0.27000E+04
         0.27000E+04
         0.27000E+04
         0.27000E+04
         0.27000E+04
         0.27000E+04
         0.27000E+04
         0.27000E+04
         0.27000E+04
         0.27000E+04
         0.27000E+04
         0.27000E+04
         0.27000E+04
         0.27000E+04
         0.27000E+04
         0.27000E+04
         0.27000E+04
         0.27000E+04
         0.27000E+04
         0.27000E+04
         0.27000E+04
         0.27000E+04
         0.27000E+04
         0.27000E+04
         0.27000E+04
         0.27000E+04
         0.27000E+04
         0.27000E+04
         0.27000E+04
         0.27000E+04
         0.27000E+04
         0.27000E+04
         0.27000E+04
         0.27000E+04
         0.27000E+04
         0.27000E+04
         0.27000E+04
         0.27000E+04
         0.27000E+04
         0.27000E+04
         0.27000E+04
         0.27000E+04
         0.27000E+04
         0.27000E+04
         0.27000E+04
         0.27000E+04
         0.27000E+04
         0.27000E+04
         0.27000E+04
         0.27000E+04
         0.27000E+04
         0.27000E+04
         0.27000E+04
         0.27000E+04
         0.27000E+04
         0.27000E+04
         0.27000E+04
         0.27000E+04
         0.27000E+04
         0.27000E+04
         0.27000E+04
         0.27000E+04
         0.27000E+04
         0.27000E+04
         0.27000E+04
         0.27000E+04
         0.27000E+04
         0.27000E+04
         0.27000E+04
         0.27000E+04
         0.27000E+04
         0.27000E+04
         0.27000E+04
         0.27000E+04
         0.27000E+04
         0.27000E+04
         0.27000E+04
         0.27000E+04
         0.27000E+04
         0.27000E+04
         0.27000E+04
         0.27000E+04
         0.27000E+04
         0.27000E+04
         0.27000E+04
         0.27000E+04
         0.27000E+04
         0.27000E+04
         0.27000E+04
         0.27000E+04
         0.27000E+04
         0.27000E+04
         0.27000E+04
         0.27000E+04
         0.27000E+04
         0.27000E+04
         0.27000E+04
         0.27000E+04
