# vtk DataFile Version 2.0
               (MEGA VTK FILE)
ASCII
DATASET UNSTRUCTURED_GRID
POINTS       1950    double
  0.10378E-02  0.67292E-03 -0.18569E-01
  0.17452E-02  0.12308E-02 -0.18557E-01
  0.23177E-02  0.59151E-03 -0.18555E-01
  0.16698E-02 -0.33775E-03 -0.18578E-01
  0.10379E-02  0.67237E-03 -0.11750E-01
  0.17453E-02  0.12301E-02 -0.11750E-01
  0.23178E-02  0.59098E-03 -0.11750E-01
  0.16700E-02 -0.33851E-03 -0.11750E-01
  0.30377E-02  0.14882E-03 -0.18532E-01
  0.27791E-02 -0.67643E-03 -0.18559E-01
  0.30377E-02  0.14846E-03 -0.11750E-01
  0.27788E-02 -0.67692E-03 -0.11750E-01
  0.12850E-02  0.18412E-02 -0.18543E-01
  0.65139E-03  0.14576E-02 -0.18561E-01
  0.12851E-02  0.18410E-02 -0.11750E-01
  0.65164E-03  0.14566E-02 -0.11750E-01
  0.12757E-03  0.29933E-03 -0.18570E-01
 -0.12822E-03  0.11672E-02 -0.18574E-01
  0.12783E-03  0.29819E-03 -0.11750E-01
 -0.12804E-03  0.11655E-02 -0.11750E-01
  0.94500E-03  0.22748E-02 -0.18534E-01
  0.11327E-02  0.28286E-02 -0.18523E-01
  0.17490E-02  0.24238E-02 -0.18528E-01
  0.94533E-03  0.22746E-02 -0.11750E-01
  0.11330E-02  0.28291E-02 -0.11750E-01
  0.17494E-02  0.24236E-02 -0.11750E-01
  0.40588E-03  0.21685E-02 -0.18556E-01
  0.39779E-03  0.29366E-02 -0.18549E-01
  0.40594E-03  0.21684E-02 -0.11750E-01
  0.39781E-03  0.29369E-02 -0.11750E-01
 -0.76303E-03 -0.10033E-02 -0.18580E-01
 -0.86604E-03  0.78969E-04 -0.18586E-01
  0.46119E-03 -0.70318E-03 -0.18576E-01
 -0.76268E-03 -0.10032E-02 -0.11750E-01
 -0.86593E-03  0.78160E-04 -0.11750E-01
  0.46164E-03 -0.70391E-03 -0.11750E-01
 -0.18300E-02 -0.71196E-03 -0.18555E-01
 -0.18440E-02  0.82749E-04 -0.18581E-01
 -0.18297E-02 -0.71210E-03 -0.11750E-01
 -0.18441E-02  0.82626E-04 -0.11750E-01
 -0.27238E-02 -0.77865E-03 -0.18548E-01
 -0.28028E-02  0.40713E-04 -0.18569E-01
 -0.27238E-02 -0.77882E-03 -0.11750E-01
 -0.28031E-02  0.40439E-04 -0.11750E-01
 -0.25365E-02 -0.15195E-02 -0.18528E-01
 -0.19287E-02 -0.13230E-02 -0.18538E-01
 -0.25363E-02 -0.15195E-02 -0.11750E-01
 -0.19283E-02 -0.13231E-02 -0.11750E-01
 -0.99363E-03  0.98847E-03 -0.18588E-01
 -0.99377E-03  0.98712E-03 -0.11750E-01
 -0.14380E-02 -0.17325E-02 -0.18552E-01
 -0.14377E-02 -0.17325E-02 -0.11750E-01
 -0.31574E-03  0.20220E-02 -0.18579E-01
 -0.31594E-03  0.20217E-02 -0.11750E-01
 -0.11068E-02  0.18615E-02 -0.18586E-01
 -0.11071E-02  0.18616E-02 -0.11750E-01
 -0.18845E-02  0.17175E-02 -0.18565E-01
 -0.18713E-02  0.90940E-03 -0.18582E-01
 -0.18846E-02  0.17175E-02 -0.11750E-01
 -0.18714E-02  0.90916E-03 -0.11750E-01
 -0.15871E-03 -0.19800E-02 -0.18575E-01
 -0.94089E-03 -0.23489E-02 -0.18552E-01
 -0.15844E-03 -0.19800E-02 -0.11750E-01
 -0.94029E-03 -0.23489E-02 -0.11750E-01
  0.78856E-03 -0.17074E-02 -0.18573E-01
  0.78922E-03 -0.17074E-02 -0.11750E-01
  0.17211E-02 -0.14894E-02 -0.18564E-01
  0.17211E-02 -0.14892E-02 -0.11750E-01
  0.32050E-02  0.76036E-03 -0.18497E-01
  0.28046E-02  0.12477E-02 -0.18524E-01
  0.32047E-02  0.75936E-03 -0.11750E-01
  0.28047E-02  0.12473E-02 -0.11750E-01
  0.23059E-02  0.18665E-02 -0.18534E-01
  0.23060E-02  0.18664E-02 -0.11750E-01
 -0.40614E-03  0.29038E-02 -0.18563E-01
 -0.40627E-03  0.29049E-02 -0.11750E-01
 -0.12092E-02  0.27207E-02 -0.18560E-01
 -0.12092E-02  0.27212E-02 -0.11750E-01
 -0.19448E-02  0.24642E-02 -0.18535E-01
 -0.19448E-02  0.24645E-02 -0.11750E-01
 -0.25029E-02  0.22359E-02 -0.18506E-01
 -0.26371E-02  0.16503E-02 -0.18542E-01
 -0.25029E-02  0.22359E-02 -0.11750E-01
 -0.26372E-02  0.16503E-02 -0.11750E-01
 -0.27671E-02  0.87493E-03 -0.18572E-01
 -0.27674E-02  0.87466E-03 -0.11750E-01
 -0.21123E-02 -0.21373E-02 -0.18531E-01
 -0.21122E-02 -0.21373E-02 -0.11750E-01
 -0.16087E-02 -0.26931E-02 -0.18520E-01
 -0.16087E-02 -0.26931E-02 -0.11750E-01
 -0.11939E-02 -0.31291E-02 -0.18494E-01
 -0.58641E-03 -0.30382E-02 -0.18530E-01
 -0.11937E-02 -0.31291E-02 -0.11750E-01
 -0.58606E-03 -0.30382E-02 -0.11750E-01
  0.20912E-03 -0.28748E-02 -0.18554E-01
  0.20952E-03 -0.28748E-02 -0.11750E-01
  0.10586E-02 -0.26423E-02 -0.18551E-01
  0.10589E-02 -0.26420E-02 -0.11750E-01
  0.18413E-02 -0.23707E-02 -0.18531E-01
  0.18413E-02 -0.23705E-02 -0.11750E-01
  0.24544E-02 -0.21445E-02 -0.18503E-01
  0.26022E-02 -0.15105E-02 -0.18536E-01
  0.24543E-02 -0.21439E-02 -0.11750E-01
  0.26021E-02 -0.15106E-02 -0.11750E-01
  0.37964E-02  0.93572E-03 -0.18423E-01
  0.39100E-02  0.00000E+00 -0.18435E-01
  0.37964E-02  0.93572E-03 -0.11750E-01
  0.39100E-02  0.00000E+00 -0.11750E-01
  0.34621E-02  0.18171E-02 -0.18434E-01
  0.34621E-02  0.18171E-02 -0.11750E-01
  0.29267E-02  0.25928E-02 -0.18425E-01
  0.29267E-02  0.25928E-02 -0.11750E-01
  0.22211E-02  0.32179E-02 -0.18425E-01
  0.22211E-02  0.32179E-02 -0.11750E-01
  0.13865E-02  0.36559E-02 -0.18424E-01
  0.13865E-02  0.36559E-02 -0.11750E-01
  0.47130E-03  0.38815E-02 -0.18432E-01
  0.47130E-03  0.38815E-02 -0.11750E-01
 -0.47130E-03  0.38815E-02 -0.18435E-01
 -0.47130E-03  0.38815E-02 -0.11750E-01
 -0.13865E-02  0.36559E-02 -0.18433E-01
 -0.13865E-02  0.36559E-02 -0.11750E-01
 -0.22211E-02  0.32179E-02 -0.18431E-01
 -0.22211E-02  0.32179E-02 -0.11750E-01
 -0.29267E-02  0.25928E-02 -0.18420E-01
 -0.29267E-02  0.25928E-02 -0.11750E-01
 -0.34621E-02  0.18171E-02 -0.18435E-01
 -0.34621E-02  0.18171E-02 -0.11750E-01
 -0.37964E-02  0.93572E-03 -0.18440E-01
 -0.37964E-02  0.93572E-03 -0.11750E-01
 -0.39100E-02  0.22152E-17 -0.18438E-01
 -0.39100E-02 -0.47884E-18 -0.11750E-01
 -0.37964E-02 -0.93572E-03 -0.18433E-01
 -0.37964E-02 -0.93572E-03 -0.11750E-01
 -0.34621E-02 -0.18171E-02 -0.18427E-01
 -0.34621E-02 -0.18171E-02 -0.11750E-01
 -0.29267E-02 -0.25928E-02 -0.18424E-01
 -0.29267E-02 -0.25928E-02 -0.11750E-01
 -0.22211E-02 -0.32179E-02 -0.18433E-01
 -0.22211E-02 -0.32179E-02 -0.11750E-01
 -0.13865E-02 -0.36559E-02 -0.18424E-01
 -0.13865E-02 -0.36559E-02 -0.11750E-01
 -0.47130E-03 -0.38815E-02 -0.18437E-01
 -0.47130E-03 -0.38815E-02 -0.11750E-01
  0.47130E-03 -0.38815E-02 -0.18433E-01
  0.47130E-03 -0.38815E-02 -0.11750E-01
  0.13865E-02 -0.36559E-02 -0.18429E-01
  0.13865E-02 -0.36559E-02 -0.11750E-01
  0.22211E-02 -0.32179E-02 -0.18436E-01
  0.22211E-02 -0.32179E-02 -0.11750E-01
  0.29267E-02 -0.25928E-02 -0.18426E-01
  0.29267E-02 -0.25928E-02 -0.11750E-01
  0.34621E-02 -0.18171E-02 -0.18436E-01
  0.34621E-02 -0.18171E-02 -0.11750E-01
  0.37964E-02 -0.93572E-03 -0.18436E-01
  0.37964E-02 -0.93572E-03 -0.11750E-01
  0.10376E-02  0.67348E-03 -0.20783E-01
  0.17450E-02  0.12314E-02 -0.20781E-01
  0.23175E-02  0.59203E-03 -0.20781E-01
  0.16696E-02 -0.33700E-03 -0.20784E-01
  0.30377E-02  0.14918E-03 -0.20778E-01
  0.27795E-02 -0.67594E-03 -0.20782E-01
  0.12849E-02  0.18414E-02 -0.20779E-01
  0.65115E-03  0.14586E-02 -0.20782E-01
  0.12731E-03  0.30048E-03 -0.20784E-01
 -0.12841E-03  0.11690E-02 -0.20784E-01
  0.94467E-03  0.22749E-02 -0.20778E-01
  0.11323E-02  0.28282E-02 -0.20776E-01
  0.17487E-02  0.24239E-02 -0.20777E-01
  0.40583E-03  0.21685E-02 -0.20781E-01
  0.39777E-03  0.29364E-02 -0.20780E-01
 -0.76338E-03 -0.10035E-02 -0.20784E-01
 -0.86615E-03  0.79778E-04 -0.20786E-01
  0.46074E-03 -0.70245E-03 -0.20784E-01
 -0.18303E-02 -0.71182E-03 -0.20781E-01
 -0.18439E-02  0.82873E-04 -0.20785E-01
 -0.27238E-02 -0.77848E-03 -0.20780E-01
 -0.28025E-02  0.40986E-04 -0.20784E-01
 -0.25366E-02 -0.15194E-02 -0.20777E-01
 -0.19292E-02 -0.13228E-02 -0.20779E-01
 -0.99349E-03  0.98983E-03 -0.20786E-01
 -0.14384E-02 -0.17324E-02 -0.20780E-01
 -0.31554E-03  0.20223E-02 -0.20785E-01
 -0.11064E-02  0.18614E-02 -0.20786E-01
 -0.18845E-02  0.17175E-02 -0.20782E-01
 -0.18712E-02  0.90964E-03 -0.20785E-01
 -0.15899E-03 -0.19800E-02 -0.20784E-01
 -0.94149E-03 -0.23489E-02 -0.20780E-01
  0.78790E-03 -0.17074E-02 -0.20784E-01
  0.17210E-02 -0.14896E-02 -0.20782E-01
  0.32053E-02  0.76137E-03 -0.20773E-01
  0.28046E-02  0.12481E-02 -0.20776E-01
  0.23058E-02  0.18665E-02 -0.20778E-01
 -0.40600E-03  0.29027E-02 -0.20783E-01
 -0.12092E-02  0.27202E-02 -0.20782E-01
 -0.19447E-02  0.24640E-02 -0.20778E-01
 -0.25028E-02  0.22359E-02 -0.20774E-01
 -0.26370E-02  0.16503E-02 -0.20779E-01
 -0.27668E-02  0.87519E-03 -0.20784E-01
 -0.21125E-02 -0.21373E-02 -0.20777E-01
 -0.16088E-02 -0.26932E-02 -0.20776E-01
 -0.11940E-02 -0.31291E-02 -0.20772E-01
 -0.58676E-03 -0.30382E-02 -0.20777E-01
  0.20871E-03 -0.28748E-02 -0.20781E-01
  0.10583E-02 -0.26426E-02 -0.20780E-01
  0.18413E-02 -0.23709E-02 -0.20777E-01
  0.24545E-02 -0.21450E-02 -0.20774E-01
  0.26022E-02 -0.15104E-02 -0.20778E-01
  0.37964E-02  0.93572E-03 -0.20765E-01
  0.39100E-02  0.00000E+00 -0.20767E-01
  0.34621E-02  0.18171E-02 -0.20767E-01
  0.29267E-02  0.25928E-02 -0.20766E-01
  0.22211E-02  0.32179E-02 -0.20766E-01
  0.13865E-02  0.36559E-02 -0.20766E-01
  0.47130E-03  0.38815E-02 -0.20767E-01
 -0.47130E-03  0.38815E-02 -0.20767E-01
 -0.13865E-02  0.36559E-02 -0.20766E-01
 -0.22211E-02  0.32179E-02 -0.20766E-01
 -0.29267E-02  0.25928E-02 -0.20764E-01
 -0.34621E-02  0.18171E-02 -0.20767E-01
 -0.37964E-02  0.93572E-03 -0.20768E-01
 -0.39100E-02 -0.47884E-18 -0.20768E-01
 -0.37964E-02 -0.93572E-03 -0.20767E-01
 -0.34621E-02 -0.18171E-02 -0.20766E-01
 -0.29267E-02 -0.25928E-02 -0.20765E-01
 -0.22211E-02 -0.32179E-02 -0.20767E-01
 -0.13865E-02 -0.36559E-02 -0.20765E-01
 -0.47130E-03 -0.38815E-02 -0.20767E-01
  0.47130E-03 -0.38815E-02 -0.20767E-01
  0.13865E-02 -0.36559E-02 -0.20766E-01
  0.22211E-02 -0.32179E-02 -0.20767E-01
  0.29267E-02 -0.25928E-02 -0.20765E-01
  0.34621E-02 -0.18171E-02 -0.20767E-01
  0.37964E-02 -0.93572E-03 -0.20768E-01
  0.10375E-02  0.67403E-03 -0.20066E-01
  0.17448E-02  0.12321E-02 -0.20066E-01
  0.23174E-02  0.59255E-03 -0.20066E-01
  0.16694E-02 -0.33624E-03 -0.20066E-01
  0.30377E-02  0.14955E-03 -0.20066E-01
  0.27798E-02 -0.67544E-03 -0.20066E-01
  0.12848E-02  0.18415E-02 -0.20066E-01
  0.65090E-03  0.14596E-02 -0.20066E-01
  0.12705E-03  0.30163E-03 -0.20066E-01
 -0.12859E-03  0.11707E-02 -0.20066E-01
  0.94434E-03  0.22750E-02 -0.20066E-01
  0.11320E-02  0.28277E-02 -0.20066E-01
  0.17483E-02  0.24241E-02 -0.20066E-01
  0.40577E-03  0.21685E-02 -0.20066E-01
  0.39776E-03  0.29361E-02 -0.20066E-01
 -0.76374E-03 -0.10036E-02 -0.20066E-01
 -0.86626E-03  0.80588E-04 -0.20066E-01
  0.46029E-03 -0.70173E-03 -0.20066E-01
 -0.18306E-02 -0.71168E-03 -0.20066E-01
 -0.18438E-02  0.82996E-04 -0.20066E-01
 -0.27238E-02 -0.77831E-03 -0.20066E-01
 -0.28022E-02  0.41259E-04 -0.20066E-01
 -0.25368E-02 -0.15194E-02 -0.20066E-01
 -0.19296E-02 -0.13227E-02 -0.20066E-01
 -0.99334E-03  0.99119E-03 -0.20066E-01
 -0.14387E-02 -0.17324E-02 -0.20066E-01
 -0.31534E-03  0.20226E-02 -0.20066E-01
 -0.11061E-02  0.18613E-02 -0.20066E-01
 -0.18844E-02  0.17175E-02 -0.20066E-01
 -0.18710E-02  0.90988E-03 -0.20066E-01
 -0.15926E-03 -0.19801E-02 -0.20066E-01
 -0.94209E-03 -0.23490E-02 -0.20066E-01
  0.78724E-03 -0.17074E-02 -0.20066E-01
  0.17210E-02 -0.14899E-02 -0.20066E-01
  0.32056E-02  0.76237E-03 -0.20066E-01
  0.28046E-02  0.12485E-02 -0.20066E-01
  0.23057E-02  0.18666E-02 -0.20066E-01
 -0.40586E-03  0.29017E-02 -0.20066E-01
 -0.12092E-02  0.27198E-02 -0.20066E-01
 -0.19447E-02  0.24638E-02 -0.20066E-01
 -0.25028E-02  0.22359E-02 -0.20066E-01
 -0.26369E-02  0.16503E-02 -0.20066E-01
 -0.27665E-02  0.87545E-03 -0.20066E-01
 -0.21126E-02 -0.21374E-02 -0.20066E-01
 -0.16088E-02 -0.26932E-02 -0.20066E-01
 -0.11941E-02 -0.31291E-02 -0.20066E-01
 -0.58711E-03 -0.30382E-02 -0.20066E-01
  0.20830E-03 -0.28748E-02 -0.20066E-01
  0.10580E-02 -0.26428E-02 -0.20066E-01
  0.18414E-02 -0.23711E-02 -0.20066E-01
  0.24546E-02 -0.21456E-02 -0.20066E-01
  0.26023E-02 -0.15103E-02 -0.20066E-01
  0.37964E-02  0.93572E-03 -0.20066E-01
  0.39100E-02  0.00000E+00 -0.20066E-01
  0.34621E-02  0.18171E-02 -0.20066E-01
  0.29267E-02  0.25928E-02 -0.20066E-01
  0.22211E-02  0.32179E-02 -0.20066E-01
  0.13865E-02  0.36559E-02 -0.20066E-01
  0.47130E-03  0.38815E-02 -0.20066E-01
 -0.47130E-03  0.38815E-02 -0.20066E-01
 -0.13865E-02  0.36559E-02 -0.20066E-01
 -0.22211E-02  0.32179E-02 -0.20066E-01
 -0.29267E-02  0.25928E-02 -0.20066E-01
 -0.34621E-02  0.18171E-02 -0.20066E-01
 -0.37964E-02  0.93572E-03 -0.20066E-01
 -0.39100E-02  0.39516E-17 -0.20066E-01
 -0.37964E-02 -0.93572E-03 -0.20066E-01
 -0.34621E-02 -0.18171E-02 -0.20066E-01
 -0.29267E-02 -0.25928E-02 -0.20066E-01
 -0.22211E-02 -0.32179E-02 -0.20066E-01
 -0.13865E-02 -0.36559E-02 -0.20066E-01
 -0.47130E-03 -0.38815E-02 -0.20066E-01
  0.47130E-03 -0.38815E-02 -0.20066E-01
  0.13865E-02 -0.36559E-02 -0.20066E-01
  0.22211E-02 -0.32179E-02 -0.20066E-01
  0.29267E-02 -0.25928E-02 -0.20066E-01
  0.34621E-02 -0.18171E-02 -0.20066E-01
  0.37964E-02 -0.93572E-03 -0.20066E-01
  0.10374E-02  0.67459E-03 -0.19087E-01
  0.17446E-02  0.12328E-02 -0.19087E-01
  0.23173E-02  0.59308E-03 -0.19087E-01
  0.16692E-02 -0.33549E-03 -0.19087E-01
  0.30376E-02  0.14991E-03 -0.19087E-01
  0.27801E-02 -0.67495E-03 -0.19087E-01
  0.12847E-02  0.18417E-02 -0.19087E-01
  0.65065E-03  0.14606E-02 -0.19087E-01
  0.12678E-03  0.30278E-03 -0.19087E-01
 -0.12878E-03  0.11725E-02 -0.19087E-01
  0.94401E-03  0.22752E-02 -0.19087E-01
  0.11316E-02  0.28273E-02 -0.19087E-01
  0.17479E-02  0.24242E-02 -0.19087E-01
  0.40572E-03  0.21686E-02 -0.19087E-01
  0.39774E-03  0.29359E-02 -0.19087E-01
 -0.76409E-03 -0.10038E-02 -0.19087E-01
 -0.86637E-03  0.81397E-04 -0.19087E-01
  0.45985E-03 -0.70100E-03 -0.19087E-01
 -0.18309E-02 -0.71154E-03 -0.19087E-01
 -0.18437E-02  0.83120E-04 -0.19087E-01
 -0.27237E-02 -0.77814E-03 -0.19087E-01
 -0.28020E-02  0.41533E-04 -0.19087E-01
 -0.25369E-02 -0.15193E-02 -0.19087E-01
 -0.19300E-02 -0.13227E-02 -0.19087E-01
 -0.99320E-03  0.99254E-03 -0.19087E-01
 -0.14391E-02 -0.17324E-02 -0.19087E-01
 -0.31514E-03  0.20228E-02 -0.19087E-01
 -0.11057E-02  0.18611E-02 -0.19087E-01
 -0.18844E-02  0.17175E-02 -0.19087E-01
 -0.18709E-02  0.91012E-03 -0.19087E-01
 -0.15954E-03 -0.19801E-02 -0.19087E-01
 -0.94269E-03 -0.23490E-02 -0.19087E-01
  0.78658E-03 -0.17074E-02 -0.19087E-01
  0.17209E-02 -0.14901E-02 -0.19087E-01
  0.32060E-02  0.76338E-03 -0.19087E-01
  0.28046E-02  0.12490E-02 -0.19087E-01
  0.23056E-02  0.18666E-02 -0.19087E-01
 -0.40572E-03  0.29006E-02 -0.19087E-01
 -0.12092E-02  0.27193E-02 -0.19087E-01
 -0.19446E-02  0.24636E-02 -0.19087E-01
 -0.25028E-02  0.22359E-02 -0.19087E-01
 -0.26368E-02  0.16503E-02 -0.19087E-01
 -0.27662E-02  0.87571E-03 -0.19087E-01
 -0.21128E-02 -0.21374E-02 -0.19087E-01
 -0.16088E-02 -0.26932E-02 -0.19087E-01
 -0.11942E-02 -0.31291E-02 -0.19087E-01
 -0.58746E-03 -0.30382E-02 -0.19087E-01
  0.20790E-03 -0.28748E-02 -0.19087E-01
  0.10577E-02 -0.26431E-02 -0.19087E-01
  0.18414E-02 -0.23713E-02 -0.19087E-01
  0.24548E-02 -0.21461E-02 -0.19087E-01
  0.26024E-02 -0.15102E-02 -0.19087E-01
  0.37964E-02  0.93572E-03 -0.19087E-01
  0.39100E-02  0.00000E+00 -0.19087E-01
  0.34621E-02  0.18171E-02 -0.19087E-01
  0.29267E-02  0.25928E-02 -0.19087E-01
  0.22211E-02  0.32179E-02 -0.19087E-01
  0.13865E-02  0.36559E-02 -0.19087E-01
  0.47130E-03  0.38815E-02 -0.19087E-01
 -0.47130E-03  0.38815E-02 -0.19087E-01
 -0.13865E-02  0.36559E-02 -0.19087E-01
 -0.22211E-02  0.32179E-02 -0.19087E-01
 -0.29267E-02  0.25928E-02 -0.19087E-01
 -0.34621E-02  0.18171E-02 -0.19087E-01
 -0.37964E-02  0.93572E-03 -0.19087E-01
 -0.39100E-02 -0.47884E-18 -0.19087E-01
 -0.37964E-02 -0.93572E-03 -0.19087E-01
 -0.34621E-02 -0.18171E-02 -0.19087E-01
 -0.29267E-02 -0.25928E-02 -0.19087E-01
 -0.22211E-02 -0.32179E-02 -0.19087E-01
 -0.13865E-02 -0.36559E-02 -0.19087E-01
 -0.47130E-03 -0.38815E-02 -0.19087E-01
  0.47130E-03 -0.38815E-02 -0.19087E-01
  0.13865E-02 -0.36559E-02 -0.19087E-01
  0.22211E-02 -0.32179E-02 -0.19087E-01
  0.29267E-02 -0.25928E-02 -0.19087E-01
  0.34621E-02 -0.18171E-02 -0.19087E-01
  0.37964E-02 -0.93572E-03 -0.19087E-01
  0.10373E-02  0.67514E-03 -0.18107E-01
  0.17445E-02  0.12334E-02 -0.18107E-01
  0.23172E-02  0.59360E-03 -0.18107E-01
  0.16689E-02 -0.33474E-03 -0.18107E-01
  0.30376E-02  0.15027E-03 -0.18107E-01
  0.27805E-02 -0.67446E-03 -0.18107E-01
  0.12846E-02  0.18419E-02 -0.18107E-01
  0.65041E-03  0.14616E-02 -0.18107E-01
  0.12652E-03  0.30393E-03 -0.18107E-01
 -0.12896E-03  0.11742E-02 -0.18107E-01
  0.94367E-03  0.22753E-02 -0.18107E-01
  0.11313E-02  0.28269E-02 -0.18107E-01
  0.17475E-02  0.24244E-02 -0.18107E-01
  0.40566E-03  0.21686E-02 -0.18107E-01
  0.39772E-03  0.29356E-02 -0.18107E-01
 -0.76444E-03 -0.10039E-02 -0.18107E-01
 -0.86648E-03  0.82206E-04 -0.18107E-01
  0.45940E-03 -0.70028E-03 -0.18107E-01
 -0.18312E-02 -0.71140E-03 -0.18107E-01
 -0.18436E-02  0.83243E-04 -0.18107E-01
 -0.27237E-02 -0.77797E-03 -0.18107E-01
 -0.28017E-02  0.41806E-04 -0.18107E-01
 -0.25371E-02 -0.15193E-02 -0.18107E-01
 -0.19305E-02 -0.13226E-02 -0.18107E-01
 -0.99305E-03  0.99390E-03 -0.18107E-01
 -0.14394E-02 -0.17323E-02 -0.18107E-01
 -0.31494E-03  0.20231E-02 -0.18107E-01
 -0.11054E-02  0.18610E-02 -0.18107E-01
 -0.18843E-02  0.17175E-02 -0.18107E-01
 -0.18708E-02  0.91036E-03 -0.18107E-01
 -0.15981E-03 -0.19801E-02 -0.18107E-01
 -0.94328E-03 -0.23490E-02 -0.18107E-01
  0.78592E-03 -0.17074E-02 -0.18107E-01
  0.17209E-02 -0.14904E-02 -0.18107E-01
  0.32063E-02  0.76439E-03 -0.18107E-01
  0.28045E-02  0.12494E-02 -0.18107E-01
  0.23055E-02  0.18666E-02 -0.18107E-01
 -0.40558E-03  0.28995E-02 -0.18107E-01
 -0.12092E-02  0.27188E-02 -0.18107E-01
 -0.19446E-02  0.24633E-02 -0.18107E-01
 -0.25027E-02  0.22359E-02 -0.18107E-01
 -0.26367E-02  0.16503E-02 -0.18107E-01
 -0.27658E-02  0.87597E-03 -0.18107E-01
 -0.21129E-02 -0.21374E-02 -0.18107E-01
 -0.16089E-02 -0.26932E-02 -0.18107E-01
 -0.11943E-02 -0.31291E-02 -0.18107E-01
 -0.58781E-03 -0.30382E-02 -0.18107E-01
  0.20749E-03 -0.28748E-02 -0.18107E-01
  0.10574E-02 -0.26434E-02 -0.18107E-01
  0.18415E-02 -0.23715E-02 -0.18107E-01
  0.24549E-02 -0.21467E-02 -0.18107E-01
  0.26025E-02 -0.15101E-02 -0.18107E-01
  0.37964E-02  0.93572E-03 -0.18107E-01
  0.39100E-02  0.00000E+00 -0.18107E-01
  0.34621E-02  0.18171E-02 -0.18107E-01
  0.29267E-02  0.25928E-02 -0.18107E-01
  0.22211E-02  0.32179E-02 -0.18107E-01
  0.13865E-02  0.36559E-02 -0.18107E-01
  0.47130E-03  0.38815E-02 -0.18107E-01
 -0.47130E-03  0.38815E-02 -0.18107E-01
 -0.13865E-02  0.36559E-02 -0.18107E-01
 -0.22211E-02  0.32179E-02 -0.18107E-01
 -0.29267E-02  0.25928E-02 -0.18107E-01
 -0.34621E-02  0.18171E-02 -0.18107E-01
 -0.37964E-02  0.93572E-03 -0.18107E-01
 -0.39100E-02 -0.47884E-18 -0.18107E-01
 -0.37964E-02 -0.93572E-03 -0.18107E-01
 -0.34621E-02 -0.18171E-02 -0.18107E-01
 -0.29267E-02 -0.25928E-02 -0.18107E-01
 -0.22211E-02 -0.32179E-02 -0.18107E-01
 -0.13865E-02 -0.36559E-02 -0.18107E-01
 -0.47130E-03 -0.38815E-02 -0.18107E-01
  0.47130E-03 -0.38815E-02 -0.18107E-01
  0.13865E-02 -0.36559E-02 -0.18107E-01
  0.22211E-02 -0.32179E-02 -0.18107E-01
  0.29267E-02 -0.25928E-02 -0.18107E-01
  0.34621E-02 -0.18171E-02 -0.18107E-01
  0.37964E-02 -0.93572E-03 -0.18107E-01
  0.10372E-02  0.67570E-03 -0.17128E-01
  0.17443E-02  0.12341E-02 -0.17128E-01
  0.23171E-02  0.59412E-03 -0.17128E-01
  0.16687E-02 -0.33398E-03 -0.17128E-01
  0.30376E-02  0.15064E-03 -0.17128E-01
  0.27808E-02 -0.67396E-03 -0.17128E-01
  0.12845E-02  0.18421E-02 -0.17128E-01
  0.65016E-03  0.14626E-02 -0.17128E-01
  0.12626E-03  0.30507E-03 -0.17128E-01
 -0.12915E-03  0.11760E-02 -0.17128E-01
  0.94334E-03  0.22754E-02 -0.17128E-01
  0.11310E-02  0.28264E-02 -0.17128E-01
  0.17471E-02  0.24245E-02 -0.17128E-01
  0.40561E-03  0.21686E-02 -0.17128E-01
  0.39770E-03  0.29353E-02 -0.17128E-01
 -0.76480E-03 -0.10040E-02 -0.17128E-01
 -0.86659E-03  0.83015E-04 -0.17128E-01
  0.45895E-03 -0.69955E-03 -0.17128E-01
 -0.18315E-02 -0.71126E-03 -0.17128E-01
 -0.18435E-02  0.83367E-04 -0.17128E-01
 -0.27237E-02 -0.77780E-03 -0.17128E-01
 -0.28014E-02  0.42080E-04 -0.17128E-01
 -0.25372E-02 -0.15192E-02 -0.17128E-01
 -0.19309E-02 -0.13224E-02 -0.17128E-01
 -0.99291E-03  0.99526E-03 -0.17128E-01
 -0.14398E-02 -0.17323E-02 -0.17128E-01
 -0.31474E-03  0.20234E-02 -0.17128E-01
 -0.11051E-02  0.18609E-02 -0.17128E-01
 -0.18843E-02  0.17175E-02 -0.17128E-01
 -0.18706E-02  0.91060E-03 -0.17128E-01
 -0.16009E-03 -0.19801E-02 -0.17128E-01
 -0.94388E-03 -0.23490E-02 -0.17128E-01
  0.78526E-03 -0.17074E-02 -0.17128E-01
  0.17208E-02 -0.14906E-02 -0.17128E-01
  0.32066E-02  0.76539E-03 -0.17128E-01
  0.28045E-02  0.12498E-02 -0.17128E-01
  0.23053E-02  0.18667E-02 -0.17128E-01
 -0.40545E-03  0.28984E-02 -0.17128E-01
 -0.12092E-02  0.27184E-02 -0.17128E-01
 -0.19446E-02  0.24631E-02 -0.17128E-01
 -0.25027E-02  0.22359E-02 -0.17128E-01
 -0.26366E-02  0.16503E-02 -0.17128E-01
 -0.27655E-02  0.87623E-03 -0.17128E-01
 -0.21130E-02 -0.21374E-02 -0.17128E-01
 -0.16089E-02 -0.26932E-02 -0.17128E-01
 -0.11944E-02 -0.31291E-02 -0.17128E-01
 -0.58816E-03 -0.30382E-02 -0.17128E-01
  0.20709E-03 -0.28748E-02 -0.17128E-01
  0.10571E-02 -0.26436E-02 -0.17128E-01
  0.18415E-02 -0.23717E-02 -0.17128E-01
  0.24550E-02 -0.21472E-02 -0.17128E-01
  0.26025E-02 -0.15100E-02 -0.17128E-01
  0.37964E-02  0.93572E-03 -0.17128E-01
  0.39100E-02  0.00000E+00 -0.17128E-01
  0.34621E-02  0.18171E-02 -0.17128E-01
  0.29267E-02  0.25928E-02 -0.17128E-01
  0.22211E-02  0.32179E-02 -0.17128E-01
  0.13865E-02  0.36559E-02 -0.17128E-01
  0.47130E-03  0.38815E-02 -0.17128E-01
 -0.47130E-03  0.38815E-02 -0.17128E-01
 -0.13865E-02  0.36559E-02 -0.17128E-01
 -0.22211E-02  0.32179E-02 -0.17128E-01
 -0.29267E-02  0.25928E-02 -0.17128E-01
 -0.34621E-02  0.18171E-02 -0.17128E-01
 -0.37964E-02  0.93572E-03 -0.17128E-01
 -0.39100E-02 -0.47884E-18 -0.17128E-01
 -0.37964E-02 -0.93572E-03 -0.17128E-01
 -0.34621E-02 -0.18171E-02 -0.17128E-01
 -0.29267E-02 -0.25928E-02 -0.17128E-01
 -0.22211E-02 -0.32179E-02 -0.17128E-01
 -0.13865E-02 -0.36559E-02 -0.17128E-01
 -0.47130E-03 -0.38815E-02 -0.17128E-01
  0.47130E-03 -0.38815E-02 -0.17128E-01
  0.13865E-02 -0.36559E-02 -0.17128E-01
  0.22211E-02 -0.32179E-02 -0.17128E-01
  0.29267E-02 -0.25928E-02 -0.17128E-01
  0.34621E-02 -0.18171E-02 -0.17128E-01
  0.37964E-02 -0.93572E-03 -0.17128E-01
  0.10371E-02  0.67625E-03 -0.16149E-01
  0.17441E-02  0.12348E-02 -0.16149E-01
  0.23169E-02  0.59465E-03 -0.16149E-01
  0.16685E-02 -0.33323E-03 -0.16149E-01
  0.30376E-02  0.15100E-03 -0.16149E-01
  0.27812E-02 -0.67347E-03 -0.16149E-01
  0.12844E-02  0.18423E-02 -0.16149E-01
  0.64992E-03  0.14636E-02 -0.16149E-01
  0.12600E-03  0.30622E-03 -0.16149E-01
 -0.12933E-03  0.11777E-02 -0.16149E-01
  0.94301E-03  0.22755E-02 -0.16149E-01
  0.11306E-02  0.28260E-02 -0.16149E-01
  0.17467E-02  0.24247E-02 -0.16149E-01
  0.40556E-03  0.21687E-02 -0.16149E-01
  0.39769E-03  0.29351E-02 -0.16149E-01
 -0.76515E-03 -0.10042E-02 -0.16149E-01
 -0.86670E-03  0.83825E-04 -0.16149E-01
  0.45850E-03 -0.69882E-03 -0.16149E-01
 -0.18318E-02 -0.71112E-03 -0.16149E-01
 -0.18434E-02  0.83490E-04 -0.16149E-01
 -0.27236E-02 -0.77763E-03 -0.16149E-01
 -0.28011E-02  0.42353E-04 -0.16149E-01
 -0.25374E-02 -0.15192E-02 -0.16149E-01
 -0.19313E-02 -0.13223E-02 -0.16149E-01
 -0.99277E-03  0.99661E-03 -0.16149E-01
 -0.14401E-02 -0.17322E-02 -0.16149E-01
 -0.31454E-03  0.20237E-02 -0.16149E-01
 -0.11047E-02  0.18607E-02 -0.16149E-01
 -0.18842E-02  0.17175E-02 -0.16149E-01
 -0.18705E-02  0.91084E-03 -0.16149E-01
 -0.16036E-03 -0.19801E-02 -0.16149E-01
 -0.94448E-03 -0.23491E-02 -0.16149E-01
  0.78460E-03 -0.17074E-02 -0.16149E-01
  0.17208E-02 -0.14909E-02 -0.16149E-01
  0.32070E-02  0.76640E-03 -0.16149E-01
  0.28045E-02  0.12503E-02 -0.16149E-01
  0.23052E-02  0.18667E-02 -0.16149E-01
 -0.40531E-03  0.28974E-02 -0.16149E-01
 -0.12092E-02  0.27179E-02 -0.16149E-01
 -0.19445E-02  0.24629E-02 -0.16149E-01
 -0.25027E-02  0.22359E-02 -0.16149E-01
 -0.26366E-02  0.16503E-02 -0.16149E-01
 -0.27652E-02  0.87650E-03 -0.16149E-01
 -0.21132E-02 -0.21374E-02 -0.16149E-01
 -0.16090E-02 -0.26933E-02 -0.16149E-01
 -0.11946E-02 -0.31291E-02 -0.16149E-01
 -0.58851E-03 -0.30382E-02 -0.16149E-01
  0.20668E-03 -0.28749E-02 -0.16149E-01
  0.10567E-02 -0.26439E-02 -0.16149E-01
  0.18416E-02 -0.23719E-02 -0.16149E-01
  0.24551E-02 -0.21478E-02 -0.16149E-01
  0.26026E-02 -0.15099E-02 -0.16149E-01
  0.37964E-02  0.93572E-03 -0.16149E-01
  0.39100E-02  0.00000E+00 -0.16149E-01
  0.34621E-02  0.18171E-02 -0.16149E-01
  0.29267E-02  0.25928E-02 -0.16149E-01
  0.22211E-02  0.32179E-02 -0.16149E-01
  0.13865E-02  0.36559E-02 -0.16149E-01
  0.47130E-03  0.38815E-02 -0.16149E-01
 -0.47130E-03  0.38815E-02 -0.16149E-01
 -0.13865E-02  0.36559E-02 -0.16149E-01
 -0.22211E-02  0.32179E-02 -0.16149E-01
 -0.29267E-02  0.25928E-02 -0.16149E-01
 -0.34621E-02  0.18171E-02 -0.16149E-01
 -0.37964E-02  0.93572E-03 -0.16149E-01
 -0.39100E-02 -0.47884E-18 -0.16149E-01
 -0.37964E-02 -0.93572E-03 -0.16149E-01
 -0.34621E-02 -0.18171E-02 -0.16149E-01
 -0.29267E-02 -0.25928E-02 -0.16149E-01
 -0.22211E-02 -0.32179E-02 -0.16149E-01
 -0.13865E-02 -0.36559E-02 -0.16149E-01
 -0.47130E-03 -0.38815E-02 -0.16149E-01
  0.47130E-03 -0.38815E-02 -0.16149E-01
  0.13865E-02 -0.36559E-02 -0.16149E-01
  0.22211E-02 -0.32179E-02 -0.16149E-01
  0.29267E-02 -0.25928E-02 -0.16149E-01
  0.34621E-02 -0.18171E-02 -0.16149E-01
  0.37964E-02 -0.93572E-03 -0.16149E-01
  0.10370E-02  0.67680E-03 -0.15170E-01
  0.17439E-02  0.12354E-02 -0.15170E-01
  0.23168E-02  0.59517E-03 -0.15170E-01
  0.16683E-02 -0.33247E-03 -0.15170E-01
  0.30375E-02  0.15136E-03 -0.15170E-01
  0.27815E-02 -0.67298E-03 -0.15170E-01
  0.12843E-02  0.18425E-02 -0.15170E-01
  0.64967E-03  0.14646E-02 -0.15170E-01
  0.12573E-03  0.30737E-03 -0.15170E-01
 -0.12952E-03  0.11795E-02 -0.15170E-01
  0.94268E-03  0.22757E-02 -0.15170E-01
  0.11303E-02  0.28255E-02 -0.15170E-01
  0.17463E-02  0.24248E-02 -0.15170E-01
  0.40550E-03  0.21687E-02 -0.15170E-01
  0.39767E-03  0.29348E-02 -0.15170E-01
 -0.76551E-03 -0.10043E-02 -0.15170E-01
 -0.86680E-03  0.84634E-04 -0.15170E-01
  0.45806E-03 -0.69810E-03 -0.15170E-01
 -0.18321E-02 -0.71098E-03 -0.15170E-01
 -0.18433E-02  0.83614E-04 -0.15170E-01
 -0.27236E-02 -0.77746E-03 -0.15170E-01
 -0.28009E-02  0.42626E-04 -0.15170E-01
 -0.25375E-02 -0.15191E-02 -0.15170E-01
 -0.19317E-02 -0.13223E-02 -0.15170E-01
 -0.99262E-03  0.99797E-03 -0.15170E-01
 -0.14405E-02 -0.17322E-02 -0.15170E-01
 -0.31434E-03  0.20240E-02 -0.15170E-01
 -0.11044E-02  0.18606E-02 -0.15170E-01
 -0.18842E-02  0.17175E-02 -0.15170E-01
 -0.18704E-02  0.91108E-03 -0.15170E-01
 -0.16064E-03 -0.19802E-02 -0.15170E-01
 -0.94508E-03 -0.23491E-02 -0.15170E-01
  0.78394E-03 -0.17074E-02 -0.15170E-01
  0.17208E-02 -0.14911E-02 -0.15170E-01
  0.32073E-02  0.76740E-03 -0.15170E-01
  0.28045E-02  0.12507E-02 -0.15170E-01
  0.23051E-02  0.18668E-02 -0.15170E-01
 -0.40517E-03  0.28963E-02 -0.15170E-01
 -0.12092E-02  0.27174E-02 -0.15170E-01
 -0.19445E-02  0.24627E-02 -0.15170E-01
 -0.25026E-02  0.22358E-02 -0.15170E-01
 -0.26365E-02  0.16503E-02 -0.15170E-01
 -0.27649E-02  0.87676E-03 -0.15170E-01
 -0.21133E-02 -0.21374E-02 -0.15170E-01
 -0.16090E-02 -0.26933E-02 -0.15170E-01
 -0.11947E-02 -0.31291E-02 -0.15170E-01
 -0.58886E-03 -0.30382E-02 -0.15170E-01
  0.20627E-03 -0.28749E-02 -0.15170E-01
  0.10564E-02 -0.26442E-02 -0.15170E-01
  0.18416E-02 -0.23721E-02 -0.15170E-01
  0.24553E-02 -0.21483E-02 -0.15170E-01
  0.26027E-02 -0.15097E-02 -0.15170E-01
  0.37964E-02  0.93572E-03 -0.15170E-01
  0.39100E-02  0.00000E+00 -0.15170E-01
  0.34621E-02  0.18171E-02 -0.15170E-01
  0.29267E-02  0.25928E-02 -0.15170E-01
  0.22211E-02  0.32179E-02 -0.15170E-01
  0.13865E-02  0.36559E-02 -0.15170E-01
  0.47130E-03  0.38815E-02 -0.15170E-01
 -0.47130E-03  0.38815E-02 -0.15170E-01
 -0.13865E-02  0.36559E-02 -0.15170E-01
 -0.22211E-02  0.32179E-02 -0.15170E-01
 -0.29267E-02  0.25928E-02 -0.15170E-01
 -0.34621E-02  0.18171E-02 -0.15170E-01
 -0.37964E-02  0.93572E-03 -0.15170E-01
 -0.39100E-02 -0.47884E-18 -0.15170E-01
 -0.37964E-02 -0.93572E-03 -0.15170E-01
 -0.34621E-02 -0.18171E-02 -0.15170E-01
 -0.29267E-02 -0.25928E-02 -0.15170E-01
 -0.22211E-02 -0.32179E-02 -0.15170E-01
 -0.13865E-02 -0.36559E-02 -0.15170E-01
 -0.47130E-03 -0.38815E-02 -0.15170E-01
  0.47130E-03 -0.38815E-02 -0.15170E-01
  0.13865E-02 -0.36559E-02 -0.15170E-01
  0.22211E-02 -0.32179E-02 -0.15170E-01
  0.29267E-02 -0.25928E-02 -0.15170E-01
  0.34621E-02 -0.18171E-02 -0.15170E-01
  0.37964E-02 -0.93572E-03 -0.15170E-01
  0.10368E-02  0.67736E-03 -0.14191E-01
  0.17438E-02  0.12361E-02 -0.14191E-01
  0.23167E-02  0.59570E-03 -0.14191E-01
  0.16681E-02 -0.33172E-03 -0.14191E-01
  0.30375E-02  0.15173E-03 -0.14191E-01
  0.27819E-02 -0.67248E-03 -0.14191E-01
  0.12842E-02  0.18427E-02 -0.14191E-01
  0.64943E-03  0.14656E-02 -0.14191E-01
  0.12547E-03  0.30852E-03 -0.14191E-01
 -0.12970E-03  0.11812E-02 -0.14191E-01
  0.94235E-03  0.22758E-02 -0.14191E-01
  0.11300E-02  0.28251E-02 -0.14191E-01
  0.17459E-02  0.24249E-02 -0.14191E-01
  0.40545E-03  0.21688E-02 -0.14191E-01
  0.39766E-03  0.29345E-02 -0.14191E-01
 -0.76586E-03 -0.10044E-02 -0.14191E-01
 -0.86691E-03  0.85443E-04 -0.14191E-01
  0.45761E-03 -0.69737E-03 -0.14191E-01
 -0.18324E-02 -0.71084E-03 -0.14191E-01
 -0.18432E-02  0.83737E-04 -0.14191E-01
 -0.27236E-02 -0.77729E-03 -0.14191E-01
 -0.28006E-02  0.42899E-04 -0.14191E-01
 -0.25377E-02 -0.15191E-02 -0.14191E-01
 -0.19322E-02 -0.13222E-02 -0.14191E-01
 -0.99248E-03  0.99932E-03 -0.14191E-01
 -0.14408E-02 -0.17322E-02 -0.14191E-01
 -0.31414E-03  0.20243E-02 -0.14191E-01
 -0.11040E-02  0.18605E-02 -0.14191E-01
 -0.18841E-02  0.17175E-02 -0.14191E-01
 -0.18703E-02  0.91132E-03 -0.14191E-01
 -0.16091E-03 -0.19802E-02 -0.14191E-01
 -0.94568E-03 -0.23491E-02 -0.14191E-01
  0.78328E-03 -0.17074E-02 -0.14191E-01
  0.17207E-02 -0.14914E-02 -0.14191E-01
  0.32076E-02  0.76841E-03 -0.14191E-01
  0.28044E-02  0.12511E-02 -0.14191E-01
  0.23050E-02  0.18668E-02 -0.14191E-01
 -0.40503E-03  0.28952E-02 -0.14191E-01
 -0.12092E-02  0.27170E-02 -0.14191E-01
 -0.19445E-02  0.24624E-02 -0.14191E-01
 -0.25026E-02  0.22358E-02 -0.14191E-01
 -0.26364E-02  0.16503E-02 -0.14191E-01
 -0.27646E-02  0.87702E-03 -0.14191E-01
 -0.21134E-02 -0.21374E-02 -0.14191E-01
 -0.16091E-02 -0.26933E-02 -0.14191E-01
 -0.11948E-02 -0.31291E-02 -0.14191E-01
 -0.58921E-03 -0.30382E-02 -0.14191E-01
  0.20587E-03 -0.28749E-02 -0.14191E-01
  0.10561E-02 -0.26444E-02 -0.14191E-01
  0.18416E-02 -0.23723E-02 -0.14191E-01
  0.24554E-02 -0.21489E-02 -0.14191E-01
  0.26027E-02 -0.15096E-02 -0.14191E-01
  0.37964E-02  0.93572E-03 -0.14191E-01
  0.39100E-02  0.00000E+00 -0.14191E-01
  0.34621E-02  0.18171E-02 -0.14191E-01
  0.29267E-02  0.25928E-02 -0.14191E-01
  0.22211E-02  0.32179E-02 -0.14191E-01
  0.13865E-02  0.36559E-02 -0.14191E-01
  0.47130E-03  0.38815E-02 -0.14191E-01
 -0.47130E-03  0.38815E-02 -0.14191E-01
 -0.13865E-02  0.36559E-02 -0.14191E-01
 -0.22211E-02  0.32179E-02 -0.14191E-01
 -0.29267E-02  0.25928E-02 -0.14191E-01
 -0.34621E-02  0.18171E-02 -0.14191E-01
 -0.37964E-02  0.93572E-03 -0.14191E-01
 -0.39100E-02 -0.47884E-18 -0.14191E-01
 -0.37964E-02 -0.93572E-03 -0.14191E-01
 -0.34621E-02 -0.18171E-02 -0.14191E-01
 -0.29267E-02 -0.25928E-02 -0.14191E-01
 -0.22211E-02 -0.32179E-02 -0.14191E-01
 -0.13865E-02 -0.36559E-02 -0.14191E-01
 -0.47130E-03 -0.38815E-02 -0.14191E-01
  0.47130E-03 -0.38815E-02 -0.14191E-01
  0.13865E-02 -0.36559E-02 -0.14191E-01
  0.22211E-02 -0.32179E-02 -0.14191E-01
  0.29267E-02 -0.25928E-02 -0.14191E-01
  0.34621E-02 -0.18171E-02 -0.14191E-01
  0.37964E-02 -0.93572E-03 -0.14191E-01
  0.10367E-02  0.67791E-03 -0.13212E-01
  0.17436E-02  0.12368E-02 -0.13212E-01
  0.23166E-02  0.59622E-03 -0.13212E-01
  0.16679E-02 -0.33096E-03 -0.13212E-01
  0.30375E-02  0.15209E-03 -0.13212E-01
  0.27822E-02 -0.67199E-03 -0.13212E-01
  0.12841E-02  0.18429E-02 -0.13212E-01
  0.64918E-03  0.14666E-02 -0.13212E-01
  0.12521E-03  0.30967E-03 -0.13212E-01
 -0.12989E-03  0.11830E-02 -0.13212E-01
  0.94202E-03  0.22759E-02 -0.13212E-01
  0.11296E-02  0.28247E-02 -0.13212E-01
  0.17455E-02  0.24251E-02 -0.13212E-01
  0.40539E-03  0.21688E-02 -0.13212E-01
  0.39764E-03  0.29343E-02 -0.13212E-01
 -0.76621E-03 -0.10046E-02 -0.13212E-01
 -0.86702E-03  0.86253E-04 -0.13212E-01
  0.45716E-03 -0.69665E-03 -0.13212E-01
 -0.18326E-02 -0.71070E-03 -0.13212E-01
 -0.18431E-02  0.83861E-04 -0.13212E-01
 -0.27235E-02 -0.77712E-03 -0.13212E-01
 -0.28003E-02  0.43173E-04 -0.13212E-01
 -0.25379E-02 -0.15190E-02 -0.13212E-01
 -0.19326E-02 -0.13220E-02 -0.13212E-01
 -0.99233E-03  0.10007E-02 -0.13212E-01
 -0.14412E-02 -0.17321E-02 -0.13212E-01
 -0.31394E-03  0.20245E-02 -0.13212E-01
 -0.11037E-02  0.18603E-02 -0.13212E-01
 -0.18841E-02  0.17175E-02 -0.13212E-01
 -0.18701E-02  0.91156E-03 -0.13212E-01
 -0.16119E-03 -0.19802E-02 -0.13212E-01
 -0.94628E-03 -0.23491E-02 -0.13212E-01
  0.78262E-03 -0.17074E-02 -0.13212E-01
  0.17207E-02 -0.14916E-02 -0.13212E-01
  0.32079E-02  0.76941E-03 -0.13212E-01
  0.28044E-02  0.12515E-02 -0.13212E-01
  0.23049E-02  0.18668E-02 -0.13212E-01
 -0.40490E-03  0.28942E-02 -0.13212E-01
 -0.12093E-02  0.27165E-02 -0.13212E-01
 -0.19444E-02  0.24622E-02 -0.13212E-01
 -0.25026E-02  0.22358E-02 -0.13212E-01
 -0.26363E-02  0.16503E-02 -0.13212E-01
 -0.27643E-02  0.87728E-03 -0.13212E-01
 -0.21136E-02 -0.21374E-02 -0.13212E-01
 -0.16091E-02 -0.26933E-02 -0.13212E-01
 -0.11949E-02 -0.31291E-02 -0.13212E-01
 -0.58956E-03 -0.30382E-02 -0.13212E-01
  0.20546E-03 -0.28749E-02 -0.13212E-01
  0.10558E-02 -0.26447E-02 -0.13212E-01
  0.18417E-02 -0.23725E-02 -0.13212E-01
  0.24555E-02 -0.21494E-02 -0.13212E-01
  0.26028E-02 -0.15095E-02 -0.13212E-01
  0.37964E-02  0.93572E-03 -0.13212E-01
  0.39100E-02  0.00000E+00 -0.13212E-01
  0.34621E-02  0.18171E-02 -0.13212E-01
  0.29267E-02  0.25928E-02 -0.13212E-01
  0.22211E-02  0.32179E-02 -0.13212E-01
  0.13865E-02  0.36559E-02 -0.13212E-01
  0.47130E-03  0.38815E-02 -0.13212E-01
 -0.47130E-03  0.38815E-02 -0.13212E-01
 -0.13865E-02  0.36559E-02 -0.13212E-01
 -0.22211E-02  0.32179E-02 -0.13212E-01
 -0.29267E-02  0.25928E-02 -0.13212E-01
 -0.34621E-02  0.18171E-02 -0.13212E-01
 -0.37964E-02  0.93572E-03 -0.13212E-01
 -0.39100E-02 -0.47884E-18 -0.13212E-01
 -0.37964E-02 -0.93572E-03 -0.13212E-01
 -0.34621E-02 -0.18171E-02 -0.13212E-01
 -0.29267E-02 -0.25928E-02 -0.13212E-01
 -0.22211E-02 -0.32179E-02 -0.13212E-01
 -0.13865E-02 -0.36559E-02 -0.13212E-01
 -0.47130E-03 -0.38815E-02 -0.13212E-01
  0.47130E-03 -0.38815E-02 -0.13212E-01
  0.13865E-02 -0.36559E-02 -0.13212E-01
  0.22211E-02 -0.32179E-02 -0.13212E-01
  0.29267E-02 -0.25928E-02 -0.13212E-01
  0.34621E-02 -0.18171E-02 -0.13212E-01
  0.37964E-02 -0.93572E-03 -0.13212E-01
  0.10366E-02  0.67847E-03 -0.12232E-01
  0.17434E-02  0.12374E-02 -0.12232E-01
  0.23164E-02  0.59674E-03 -0.12232E-01
  0.16677E-02 -0.33021E-03 -0.12232E-01
  0.30375E-02  0.15245E-03 -0.12232E-01
  0.27825E-02 -0.67150E-03 -0.12232E-01
  0.12840E-02  0.18430E-02 -0.12232E-01
  0.64894E-03  0.14676E-02 -0.12232E-01
  0.12495E-03  0.31081E-03 -0.12232E-01
 -0.13007E-03  0.11847E-02 -0.12232E-01
  0.94169E-03  0.22761E-02 -0.12232E-01
  0.11293E-02  0.28242E-02 -0.12232E-01
  0.17451E-02  0.24252E-02 -0.12232E-01
  0.40534E-03  0.21688E-02 -0.12232E-01
  0.39762E-03  0.29340E-02 -0.12232E-01
 -0.76657E-03 -0.10047E-02 -0.12232E-01
 -0.86713E-03  0.87062E-04 -0.12232E-01
  0.45671E-03 -0.69592E-03 -0.12232E-01
 -0.18329E-02 -0.71056E-03 -0.12232E-01
 -0.18430E-02  0.83985E-04 -0.12232E-01
 -0.27235E-02 -0.77695E-03 -0.12232E-01
 -0.28001E-02  0.43446E-04 -0.12232E-01
 -0.25380E-02 -0.15190E-02 -0.12232E-01
 -0.19330E-02 -0.13219E-02 -0.12232E-01
 -0.99219E-03  0.10020E-02 -0.12232E-01
 -0.14415E-02 -0.17321E-02 -0.12232E-01
 -0.31374E-03  0.20248E-02 -0.12232E-01
 -0.11033E-02  0.18602E-02 -0.12232E-01
 -0.18840E-02  0.17175E-02 -0.12232E-01
 -0.18700E-02  0.91180E-03 -0.12232E-01
 -0.16146E-03 -0.19803E-02 -0.12232E-01
 -0.94687E-03 -0.23491E-02 -0.12232E-01
  0.78195E-03 -0.17073E-02 -0.12232E-01
  0.17207E-02 -0.14919E-02 -0.12232E-01
  0.32083E-02  0.77042E-03 -0.12232E-01
  0.28044E-02  0.12520E-02 -0.12232E-01
  0.23048E-02  0.18669E-02 -0.12232E-01
 -0.40476E-03  0.28931E-02 -0.12232E-01
 -0.12093E-02  0.27160E-02 -0.12232E-01
 -0.19444E-02  0.24620E-02 -0.12232E-01
 -0.25026E-02  0.22358E-02 -0.12232E-01
 -0.26362E-02  0.16503E-02 -0.12232E-01
 -0.27640E-02  0.87754E-03 -0.12232E-01
 -0.21137E-02 -0.21374E-02 -0.12232E-01
 -0.16091E-02 -0.26933E-02 -0.12232E-01
 -0.11950E-02 -0.31291E-02 -0.12232E-01
 -0.58991E-03 -0.30382E-02 -0.12232E-01
  0.20505E-03 -0.28749E-02 -0.12232E-01
  0.10555E-02 -0.26450E-02 -0.12232E-01
  0.18417E-02 -0.23727E-02 -0.12232E-01
  0.24556E-02 -0.21500E-02 -0.12232E-01
  0.26029E-02 -0.15094E-02 -0.12232E-01
  0.37964E-02  0.93572E-03 -0.12232E-01
  0.39100E-02  0.00000E+00 -0.12232E-01
  0.34621E-02  0.18171E-02 -0.12232E-01
  0.29267E-02  0.25928E-02 -0.12232E-01
  0.22211E-02  0.32179E-02 -0.12232E-01
  0.13865E-02  0.36559E-02 -0.12232E-01
  0.47130E-03  0.38815E-02 -0.12232E-01
 -0.47130E-03  0.38815E-02 -0.12232E-01
 -0.13865E-02  0.36559E-02 -0.12232E-01
 -0.22211E-02  0.32179E-02 -0.12232E-01
 -0.29267E-02  0.25928E-02 -0.12232E-01
 -0.34621E-02  0.18171E-02 -0.12232E-01
 -0.37964E-02  0.93572E-03 -0.12232E-01
 -0.39100E-02  0.39516E-17 -0.12232E-01
 -0.37964E-02 -0.93572E-03 -0.12232E-01
 -0.34621E-02 -0.18171E-02 -0.12232E-01
 -0.29267E-02 -0.25928E-02 -0.12232E-01
 -0.22211E-02 -0.32179E-02 -0.12232E-01
 -0.13865E-02 -0.36559E-02 -0.12232E-01
 -0.47130E-03 -0.38815E-02 -0.12232E-01
  0.47130E-03 -0.38815E-02 -0.12232E-01
  0.13865E-02 -0.36559E-02 -0.12232E-01
  0.22211E-02 -0.32179E-02 -0.12232E-01
  0.29267E-02 -0.25928E-02 -0.12232E-01
  0.34621E-02 -0.18171E-02 -0.12232E-01
  0.37964E-02 -0.93572E-03 -0.12232E-01
  0.10365E-02  0.67902E-03 -0.11253E-01
  0.17432E-02  0.12381E-02 -0.11253E-01
  0.23163E-02  0.59727E-03 -0.11253E-01
  0.16675E-02 -0.32945E-03 -0.11253E-01
  0.30374E-02  0.15282E-03 -0.11253E-01
  0.27829E-02 -0.67100E-03 -0.11253E-01
  0.12839E-02  0.18432E-02 -0.11253E-01
  0.64869E-03  0.14686E-02 -0.11253E-01
  0.12468E-03  0.31196E-03 -0.11253E-01
 -0.13026E-03  0.11865E-02 -0.11253E-01
  0.94135E-03  0.22762E-02 -0.11253E-01
  0.11289E-02  0.28238E-02 -0.11253E-01
  0.17447E-02  0.24254E-02 -0.11253E-01
  0.40528E-03  0.21688E-02 -0.11253E-01
  0.39760E-03  0.29337E-02 -0.11253E-01
 -0.76692E-03 -0.10049E-02 -0.11253E-01
 -0.86724E-03  0.87871E-04 -0.11253E-01
  0.45626E-03 -0.69519E-03 -0.11253E-01
 -0.18332E-02 -0.71042E-03 -0.11253E-01
 -0.18430E-02  0.84108E-04 -0.11253E-01
 -0.27235E-02 -0.77678E-03 -0.11253E-01
 -0.27998E-02  0.43720E-04 -0.11253E-01
 -0.25382E-02 -0.15189E-02 -0.11253E-01
 -0.19334E-02 -0.13219E-02 -0.11253E-01
 -0.99205E-03  0.10034E-02 -0.11253E-01
 -0.14419E-02 -0.17320E-02 -0.11253E-01
 -0.31354E-03  0.20251E-02 -0.11253E-01
 -0.11030E-02  0.18601E-02 -0.11253E-01
 -0.18840E-02  0.17175E-02 -0.11253E-01
 -0.18699E-02  0.91204E-03 -0.11253E-01
 -0.16174E-03 -0.19803E-02 -0.11253E-01
 -0.94747E-03 -0.23492E-02 -0.11253E-01
  0.78129E-03 -0.17073E-02 -0.11253E-01
  0.17206E-02 -0.14921E-02 -0.11253E-01
  0.32086E-02  0.77142E-03 -0.11253E-01
  0.28044E-02  0.12524E-02 -0.11253E-01
  0.23047E-02  0.18669E-02 -0.11253E-01
 -0.40462E-03  0.28920E-02 -0.11253E-01
 -0.12093E-02  0.27155E-02 -0.11253E-01
 -0.19444E-02  0.24618E-02 -0.11253E-01
 -0.25025E-02  0.22358E-02 -0.11253E-01
 -0.26361E-02  0.16503E-02 -0.11253E-01
 -0.27637E-02  0.87781E-03 -0.11253E-01
 -0.21139E-02 -0.21374E-02 -0.11253E-01
 -0.16092E-02 -0.26934E-02 -0.11253E-01
 -0.11951E-02 -0.31291E-02 -0.11253E-01
 -0.59025E-03 -0.30382E-02 -0.11253E-01
  0.20465E-03 -0.28749E-02 -0.11253E-01
  0.10552E-02 -0.26452E-02 -0.11253E-01
  0.18418E-02 -0.23729E-02 -0.11253E-01
  0.24558E-02 -0.21505E-02 -0.11253E-01
  0.26030E-02 -0.15093E-02 -0.11253E-01
  0.37964E-02  0.93572E-03 -0.11253E-01
  0.39100E-02  0.00000E+00 -0.11253E-01
  0.34621E-02  0.18171E-02 -0.11253E-01
  0.29267E-02  0.25928E-02 -0.11253E-01
  0.22211E-02  0.32179E-02 -0.11253E-01
  0.13865E-02  0.36559E-02 -0.11253E-01
  0.47130E-03  0.38815E-02 -0.11253E-01
 -0.47130E-03  0.38815E-02 -0.11253E-01
 -0.13865E-02  0.36559E-02 -0.11253E-01
 -0.22211E-02  0.32179E-02 -0.11253E-01
 -0.29267E-02  0.25928E-02 -0.11253E-01
 -0.34621E-02  0.18171E-02 -0.11253E-01
 -0.37964E-02  0.93572E-03 -0.11253E-01
 -0.39100E-02 -0.47884E-18 -0.11253E-01
 -0.37964E-02 -0.93572E-03 -0.11253E-01
 -0.34621E-02 -0.18171E-02 -0.11253E-01
 -0.29267E-02 -0.25928E-02 -0.11253E-01
 -0.22211E-02 -0.32179E-02 -0.11253E-01
 -0.13865E-02 -0.36559E-02 -0.11253E-01
 -0.47130E-03 -0.38815E-02 -0.11253E-01
  0.47130E-03 -0.38815E-02 -0.11253E-01
  0.13865E-02 -0.36559E-02 -0.11253E-01
  0.22211E-02 -0.32179E-02 -0.11253E-01
  0.29267E-02 -0.25928E-02 -0.11253E-01
  0.34621E-02 -0.18171E-02 -0.11253E-01
  0.37964E-02 -0.93572E-03 -0.11253E-01
  0.10364E-02  0.67958E-03 -0.10274E-01
  0.17430E-02  0.12387E-02 -0.10274E-01
  0.23162E-02  0.59779E-03 -0.10274E-01
  0.16672E-02 -0.32870E-03 -0.10274E-01
  0.30374E-02  0.15318E-03 -0.10274E-01
  0.27832E-02 -0.67051E-03 -0.10274E-01
  0.12838E-02  0.18434E-02 -0.10274E-01
  0.64845E-03  0.14696E-02 -0.10274E-01
  0.12442E-03  0.31311E-03 -0.10274E-01
 -0.13044E-03  0.11882E-02 -0.10274E-01
  0.94102E-03  0.22763E-02 -0.10274E-01
  0.11286E-02  0.28233E-02 -0.10274E-01
  0.17443E-02  0.24255E-02 -0.10274E-01
  0.40523E-03  0.21689E-02 -0.10274E-01
  0.39759E-03  0.29335E-02 -0.10274E-01
 -0.76727E-03 -0.10050E-02 -0.10274E-01
 -0.86735E-03  0.88681E-04 -0.10274E-01
  0.45582E-03 -0.69447E-03 -0.10274E-01
 -0.18335E-02 -0.71028E-03 -0.10274E-01
 -0.18429E-02  0.84232E-04 -0.10274E-01
 -0.27235E-02 -0.77661E-03 -0.10274E-01
 -0.27995E-02  0.43993E-04 -0.10274E-01
 -0.25383E-02 -0.15189E-02 -0.10274E-01
 -0.19339E-02 -0.13218E-02 -0.10274E-01
 -0.99190E-03  0.10048E-02 -0.10274E-01
 -0.14422E-02 -0.17320E-02 -0.10274E-01
 -0.31334E-03  0.20254E-02 -0.10274E-01
 -0.11026E-02  0.18599E-02 -0.10274E-01
 -0.18839E-02  0.17175E-02 -0.10274E-01
 -0.18697E-02  0.91228E-03 -0.10274E-01
 -0.16201E-03 -0.19803E-02 -0.10274E-01
 -0.94807E-03 -0.23492E-02 -0.10274E-01
  0.78063E-03 -0.17073E-02 -0.10274E-01
  0.17206E-02 -0.14923E-02 -0.10274E-01
  0.32089E-02  0.77243E-03 -0.10274E-01
  0.28043E-02  0.12528E-02 -0.10274E-01
  0.23046E-02  0.18670E-02 -0.10274E-01
 -0.40448E-03  0.28910E-02 -0.10274E-01
 -0.12093E-02  0.27151E-02 -0.10274E-01
 -0.19443E-02  0.24615E-02 -0.10274E-01
 -0.25025E-02  0.22358E-02 -0.10274E-01
 -0.26360E-02  0.16503E-02 -0.10274E-01
 -0.27633E-02  0.87807E-03 -0.10274E-01
 -0.21140E-02 -0.21374E-02 -0.10274E-01
 -0.16092E-02 -0.26934E-02 -0.10274E-01
 -0.11953E-02 -0.31291E-02 -0.10274E-01
 -0.59060E-03 -0.30382E-02 -0.10274E-01
  0.20424E-03 -0.28749E-02 -0.10274E-01
  0.10549E-02 -0.26455E-02 -0.10274E-01
  0.18418E-02 -0.23732E-02 -0.10274E-01
  0.24559E-02 -0.21511E-02 -0.10274E-01
  0.26030E-02 -0.15092E-02 -0.10274E-01
  0.37964E-02  0.93572E-03 -0.10274E-01
  0.39100E-02  0.00000E+00 -0.10274E-01
  0.34621E-02  0.18171E-02 -0.10274E-01
  0.29267E-02  0.25928E-02 -0.10274E-01
  0.22211E-02  0.32179E-02 -0.10274E-01
  0.13865E-02  0.36559E-02 -0.10274E-01
  0.47130E-03  0.38815E-02 -0.10274E-01
 -0.47130E-03  0.38815E-02 -0.10274E-01
 -0.13865E-02  0.36559E-02 -0.10274E-01
 -0.22211E-02  0.32179E-02 -0.10274E-01
 -0.29267E-02  0.25928E-02 -0.10274E-01
 -0.34621E-02  0.18171E-02 -0.10274E-01
 -0.37964E-02  0.93572E-03 -0.10274E-01
 -0.39100E-02  0.22152E-17 -0.10274E-01
 -0.37964E-02 -0.93572E-03 -0.10274E-01
 -0.34621E-02 -0.18171E-02 -0.10274E-01
 -0.29267E-02 -0.25928E-02 -0.10274E-01
 -0.22211E-02 -0.32179E-02 -0.10274E-01
 -0.13865E-02 -0.36559E-02 -0.10274E-01
 -0.47130E-03 -0.38815E-02 -0.10274E-01
  0.47130E-03 -0.38815E-02 -0.10274E-01
  0.13865E-02 -0.36559E-02 -0.10274E-01
  0.22211E-02 -0.32179E-02 -0.10274E-01
  0.29267E-02 -0.25928E-02 -0.10274E-01
  0.34621E-02 -0.18171E-02 -0.10274E-01
  0.37964E-02 -0.93572E-03 -0.10274E-01
  0.10363E-02  0.68013E-03 -0.92950E-02
  0.17429E-02  0.12394E-02 -0.92950E-02
  0.23161E-02  0.59831E-03 -0.92950E-02
  0.16670E-02 -0.32794E-03 -0.92950E-02
  0.30374E-02  0.15354E-03 -0.92950E-02
  0.27836E-02 -0.67002E-03 -0.92950E-02
  0.12837E-02  0.18436E-02 -0.92950E-02
  0.64820E-03  0.14706E-02 -0.92950E-02
  0.12416E-03  0.31426E-03 -0.92950E-02
 -0.13063E-03  0.11900E-02 -0.92950E-02
  0.94069E-03  0.22765E-02 -0.92950E-02
  0.11282E-02  0.28229E-02 -0.92950E-02
  0.17439E-02  0.24257E-02 -0.92950E-02
  0.40518E-03  0.21689E-02 -0.92950E-02
  0.39757E-03  0.29332E-02 -0.92950E-02
 -0.76763E-03 -0.10051E-02 -0.92950E-02
 -0.86746E-03  0.89490E-04 -0.92950E-02
  0.45537E-03 -0.69374E-03 -0.92950E-02
 -0.18338E-02 -0.71013E-03 -0.92950E-02
 -0.18428E-02  0.84355E-04 -0.92950E-02
 -0.27234E-02 -0.77644E-03 -0.92950E-02
 -0.27992E-02  0.44266E-04 -0.92950E-02
 -0.25385E-02 -0.15188E-02 -0.92950E-02
 -0.19343E-02 -0.13216E-02 -0.92950E-02
 -0.99176E-03  0.10061E-02 -0.92950E-02
 -0.14425E-02 -0.17320E-02 -0.92950E-02
 -0.31314E-03  0.20257E-02 -0.92950E-02
 -0.11023E-02  0.18598E-02 -0.92950E-02
 -0.18839E-02  0.17175E-02 -0.92950E-02
 -0.18696E-02  0.91252E-03 -0.92950E-02
 -0.16229E-03 -0.19803E-02 -0.92950E-02
 -0.94867E-03 -0.23492E-02 -0.92950E-02
  0.77997E-03 -0.17073E-02 -0.92950E-02
  0.17205E-02 -0.14926E-02 -0.92950E-02
  0.32092E-02  0.77343E-03 -0.92950E-02
  0.28043E-02  0.12533E-02 -0.92950E-02
  0.23044E-02  0.18670E-02 -0.92950E-02
 -0.40434E-03  0.28899E-02 -0.92950E-02
 -0.12093E-02  0.27146E-02 -0.92950E-02
 -0.19443E-02  0.24613E-02 -0.92950E-02
 -0.25025E-02  0.22358E-02 -0.92950E-02
 -0.26359E-02  0.16503E-02 -0.92950E-02
 -0.27630E-02  0.87833E-03 -0.92950E-02
 -0.21141E-02 -0.21374E-02 -0.92950E-02
 -0.16093E-02 -0.26934E-02 -0.92950E-02
 -0.11954E-02 -0.31291E-02 -0.92950E-02
 -0.59095E-03 -0.30382E-02 -0.92950E-02
  0.20384E-03 -0.28750E-02 -0.92950E-02
  0.10546E-02 -0.26458E-02 -0.92950E-02
  0.18419E-02 -0.23734E-02 -0.92950E-02
  0.24560E-02 -0.21516E-02 -0.92950E-02
  0.26031E-02 -0.15091E-02 -0.92950E-02
  0.37964E-02  0.93572E-03 -0.92950E-02
  0.39100E-02  0.00000E+00 -0.92950E-02
  0.34621E-02  0.18171E-02 -0.92950E-02
  0.29267E-02  0.25928E-02 -0.92950E-02
  0.22211E-02  0.32179E-02 -0.92950E-02
  0.13865E-02  0.36559E-02 -0.92950E-02
  0.47130E-03  0.38815E-02 -0.92950E-02
 -0.47130E-03  0.38815E-02 -0.92950E-02
 -0.13865E-02  0.36559E-02 -0.92950E-02
 -0.22211E-02  0.32179E-02 -0.92950E-02
 -0.29267E-02  0.25928E-02 -0.92950E-02
 -0.34621E-02  0.18171E-02 -0.92950E-02
 -0.37964E-02  0.93572E-03 -0.92950E-02
 -0.39100E-02 -0.47884E-18 -0.92950E-02
 -0.37964E-02 -0.93572E-03 -0.92950E-02
 -0.34621E-02 -0.18171E-02 -0.92950E-02
 -0.29267E-02 -0.25928E-02 -0.92950E-02
 -0.22211E-02 -0.32179E-02 -0.92950E-02
 -0.13865E-02 -0.36559E-02 -0.92950E-02
 -0.47130E-03 -0.38815E-02 -0.92950E-02
  0.47130E-03 -0.38815E-02 -0.92950E-02
  0.13865E-02 -0.36559E-02 -0.92950E-02
  0.22211E-02 -0.32179E-02 -0.92950E-02
  0.29267E-02 -0.25928E-02 -0.92950E-02
  0.34621E-02 -0.18171E-02 -0.92950E-02
  0.37964E-02 -0.93572E-03 -0.92950E-02
  0.10362E-02  0.68068E-03 -0.83158E-02
  0.17427E-02  0.12401E-02 -0.83158E-02
  0.23160E-02  0.59884E-03 -0.83158E-02
  0.16668E-02 -0.32719E-03 -0.83158E-02
  0.30373E-02  0.15391E-03 -0.83158E-02
  0.27839E-02 -0.66953E-03 -0.83158E-02
  0.12836E-02  0.18438E-02 -0.83158E-02
  0.64796E-03  0.14716E-02 -0.83158E-02
  0.12390E-03  0.31541E-03 -0.83158E-02
 -0.13082E-03  0.11917E-02 -0.83158E-02
  0.94036E-03  0.22766E-02 -0.83158E-02
  0.11279E-02  0.28225E-02 -0.83158E-02
  0.17435E-02  0.24258E-02 -0.83158E-02
  0.40512E-03  0.21690E-02 -0.83158E-02
  0.39755E-03  0.29330E-02 -0.83158E-02
 -0.76798E-03 -0.10053E-02 -0.83158E-02
 -0.86756E-03  0.90299E-04 -0.83158E-02
  0.45492E-03 -0.69302E-03 -0.83158E-02
 -0.18341E-02 -0.70999E-03 -0.83158E-02
 -0.18427E-02  0.84479E-04 -0.83158E-02
 -0.27234E-02 -0.77627E-03 -0.83158E-02
 -0.27990E-02  0.44540E-04 -0.83158E-02
 -0.25386E-02 -0.15188E-02 -0.83158E-02
 -0.19347E-02 -0.13215E-02 -0.83158E-02
 -0.99161E-03  0.10075E-02 -0.83158E-02
 -0.14429E-02 -0.17319E-02 -0.83158E-02
 -0.31294E-03  0.20260E-02 -0.83158E-02
 -0.11019E-02  0.18597E-02 -0.83158E-02
 -0.18838E-02  0.17175E-02 -0.83158E-02
 -0.18695E-02  0.91276E-03 -0.83158E-02
 -0.16256E-03 -0.19804E-02 -0.83158E-02
 -0.94927E-03 -0.23493E-02 -0.83158E-02
  0.77931E-03 -0.17073E-02 -0.83158E-02
  0.17205E-02 -0.14928E-02 -0.83158E-02
  0.32096E-02  0.77444E-03 -0.83158E-02
  0.28043E-02  0.12537E-02 -0.83158E-02
  0.23043E-02  0.18670E-02 -0.83158E-02
 -0.40420E-03  0.28888E-02 -0.83158E-02
 -0.12093E-02  0.27141E-02 -0.83158E-02
 -0.19443E-02  0.24611E-02 -0.83158E-02
 -0.25024E-02  0.22358E-02 -0.83158E-02
 -0.26358E-02  0.16503E-02 -0.83158E-02
 -0.27627E-02  0.87859E-03 -0.83158E-02
 -0.21143E-02 -0.21374E-02 -0.83158E-02
 -0.16093E-02 -0.26934E-02 -0.83158E-02
 -0.11955E-02 -0.31291E-02 -0.83158E-02
 -0.59130E-03 -0.30382E-02 -0.83158E-02
  0.20343E-03 -0.28750E-02 -0.83158E-02
  0.10543E-02 -0.26460E-02 -0.83158E-02
  0.18419E-02 -0.23736E-02 -0.83158E-02
  0.24561E-02 -0.21521E-02 -0.83158E-02
  0.26032E-02 -0.15090E-02 -0.83158E-02
  0.37964E-02  0.93572E-03 -0.83158E-02
  0.39100E-02  0.00000E+00 -0.83158E-02
  0.34621E-02  0.18171E-02 -0.83158E-02
  0.29267E-02  0.25928E-02 -0.83158E-02
  0.22211E-02  0.32179E-02 -0.83158E-02
  0.13865E-02  0.36559E-02 -0.83158E-02
  0.47130E-03  0.38815E-02 -0.83158E-02
 -0.47130E-03  0.38815E-02 -0.83158E-02
 -0.13865E-02  0.36559E-02 -0.83158E-02
 -0.22211E-02  0.32179E-02 -0.83158E-02
 -0.29267E-02  0.25928E-02 -0.83158E-02
 -0.34621E-02  0.18171E-02 -0.83158E-02
 -0.37964E-02  0.93572E-03 -0.83158E-02
 -0.39100E-02  0.22152E-17 -0.83158E-02
 -0.37964E-02 -0.93572E-03 -0.83158E-02
 -0.34621E-02 -0.18171E-02 -0.83158E-02
 -0.29267E-02 -0.25928E-02 -0.83158E-02
 -0.22211E-02 -0.32179E-02 -0.83158E-02
 -0.13865E-02 -0.36559E-02 -0.83158E-02
 -0.47130E-03 -0.38815E-02 -0.83158E-02
  0.47130E-03 -0.38815E-02 -0.83158E-02
  0.13865E-02 -0.36559E-02 -0.83158E-02
  0.22211E-02 -0.32179E-02 -0.83158E-02
  0.29267E-02 -0.25928E-02 -0.83158E-02
  0.34621E-02 -0.18171E-02 -0.83158E-02
  0.37964E-02 -0.93572E-03 -0.83158E-02
  0.10360E-02  0.68124E-03 -0.73366E-02
  0.17425E-02  0.12407E-02 -0.73366E-02
  0.23158E-02  0.59936E-03 -0.73366E-02
  0.16666E-02 -0.32643E-03 -0.73366E-02
  0.30373E-02  0.15427E-03 -0.73366E-02
  0.27842E-02 -0.66903E-03 -0.73366E-02
  0.12835E-02  0.18440E-02 -0.73366E-02
  0.64771E-03  0.14727E-02 -0.73366E-02
  0.12363E-03  0.31656E-03 -0.73366E-02
 -0.13100E-03  0.11935E-02 -0.73366E-02
  0.94003E-03  0.22767E-02 -0.73366E-02
  0.11276E-02  0.28220E-02 -0.73366E-02
  0.17432E-02  0.24260E-02 -0.73366E-02
  0.40507E-03  0.21690E-02 -0.73366E-02
  0.39754E-03  0.29327E-02 -0.73366E-02
 -0.76834E-03 -0.10054E-02 -0.73366E-02
 -0.86767E-03  0.91108E-04 -0.73366E-02
  0.45447E-03 -0.69229E-03 -0.73366E-02
 -0.18344E-02 -0.70985E-03 -0.73366E-02
 -0.18426E-02  0.84602E-04 -0.73366E-02
 -0.27234E-02 -0.77610E-03 -0.73366E-02
 -0.27987E-02  0.44813E-04 -0.73366E-02
 -0.25388E-02 -0.15187E-02 -0.73366E-02
 -0.19352E-02 -0.13215E-02 -0.73366E-02
 -0.99147E-03  0.10088E-02 -0.73366E-02
 -0.14433E-02 -0.17319E-02 -0.73366E-02
 -0.31274E-03  0.20262E-02 -0.73366E-02
 -0.11016E-02  0.18595E-02 -0.73366E-02
 -0.18838E-02  0.17175E-02 -0.73366E-02
 -0.18694E-02  0.91300E-03 -0.73366E-02
 -0.16284E-03 -0.19804E-02 -0.73366E-02
 -0.94986E-03 -0.23493E-02 -0.73366E-02
  0.77865E-03 -0.17073E-02 -0.73366E-02
  0.17205E-02 -0.14931E-02 -0.73366E-02
  0.32099E-02  0.77544E-03 -0.73366E-02
  0.28042E-02  0.12541E-02 -0.73366E-02
  0.23042E-02  0.18671E-02 -0.73366E-02
 -0.40407E-03  0.28877E-02 -0.73366E-02
 -0.12093E-02  0.27137E-02 -0.73366E-02
 -0.19442E-02  0.24609E-02 -0.73366E-02
 -0.25024E-02  0.22358E-02 -0.73366E-02
 -0.26358E-02  0.16503E-02 -0.73366E-02
 -0.27624E-02  0.87885E-03 -0.73366E-02
 -0.21144E-02 -0.21374E-02 -0.73366E-02
 -0.16094E-02 -0.26934E-02 -0.73366E-02
 -0.11956E-02 -0.31291E-02 -0.73366E-02
 -0.59165E-03 -0.30382E-02 -0.73366E-02
  0.20302E-03 -0.28750E-02 -0.73366E-02
  0.10540E-02 -0.26463E-02 -0.73366E-02
  0.18419E-02 -0.23738E-02 -0.73366E-02
  0.24563E-02 -0.21527E-02 -0.73366E-02
  0.26033E-02 -0.15088E-02 -0.73366E-02
  0.37964E-02  0.93572E-03 -0.73366E-02
  0.39100E-02  0.00000E+00 -0.73366E-02
  0.34621E-02  0.18171E-02 -0.73366E-02
  0.29267E-02  0.25928E-02 -0.73366E-02
  0.22211E-02  0.32179E-02 -0.73366E-02
  0.13865E-02  0.36559E-02 -0.73366E-02
  0.47130E-03  0.38815E-02 -0.73366E-02
 -0.47130E-03  0.38815E-02 -0.73366E-02
 -0.13865E-02  0.36559E-02 -0.73366E-02
 -0.22211E-02  0.32179E-02 -0.73366E-02
 -0.29267E-02  0.25928E-02 -0.73366E-02
 -0.34621E-02  0.18171E-02 -0.73366E-02
 -0.37964E-02  0.93572E-03 -0.73366E-02
 -0.39100E-02 -0.47884E-18 -0.73366E-02
 -0.37964E-02 -0.93572E-03 -0.73366E-02
 -0.34621E-02 -0.18171E-02 -0.73366E-02
 -0.29267E-02 -0.25928E-02 -0.73366E-02
 -0.22211E-02 -0.32179E-02 -0.73366E-02
 -0.13865E-02 -0.36559E-02 -0.73366E-02
 -0.47130E-03 -0.38815E-02 -0.73366E-02
  0.47130E-03 -0.38815E-02 -0.73366E-02
  0.13865E-02 -0.36559E-02 -0.73366E-02
  0.22211E-02 -0.32179E-02 -0.73366E-02
  0.29267E-02 -0.25928E-02 -0.73366E-02
  0.34621E-02 -0.18171E-02 -0.73366E-02
  0.37964E-02 -0.93572E-03 -0.73366E-02
  0.10359E-02  0.68179E-03 -0.63575E-02
  0.17423E-02  0.12414E-02 -0.63575E-02
  0.23157E-02  0.59988E-03 -0.63575E-02
  0.16664E-02 -0.32568E-03 -0.63575E-02
  0.30373E-02  0.15463E-03 -0.63575E-02
  0.27846E-02 -0.66854E-03 -0.63575E-02
  0.12834E-02  0.18442E-02 -0.63575E-02
  0.64747E-03  0.14736E-02 -0.63575E-02
  0.12337E-03  0.31770E-03 -0.63575E-02
 -0.13118E-03  0.11952E-02 -0.63575E-02
  0.93970E-03  0.22768E-02 -0.63575E-02
  0.11272E-02  0.28216E-02 -0.63575E-02
  0.17428E-02  0.24261E-02 -0.63575E-02
  0.40501E-03  0.21690E-02 -0.63575E-02
  0.39752E-03  0.29324E-02 -0.63575E-02
 -0.76869E-03 -0.10056E-02 -0.63575E-02
 -0.86778E-03  0.91918E-04 -0.63575E-02
  0.45402E-03 -0.69156E-03 -0.63575E-02
 -0.18347E-02 -0.70971E-03 -0.63575E-02
 -0.18425E-02  0.84726E-04 -0.63575E-02
 -0.27234E-02 -0.77593E-03 -0.63575E-02
 -0.27984E-02  0.45086E-04 -0.63575E-02
 -0.25389E-02 -0.15187E-02 -0.63575E-02
 -0.19356E-02 -0.13213E-02 -0.63575E-02
 -0.99133E-03  0.10102E-02 -0.63575E-02
 -0.14436E-02 -0.17318E-02 -0.63575E-02
 -0.31254E-03  0.20265E-02 -0.63575E-02
 -0.11013E-02  0.18594E-02 -0.63575E-02
 -0.18837E-02  0.17175E-02 -0.63575E-02
 -0.18692E-02  0.91324E-03 -0.63575E-02
 -0.16311E-03 -0.19804E-02 -0.63575E-02
 -0.95046E-03 -0.23493E-02 -0.63575E-02
  0.77799E-03 -0.17073E-02 -0.63575E-02
  0.17204E-02 -0.14933E-02 -0.63575E-02
  0.32102E-02  0.77645E-03 -0.63575E-02
  0.28042E-02  0.12545E-02 -0.63575E-02
  0.23041E-02  0.18671E-02 -0.63575E-02
 -0.40393E-03  0.28867E-02 -0.63575E-02
 -0.12093E-02  0.27132E-02 -0.63575E-02
 -0.19442E-02  0.24606E-02 -0.63575E-02
 -0.25024E-02  0.22358E-02 -0.63575E-02
 -0.26357E-02  0.16503E-02 -0.63575E-02
 -0.27621E-02  0.87912E-03 -0.63575E-02
 -0.21146E-02 -0.21374E-02 -0.63575E-02
 -0.16094E-02 -0.26935E-02 -0.63575E-02
 -0.11957E-02 -0.31291E-02 -0.63575E-02
 -0.59200E-03 -0.30381E-02 -0.63575E-02
  0.20262E-03 -0.28750E-02 -0.63575E-02
  0.10536E-02 -0.26466E-02 -0.63575E-02
  0.18420E-02 -0.23740E-02 -0.63575E-02
  0.24564E-02 -0.21533E-02 -0.63575E-02
  0.26033E-02 -0.15087E-02 -0.63575E-02
  0.37964E-02  0.93572E-03 -0.63575E-02
  0.39100E-02  0.00000E+00 -0.63575E-02
  0.34621E-02  0.18171E-02 -0.63575E-02
  0.29267E-02  0.25928E-02 -0.63575E-02
  0.22211E-02  0.32179E-02 -0.63575E-02
  0.13865E-02  0.36559E-02 -0.63575E-02
  0.47130E-03  0.38815E-02 -0.63575E-02
 -0.47130E-03  0.38815E-02 -0.63575E-02
 -0.13865E-02  0.36559E-02 -0.63575E-02
 -0.22211E-02  0.32179E-02 -0.63575E-02
 -0.29267E-02  0.25928E-02 -0.63575E-02
 -0.34621E-02  0.18171E-02 -0.63575E-02
 -0.37964E-02  0.93572E-03 -0.63575E-02
 -0.39100E-02 -0.47884E-18 -0.63575E-02
 -0.37964E-02 -0.93572E-03 -0.63575E-02
 -0.34621E-02 -0.18171E-02 -0.63575E-02
 -0.29267E-02 -0.25928E-02 -0.63575E-02
 -0.22211E-02 -0.32179E-02 -0.63575E-02
 -0.13865E-02 -0.36559E-02 -0.63575E-02
 -0.47130E-03 -0.38815E-02 -0.63575E-02
  0.47130E-03 -0.38815E-02 -0.63575E-02
  0.13865E-02 -0.36559E-02 -0.63575E-02
  0.22211E-02 -0.32179E-02 -0.63575E-02
  0.29267E-02 -0.25928E-02 -0.63575E-02
  0.34621E-02 -0.18171E-02 -0.63575E-02
  0.37964E-02 -0.93572E-03 -0.63575E-02
  0.10358E-02  0.68235E-03 -0.53783E-02
  0.17422E-02  0.12421E-02 -0.53783E-02
  0.23156E-02  0.60041E-03 -0.53783E-02
  0.16662E-02 -0.32493E-03 -0.53783E-02
  0.30373E-02  0.15500E-03 -0.53783E-02
  0.27849E-02 -0.66805E-03 -0.53783E-02
  0.12833E-02  0.18444E-02 -0.53783E-02
  0.64722E-03  0.14747E-02 -0.53783E-02
  0.12311E-03  0.31885E-03 -0.53783E-02
 -0.13137E-03  0.11970E-02 -0.53783E-02
  0.93937E-03  0.22770E-02 -0.53783E-02
  0.11269E-02  0.28211E-02 -0.53783E-02
  0.17424E-02  0.24262E-02 -0.53783E-02
  0.40496E-03  0.21691E-02 -0.53783E-02
  0.39750E-03  0.29322E-02 -0.53783E-02
 -0.76904E-03 -0.10057E-02 -0.53783E-02
 -0.86789E-03  0.92727E-04 -0.53783E-02
  0.45358E-03 -0.69084E-03 -0.53783E-02
 -0.18350E-02 -0.70957E-03 -0.53783E-02
 -0.18424E-02  0.84849E-04 -0.53783E-02
 -0.27233E-02 -0.77576E-03 -0.53783E-02
 -0.27981E-02  0.45359E-04 -0.53783E-02
 -0.25391E-02 -0.15186E-02 -0.53783E-02
 -0.19360E-02 -0.13212E-02 -0.53783E-02
 -0.99118E-03  0.10115E-02 -0.53783E-02
 -0.14440E-02 -0.17318E-02 -0.53783E-02
 -0.31234E-03  0.20268E-02 -0.53783E-02
 -0.11009E-02  0.18593E-02 -0.53783E-02
 -0.18836E-02  0.17175E-02 -0.53783E-02
 -0.18691E-02  0.91347E-03 -0.53783E-02
 -0.16339E-03 -0.19804E-02 -0.53783E-02
 -0.95106E-03 -0.23493E-02 -0.53783E-02
  0.77733E-03 -0.17073E-02 -0.53783E-02
  0.17204E-02 -0.14936E-02 -0.53783E-02
  0.32105E-02  0.77745E-03 -0.53783E-02
  0.28042E-02  0.12550E-02 -0.53783E-02
  0.23040E-02  0.18671E-02 -0.53783E-02
 -0.40379E-03  0.28856E-02 -0.53783E-02
 -0.12093E-02  0.27127E-02 -0.53783E-02
 -0.19441E-02  0.24604E-02 -0.53783E-02
 -0.25023E-02  0.22358E-02 -0.53783E-02
 -0.26356E-02  0.16503E-02 -0.53783E-02
 -0.27618E-02  0.87938E-03 -0.53783E-02
 -0.21147E-02 -0.21374E-02 -0.53783E-02
 -0.16094E-02 -0.26935E-02 -0.53783E-02
 -0.11958E-02 -0.31291E-02 -0.53783E-02
 -0.59235E-03 -0.30381E-02 -0.53783E-02
  0.20221E-03 -0.28750E-02 -0.53783E-02
  0.10533E-02 -0.26468E-02 -0.53783E-02
  0.18420E-02 -0.23742E-02 -0.53783E-02
  0.24565E-02 -0.21538E-02 -0.53783E-02
  0.26034E-02 -0.15086E-02 -0.53783E-02
  0.37964E-02  0.93572E-03 -0.53783E-02
  0.39100E-02  0.00000E+00 -0.53783E-02
  0.34621E-02  0.18171E-02 -0.53783E-02
  0.29267E-02  0.25928E-02 -0.53783E-02
  0.22211E-02  0.32179E-02 -0.53783E-02
  0.13865E-02  0.36559E-02 -0.53783E-02
  0.47130E-03  0.38815E-02 -0.53783E-02
 -0.47130E-03  0.38815E-02 -0.53783E-02
 -0.13865E-02  0.36559E-02 -0.53783E-02
 -0.22211E-02  0.32179E-02 -0.53783E-02
 -0.29267E-02  0.25928E-02 -0.53783E-02
 -0.34621E-02  0.18171E-02 -0.53783E-02
 -0.37964E-02  0.93572E-03 -0.53783E-02
 -0.39100E-02 -0.47884E-18 -0.53783E-02
 -0.37964E-02 -0.93572E-03 -0.53783E-02
 -0.34621E-02 -0.18171E-02 -0.53783E-02
 -0.29267E-02 -0.25928E-02 -0.53783E-02
 -0.22211E-02 -0.32179E-02 -0.53783E-02
 -0.13865E-02 -0.36559E-02 -0.53783E-02
 -0.47130E-03 -0.38815E-02 -0.53783E-02
  0.47130E-03 -0.38815E-02 -0.53783E-02
  0.13865E-02 -0.36559E-02 -0.53783E-02
  0.22211E-02 -0.32179E-02 -0.53783E-02
  0.29267E-02 -0.25928E-02 -0.53783E-02
  0.34621E-02 -0.18171E-02 -0.53783E-02
  0.37964E-02 -0.93572E-03 -0.53783E-02
  0.10357E-02  0.68290E-03 -0.43991E-02
  0.17420E-02  0.12427E-02 -0.43991E-02
  0.23155E-02  0.60093E-03 -0.43991E-02
  0.16660E-02 -0.32417E-03 -0.43991E-02
  0.30372E-02  0.15536E-03 -0.43991E-02
  0.27853E-02 -0.66755E-03 -0.43991E-02
  0.12832E-02  0.18445E-02 -0.43991E-02
  0.64698E-03  0.14757E-02 -0.43991E-02
  0.12285E-03  0.32000E-03 -0.43991E-02
 -0.13155E-03  0.11987E-02 -0.43991E-02
  0.93903E-03  0.22771E-02 -0.43991E-02
  0.11266E-02  0.28207E-02 -0.43991E-02
  0.17420E-02  0.24264E-02 -0.43991E-02
  0.40490E-03  0.21691E-02 -0.43991E-02
  0.39749E-03  0.29319E-02 -0.43991E-02
 -0.76940E-03 -0.10058E-02 -0.43991E-02
 -0.86800E-03  0.93536E-04 -0.43991E-02
  0.45313E-03 -0.69011E-03 -0.43991E-02
 -0.18353E-02 -0.70943E-03 -0.43991E-02
 -0.18423E-02  0.84973E-04 -0.43991E-02
 -0.27233E-02 -0.77559E-03 -0.43991E-02
 -0.27979E-02  0.45633E-04 -0.43991E-02
 -0.25393E-02 -0.15186E-02 -0.43991E-02
 -0.19365E-02 -0.13212E-02 -0.43991E-02
 -0.99104E-03  0.10129E-02 -0.43991E-02
 -0.14443E-02 -0.17318E-02 -0.43991E-02
 -0.31214E-03  0.20271E-02 -0.43991E-02
 -0.11006E-02  0.18592E-02 -0.43991E-02
 -0.18836E-02  0.17175E-02 -0.43991E-02
 -0.18690E-02  0.91371E-03 -0.43991E-02
 -0.16366E-03 -0.19805E-02 -0.43991E-02
 -0.95166E-03 -0.23493E-02 -0.43991E-02
  0.77667E-03 -0.17073E-02 -0.43991E-02
  0.17203E-02 -0.14938E-02 -0.43991E-02
  0.32109E-02  0.77846E-03 -0.43991E-02
  0.28042E-02  0.12554E-02 -0.43991E-02
  0.23039E-02  0.18672E-02 -0.43991E-02
 -0.40365E-03  0.28845E-02 -0.43991E-02
 -0.12093E-02  0.27122E-02 -0.43991E-02
 -0.19441E-02  0.24602E-02 -0.43991E-02
 -0.25023E-02  0.22358E-02 -0.43991E-02
 -0.26355E-02  0.16502E-02 -0.43991E-02
 -0.27615E-02  0.87964E-03 -0.43991E-02
 -0.21148E-02 -0.21374E-02 -0.43991E-02
 -0.16095E-02 -0.26935E-02 -0.43991E-02
 -0.11960E-02 -0.31291E-02 -0.43991E-02
 -0.59270E-03 -0.30381E-02 -0.43991E-02
  0.20180E-03 -0.28750E-02 -0.43991E-02
  0.10530E-02 -0.26471E-02 -0.43991E-02
  0.18421E-02 -0.23744E-02 -0.43991E-02
  0.24566E-02 -0.21543E-02 -0.43991E-02
  0.26035E-02 -0.15085E-02 -0.43991E-02
  0.37964E-02  0.93572E-03 -0.43991E-02
  0.39100E-02  0.00000E+00 -0.43991E-02
  0.34621E-02  0.18171E-02 -0.43991E-02
  0.29267E-02  0.25928E-02 -0.43991E-02
  0.22211E-02  0.32179E-02 -0.43991E-02
  0.13865E-02  0.36559E-02 -0.43991E-02
  0.47130E-03  0.38815E-02 -0.43991E-02
 -0.47130E-03  0.38815E-02 -0.43991E-02
 -0.13865E-02  0.36559E-02 -0.43991E-02
 -0.22211E-02  0.32179E-02 -0.43991E-02
 -0.29267E-02  0.25928E-02 -0.43991E-02
 -0.34621E-02  0.18171E-02 -0.43991E-02
 -0.37964E-02  0.93572E-03 -0.43991E-02
 -0.39100E-02 -0.47884E-18 -0.43991E-02
 -0.37964E-02 -0.93572E-03 -0.43991E-02
 -0.34621E-02 -0.18171E-02 -0.43991E-02
 -0.29267E-02 -0.25928E-02 -0.43991E-02
 -0.22211E-02 -0.32179E-02 -0.43991E-02
 -0.13865E-02 -0.36559E-02 -0.43991E-02
 -0.47130E-03 -0.38815E-02 -0.43991E-02
  0.47130E-03 -0.38815E-02 -0.43991E-02
  0.13865E-02 -0.36559E-02 -0.43991E-02
  0.22211E-02 -0.32179E-02 -0.43991E-02
  0.29267E-02 -0.25928E-02 -0.43991E-02
  0.34621E-02 -0.18171E-02 -0.43991E-02
  0.37964E-02 -0.93572E-03 -0.43991E-02
  0.10356E-02  0.68346E-03 -0.34200E-02
  0.17418E-02  0.12434E-02 -0.34200E-02
  0.23153E-02  0.60145E-03 -0.34200E-02
  0.16657E-02 -0.32342E-03 -0.34200E-02
  0.30372E-02  0.15572E-03 -0.34200E-02
  0.27856E-02 -0.66706E-03 -0.34200E-02
  0.12830E-02  0.18447E-02 -0.34200E-02
  0.64673E-03  0.14767E-02 -0.34200E-02
  0.12259E-03  0.32115E-03 -0.34200E-02
 -0.13174E-03  0.12005E-02 -0.34200E-02
  0.93870E-03  0.22772E-02 -0.34200E-02
  0.11262E-02  0.28203E-02 -0.34200E-02
  0.17416E-02  0.24265E-02 -0.34200E-02
  0.40485E-03  0.21691E-02 -0.34200E-02
  0.39747E-03  0.29316E-02 -0.34200E-02
 -0.76975E-03 -0.10060E-02 -0.34200E-02
 -0.86811E-03  0.94345E-04 -0.34200E-02
  0.45268E-03 -0.68939E-03 -0.34200E-02
 -0.18356E-02 -0.70929E-03 -0.34200E-02
 -0.18422E-02  0.85096E-04 -0.34200E-02
 -0.27233E-02 -0.77542E-03 -0.34200E-02
 -0.27976E-02  0.45906E-04 -0.34200E-02
 -0.25394E-02 -0.15185E-02 -0.34200E-02
 -0.19369E-02 -0.13211E-02 -0.34200E-02
 -0.99090E-03  0.10142E-02 -0.34200E-02
 -0.14446E-02 -0.17317E-02 -0.34200E-02
 -0.31194E-03  0.20274E-02 -0.34200E-02
 -0.11002E-02  0.18590E-02 -0.34200E-02
 -0.18835E-02  0.17175E-02 -0.34200E-02
 -0.18689E-02  0.91395E-03 -0.34200E-02
 -0.16394E-03 -0.19805E-02 -0.34200E-02
 -0.95226E-03 -0.23494E-02 -0.34200E-02
  0.77601E-03 -0.17073E-02 -0.34200E-02
  0.17203E-02 -0.14941E-02 -0.34200E-02
  0.32112E-02  0.77946E-03 -0.34200E-02
  0.28042E-02  0.12558E-02 -0.34200E-02
  0.23038E-02  0.18672E-02 -0.34200E-02
 -0.40352E-03  0.28835E-02 -0.34200E-02
 -0.12093E-02  0.27118E-02 -0.34200E-02
 -0.19441E-02  0.24600E-02 -0.34200E-02
 -0.25023E-02  0.22358E-02 -0.34200E-02
 -0.26354E-02  0.16502E-02 -0.34200E-02
 -0.27612E-02  0.87990E-03 -0.34200E-02
 -0.21150E-02 -0.21374E-02 -0.34200E-02
 -0.16095E-02 -0.26935E-02 -0.34200E-02
 -0.11961E-02 -0.31291E-02 -0.34200E-02
 -0.59305E-03 -0.30381E-02 -0.34200E-02
  0.20140E-03 -0.28750E-02 -0.34200E-02
  0.10527E-02 -0.26474E-02 -0.34200E-02
  0.18421E-02 -0.23746E-02 -0.34200E-02
  0.24568E-02 -0.21549E-02 -0.34200E-02
  0.26036E-02 -0.15084E-02 -0.34200E-02
  0.37964E-02  0.93572E-03 -0.34200E-02
  0.39100E-02  0.00000E+00 -0.34200E-02
  0.34621E-02  0.18171E-02 -0.34200E-02
  0.29267E-02  0.25928E-02 -0.34200E-02
  0.22211E-02  0.32179E-02 -0.34200E-02
  0.13865E-02  0.36559E-02 -0.34200E-02
  0.47130E-03  0.38815E-02 -0.34200E-02
 -0.47130E-03  0.38815E-02 -0.34200E-02
 -0.13865E-02  0.36559E-02 -0.34200E-02
 -0.22211E-02  0.32179E-02 -0.34200E-02
 -0.29267E-02  0.25928E-02 -0.34200E-02
 -0.34621E-02  0.18171E-02 -0.34200E-02
 -0.37964E-02  0.93572E-03 -0.34200E-02
 -0.39100E-02  0.22152E-17 -0.34200E-02
 -0.37964E-02 -0.93572E-03 -0.34200E-02
 -0.34621E-02 -0.18171E-02 -0.34200E-02
 -0.29267E-02 -0.25928E-02 -0.34200E-02
 -0.22211E-02 -0.32179E-02 -0.34200E-02
 -0.13865E-02 -0.36559E-02 -0.34200E-02
 -0.47130E-03 -0.38815E-02 -0.34200E-02
  0.47130E-03 -0.38815E-02 -0.34200E-02
  0.13865E-02 -0.36559E-02 -0.34200E-02
  0.22211E-02 -0.32179E-02 -0.34200E-02
  0.29267E-02 -0.25928E-02 -0.34200E-02
  0.34621E-02 -0.18171E-02 -0.34200E-02
  0.37964E-02 -0.93572E-03 -0.34200E-02
  0.10355E-02  0.68401E-03 -0.24408E-02
  0.17416E-02  0.12440E-02 -0.24408E-02
  0.23152E-02  0.60198E-03 -0.24408E-02
  0.16655E-02 -0.32266E-03 -0.24408E-02
  0.30372E-02  0.15609E-03 -0.24408E-02
  0.27860E-02 -0.66657E-03 -0.24408E-02
  0.12829E-02  0.18449E-02 -0.24408E-02
  0.64649E-03  0.14777E-02 -0.24408E-02
  0.12232E-03  0.32230E-03 -0.24408E-02
 -0.13193E-03  0.12022E-02 -0.24408E-02
  0.93837E-03  0.22774E-02 -0.24408E-02
  0.11259E-02  0.28198E-02 -0.24408E-02
  0.17412E-02  0.24267E-02 -0.24408E-02
  0.40480E-03  0.21692E-02 -0.24408E-02
  0.39745E-03  0.29314E-02 -0.24408E-02
 -0.77011E-03 -0.10061E-02 -0.24408E-02
 -0.86822E-03  0.95155E-04 -0.24408E-02
  0.45223E-03 -0.68866E-03 -0.24408E-02
 -0.18359E-02 -0.70915E-03 -0.24408E-02
 -0.18421E-02  0.85220E-04 -0.24408E-02
 -0.27232E-02 -0.77525E-03 -0.24408E-02
 -0.27973E-02  0.46180E-04 -0.24408E-02
 -0.25396E-02 -0.15185E-02 -0.24408E-02
 -0.19373E-02 -0.13210E-02 -0.24408E-02
 -0.99075E-03  0.10156E-02 -0.24408E-02
 -0.14450E-02 -0.17317E-02 -0.24408E-02
 -0.31173E-03  0.20277E-02 -0.24408E-02
 -0.10999E-02  0.18589E-02 -0.24408E-02
 -0.18835E-02  0.17175E-02 -0.24408E-02
 -0.18687E-02  0.91419E-03 -0.24408E-02
 -0.16421E-03 -0.19805E-02 -0.24408E-02
 -0.95285E-03 -0.23494E-02 -0.24408E-02
  0.77535E-03 -0.17073E-02 -0.24408E-02
  0.17202E-02 -0.14943E-02 -0.24408E-02
  0.32115E-02  0.78047E-03 -0.24408E-02
  0.28041E-02  0.12563E-02 -0.24408E-02
  0.23037E-02  0.18672E-02 -0.24408E-02
 -0.40338E-03  0.28824E-02 -0.24408E-02
 -0.12093E-02  0.27113E-02 -0.24408E-02
 -0.19440E-02  0.24597E-02 -0.24408E-02
 -0.25023E-02  0.22358E-02 -0.24408E-02
 -0.26353E-02  0.16502E-02 -0.24408E-02
 -0.27609E-02  0.88016E-03 -0.24408E-02
 -0.21151E-02 -0.21374E-02 -0.24408E-02
 -0.16096E-02 -0.26935E-02 -0.24408E-02
 -0.11962E-02 -0.31291E-02 -0.24408E-02
 -0.59340E-03 -0.30381E-02 -0.24408E-02
  0.20099E-03 -0.28751E-02 -0.24408E-02
  0.10524E-02 -0.26476E-02 -0.24408E-02
  0.18422E-02 -0.23748E-02 -0.24408E-02
  0.24569E-02 -0.21554E-02 -0.24408E-02
  0.26036E-02 -0.15083E-02 -0.24408E-02
  0.37964E-02  0.93572E-03 -0.24408E-02
  0.39100E-02  0.00000E+00 -0.24408E-02
  0.34621E-02  0.18171E-02 -0.24408E-02
  0.29267E-02  0.25928E-02 -0.24408E-02
  0.22211E-02  0.32179E-02 -0.24408E-02
  0.13865E-02  0.36559E-02 -0.24408E-02
  0.47130E-03  0.38815E-02 -0.24408E-02
 -0.47130E-03  0.38815E-02 -0.24408E-02
 -0.13865E-02  0.36559E-02 -0.24408E-02
 -0.22211E-02  0.32179E-02 -0.24408E-02
 -0.29267E-02  0.25928E-02 -0.24408E-02
 -0.34621E-02  0.18171E-02 -0.24408E-02
 -0.37964E-02  0.93572E-03 -0.24408E-02
 -0.39100E-02 -0.47884E-18 -0.24408E-02
 -0.37964E-02 -0.93572E-03 -0.24408E-02
 -0.34621E-02 -0.18171E-02 -0.24408E-02
 -0.29267E-02 -0.25928E-02 -0.24408E-02
 -0.22211E-02 -0.32179E-02 -0.24408E-02
 -0.13865E-02 -0.36559E-02 -0.24408E-02
 -0.47130E-03 -0.38815E-02 -0.24408E-02
  0.47130E-03 -0.38815E-02 -0.24408E-02
  0.13865E-02 -0.36559E-02 -0.24408E-02
  0.22211E-02 -0.32179E-02 -0.24408E-02
  0.29267E-02 -0.25928E-02 -0.24408E-02
  0.34621E-02 -0.18171E-02 -0.24408E-02
  0.37964E-02 -0.93572E-03 -0.24408E-02
  0.10354E-02  0.68457E-03 -0.14616E-02
  0.17414E-02  0.12447E-02 -0.14616E-02
  0.23151E-02  0.60250E-03 -0.14616E-02
  0.16653E-02 -0.32191E-03 -0.14616E-02
  0.30372E-02  0.15645E-03 -0.14616E-02
  0.27863E-02 -0.66607E-03 -0.14616E-02
  0.12829E-02  0.18451E-02 -0.14616E-02
  0.64624E-03  0.14787E-02 -0.14616E-02
  0.12206E-03  0.32345E-03 -0.14616E-02
 -0.13211E-03  0.12040E-02 -0.14616E-02
  0.93804E-03  0.22775E-02 -0.14616E-02
  0.11255E-02  0.28194E-02 -0.14616E-02
  0.17408E-02  0.24268E-02 -0.14616E-02
  0.40474E-03  0.21692E-02 -0.14616E-02
  0.39744E-03  0.29311E-02 -0.14616E-02
 -0.77046E-03 -0.10062E-02 -0.14616E-02
 -0.86832E-03  0.95964E-04 -0.14616E-02
  0.45179E-03 -0.68793E-03 -0.14616E-02
 -0.18362E-02 -0.70901E-03 -0.14616E-02
 -0.18420E-02  0.85343E-04 -0.14616E-02
 -0.27232E-02 -0.77507E-03 -0.14616E-02
 -0.27970E-02  0.46453E-04 -0.14616E-02
 -0.25397E-02 -0.15184E-02 -0.14616E-02
 -0.19377E-02 -0.13209E-02 -0.14616E-02
 -0.99061E-03  0.10169E-02 -0.14616E-02
 -0.14453E-02 -0.17316E-02 -0.14616E-02
 -0.31153E-03  0.20280E-02 -0.14616E-02
 -0.10995E-02  0.18588E-02 -0.14616E-02
 -0.18834E-02  0.17175E-02 -0.14616E-02
 -0.18686E-02  0.91443E-03 -0.14616E-02
 -0.16449E-03 -0.19806E-02 -0.14616E-02
 -0.95345E-03 -0.23494E-02 -0.14616E-02
  0.77469E-03 -0.17073E-02 -0.14616E-02
  0.17202E-02 -0.14945E-02 -0.14616E-02
  0.32119E-02  0.78148E-03 -0.14616E-02
  0.28041E-02  0.12567E-02 -0.14616E-02
  0.23036E-02  0.18673E-02 -0.14616E-02
 -0.40324E-03  0.28813E-02 -0.14616E-02
 -0.12093E-02  0.27108E-02 -0.14616E-02
 -0.19440E-02  0.24595E-02 -0.14616E-02
 -0.25022E-02  0.22358E-02 -0.14616E-02
 -0.26352E-02  0.16502E-02 -0.14616E-02
 -0.27606E-02  0.88043E-03 -0.14616E-02
 -0.21152E-02 -0.21374E-02 -0.14616E-02
 -0.16096E-02 -0.26936E-02 -0.14616E-02
 -0.11963E-02 -0.31291E-02 -0.14616E-02
 -0.59375E-03 -0.30381E-02 -0.14616E-02
  0.20059E-03 -0.28751E-02 -0.14616E-02
  0.10521E-02 -0.26479E-02 -0.14616E-02
  0.18422E-02 -0.23750E-02 -0.14616E-02
  0.24570E-02 -0.21560E-02 -0.14616E-02
  0.26037E-02 -0.15082E-02 -0.14616E-02
  0.37964E-02  0.93572E-03 -0.14616E-02
  0.39100E-02  0.00000E+00 -0.14616E-02
  0.34621E-02  0.18171E-02 -0.14616E-02
  0.29267E-02  0.25928E-02 -0.14616E-02
  0.22211E-02  0.32179E-02 -0.14616E-02
  0.13865E-02  0.36559E-02 -0.14616E-02
  0.47130E-03  0.38815E-02 -0.14616E-02
 -0.47130E-03  0.38815E-02 -0.14616E-02
 -0.13865E-02  0.36559E-02 -0.14616E-02
 -0.22211E-02  0.32179E-02 -0.14616E-02
 -0.29267E-02  0.25928E-02 -0.14616E-02
 -0.34621E-02  0.18171E-02 -0.14616E-02
 -0.37964E-02  0.93572E-03 -0.14616E-02
 -0.39100E-02 -0.47884E-18 -0.14616E-02
 -0.37964E-02 -0.93572E-03 -0.14616E-02
 -0.34621E-02 -0.18171E-02 -0.14616E-02
 -0.29267E-02 -0.25928E-02 -0.14616E-02
 -0.22211E-02 -0.32179E-02 -0.14616E-02
 -0.13865E-02 -0.36559E-02 -0.14616E-02
 -0.47130E-03 -0.38815E-02 -0.14616E-02
  0.47130E-03 -0.38815E-02 -0.14616E-02
  0.13865E-02 -0.36559E-02 -0.14616E-02
  0.22211E-02 -0.32179E-02 -0.14616E-02
  0.29267E-02 -0.25928E-02 -0.14616E-02
  0.34621E-02 -0.18171E-02 -0.14616E-02
  0.37964E-02 -0.93572E-03 -0.14616E-02
  0.10352E-02  0.68512E-03 -0.48252E-03
  0.17413E-02  0.12454E-02 -0.48252E-03
  0.23150E-02  0.60302E-03 -0.48252E-03
  0.16651E-02 -0.32115E-03 -0.48252E-03
  0.30371E-02  0.15681E-03 -0.48252E-03
  0.27866E-02 -0.66558E-03 -0.48252E-03
  0.12827E-02  0.18453E-02 -0.48252E-03
  0.64600E-03  0.14797E-02 -0.48252E-03
  0.12180E-03  0.32459E-03 -0.48252E-03
 -0.13230E-03  0.12058E-02 -0.48252E-03
  0.93771E-03  0.22776E-02 -0.48252E-03
  0.11252E-02  0.28189E-02 -0.48252E-03
  0.17404E-02  0.24270E-02 -0.48252E-03
  0.40469E-03  0.21693E-02 -0.48252E-03
  0.39742E-03  0.29308E-02 -0.48252E-03
 -0.77081E-03 -0.10064E-02 -0.48252E-03
 -0.86843E-03  0.96773E-04 -0.48252E-03
  0.45134E-03 -0.68721E-03 -0.48252E-03
 -0.18365E-02 -0.70887E-03 -0.48252E-03
 -0.18419E-02  0.85467E-04 -0.48252E-03
 -0.27232E-02 -0.77490E-03 -0.48252E-03
 -0.27968E-02  0.46726E-04 -0.48252E-03
 -0.25399E-02 -0.15184E-02 -0.48252E-03
 -0.19382E-02 -0.13208E-02 -0.48252E-03
 -0.99046E-03  0.10183E-02 -0.48252E-03
 -0.14457E-02 -0.17316E-02 -0.48252E-03
 -0.31133E-03  0.20283E-02 -0.48252E-03
 -0.10992E-02  0.18586E-02 -0.48252E-03
 -0.18834E-02  0.17175E-02 -0.48252E-03
 -0.18685E-02  0.91467E-03 -0.48252E-03
 -0.16476E-03 -0.19806E-02 -0.48252E-03
 -0.95405E-03 -0.23494E-02 -0.48252E-03
  0.77402E-03 -0.17073E-02 -0.48252E-03
  0.17202E-02 -0.14948E-02 -0.48252E-03
  0.32122E-02  0.78248E-03 -0.48252E-03
  0.28041E-02  0.12571E-02 -0.48252E-03
  0.23034E-02  0.18673E-02 -0.48252E-03
 -0.40310E-03  0.28802E-02 -0.48252E-03
 -0.12093E-02  0.27103E-02 -0.48252E-03
 -0.19440E-02  0.24593E-02 -0.48252E-03
 -0.25022E-02  0.22358E-02 -0.48252E-03
 -0.26351E-02  0.16502E-02 -0.48252E-03
 -0.27602E-02  0.88069E-03 -0.48252E-03
 -0.21154E-02 -0.21374E-02 -0.48252E-03
 -0.16097E-02 -0.26936E-02 -0.48252E-03
 -0.11964E-02 -0.31291E-02 -0.48252E-03
 -0.59409E-03 -0.30381E-02 -0.48252E-03
  0.20018E-03 -0.28751E-02 -0.48252E-03
  0.10518E-02 -0.26482E-02 -0.48252E-03
  0.18422E-02 -0.23752E-02 -0.48252E-03
  0.24571E-02 -0.21565E-02 -0.48252E-03
  0.26038E-02 -0.15081E-02 -0.48252E-03
  0.37964E-02  0.93572E-03 -0.48252E-03
  0.39100E-02  0.00000E+00 -0.48252E-03
  0.34621E-02  0.18171E-02 -0.48252E-03
  0.29267E-02  0.25928E-02 -0.48252E-03
  0.22211E-02  0.32179E-02 -0.48252E-03
  0.13865E-02  0.36559E-02 -0.48252E-03
  0.47130E-03  0.38815E-02 -0.48252E-03
 -0.47130E-03  0.38815E-02 -0.48252E-03
 -0.13865E-02  0.36559E-02 -0.48252E-03
 -0.22211E-02  0.32179E-02 -0.48252E-03
 -0.29267E-02  0.25928E-02 -0.48252E-03
 -0.34621E-02  0.18171E-02 -0.48252E-03
 -0.37964E-02  0.93572E-03 -0.48252E-03
 -0.39100E-02 -0.47884E-18 -0.48252E-03
 -0.37964E-02 -0.93572E-03 -0.48252E-03
 -0.34621E-02 -0.18171E-02 -0.48252E-03
 -0.29267E-02 -0.25928E-02 -0.48252E-03
 -0.22211E-02 -0.32179E-02 -0.48252E-03
 -0.13865E-02 -0.36559E-02 -0.48252E-03
 -0.47130E-03 -0.38815E-02 -0.48252E-03
  0.47130E-03 -0.38815E-02 -0.48252E-03
  0.13865E-02 -0.36559E-02 -0.48252E-03
  0.22211E-02 -0.32179E-02 -0.48252E-03
  0.29267E-02 -0.25928E-02 -0.48252E-03
  0.34621E-02 -0.18171E-02 -0.48252E-03
  0.37964E-02 -0.93572E-03 -0.48252E-03
  0.10351E-02  0.68567E-03  0.49668E-03
  0.17411E-02  0.12460E-02  0.49668E-03
  0.23149E-02  0.60355E-03  0.49668E-03
  0.16649E-02 -0.32040E-03  0.49668E-03
  0.30371E-02  0.15718E-03  0.49668E-03
  0.27870E-02 -0.66509E-03  0.49668E-03
  0.12826E-02  0.18455E-02  0.49668E-03
  0.64575E-03  0.14807E-02  0.49668E-03
  0.12154E-03  0.32574E-03  0.49668E-03
 -0.13248E-03  0.12075E-02  0.49668E-03
  0.93738E-03  0.22777E-02  0.49668E-03
  0.11249E-02  0.28185E-02  0.49668E-03
  0.17400E-02  0.24271E-02  0.49668E-03
  0.40463E-03  0.21693E-02  0.49668E-03
  0.39740E-03  0.29306E-02  0.49668E-03
 -0.77117E-03 -0.10065E-02  0.49668E-03
 -0.86854E-03  0.97583E-04  0.49668E-03
  0.45089E-03 -0.68648E-03  0.49668E-03
 -0.18368E-02 -0.70873E-03  0.49668E-03
 -0.18418E-02  0.85591E-04  0.49668E-03
 -0.27232E-02 -0.77474E-03  0.49668E-03
 -0.27965E-02  0.47000E-04  0.49668E-03
 -0.25400E-02 -0.15183E-02  0.49668E-03
 -0.19386E-02 -0.13207E-02  0.49668E-03
 -0.99032E-03  0.10197E-02  0.49668E-03
 -0.14460E-02 -0.17316E-02  0.49668E-03
 -0.31113E-03  0.20285E-02  0.49668E-03
 -0.10988E-02  0.18585E-02  0.49668E-03
 -0.18833E-02  0.17175E-02  0.49668E-03
 -0.18683E-02  0.91491E-03  0.49668E-03
 -0.16504E-03 -0.19806E-02  0.49668E-03
 -0.95465E-03 -0.23495E-02  0.49668E-03
  0.77336E-03 -0.17073E-02  0.49668E-03
  0.17201E-02 -0.14950E-02  0.49668E-03
  0.32125E-02  0.78348E-03  0.49668E-03
  0.28041E-02  0.12576E-02  0.49668E-03
  0.23033E-02  0.18674E-02  0.49668E-03
 -0.40296E-03  0.28792E-02  0.49668E-03
 -0.12093E-02  0.27099E-02  0.49668E-03
 -0.19439E-02  0.24591E-02  0.49668E-03
 -0.25022E-02  0.22358E-02  0.49668E-03
 -0.26350E-02  0.16502E-02  0.49668E-03
 -0.27599E-02  0.88095E-03  0.49668E-03
 -0.21155E-02 -0.21374E-02  0.49668E-03
 -0.16097E-02 -0.26936E-02  0.49668E-03
 -0.11965E-02 -0.31290E-02  0.49668E-03
 -0.59444E-03 -0.30381E-02  0.49668E-03
  0.19977E-03 -0.28751E-02  0.49668E-03
  0.10515E-02 -0.26484E-02  0.49668E-03
  0.18423E-02 -0.23754E-02  0.49668E-03
  0.24573E-02 -0.21571E-02  0.49668E-03
  0.26039E-02 -0.15080E-02  0.49668E-03
  0.37964E-02  0.93572E-03  0.49668E-03
  0.39100E-02  0.00000E+00  0.49668E-03
  0.34621E-02  0.18171E-02  0.49668E-03
  0.29267E-02  0.25928E-02  0.49668E-03
  0.22211E-02  0.32179E-02  0.49668E-03
  0.13865E-02  0.36559E-02  0.49668E-03
  0.47130E-03  0.38815E-02  0.49668E-03
 -0.47130E-03  0.38815E-02  0.49668E-03
 -0.13865E-02  0.36559E-02  0.49668E-03
 -0.22211E-02  0.32179E-02  0.49668E-03
 -0.29267E-02  0.25928E-02  0.49668E-03
 -0.34621E-02  0.18171E-02  0.49668E-03
 -0.37964E-02  0.93572E-03  0.49668E-03
 -0.39100E-02  0.47884E-18  0.49668E-03
 -0.37964E-02 -0.93572E-03  0.49668E-03
 -0.34621E-02 -0.18171E-02  0.49668E-03
 -0.29267E-02 -0.25928E-02  0.49668E-03
 -0.22211E-02 -0.32179E-02  0.49668E-03
 -0.13865E-02 -0.36559E-02  0.49668E-03
 -0.47130E-03 -0.38815E-02  0.49668E-03
  0.47130E-03 -0.38815E-02  0.49668E-03
  0.13865E-02 -0.36559E-02  0.49668E-03
  0.22211E-02 -0.32179E-02  0.49668E-03
  0.29267E-02 -0.25928E-02  0.49668E-03
  0.34621E-02 -0.18171E-02  0.49668E-03
  0.37964E-02 -0.93572E-03  0.49668E-03
  
CELLS       3486               17724
       1       0
       1       1
       1       2
       1       3
       1       4
       1       5
       1       6
       1       7
       1       8
       1       9
       1      10
       1      11
       1      12
       1      13
       1      14
       1      15
       1      16
       1      17
       1      18
       1      19
       1      20
       1      21
       1      22
       1      23
       1      24
       1      25
       1      26
       1      27
       1      28
       1      29
       1      30
       1      31
       1      32
       1      33
       1      34
       1      35
       1      36
       1      37
       1      38
       1      39
       1      40
       1      41
       1      42
       1      43
       1      44
       1      45
       1      46
       1      47
       1      48
       1      49
       1      50
       1      51
       1      52
       1      53
       1      54
       1      55
       1      56
       1      57
       1      58
       1      59
       1      60
       1      61
       1      62
       1      63
       1      64
       1      65
       1      66
       1      67
       1      68
       1      69
       1      70
       1      71
       1      72
       1      73
       1      74
       1      75
       1      76
       1      77
       1      78
       1      79
       1      80
       1      81
       1      82
       1      83
       1      84
       1      85
       1      86
       1      87
       1      88
       1      89
       1      90
       1      91
       1      92
       1      93
       1      94
       1      95
       1      96
       1      97
       1      98
       1      99
       1     100
       1     101
       1     102
       1     103
       1     104
       1     105
       1     106
       1     107
       1     108
       1     109
       1     110
       1     111
       1     112
       1     113
       1     114
       1     115
       1     116
       1     117
       1     118
       1     119
       1     120
       1     121
       1     122
       1     123
       1     124
       1     125
       1     126
       1     127
       1     128
       1     129
       1     130
       1     131
       1     132
       1     133
       1     134
       1     135
       1     136
       1     137
       1     138
       1     139
       1     140
       1     141
       1     142
       1     143
       1     144
       1     145
       1     146
       1     147
       1     148
       1     149
       1     150
       1     151
       1     152
       1     153
       1     154
       1     155
       1     156
       1     157
       1     158
       1     159
       1     160
       1     161
       1     162
       1     163
       1     164
       1     165
       1     166
       1     167
       1     168
       1     169
       1     170
       1     171
       1     172
       1     173
       1     174
       1     175
       1     176
       1     177
       1     178
       1     179
       1     180
       1     181
       1     182
       1     183
       1     184
       1     185
       1     186
       1     187
       1     188
       1     189
       1     190
       1     191
       1     192
       1     193
       1     194
       1     195
       1     196
       1     197
       1     198
       1     199
       1     200
       1     201
       1     202
       1     203
       1     204
       1     205
       1     206
       1     207
       1     208
       1     209
       1     210
       1     211
       1     212
       1     213
       1     214
       1     215
       1     216
       1     217
       1     218
       1     219
       1     220
       1     221
       1     222
       1     223
       1     224
       1     225
       1     226
       1     227
       1     228
       1     229
       1     230
       1     231
       1     232
       1     233
       1     234
       1     235
       1     236
       1     237
       1     238
       1     239
       1     240
       1     241
       1     242
       1     243
       1     244
       1     245
       1     246
       1     247
       1     248
       1     249
       1     250
       1     251
       1     252
       1     253
       1     254
       1     255
       1     256
       1     257
       1     258
       1     259
       1     260
       1     261
       1     262
       1     263
       1     264
       1     265
       1     266
       1     267
       1     268
       1     269
       1     270
       1     271
       1     272
       1     273
       1     274
       1     275
       1     276
       1     277
       1     278
       1     279
       1     280
       1     281
       1     282
       1     283
       1     284
       1     285
       1     286
       1     287
       1     288
       1     289
       1     290
       1     291
       1     292
       1     293
       1     294
       1     295
       1     296
       1     297
       1     298
       1     299
       1     300
       1     301
       1     302
       1     303
       1     304
       1     305
       1     306
       1     307
       1     308
       1     309
       1     310
       1     311
       1     312
       1     313
       1     314
       1     315
       1     316
       1     317
       1     318
       1     319
       1     320
       1     321
       1     322
       1     323
       1     324
       1     325
       1     326
       1     327
       1     328
       1     329
       1     330
       1     331
       1     332
       1     333
       1     334
       1     335
       1     336
       1     337
       1     338
       1     339
       1     340
       1     341
       1     342
       1     343
       1     344
       1     345
       1     346
       1     347
       1     348
       1     349
       1     350
       1     351
       1     352
       1     353
       1     354
       1     355
       1     356
       1     357
       1     358
       1     359
       1     360
       1     361
       1     362
       1     363
       1     364
       1     365
       1     366
       1     367
       1     368
       1     369
       1     370
       1     371
       1     372
       1     373
       1     374
       1     375
       1     376
       1     377
       1     378
       1     379
       1     380
       1     381
       1     382
       1     383
       1     384
       1     385
       1     386
       1     387
       1     388
       1     389
       1     390
       1     391
       1     392
       1     393
       1     394
       1     395
       1     396
       1     397
       1     398
       1     399
       1     400
       1     401
       1     402
       1     403
       1     404
       1     405
       1     406
       1     407
       1     408
       1     409
       1     410
       1     411
       1     412
       1     413
       1     414
       1     415
       1     416
       1     417
       1     418
       1     419
       1     420
       1     421
       1     422
       1     423
       1     424
       1     425
       1     426
       1     427
       1     428
       1     429
       1     430
       1     431
       1     432
       1     433
       1     434
       1     435
       1     436
       1     437
       1     438
       1     439
       1     440
       1     441
       1     442
       1     443
       1     444
       1     445
       1     446
       1     447
       1     448
       1     449
       1     450
       1     451
       1     452
       1     453
       1     454
       1     455
       1     456
       1     457
       1     458
       1     459
       1     460
       1     461
       1     462
       1     463
       1     464
       1     465
       1     466
       1     467
       1     468
       1     469
       1     470
       1     471
       1     472
       1     473
       1     474
       1     475
       1     476
       1     477
       1     478
       1     479
       1     480
       1     481
       1     482
       1     483
       1     484
       1     485
       1     486
       1     487
       1     488
       1     489
       1     490
       1     491
       1     492
       1     493
       1     494
       1     495
       1     496
       1     497
       1     498
       1     499
       1     500
       1     501
       1     502
       1     503
       1     504
       1     505
       1     506
       1     507
       1     508
       1     509
       1     510
       1     511
       1     512
       1     513
       1     514
       1     515
       1     516
       1     517
       1     518
       1     519
       1     520
       1     521
       1     522
       1     523
       1     524
       1     525
       1     526
       1     527
       1     528
       1     529
       1     530
       1     531
       1     532
       1     533
       1     534
       1     535
       1     536
       1     537
       1     538
       1     539
       1     540
       1     541
       1     542
       1     543
       1     544
       1     545
       1     546
       1     547
       1     548
       1     549
       1     550
       1     551
       1     552
       1     553
       1     554
       1     555
       1     556
       1     557
       1     558
       1     559
       1     560
       1     561
       1     562
       1     563
       1     564
       1     565
       1     566
       1     567
       1     568
       1     569
       1     570
       1     571
       1     572
       1     573
       1     574
       1     575
       1     576
       1     577
       1     578
       1     579
       1     580
       1     581
       1     582
       1     583
       1     584
       1     585
       1     586
       1     587
       1     588
       1     589
       1     590
       1     591
       1     592
       1     593
       1     594
       1     595
       1     596
       1     597
       1     598
       1     599
       1     600
       1     601
       1     602
       1     603
       1     604
       1     605
       1     606
       1     607
       1     608
       1     609
       1     610
       1     611
       1     612
       1     613
       1     614
       1     615
       1     616
       1     617
       1     618
       1     619
       1     620
       1     621
       1     622
       1     623
       1     624
       1     625
       1     626
       1     627
       1     628
       1     629
       1     630
       1     631
       1     632
       1     633
       1     634
       1     635
       1     636
       1     637
       1     638
       1     639
       1     640
       1     641
       1     642
       1     643
       1     644
       1     645
       1     646
       1     647
       1     648
       1     649
       1     650
       1     651
       1     652
       1     653
       1     654
       1     655
       1     656
       1     657
       1     658
       1     659
       1     660
       1     661
       1     662
       1     663
       1     664
       1     665
       1     666
       1     667
       1     668
       1     669
       1     670
       1     671
       1     672
       1     673
       1     674
       1     675
       1     676
       1     677
       1     678
       1     679
       1     680
       1     681
       1     682
       1     683
       1     684
       1     685
       1     686
       1     687
       1     688
       1     689
       1     690
       1     691
       1     692
       1     693
       1     694
       1     695
       1     696
       1     697
       1     698
       1     699
       1     700
       1     701
       1     702
       1     703
       1     704
       1     705
       1     706
       1     707
       1     708
       1     709
       1     710
       1     711
       1     712
       1     713
       1     714
       1     715
       1     716
       1     717
       1     718
       1     719
       1     720
       1     721
       1     722
       1     723
       1     724
       1     725
       1     726
       1     727
       1     728
       1     729
       1     730
       1     731
       1     732
       1     733
       1     734
       1     735
       1     736
       1     737
       1     738
       1     739
       1     740
       1     741
       1     742
       1     743
       1     744
       1     745
       1     746
       1     747
       1     748
       1     749
       1     750
       1     751
       1     752
       1     753
       1     754
       1     755
       1     756
       1     757
       1     758
       1     759
       1     760
       1     761
       1     762
       1     763
       1     764
       1     765
       1     766
       1     767
       1     768
       1     769
       1     770
       1     771
       1     772
       1     773
       1     774
       1     775
       1     776
       1     777
       1     778
       1     779
       1     780
       1     781
       1     782
       1     783
       1     784
       1     785
       1     786
       1     787
       1     788
       1     789
       1     790
       1     791
       1     792
       1     793
       1     794
       1     795
       1     796
       1     797
       1     798
       1     799
       1     800
       1     801
       1     802
       1     803
       1     804
       1     805
       1     806
       1     807
       1     808
       1     809
       1     810
       1     811
       1     812
       1     813
       1     814
       1     815
       1     816
       1     817
       1     818
       1     819
       1     820
       1     821
       1     822
       1     823
       1     824
       1     825
       1     826
       1     827
       1     828
       1     829
       1     830
       1     831
       1     832
       1     833
       1     834
       1     835
       1     836
       1     837
       1     838
       1     839
       1     840
       1     841
       1     842
       1     843
       1     844
       1     845
       1     846
       1     847
       1     848
       1     849
       1     850
       1     851
       1     852
       1     853
       1     854
       1     855
       1     856
       1     857
       1     858
       1     859
       1     860
       1     861
       1     862
       1     863
       1     864
       1     865
       1     866
       1     867
       1     868
       1     869
       1     870
       1     871
       1     872
       1     873
       1     874
       1     875
       1     876
       1     877
       1     878
       1     879
       1     880
       1     881
       1     882
       1     883
       1     884
       1     885
       1     886
       1     887
       1     888
       1     889
       1     890
       1     891
       1     892
       1     893
       1     894
       1     895
       1     896
       1     897
       1     898
       1     899
       1     900
       1     901
       1     902
       1     903
       1     904
       1     905
       1     906
       1     907
       1     908
       1     909
       1     910
       1     911
       1     912
       1     913
       1     914
       1     915
       1     916
       1     917
       1     918
       1     919
       1     920
       1     921
       1     922
       1     923
       1     924
       1     925
       1     926
       1     927
       1     928
       1     929
       1     930
       1     931
       1     932
       1     933
       1     934
       1     935
       1     936
       1     937
       1     938
       1     939
       1     940
       1     941
       1     942
       1     943
       1     944
       1     945
       1     946
       1     947
       1     948
       1     949
       1     950
       1     951
       1     952
       1     953
       1     954
       1     955
       1     956
       1     957
       1     958
       1     959
       1     960
       1     961
       1     962
       1     963
       1     964
       1     965
       1     966
       1     967
       1     968
       1     969
       1     970
       1     971
       1     972
       1     973
       1     974
       1     975
       1     976
       1     977
       1     978
       1     979
       1     980
       1     981
       1     982
       1     983
       1     984
       1     985
       1     986
       1     987
       1     988
       1     989
       1     990
       1     991
       1     992
       1     993
       1     994
       1     995
       1     996
       1     997
       1     998
       1     999
       1    1000
       1    1001
       1    1002
       1    1003
       1    1004
       1    1005
       1    1006
       1    1007
       1    1008
       1    1009
       1    1010
       1    1011
       1    1012
       1    1013
       1    1014
       1    1015
       1    1016
       1    1017
       1    1018
       1    1019
       1    1020
       1    1021
       1    1022
       1    1023
       1    1024
       1    1025
       1    1026
       1    1027
       1    1028
       1    1029
       1    1030
       1    1031
       1    1032
       1    1033
       1    1034
       1    1035
       1    1036
       1    1037
       1    1038
       1    1039
       1    1040
       1    1041
       1    1042
       1    1043
       1    1044
       1    1045
       1    1046
       1    1047
       1    1048
       1    1049
       1    1050
       1    1051
       1    1052
       1    1053
       1    1054
       1    1055
       1    1056
       1    1057
       1    1058
       1    1059
       1    1060
       1    1061
       1    1062
       1    1063
       1    1064
       1    1065
       1    1066
       1    1067
       1    1068
       1    1069
       1    1070
       1    1071
       1    1072
       1    1073
       1    1074
       1    1075
       1    1076
       1    1077
       1    1078
       1    1079
       1    1080
       1    1081
       1    1082
       1    1083
       1    1084
       1    1085
       1    1086
       1    1087
       1    1088
       1    1089
       1    1090
       1    1091
       1    1092
       1    1093
       1    1094
       1    1095
       1    1096
       1    1097
       1    1098
       1    1099
       1    1100
       1    1101
       1    1102
       1    1103
       1    1104
       1    1105
       1    1106
       1    1107
       1    1108
       1    1109
       1    1110
       1    1111
       1    1112
       1    1113
       1    1114
       1    1115
       1    1116
       1    1117
       1    1118
       1    1119
       1    1120
       1    1121
       1    1122
       1    1123
       1    1124
       1    1125
       1    1126
       1    1127
       1    1128
       1    1129
       1    1130
       1    1131
       1    1132
       1    1133
       1    1134
       1    1135
       1    1136
       1    1137
       1    1138
       1    1139
       1    1140
       1    1141
       1    1142
       1    1143
       1    1144
       1    1145
       1    1146
       1    1147
       1    1148
       1    1149
       1    1150
       1    1151
       1    1152
       1    1153
       1    1154
       1    1155
       1    1156
       1    1157
       1    1158
       1    1159
       1    1160
       1    1161
       1    1162
       1    1163
       1    1164
       1    1165
       1    1166
       1    1167
       1    1168
       1    1169
       1    1170
       1    1171
       1    1172
       1    1173
       1    1174
       1    1175
       1    1176
       1    1177
       1    1178
       1    1179
       1    1180
       1    1181
       1    1182
       1    1183
       1    1184
       1    1185
       1    1186
       1    1187
       1    1188
       1    1189
       1    1190
       1    1191
       1    1192
       1    1193
       1    1194
       1    1195
       1    1196
       1    1197
       1    1198
       1    1199
       1    1200
       1    1201
       1    1202
       1    1203
       1    1204
       1    1205
       1    1206
       1    1207
       1    1208
       1    1209
       1    1210
       1    1211
       1    1212
       1    1213
       1    1214
       1    1215
       1    1216
       1    1217
       1    1218
       1    1219
       1    1220
       1    1221
       1    1222
       1    1223
       1    1224
       1    1225
       1    1226
       1    1227
       1    1228
       1    1229
       1    1230
       1    1231
       1    1232
       1    1233
       1    1234
       1    1235
       1    1236
       1    1237
       1    1238
       1    1239
       1    1240
       1    1241
       1    1242
       1    1243
       1    1244
       1    1245
       1    1246
       1    1247
       1    1248
       1    1249
       1    1250
       1    1251
       1    1252
       1    1253
       1    1254
       1    1255
       1    1256
       1    1257
       1    1258
       1    1259
       1    1260
       1    1261
       1    1262
       1    1263
       1    1264
       1    1265
       1    1266
       1    1267
       1    1268
       1    1269
       1    1270
       1    1271
       1    1272
       1    1273
       1    1274
       1    1275
       1    1276
       1    1277
       1    1278
       1    1279
       1    1280
       1    1281
       1    1282
       1    1283
       1    1284
       1    1285
       1    1286
       1    1287
       1    1288
       1    1289
       1    1290
       1    1291
       1    1292
       1    1293
       1    1294
       1    1295
       1    1296
       1    1297
       1    1298
       1    1299
       1    1300
       1    1301
       1    1302
       1    1303
       1    1304
       1    1305
       1    1306
       1    1307
       1    1308
       1    1309
       1    1310
       1    1311
       1    1312
       1    1313
       1    1314
       1    1315
       1    1316
       1    1317
       1    1318
       1    1319
       1    1320
       1    1321
       1    1322
       1    1323
       1    1324
       1    1325
       1    1326
       1    1327
       1    1328
       1    1329
       1    1330
       1    1331
       1    1332
       1    1333
       1    1334
       1    1335
       1    1336
       1    1337
       1    1338
       1    1339
       1    1340
       1    1341
       1    1342
       1    1343
       1    1344
       1    1345
       1    1346
       1    1347
       1    1348
       1    1349
       1    1350
       1    1351
       1    1352
       1    1353
       1    1354
       1    1355
       1    1356
       1    1357
       1    1358
       1    1359
       1    1360
       1    1361
       1    1362
       1    1363
       1    1364
       1    1365
       1    1366
       1    1367
       1    1368
       1    1369
       1    1370
       1    1371
       1    1372
       1    1373
       1    1374
       1    1375
       1    1376
       1    1377
       1    1378
       1    1379
       1    1380
       1    1381
       1    1382
       1    1383
       1    1384
       1    1385
       1    1386
       1    1387
       1    1388
       1    1389
       1    1390
       1    1391
       1    1392
       1    1393
       1    1394
       1    1395
       1    1396
       1    1397
       1    1398
       1    1399
       1    1400
       1    1401
       1    1402
       1    1403
       1    1404
       1    1405
       1    1406
       1    1407
       1    1408
       1    1409
       1    1410
       1    1411
       1    1412
       1    1413
       1    1414
       1    1415
       1    1416
       1    1417
       1    1418
       1    1419
       1    1420
       1    1421
       1    1422
       1    1423
       1    1424
       1    1425
       1    1426
       1    1427
       1    1428
       1    1429
       1    1430
       1    1431
       1    1432
       1    1433
       1    1434
       1    1435
       1    1436
       1    1437
       1    1438
       1    1439
       1    1440
       1    1441
       1    1442
       1    1443
       1    1444
       1    1445
       1    1446
       1    1447
       1    1448
       1    1449
       1    1450
       1    1451
       1    1452
       1    1453
       1    1454
       1    1455
       1    1456
       1    1457
       1    1458
       1    1459
       1    1460
       1    1461
       1    1462
       1    1463
       1    1464
       1    1465
       1    1466
       1    1467
       1    1468
       1    1469
       1    1470
       1    1471
       1    1472
       1    1473
       1    1474
       1    1475
       1    1476
       1    1477
       1    1478
       1    1479
       1    1480
       1    1481
       1    1482
       1    1483
       1    1484
       1    1485
       1    1486
       1    1487
       1    1488
       1    1489
       1    1490
       1    1491
       1    1492
       1    1493
       1    1494
       1    1495
       1    1496
       1    1497
       1    1498
       1    1499
       1    1500
       1    1501
       1    1502
       1    1503
       1    1504
       1    1505
       1    1506
       1    1507
       1    1508
       1    1509
       1    1510
       1    1511
       1    1512
       1    1513
       1    1514
       1    1515
       1    1516
       1    1517
       1    1518
       1    1519
       1    1520
       1    1521
       1    1522
       1    1523
       1    1524
       1    1525
       1    1526
       1    1527
       1    1528
       1    1529
       1    1530
       1    1531
       1    1532
       1    1533
       1    1534
       1    1535
       1    1536
       1    1537
       1    1538
       1    1539
       1    1540
       1    1541
       1    1542
       1    1543
       1    1544
       1    1545
       1    1546
       1    1547
       1    1548
       1    1549
       1    1550
       1    1551
       1    1552
       1    1553
       1    1554
       1    1555
       1    1556
       1    1557
       1    1558
       1    1559
       1    1560
       1    1561
       1    1562
       1    1563
       1    1564
       1    1565
       1    1566
       1    1567
       1    1568
       1    1569
       1    1570
       1    1571
       1    1572
       1    1573
       1    1574
       1    1575
       1    1576
       1    1577
       1    1578
       1    1579
       1    1580
       1    1581
       1    1582
       1    1583
       1    1584
       1    1585
       1    1586
       1    1587
       1    1588
       1    1589
       1    1590
       1    1591
       1    1592
       1    1593
       1    1594
       1    1595
       1    1596
       1    1597
       1    1598
       1    1599
       1    1600
       1    1601
       1    1602
       1    1603
       1    1604
       1    1605
       1    1606
       1    1607
       1    1608
       1    1609
       1    1610
       1    1611
       1    1612
       1    1613
       1    1614
       1    1615
       1    1616
       1    1617
       1    1618
       1    1619
       1    1620
       1    1621
       1    1622
       1    1623
       1    1624
       1    1625
       1    1626
       1    1627
       1    1628
       1    1629
       1    1630
       1    1631
       1    1632
       1    1633
       1    1634
       1    1635
       1    1636
       1    1637
       1    1638
       1    1639
       1    1640
       1    1641
       1    1642
       1    1643
       1    1644
       1    1645
       1    1646
       1    1647
       1    1648
       1    1649
       1    1650
       1    1651
       1    1652
       1    1653
       1    1654
       1    1655
       1    1656
       1    1657
       1    1658
       1    1659
       1    1660
       1    1661
       1    1662
       1    1663
       1    1664
       1    1665
       1    1666
       1    1667
       1    1668
       1    1669
       1    1670
       1    1671
       1    1672
       1    1673
       1    1674
       1    1675
       1    1676
       1    1677
       1    1678
       1    1679
       1    1680
       1    1681
       1    1682
       1    1683
       1    1684
       1    1685
       1    1686
       1    1687
       1    1688
       1    1689
       1    1690
       1    1691
       1    1692
       1    1693
       1    1694
       1    1695
       1    1696
       1    1697
       1    1698
       1    1699
       1    1700
       1    1701
       1    1702
       1    1703
       1    1704
       1    1705
       1    1706
       1    1707
       1    1708
       1    1709
       1    1710
       1    1711
       1    1712
       1    1713
       1    1714
       1    1715
       1    1716
       1    1717
       1    1718
       1    1719
       1    1720
       1    1721
       1    1722
       1    1723
       1    1724
       1    1725
       1    1726
       1    1727
       1    1728
       1    1729
       1    1730
       1    1731
       1    1732
       1    1733
       1    1734
       1    1735
       1    1736
       1    1737
       1    1738
       1    1739
       1    1740
       1    1741
       1    1742
       1    1743
       1    1744
       1    1745
       1    1746
       1    1747
       1    1748
       1    1749
       1    1750
       1    1751
       1    1752
       1    1753
       1    1754
       1    1755
       1    1756
       1    1757
       1    1758
       1    1759
       1    1760
       1    1761
       1    1762
       1    1763
       1    1764
       1    1765
       1    1766
       1    1767
       1    1768
       1    1769
       1    1770
       1    1771
       1    1772
       1    1773
       1    1774
       1    1775
       1    1776
       1    1777
       1    1778
       1    1779
       1    1780
       1    1781
       1    1782
       1    1783
       1    1784
       1    1785
       1    1786
       1    1787
       1    1788
       1    1789
       1    1790
       1    1791
       1    1792
       1    1793
       1    1794
       1    1795
       1    1796
       1    1797
       1    1798
       1    1799
       1    1800
       1    1801
       1    1802
       1    1803
       1    1804
       1    1805
       1    1806
       1    1807
       1    1808
       1    1809
       1    1810
       1    1811
       1    1812
       1    1813
       1    1814
       1    1815
       1    1816
       1    1817
       1    1818
       1    1819
       1    1820
       1    1821
       1    1822
       1    1823
       1    1824
       1    1825
       1    1826
       1    1827
       1    1828
       1    1829
       1    1830
       1    1831
       1    1832
       1    1833
       1    1834
       1    1835
       1    1836
       1    1837
       1    1838
       1    1839
       1    1840
       1    1841
       1    1842
       1    1843
       1    1844
       1    1845
       1    1846
       1    1847
       1    1848
       1    1849
       1    1850
       1    1851
       1    1852
       1    1853
       1    1854
       1    1855
       1    1856
       1    1857
       1    1858
       1    1859
       1    1860
       1    1861
       1    1862
       1    1863
       1    1864
       1    1865
       1    1866
       1    1867
       1    1868
       1    1869
       1    1870
       1    1871
       1    1872
       1    1873
       1    1874
       1    1875
       1    1876
       1    1877
       1    1878
       1    1879
       1    1880
       1    1881
       1    1882
       1    1883
       1    1884
       1    1885
       1    1886
       1    1887
       1    1888
       1    1889
       1    1890
       1    1891
       1    1892
       1    1893
       1    1894
       1    1895
       1    1896
       1    1897
       1    1898
       1    1899
       1    1900
       1    1901
       1    1902
       1    1903
       1    1904
       1    1905
       1    1906
       1    1907
       1    1908
       1    1909
       1    1910
       1    1911
       1    1912
       1    1913
       1    1914
       1    1915
       1    1916
       1    1917
       1    1918
       1    1919
       1    1920
       1    1921
       1    1922
       1    1923
       1    1924
       1    1925
       1    1926
       1    1927
       1    1928
       1    1929
       1    1930
       1    1931
       1    1932
       1    1933
       1    1934
       1    1935
       1    1936
       1    1937
       1    1938
       1    1939
       1    1940
       1    1941
       1    1942
       1    1943
       1    1944
       1    1945
       1    1946
       1    1947
       1    1948
       1    1949
       8       0       1       2       3       4       5       6       7
       8       2       8       9       3       6      10      11       7
       8      12       1       0      13      14       5       4      15
       8       0      16      17      13       4      18      19      15
       8      20      21      22      12      23      24      25      14
       8      26      27      21      20      28      29      24      23
       8      13      26      20      12      15      28      23      14
       8      30      31      16      32      33      34      18      35
       8      36      37      31      30      38      39      34      33
       8      40      41      37      36      42      43      39      38
       8      44      40      36      45      46      42      38      47
       8      48      17      16      31      49      19      18      34
       8      30      50      45      36      33      51      47      38
       8       0       3      32      16       4       7      35      18
       8      52      26      13      17      53      28      15      19
       8      54      52      17      48      55      53      19      49
       8      56      54      48      57      58      55      49      59
       8      37      57      48      31      39      59      49      34
       8      60      61      50      30      62      63      51      33
       8      64      60      30      32      65      62      33      35
       8      66      64      32       3      67      65      35       7
       8      68       8       2      69      70      10       6      71
       8      72      69       2       1      73      71       6       5
       8      22      72       1      12      25      73       5      14
       8      74      27      26      52      75      29      28      53
       8      76      74      52      54      77      75      53      55
       8      78      76      54      56      79      77      55      58
       8      80      78      56      81      82      79      58      83
       8      84      81      56      57      85      83      58      59
       8      41      84      57      37      43      85      59      39
       8      86      44      45      50      87      46      47      51
       8      88      86      50      61      89      87      51      63
       8      90      88      61      91      92      89      63      93
       8      94      91      61      60      95      93      63      62
       8      96      94      60      64      97      95      62      65
       8      98      96      64      66      99      97      65      67
       8     100      98      66     101     102      99      67     103
       8       9     101      66       3      11     103      67       7
       8     104     105       8      68     106     107      10      70
       8     108     104      68      69     109     106      70      71
       8     110     108      69      72     111     109      71      73
       8     112     110      72      22     113     111      73      25
       8     114     112      22      21     115     113      25      24
       8     116     114      21      27     117     115      24      29
       8     118     116      27      74     119     117      29      75
       8     120     118      74      76     121     119      75      77
       8     122     120      76      78     123     121      77      79
       8     124     122      78      80     125     123      79      82
       8     126     124      80      81     127     125      82      83
       8     128     126      81      84     129     127      83      85
       8     130     128      84      41     131     129      85      43
       8     132     130      41      40     133     131      43      42
       8     134     132      40      44     135     133      42      46
       8     136     134      44      86     137     135      46      87
       8     138     136      86      88     139     137      87      89
       8     140     138      88      90     141     139      89      92
       8     142     140      90      91     143     141      92      93
       8     144     142      91      94     145     143      93      95
       8     146     144      94      96     147     145      95      97
       8     148     146      96      98     149     147      97      99
       8     150     148      98     100     151     149      99     102
       8     152     150     100     101     153     151     102     103
       8     154     152     101       9     155     153     103      11
       8     105     154       9       8     107     155      11      10
       8     156     157     158     159       0       1       2       3
       8     158     160     161     159       2       8       9       3
       8     162     157     156     163      12       1       0      13
       8     156     164     165     163       0      16      17      13
       8     166     167     168     162      20      21      22      12
       8     169     170     167     166      26      27      21      20
       8     163     169     166     162      13      26      20      12
       8     171     172     164     173      30      31      16      32
       8     174     175     172     171      36      37      31      30
       8     176     177     175     174      40      41      37      36
       8     178     176     174     179      44      40      36      45
       8     180     165     164     172      48      17      16      31
       8     171     181     179     174      30      50      45      36
       8     156     159     173     164       0       3      32      16
       8     182     169     163     165      52      26      13      17
       8     183     182     165     180      54      52      17      48
       8     184     183     180     185      56      54      48      57
       8     175     185     180     172      37      57      48      31
       8     186     187     181     171      60      61      50      30
       8     188     186     171     173      64      60      30      32
       8     189     188     173     159      66      64      32       3
       8     190     160     158     191      68       8       2      69
       8     192     191     158     157      72      69       2       1
       8     168     192     157     162      22      72       1      12
       8     193     170     169     182      74      27      26      52
       8     194     193     182     183      76      74      52      54
       8     195     194     183     184      78      76      54      56
       8     196     195     184     197      80      78      56      81
       8     198     197     184     185      84      81      56      57
       8     177     198     185     175      41      84      57      37
       8     199     178     179     181      86      44      45      50
       8     200     199     181     187      88      86      50      61
       8     201     200     187     202      90      88      61      91
       8     203     202     187     186      94      91      61      60
       8     204     203     186     188      96      94      60      64
       8     205     204     188     189      98      96      64      66
       8     206     205     189     207     100      98      66     101
       8     161     207     189     159       9     101      66       3
       8     208     209     160     190     104     105       8      68
       8     210     208     190     191     108     104      68      69
       8     211     210     191     192     110     108      69      72
       8     212     211     192     168     112     110      72      22
       8     213     212     168     167     114     112      22      21
       8     214     213     167     170     116     114      21      27
       8     215     214     170     193     118     116      27      74
       8     216     215     193     194     120     118      74      76
       8     217     216     194     195     122     120      76      78
       8     218     217     195     196     124     122      78      80
       8     219     218     196     197     126     124      80      81
       8     220     219     197     198     128     126      81      84
       8     221     220     198     177     130     128      84      41
       8     222     221     177     176     132     130      41      40
       8     223     222     176     178     134     132      40      44
       8     224     223     178     199     136     134      44      86
       8     225     224     199     200     138     136      86      88
       8     226     225     200     201     140     138      88      90
       8     227     226     201     202     142     140      90      91
       8     228     227     202     203     144     142      91      94
       8     229     228     203     204     146     144      94      96
       8     230     229     204     205     148     146      96      98
       8     231     230     205     206     150     148      98     100
       8     232     231     206     207     152     150     100     101
       8     233     232     207     161     154     152     101       9
       8     209     233     161     160     105     154       9       8
       8     234     235     236     237     156     157     158     159
       8     236     238     239     237     158     160     161     159
       8     240     235     234     241     162     157     156     163
       8     234     242     243     241     156     164     165     163
       8     244     245     246     240     166     167     168     162
       8     247     248     245     244     169     170     167     166
       8     241     247     244     240     163     169     166     162
       8     249     250     242     251     171     172     164     173
       8     252     253     250     249     174     175     172     171
       8     254     255     253     252     176     177     175     174
       8     256     254     252     257     178     176     174     179
       8     258     243     242     250     180     165     164     172
       8     249     259     257     252     171     181     179     174
       8     234     237     251     242     156     159     173     164
       8     260     247     241     243     182     169     163     165
       8     261     260     243     258     183     182     165     180
       8     262     261     258     263     184     183     180     185
       8     253     263     258     250     175     185     180     172
       8     264     265     259     249     186     187     181     171
       8     266     264     249     251     188     186     171     173
       8     267     266     251     237     189     188     173     159
       8     268     238     236     269     190     160     158     191
       8     270     269     236     235     192     191     158     157
       8     246     270     235     240     168     192     157     162
       8     271     248     247     260     193     170     169     182
       8     272     271     260     261     194     193     182     183
       8     273     272     261     262     195     194     183     184
       8     274     273     262     275     196     195     184     197
       8     276     275     262     263     198     197     184     185
       8     255     276     263     253     177     198     185     175
       8     277     256     257     259     199     178     179     181
       8     278     277     259     265     200     199     181     187
       8     279     278     265     280     201     200     187     202
       8     281     280     265     264     203     202     187     186
       8     282     281     264     266     204     203     186     188
       8     283     282     266     267     205     204     188     189
       8     284     283     267     285     206     205     189     207
       8     239     285     267     237     161     207     189     159
       8     286     287     238     268     208     209     160     190
       8     288     286     268     269     210     208     190     191
       8     289     288     269     270     211     210     191     192
       8     290     289     270     246     212     211     192     168
       8     291     290     246     245     213     212     168     167
       8     292     291     245     248     214     213     167     170
       8     293     292     248     271     215     214     170     193
       8     294     293     271     272     216     215     193     194
       8     295     294     272     273     217     216     194     195
       8     296     295     273     274     218     217     195     196
       8     297     296     274     275     219     218     196     197
       8     298     297     275     276     220     219     197     198
       8     299     298     276     255     221     220     198     177
       8     300     299     255     254     222     221     177     176
       8     301     300     254     256     223     222     176     178
       8     302     301     256     277     224     223     178     199
       8     303     302     277     278     225     224     199     200
       8     304     303     278     279     226     225     200     201
       8     305     304     279     280     227     226     201     202
       8     306     305     280     281     228     227     202     203
       8     307     306     281     282     229     228     203     204
       8     308     307     282     283     230     229     204     205
       8     309     308     283     284     231     230     205     206
       8     310     309     284     285     232     231     206     207
       8     311     310     285     239     233     232     207     161
       8     287     311     239     238     209     233     161     160
       8     312     313     314     315     234     235     236     237
       8     314     316     317     315     236     238     239     237
       8     318     313     312     319     240     235     234     241
       8     312     320     321     319     234     242     243     241
       8     322     323     324     318     244     245     246     240
       8     325     326     323     322     247     248     245     244
       8     319     325     322     318     241     247     244     240
       8     327     328     320     329     249     250     242     251
       8     330     331     328     327     252     253     250     249
       8     332     333     331     330     254     255     253     252
       8     334     332     330     335     256     254     252     257
       8     336     321     320     328     258     243     242     250
       8     327     337     335     330     249     259     257     252
       8     312     315     329     320     234     237     251     242
       8     338     325     319     321     260     247     241     243
       8     339     338     321     336     261     260     243     258
       8     340     339     336     341     262     261     258     263
       8     331     341     336     328     253     263     258     250
       8     342     343     337     327     264     265     259     249
       8     344     342     327     329     266     264     249     251
       8     345     344     329     315     267     266     251     237
       8     346     316     314     347     268     238     236     269
       8     348     347     314     313     270     269     236     235
       8     324     348     313     318     246     270     235     240
       8     349     326     325     338     271     248     247     260
       8     350     349     338     339     272     271     260     261
       8     351     350     339     340     273     272     261     262
       8     352     351     340     353     274     273     262     275
       8     354     353     340     341     276     275     262     263
       8     333     354     341     331     255     276     263     253
       8     355     334     335     337     277     256     257     259
       8     356     355     337     343     278     277     259     265
       8     357     356     343     358     279     278     265     280
       8     359     358     343     342     281     280     265     264
       8     360     359     342     344     282     281     264     266
       8     361     360     344     345     283     282     266     267
       8     362     361     345     363     284     283     267     285
       8     317     363     345     315     239     285     267     237
       8     364     365     316     346     286     287     238     268
       8     366     364     346     347     288     286     268     269
       8     367     366     347     348     289     288     269     270
       8     368     367     348     324     290     289     270     246
       8     369     368     324     323     291     290     246     245
       8     370     369     323     326     292     291     245     248
       8     371     370     326     349     293     292     248     271
       8     372     371     349     350     294     293     271     272
       8     373     372     350     351     295     294     272     273
       8     374     373     351     352     296     295     273     274
       8     375     374     352     353     297     296     274     275
       8     376     375     353     354     298     297     275     276
       8     377     376     354     333     299     298     276     255
       8     378     377     333     332     300     299     255     254
       8     379     378     332     334     301     300     254     256
       8     380     379     334     355     302     301     256     277
       8     381     380     355     356     303     302     277     278
       8     382     381     356     357     304     303     278     279
       8     383     382     357     358     305     304     279     280
       8     384     383     358     359     306     305     280     281
       8     385     384     359     360     307     306     281     282
       8     386     385     360     361     308     307     282     283
       8     387     386     361     362     309     308     283     284
       8     388     387     362     363     310     309     284     285
       8     389     388     363     317     311     310     285     239
       8     365     389     317     316     287     311     239     238
       8     390     391     392     393     312     313     314     315
       8     392     394     395     393     314     316     317     315
       8     396     391     390     397     318     313     312     319
       8     390     398     399     397     312     320     321     319
       8     400     401     402     396     322     323     324     318
       8     403     404     401     400     325     326     323     322
       8     397     403     400     396     319     325     322     318
       8     405     406     398     407     327     328     320     329
       8     408     409     406     405     330     331     328     327
       8     410     411     409     408     332     333     331     330
       8     412     410     408     413     334     332     330     335
       8     414     399     398     406     336     321     320     328
       8     405     415     413     408     327     337     335     330
       8     390     393     407     398     312     315     329     320
       8     416     403     397     399     338     325     319     321
       8     417     416     399     414     339     338     321     336
       8     418     417     414     419     340     339     336     341
       8     409     419     414     406     331     341     336     328
       8     420     421     415     405     342     343     337     327
       8     422     420     405     407     344     342     327     329
       8     423     422     407     393     345     344     329     315
       8     424     394     392     425     346     316     314     347
       8     426     425     392     391     348     347     314     313
       8     402     426     391     396     324     348     313     318
       8     427     404     403     416     349     326     325     338
       8     428     427     416     417     350     349     338     339
       8     429     428     417     418     351     350     339     340
       8     430     429     418     431     352     351     340     353
       8     432     431     418     419     354     353     340     341
       8     411     432     419     409     333     354     341     331
       8     433     412     413     415     355     334     335     337
       8     434     433     415     421     356     355     337     343
       8     435     434     421     436     357     356     343     358
       8     437     436     421     420     359     358     343     342
       8     438     437     420     422     360     359     342     344
       8     439     438     422     423     361     360     344     345
       8     440     439     423     441     362     361     345     363
       8     395     441     423     393     317     363     345     315
       8     442     443     394     424     364     365     316     346
       8     444     442     424     425     366     364     346     347
       8     445     444     425     426     367     366     347     348
       8     446     445     426     402     368     367     348     324
       8     447     446     402     401     369     368     324     323
       8     448     447     401     404     370     369     323     326
       8     449     448     404     427     371     370     326     349
       8     450     449     427     428     372     371     349     350
       8     451     450     428     429     373     372     350     351
       8     452     451     429     430     374     373     351     352
       8     453     452     430     431     375     374     352     353
       8     454     453     431     432     376     375     353     354
       8     455     454     432     411     377     376     354     333
       8     456     455     411     410     378     377     333     332
       8     457     456     410     412     379     378     332     334
       8     458     457     412     433     380     379     334     355
       8     459     458     433     434     381     380     355     356
       8     460     459     434     435     382     381     356     357
       8     461     460     435     436     383     382     357     358
       8     462     461     436     437     384     383     358     359
       8     463     462     437     438     385     384     359     360
       8     464     463     438     439     386     385     360     361
       8     465     464     439     440     387     386     361     362
       8     466     465     440     441     388     387     362     363
       8     467     466     441     395     389     388     363     317
       8     443     467     395     394     365     389     317     316
       8     468     469     470     471     390     391     392     393
       8     470     472     473     471     392     394     395     393
       8     474     469     468     475     396     391     390     397
       8     468     476     477     475     390     398     399     397
       8     478     479     480     474     400     401     402     396
       8     481     482     479     478     403     404     401     400
       8     475     481     478     474     397     403     400     396
       8     483     484     476     485     405     406     398     407
       8     486     487     484     483     408     409     406     405
       8     488     489     487     486     410     411     409     408
       8     490     488     486     491     412     410     408     413
       8     492     477     476     484     414     399     398     406
       8     483     493     491     486     405     415     413     408
       8     468     471     485     476     390     393     407     398
       8     494     481     475     477     416     403     397     399
       8     495     494     477     492     417     416     399     414
       8     496     495     492     497     418     417     414     419
       8     487     497     492     484     409     419     414     406
       8     498     499     493     483     420     421     415     405
       8     500     498     483     485     422     420     405     407
       8     501     500     485     471     423     422     407     393
       8     502     472     470     503     424     394     392     425
       8     504     503     470     469     426     425     392     391
       8     480     504     469     474     402     426     391     396
       8     505     482     481     494     427     404     403     416
       8     506     505     494     495     428     427     416     417
       8     507     506     495     496     429     428     417     418
       8     508     507     496     509     430     429     418     431
       8     510     509     496     497     432     431     418     419
       8     489     510     497     487     411     432     419     409
       8     511     490     491     493     433     412     413     415
       8     512     511     493     499     434     433     415     421
       8     513     512     499     514     435     434     421     436
       8     515     514     499     498     437     436     421     420
       8     516     515     498     500     438     437     420     422
       8     517     516     500     501     439     438     422     423
       8     518     517     501     519     440     439     423     441
       8     473     519     501     471     395     441     423     393
       8     520     521     472     502     442     443     394     424
       8     522     520     502     503     444     442     424     425
       8     523     522     503     504     445     444     425     426
       8     524     523     504     480     446     445     426     402
       8     525     524     480     479     447     446     402     401
       8     526     525     479     482     448     447     401     404
       8     527     526     482     505     449     448     404     427
       8     528     527     505     506     450     449     427     428
       8     529     528     506     507     451     450     428     429
       8     530     529     507     508     452     451     429     430
       8     531     530     508     509     453     452     430     431
       8     532     531     509     510     454     453     431     432
       8     533     532     510     489     455     454     432     411
       8     534     533     489     488     456     455     411     410
       8     535     534     488     490     457     456     410     412
       8     536     535     490     511     458     457     412     433
       8     537     536     511     512     459     458     433     434
       8     538     537     512     513     460     459     434     435
       8     539     538     513     514     461     460     435     436
       8     540     539     514     515     462     461     436     437
       8     541     540     515     516     463     462     437     438
       8     542     541     516     517     464     463     438     439
       8     543     542     517     518     465     464     439     440
       8     544     543     518     519     466     465     440     441
       8     545     544     519     473     467     466     441     395
       8     521     545     473     472     443     467     395     394
       8     546     547     548     549     468     469     470     471
       8     548     550     551     549     470     472     473     471
       8     552     547     546     553     474     469     468     475
       8     546     554     555     553     468     476     477     475
       8     556     557     558     552     478     479     480     474
       8     559     560     557     556     481     482     479     478
       8     553     559     556     552     475     481     478     474
       8     561     562     554     563     483     484     476     485
       8     564     565     562     561     486     487     484     483
       8     566     567     565     564     488     489     487     486
       8     568     566     564     569     490     488     486     491
       8     570     555     554     562     492     477     476     484
       8     561     571     569     564     483     493     491     486
       8     546     549     563     554     468     471     485     476
       8     572     559     553     555     494     481     475     477
       8     573     572     555     570     495     494     477     492
       8     574     573     570     575     496     495     492     497
       8     565     575     570     562     487     497     492     484
       8     576     577     571     561     498     499     493     483
       8     578     576     561     563     500     498     483     485
       8     579     578     563     549     501     500     485     471
       8     580     550     548     581     502     472     470     503
       8     582     581     548     547     504     503     470     469
       8     558     582     547     552     480     504     469     474
       8     583     560     559     572     505     482     481     494
       8     584     583     572     573     506     505     494     495
       8     585     584     573     574     507     506     495     496
       8     586     585     574     587     508     507     496     509
       8     588     587     574     575     510     509     496     497
       8     567     588     575     565     489     510     497     487
       8     589     568     569     571     511     490     491     493
       8     590     589     571     577     512     511     493     499
       8     591     590     577     592     513     512     499     514
       8     593     592     577     576     515     514     499     498
       8     594     593     576     578     516     515     498     500
       8     595     594     578     579     517     516     500     501
       8     596     595     579     597     518     517     501     519
       8     551     597     579     549     473     519     501     471
       8     598     599     550     580     520     521     472     502
       8     600     598     580     581     522     520     502     503
       8     601     600     581     582     523     522     503     504
       8     602     601     582     558     524     523     504     480
       8     603     602     558     557     525     524     480     479
       8     604     603     557     560     526     525     479     482
       8     605     604     560     583     527     526     482     505
       8     606     605     583     584     528     527     505     506
       8     607     606     584     585     529     528     506     507
       8     608     607     585     586     530     529     507     508
       8     609     608     586     587     531     530     508     509
       8     610     609     587     588     532     531     509     510
       8     611     610     588     567     533     532     510     489
       8     612     611     567     566     534     533     489     488
       8     613     612     566     568     535     534     488     490
       8     614     613     568     589     536     535     490     511
       8     615     614     589     590     537     536     511     512
       8     616     615     590     591     538     537     512     513
       8     617     616     591     592     539     538     513     514
       8     618     617     592     593     540     539     514     515
       8     619     618     593     594     541     540     515     516
       8     620     619     594     595     542     541     516     517
       8     621     620     595     596     543     542     517     518
       8     622     621     596     597     544     543     518     519
       8     623     622     597     551     545     544     519     473
       8     599     623     551     550     521     545     473     472
       8     624     625     626     627     546     547     548     549
       8     626     628     629     627     548     550     551     549
       8     630     625     624     631     552     547     546     553
       8     624     632     633     631     546     554     555     553
       8     634     635     636     630     556     557     558     552
       8     637     638     635     634     559     560     557     556
       8     631     637     634     630     553     559     556     552
       8     639     640     632     641     561     562     554     563
       8     642     643     640     639     564     565     562     561
       8     644     645     643     642     566     567     565     564
       8     646     644     642     647     568     566     564     569
       8     648     633     632     640     570     555     554     562
       8     639     649     647     642     561     571     569     564
       8     624     627     641     632     546     549     563     554
       8     650     637     631     633     572     559     553     555
       8     651     650     633     648     573     572     555     570
       8     652     651     648     653     574     573     570     575
       8     643     653     648     640     565     575     570     562
       8     654     655     649     639     576     577     571     561
       8     656     654     639     641     578     576     561     563
       8     657     656     641     627     579     578     563     549
       8     658     628     626     659     580     550     548     581
       8     660     659     626     625     582     581     548     547
       8     636     660     625     630     558     582     547     552
       8     661     638     637     650     583     560     559     572
       8     662     661     650     651     584     583     572     573
       8     663     662     651     652     585     584     573     574
       8     664     663     652     665     586     585     574     587
       8     666     665     652     653     588     587     574     575
       8     645     666     653     643     567     588     575     565
       8     667     646     647     649     589     568     569     571
       8     668     667     649     655     590     589     571     577
       8     669     668     655     670     591     590     577     592
       8     671     670     655     654     593     592     577     576
       8     672     671     654     656     594     593     576     578
       8     673     672     656     657     595     594     578     579
       8     674     673     657     675     596     595     579     597
       8     629     675     657     627     551     597     579     549
       8     676     677     628     658     598     599     550     580
       8     678     676     658     659     600     598     580     581
       8     679     678     659     660     601     600     581     582
       8     680     679     660     636     602     601     582     558
       8     681     680     636     635     603     602     558     557
       8     682     681     635     638     604     603     557     560
       8     683     682     638     661     605     604     560     583
       8     684     683     661     662     606     605     583     584
       8     685     684     662     663     607     606     584     585
       8     686     685     663     664     608     607     585     586
       8     687     686     664     665     609     608     586     587
       8     688     687     665     666     610     609     587     588
       8     689     688     666     645     611     610     588     567
       8     690     689     645     644     612     611     567     566
       8     691     690     644     646     613     612     566     568
       8     692     691     646     667     614     613     568     589
       8     693     692     667     668     615     614     589     590
       8     694     693     668     669     616     615     590     591
       8     695     694     669     670     617     616     591     592
       8     696     695     670     671     618     617     592     593
       8     697     696     671     672     619     618     593     594
       8     698     697     672     673     620     619     594     595
       8     699     698     673     674     621     620     595     596
       8     700     699     674     675     622     621     596     597
       8     701     700     675     629     623     622     597     551
       8     677     701     629     628     599     623     551     550
       8     702     703     704     705     624     625     626     627
       8     704     706     707     705     626     628     629     627
       8     708     703     702     709     630     625     624     631
       8     702     710     711     709     624     632     633     631
       8     712     713     714     708     634     635     636     630
       8     715     716     713     712     637     638     635     634
       8     709     715     712     708     631     637     634     630
       8     717     718     710     719     639     640     632     641
       8     720     721     718     717     642     643     640     639
       8     722     723     721     720     644     645     643     642
       8     724     722     720     725     646     644     642     647
       8     726     711     710     718     648     633     632     640
       8     717     727     725     720     639     649     647     642
       8     702     705     719     710     624     627     641     632
       8     728     715     709     711     650     637     631     633
       8     729     728     711     726     651     650     633     648
       8     730     729     726     731     652     651     648     653
       8     721     731     726     718     643     653     648     640
       8     732     733     727     717     654     655     649     639
       8     734     732     717     719     656     654     639     641
       8     735     734     719     705     657     656     641     627
       8     736     706     704     737     658     628     626     659
       8     738     737     704     703     660     659     626     625
       8     714     738     703     708     636     660     625     630
       8     739     716     715     728     661     638     637     650
       8     740     739     728     729     662     661     650     651
       8     741     740     729     730     663     662     651     652
       8     742     741     730     743     664     663     652     665
       8     744     743     730     731     666     665     652     653
       8     723     744     731     721     645     666     653     643
       8     745     724     725     727     667     646     647     649
       8     746     745     727     733     668     667     649     655
       8     747     746     733     748     669     668     655     670
       8     749     748     733     732     671     670     655     654
       8     750     749     732     734     672     671     654     656
       8     751     750     734     735     673     672     656     657
       8     752     751     735     753     674     673     657     675
       8     707     753     735     705     629     675     657     627
       8     754     755     706     736     676     677     628     658
       8     756     754     736     737     678     676     658     659
       8     757     756     737     738     679     678     659     660
       8     758     757     738     714     680     679     660     636
       8     759     758     714     713     681     680     636     635
       8     760     759     713     716     682     681     635     638
       8     761     760     716     739     683     682     638     661
       8     762     761     739     740     684     683     661     662
       8     763     762     740     741     685     684     662     663
       8     764     763     741     742     686     685     663     664
       8     765     764     742     743     687     686     664     665
       8     766     765     743     744     688     687     665     666
       8     767     766     744     723     689     688     666     645
       8     768     767     723     722     690     689     645     644
       8     769     768     722     724     691     690     644     646
       8     770     769     724     745     692     691     646     667
       8     771     770     745     746     693     692     667     668
       8     772     771     746     747     694     693     668     669
       8     773     772     747     748     695     694     669     670
       8     774     773     748     749     696     695     670     671
       8     775     774     749     750     697     696     671     672
       8     776     775     750     751     698     697     672     673
       8     777     776     751     752     699     698     673     674
       8     778     777     752     753     700     699     674     675
       8     779     778     753     707     701     700     675     629
       8     755     779     707     706     677     701     629     628
       8     780     781     782     783     702     703     704     705
       8     782     784     785     783     704     706     707     705
       8     786     781     780     787     708     703     702     709
       8     780     788     789     787     702     710     711     709
       8     790     791     792     786     712     713     714     708
       8     793     794     791     790     715     716     713     712
       8     787     793     790     786     709     715     712     708
       8     795     796     788     797     717     718     710     719
       8     798     799     796     795     720     721     718     717
       8     800     801     799     798     722     723     721     720
       8     802     800     798     803     724     722     720     725
       8     804     789     788     796     726     711     710     718
       8     795     805     803     798     717     727     725     720
       8     780     783     797     788     702     705     719     710
       8     806     793     787     789     728     715     709     711
       8     807     806     789     804     729     728     711     726
       8     808     807     804     809     730     729     726     731
       8     799     809     804     796     721     731     726     718
       8     810     811     805     795     732     733     727     717
       8     812     810     795     797     734     732     717     719
       8     813     812     797     783     735     734     719     705
       8     814     784     782     815     736     706     704     737
       8     816     815     782     781     738     737     704     703
       8     792     816     781     786     714     738     703     708
       8     817     794     793     806     739     716     715     728
       8     818     817     806     807     740     739     728     729
       8     819     818     807     808     741     740     729     730
       8     820     819     808     821     742     741     730     743
       8     822     821     808     809     744     743     730     731
       8     801     822     809     799     723     744     731     721
       8     823     802     803     805     745     724     725     727
       8     824     823     805     811     746     745     727     733
       8     825     824     811     826     747     746     733     748
       8     827     826     811     810     749     748     733     732
       8     828     827     810     812     750     749     732     734
       8     829     828     812     813     751     750     734     735
       8     830     829     813     831     752     751     735     753
       8     785     831     813     783     707     753     735     705
       8     832     833     784     814     754     755     706     736
       8     834     832     814     815     756     754     736     737
       8     835     834     815     816     757     756     737     738
       8     836     835     816     792     758     757     738     714
       8     837     836     792     791     759     758     714     713
       8     838     837     791     794     760     759     713     716
       8     839     838     794     817     761     760     716     739
       8     840     839     817     818     762     761     739     740
       8     841     840     818     819     763     762     740     741
       8     842     841     819     820     764     763     741     742
       8     843     842     820     821     765     764     742     743
       8     844     843     821     822     766     765     743     744
       8     845     844     822     801     767     766     744     723
       8     846     845     801     800     768     767     723     722
       8     847     846     800     802     769     768     722     724
       8     848     847     802     823     770     769     724     745
       8     849     848     823     824     771     770     745     746
       8     850     849     824     825     772     771     746     747
       8     851     850     825     826     773     772     747     748
       8     852     851     826     827     774     773     748     749
       8     853     852     827     828     775     774     749     750
       8     854     853     828     829     776     775     750     751
       8     855     854     829     830     777     776     751     752
       8     856     855     830     831     778     777     752     753
       8     857     856     831     785     779     778     753     707
       8     833     857     785     784     755     779     707     706
       8     858     859     860     861     780     781     782     783
       8     860     862     863     861     782     784     785     783
       8     864     859     858     865     786     781     780     787
       8     858     866     867     865     780     788     789     787
       8     868     869     870     864     790     791     792     786
       8     871     872     869     868     793     794     791     790
       8     865     871     868     864     787     793     790     786
       8     873     874     866     875     795     796     788     797
       8     876     877     874     873     798     799     796     795
       8     878     879     877     876     800     801     799     798
       8     880     878     876     881     802     800     798     803
       8     882     867     866     874     804     789     788     796
       8     873     883     881     876     795     805     803     798
       8     858     861     875     866     780     783     797     788
       8     884     871     865     867     806     793     787     789
       8     885     884     867     882     807     806     789     804
       8     886     885     882     887     808     807     804     809
       8     877     887     882     874     799     809     804     796
       8     888     889     883     873     810     811     805     795
       8     890     888     873     875     812     810     795     797
       8     891     890     875     861     813     812     797     783
       8     892     862     860     893     814     784     782     815
       8     894     893     860     859     816     815     782     781
       8     870     894     859     864     792     816     781     786
       8     895     872     871     884     817     794     793     806
       8     896     895     884     885     818     817     806     807
       8     897     896     885     886     819     818     807     808
       8     898     897     886     899     820     819     808     821
       8     900     899     886     887     822     821     808     809
       8     879     900     887     877     801     822     809     799
       8     901     880     881     883     823     802     803     805
       8     902     901     883     889     824     823     805     811
       8     903     902     889     904     825     824     811     826
       8     905     904     889     888     827     826     811     810
       8     906     905     888     890     828     827     810     812
       8     907     906     890     891     829     828     812     813
       8     908     907     891     909     830     829     813     831
       8     863     909     891     861     785     831     813     783
       8     910     911     862     892     832     833     784     814
       8     912     910     892     893     834     832     814     815
       8     913     912     893     894     835     834     815     816
       8     914     913     894     870     836     835     816     792
       8     915     914     870     869     837     836     792     791
       8     916     915     869     872     838     837     791     794
       8     917     916     872     895     839     838     794     817
       8     918     917     895     896     840     839     817     818
       8     919     918     896     897     841     840     818     819
       8     920     919     897     898     842     841     819     820
       8     921     920     898     899     843     842     820     821
       8     922     921     899     900     844     843     821     822
       8     923     922     900     879     845     844     822     801
       8     924     923     879     878     846     845     801     800
       8     925     924     878     880     847     846     800     802
       8     926     925     880     901     848     847     802     823
       8     927     926     901     902     849     848     823     824
       8     928     927     902     903     850     849     824     825
       8     929     928     903     904     851     850     825     826
       8     930     929     904     905     852     851     826     827
       8     931     930     905     906     853     852     827     828
       8     932     931     906     907     854     853     828     829
       8     933     932     907     908     855     854     829     830
       8     934     933     908     909     856     855     830     831
       8     935     934     909     863     857     856     831     785
       8     911     935     863     862     833     857     785     784
       8     936     937     938     939     858     859     860     861
       8     938     940     941     939     860     862     863     861
       8     942     937     936     943     864     859     858     865
       8     936     944     945     943     858     866     867     865
       8     946     947     948     942     868     869     870     864
       8     949     950     947     946     871     872     869     868
       8     943     949     946     942     865     871     868     864
       8     951     952     944     953     873     874     866     875
       8     954     955     952     951     876     877     874     873
       8     956     957     955     954     878     879     877     876
       8     958     956     954     959     880     878     876     881
       8     960     945     944     952     882     867     866     874
       8     951     961     959     954     873     883     881     876
       8     936     939     953     944     858     861     875     866
       8     962     949     943     945     884     871     865     867
       8     963     962     945     960     885     884     867     882
       8     964     963     960     965     886     885     882     887
       8     955     965     960     952     877     887     882     874
       8     966     967     961     951     888     889     883     873
       8     968     966     951     953     890     888     873     875
       8     969     968     953     939     891     890     875     861
       8     970     940     938     971     892     862     860     893
       8     972     971     938     937     894     893     860     859
       8     948     972     937     942     870     894     859     864
       8     973     950     949     962     895     872     871     884
       8     974     973     962     963     896     895     884     885
       8     975     974     963     964     897     896     885     886
       8     976     975     964     977     898     897     886     899
       8     978     977     964     965     900     899     886     887
       8     957     978     965     955     879     900     887     877
       8     979     958     959     961     901     880     881     883
       8     980     979     961     967     902     901     883     889
       8     981     980     967     982     903     902     889     904
       8     983     982     967     966     905     904     889     888
       8     984     983     966     968     906     905     888     890
       8     985     984     968     969     907     906     890     891
       8     986     985     969     987     908     907     891     909
       8     941     987     969     939     863     909     891     861
       8     988     989     940     970     910     911     862     892
       8     990     988     970     971     912     910     892     893
       8     991     990     971     972     913     912     893     894
       8     992     991     972     948     914     913     894     870
       8     993     992     948     947     915     914     870     869
       8     994     993     947     950     916     915     869     872
       8     995     994     950     973     917     916     872     895
       8     996     995     973     974     918     917     895     896
       8     997     996     974     975     919     918     896     897
       8     998     997     975     976     920     919     897     898
       8     999     998     976     977     921     920     898     899
       8    1000     999     977     978     922     921     899     900
       8    1001    1000     978     957     923     922     900     879
       8    1002    1001     957     956     924     923     879     878
       8    1003    1002     956     958     925     924     878     880
       8    1004    1003     958     979     926     925     880     901
       8    1005    1004     979     980     927     926     901     902
       8    1006    1005     980     981     928     927     902     903
       8    1007    1006     981     982     929     928     903     904
       8    1008    1007     982     983     930     929     904     905
       8    1009    1008     983     984     931     930     905     906
       8    1010    1009     984     985     932     931     906     907
       8    1011    1010     985     986     933     932     907     908
       8    1012    1011     986     987     934     933     908     909
       8    1013    1012     987     941     935     934     909     863
       8     989    1013     941     940     911     935     863     862
       8    1014    1015    1016    1017     936     937     938     939
       8    1016    1018    1019    1017     938     940     941     939
       8    1020    1015    1014    1021     942     937     936     943
       8    1014    1022    1023    1021     936     944     945     943
       8    1024    1025    1026    1020     946     947     948     942
       8    1027    1028    1025    1024     949     950     947     946
       8    1021    1027    1024    1020     943     949     946     942
       8    1029    1030    1022    1031     951     952     944     953
       8    1032    1033    1030    1029     954     955     952     951
       8    1034    1035    1033    1032     956     957     955     954
       8    1036    1034    1032    1037     958     956     954     959
       8    1038    1023    1022    1030     960     945     944     952
       8    1029    1039    1037    1032     951     961     959     954
       8    1014    1017    1031    1022     936     939     953     944
       8    1040    1027    1021    1023     962     949     943     945
       8    1041    1040    1023    1038     963     962     945     960
       8    1042    1041    1038    1043     964     963     960     965
       8    1033    1043    1038    1030     955     965     960     952
       8    1044    1045    1039    1029     966     967     961     951
       8    1046    1044    1029    1031     968     966     951     953
       8    1047    1046    1031    1017     969     968     953     939
       8    1048    1018    1016    1049     970     940     938     971
       8    1050    1049    1016    1015     972     971     938     937
       8    1026    1050    1015    1020     948     972     937     942
       8    1051    1028    1027    1040     973     950     949     962
       8    1052    1051    1040    1041     974     973     962     963
       8    1053    1052    1041    1042     975     974     963     964
       8    1054    1053    1042    1055     976     975     964     977
       8    1056    1055    1042    1043     978     977     964     965
       8    1035    1056    1043    1033     957     978     965     955
       8    1057    1036    1037    1039     979     958     959     961
       8    1058    1057    1039    1045     980     979     961     967
       8    1059    1058    1045    1060     981     980     967     982
       8    1061    1060    1045    1044     983     982     967     966
       8    1062    1061    1044    1046     984     983     966     968
       8    1063    1062    1046    1047     985     984     968     969
       8    1064    1063    1047    1065     986     985     969     987
       8    1019    1065    1047    1017     941     987     969     939
       8    1066    1067    1018    1048     988     989     940     970
       8    1068    1066    1048    1049     990     988     970     971
       8    1069    1068    1049    1050     991     990     971     972
       8    1070    1069    1050    1026     992     991     972     948
       8    1071    1070    1026    1025     993     992     948     947
       8    1072    1071    1025    1028     994     993     947     950
       8    1073    1072    1028    1051     995     994     950     973
       8    1074    1073    1051    1052     996     995     973     974
       8    1075    1074    1052    1053     997     996     974     975
       8    1076    1075    1053    1054     998     997     975     976
       8    1077    1076    1054    1055     999     998     976     977
       8    1078    1077    1055    1056    1000     999     977     978
       8    1079    1078    1056    1035    1001    1000     978     957
       8    1080    1079    1035    1034    1002    1001     957     956
       8    1081    1080    1034    1036    1003    1002     956     958
       8    1082    1081    1036    1057    1004    1003     958     979
       8    1083    1082    1057    1058    1005    1004     979     980
       8    1084    1083    1058    1059    1006    1005     980     981
       8    1085    1084    1059    1060    1007    1006     981     982
       8    1086    1085    1060    1061    1008    1007     982     983
       8    1087    1086    1061    1062    1009    1008     983     984
       8    1088    1087    1062    1063    1010    1009     984     985
       8    1089    1088    1063    1064    1011    1010     985     986
       8    1090    1089    1064    1065    1012    1011     986     987
       8    1091    1090    1065    1019    1013    1012     987     941
       8    1067    1091    1019    1018     989    1013     941     940
       8    1092    1093    1094    1095    1014    1015    1016    1017
       8    1094    1096    1097    1095    1016    1018    1019    1017
       8    1098    1093    1092    1099    1020    1015    1014    1021
       8    1092    1100    1101    1099    1014    1022    1023    1021
       8    1102    1103    1104    1098    1024    1025    1026    1020
       8    1105    1106    1103    1102    1027    1028    1025    1024
       8    1099    1105    1102    1098    1021    1027    1024    1020
       8    1107    1108    1100    1109    1029    1030    1022    1031
       8    1110    1111    1108    1107    1032    1033    1030    1029
       8    1112    1113    1111    1110    1034    1035    1033    1032
       8    1114    1112    1110    1115    1036    1034    1032    1037
       8    1116    1101    1100    1108    1038    1023    1022    1030
       8    1107    1117    1115    1110    1029    1039    1037    1032
       8    1092    1095    1109    1100    1014    1017    1031    1022
       8    1118    1105    1099    1101    1040    1027    1021    1023
       8    1119    1118    1101    1116    1041    1040    1023    1038
       8    1120    1119    1116    1121    1042    1041    1038    1043
       8    1111    1121    1116    1108    1033    1043    1038    1030
       8    1122    1123    1117    1107    1044    1045    1039    1029
       8    1124    1122    1107    1109    1046    1044    1029    1031
       8    1125    1124    1109    1095    1047    1046    1031    1017
       8    1126    1096    1094    1127    1048    1018    1016    1049
       8    1128    1127    1094    1093    1050    1049    1016    1015
       8    1104    1128    1093    1098    1026    1050    1015    1020
       8    1129    1106    1105    1118    1051    1028    1027    1040
       8    1130    1129    1118    1119    1052    1051    1040    1041
       8    1131    1130    1119    1120    1053    1052    1041    1042
       8    1132    1131    1120    1133    1054    1053    1042    1055
       8    1134    1133    1120    1121    1056    1055    1042    1043
       8    1113    1134    1121    1111    1035    1056    1043    1033
       8    1135    1114    1115    1117    1057    1036    1037    1039
       8    1136    1135    1117    1123    1058    1057    1039    1045
       8    1137    1136    1123    1138    1059    1058    1045    1060
       8    1139    1138    1123    1122    1061    1060    1045    1044
       8    1140    1139    1122    1124    1062    1061    1044    1046
       8    1141    1140    1124    1125    1063    1062    1046    1047
       8    1142    1141    1125    1143    1064    1063    1047    1065
       8    1097    1143    1125    1095    1019    1065    1047    1017
       8    1144    1145    1096    1126    1066    1067    1018    1048
       8    1146    1144    1126    1127    1068    1066    1048    1049
       8    1147    1146    1127    1128    1069    1068    1049    1050
       8    1148    1147    1128    1104    1070    1069    1050    1026
       8    1149    1148    1104    1103    1071    1070    1026    1025
       8    1150    1149    1103    1106    1072    1071    1025    1028
       8    1151    1150    1106    1129    1073    1072    1028    1051
       8    1152    1151    1129    1130    1074    1073    1051    1052
       8    1153    1152    1130    1131    1075    1074    1052    1053
       8    1154    1153    1131    1132    1076    1075    1053    1054
       8    1155    1154    1132    1133    1077    1076    1054    1055
       8    1156    1155    1133    1134    1078    1077    1055    1056
       8    1157    1156    1134    1113    1079    1078    1056    1035
       8    1158    1157    1113    1112    1080    1079    1035    1034
       8    1159    1158    1112    1114    1081    1080    1034    1036
       8    1160    1159    1114    1135    1082    1081    1036    1057
       8    1161    1160    1135    1136    1083    1082    1057    1058
       8    1162    1161    1136    1137    1084    1083    1058    1059
       8    1163    1162    1137    1138    1085    1084    1059    1060
       8    1164    1163    1138    1139    1086    1085    1060    1061
       8    1165    1164    1139    1140    1087    1086    1061    1062
       8    1166    1165    1140    1141    1088    1087    1062    1063
       8    1167    1166    1141    1142    1089    1088    1063    1064
       8    1168    1167    1142    1143    1090    1089    1064    1065
       8    1169    1168    1143    1097    1091    1090    1065    1019
       8    1145    1169    1097    1096    1067    1091    1019    1018
       8    1170    1171    1172    1173    1092    1093    1094    1095
       8    1172    1174    1175    1173    1094    1096    1097    1095
       8    1176    1171    1170    1177    1098    1093    1092    1099
       8    1170    1178    1179    1177    1092    1100    1101    1099
       8    1180    1181    1182    1176    1102    1103    1104    1098
       8    1183    1184    1181    1180    1105    1106    1103    1102
       8    1177    1183    1180    1176    1099    1105    1102    1098
       8    1185    1186    1178    1187    1107    1108    1100    1109
       8    1188    1189    1186    1185    1110    1111    1108    1107
       8    1190    1191    1189    1188    1112    1113    1111    1110
       8    1192    1190    1188    1193    1114    1112    1110    1115
       8    1194    1179    1178    1186    1116    1101    1100    1108
       8    1185    1195    1193    1188    1107    1117    1115    1110
       8    1170    1173    1187    1178    1092    1095    1109    1100
       8    1196    1183    1177    1179    1118    1105    1099    1101
       8    1197    1196    1179    1194    1119    1118    1101    1116
       8    1198    1197    1194    1199    1120    1119    1116    1121
       8    1189    1199    1194    1186    1111    1121    1116    1108
       8    1200    1201    1195    1185    1122    1123    1117    1107
       8    1202    1200    1185    1187    1124    1122    1107    1109
       8    1203    1202    1187    1173    1125    1124    1109    1095
       8    1204    1174    1172    1205    1126    1096    1094    1127
       8    1206    1205    1172    1171    1128    1127    1094    1093
       8    1182    1206    1171    1176    1104    1128    1093    1098
       8    1207    1184    1183    1196    1129    1106    1105    1118
       8    1208    1207    1196    1197    1130    1129    1118    1119
       8    1209    1208    1197    1198    1131    1130    1119    1120
       8    1210    1209    1198    1211    1132    1131    1120    1133
       8    1212    1211    1198    1199    1134    1133    1120    1121
       8    1191    1212    1199    1189    1113    1134    1121    1111
       8    1213    1192    1193    1195    1135    1114    1115    1117
       8    1214    1213    1195    1201    1136    1135    1117    1123
       8    1215    1214    1201    1216    1137    1136    1123    1138
       8    1217    1216    1201    1200    1139    1138    1123    1122
       8    1218    1217    1200    1202    1140    1139    1122    1124
       8    1219    1218    1202    1203    1141    1140    1124    1125
       8    1220    1219    1203    1221    1142    1141    1125    1143
       8    1175    1221    1203    1173    1097    1143    1125    1095
       8    1222    1223    1174    1204    1144    1145    1096    1126
       8    1224    1222    1204    1205    1146    1144    1126    1127
       8    1225    1224    1205    1206    1147    1146    1127    1128
       8    1226    1225    1206    1182    1148    1147    1128    1104
       8    1227    1226    1182    1181    1149    1148    1104    1103
       8    1228    1227    1181    1184    1150    1149    1103    1106
       8    1229    1228    1184    1207    1151    1150    1106    1129
       8    1230    1229    1207    1208    1152    1151    1129    1130
       8    1231    1230    1208    1209    1153    1152    1130    1131
       8    1232    1231    1209    1210    1154    1153    1131    1132
       8    1233    1232    1210    1211    1155    1154    1132    1133
       8    1234    1233    1211    1212    1156    1155    1133    1134
       8    1235    1234    1212    1191    1157    1156    1134    1113
       8    1236    1235    1191    1190    1158    1157    1113    1112
       8    1237    1236    1190    1192    1159    1158    1112    1114
       8    1238    1237    1192    1213    1160    1159    1114    1135
       8    1239    1238    1213    1214    1161    1160    1135    1136
       8    1240    1239    1214    1215    1162    1161    1136    1137
       8    1241    1240    1215    1216    1163    1162    1137    1138
       8    1242    1241    1216    1217    1164    1163    1138    1139
       8    1243    1242    1217    1218    1165    1164    1139    1140
       8    1244    1243    1218    1219    1166    1165    1140    1141
       8    1245    1244    1219    1220    1167    1166    1141    1142
       8    1246    1245    1220    1221    1168    1167    1142    1143
       8    1247    1246    1221    1175    1169    1168    1143    1097
       8    1223    1247    1175    1174    1145    1169    1097    1096
       8    1248    1249    1250    1251    1170    1171    1172    1173
       8    1250    1252    1253    1251    1172    1174    1175    1173
       8    1254    1249    1248    1255    1176    1171    1170    1177
       8    1248    1256    1257    1255    1170    1178    1179    1177
       8    1258    1259    1260    1254    1180    1181    1182    1176
       8    1261    1262    1259    1258    1183    1184    1181    1180
       8    1255    1261    1258    1254    1177    1183    1180    1176
       8    1263    1264    1256    1265    1185    1186    1178    1187
       8    1266    1267    1264    1263    1188    1189    1186    1185
       8    1268    1269    1267    1266    1190    1191    1189    1188
       8    1270    1268    1266    1271    1192    1190    1188    1193
       8    1272    1257    1256    1264    1194    1179    1178    1186
       8    1263    1273    1271    1266    1185    1195    1193    1188
       8    1248    1251    1265    1256    1170    1173    1187    1178
       8    1274    1261    1255    1257    1196    1183    1177    1179
       8    1275    1274    1257    1272    1197    1196    1179    1194
       8    1276    1275    1272    1277    1198    1197    1194    1199
       8    1267    1277    1272    1264    1189    1199    1194    1186
       8    1278    1279    1273    1263    1200    1201    1195    1185
       8    1280    1278    1263    1265    1202    1200    1185    1187
       8    1281    1280    1265    1251    1203    1202    1187    1173
       8    1282    1252    1250    1283    1204    1174    1172    1205
       8    1284    1283    1250    1249    1206    1205    1172    1171
       8    1260    1284    1249    1254    1182    1206    1171    1176
       8    1285    1262    1261    1274    1207    1184    1183    1196
       8    1286    1285    1274    1275    1208    1207    1196    1197
       8    1287    1286    1275    1276    1209    1208    1197    1198
       8    1288    1287    1276    1289    1210    1209    1198    1211
       8    1290    1289    1276    1277    1212    1211    1198    1199
       8    1269    1290    1277    1267    1191    1212    1199    1189
       8    1291    1270    1271    1273    1213    1192    1193    1195
       8    1292    1291    1273    1279    1214    1213    1195    1201
       8    1293    1292    1279    1294    1215    1214    1201    1216
       8    1295    1294    1279    1278    1217    1216    1201    1200
       8    1296    1295    1278    1280    1218    1217    1200    1202
       8    1297    1296    1280    1281    1219    1218    1202    1203
       8    1298    1297    1281    1299    1220    1219    1203    1221
       8    1253    1299    1281    1251    1175    1221    1203    1173
       8    1300    1301    1252    1282    1222    1223    1174    1204
       8    1302    1300    1282    1283    1224    1222    1204    1205
       8    1303    1302    1283    1284    1225    1224    1205    1206
       8    1304    1303    1284    1260    1226    1225    1206    1182
       8    1305    1304    1260    1259    1227    1226    1182    1181
       8    1306    1305    1259    1262    1228    1227    1181    1184
       8    1307    1306    1262    1285    1229    1228    1184    1207
       8    1308    1307    1285    1286    1230    1229    1207    1208
       8    1309    1308    1286    1287    1231    1230    1208    1209
       8    1310    1309    1287    1288    1232    1231    1209    1210
       8    1311    1310    1288    1289    1233    1232    1210    1211
       8    1312    1311    1289    1290    1234    1233    1211    1212
       8    1313    1312    1290    1269    1235    1234    1212    1191
       8    1314    1313    1269    1268    1236    1235    1191    1190
       8    1315    1314    1268    1270    1237    1236    1190    1192
       8    1316    1315    1270    1291    1238    1237    1192    1213
       8    1317    1316    1291    1292    1239    1238    1213    1214
       8    1318    1317    1292    1293    1240    1239    1214    1215
       8    1319    1318    1293    1294    1241    1240    1215    1216
       8    1320    1319    1294    1295    1242    1241    1216    1217
       8    1321    1320    1295    1296    1243    1242    1217    1218
       8    1322    1321    1296    1297    1244    1243    1218    1219
       8    1323    1322    1297    1298    1245    1244    1219    1220
       8    1324    1323    1298    1299    1246    1245    1220    1221
       8    1325    1324    1299    1253    1247    1246    1221    1175
       8    1301    1325    1253    1252    1223    1247    1175    1174
       8    1326    1327    1328    1329    1248    1249    1250    1251
       8    1328    1330    1331    1329    1250    1252    1253    1251
       8    1332    1327    1326    1333    1254    1249    1248    1255
       8    1326    1334    1335    1333    1248    1256    1257    1255
       8    1336    1337    1338    1332    1258    1259    1260    1254
       8    1339    1340    1337    1336    1261    1262    1259    1258
       8    1333    1339    1336    1332    1255    1261    1258    1254
       8    1341    1342    1334    1343    1263    1264    1256    1265
       8    1344    1345    1342    1341    1266    1267    1264    1263
       8    1346    1347    1345    1344    1268    1269    1267    1266
       8    1348    1346    1344    1349    1270    1268    1266    1271
       8    1350    1335    1334    1342    1272    1257    1256    1264
       8    1341    1351    1349    1344    1263    1273    1271    1266
       8    1326    1329    1343    1334    1248    1251    1265    1256
       8    1352    1339    1333    1335    1274    1261    1255    1257
       8    1353    1352    1335    1350    1275    1274    1257    1272
       8    1354    1353    1350    1355    1276    1275    1272    1277
       8    1345    1355    1350    1342    1267    1277    1272    1264
       8    1356    1357    1351    1341    1278    1279    1273    1263
       8    1358    1356    1341    1343    1280    1278    1263    1265
       8    1359    1358    1343    1329    1281    1280    1265    1251
       8    1360    1330    1328    1361    1282    1252    1250    1283
       8    1362    1361    1328    1327    1284    1283    1250    1249
       8    1338    1362    1327    1332    1260    1284    1249    1254
       8    1363    1340    1339    1352    1285    1262    1261    1274
       8    1364    1363    1352    1353    1286    1285    1274    1275
       8    1365    1364    1353    1354    1287    1286    1275    1276
       8    1366    1365    1354    1367    1288    1287    1276    1289
       8    1368    1367    1354    1355    1290    1289    1276    1277
       8    1347    1368    1355    1345    1269    1290    1277    1267
       8    1369    1348    1349    1351    1291    1270    1271    1273
       8    1370    1369    1351    1357    1292    1291    1273    1279
       8    1371    1370    1357    1372    1293    1292    1279    1294
       8    1373    1372    1357    1356    1295    1294    1279    1278
       8    1374    1373    1356    1358    1296    1295    1278    1280
       8    1375    1374    1358    1359    1297    1296    1280    1281
       8    1376    1375    1359    1377    1298    1297    1281    1299
       8    1331    1377    1359    1329    1253    1299    1281    1251
       8    1378    1379    1330    1360    1300    1301    1252    1282
       8    1380    1378    1360    1361    1302    1300    1282    1283
       8    1381    1380    1361    1362    1303    1302    1283    1284
       8    1382    1381    1362    1338    1304    1303    1284    1260
       8    1383    1382    1338    1337    1305    1304    1260    1259
       8    1384    1383    1337    1340    1306    1305    1259    1262
       8    1385    1384    1340    1363    1307    1306    1262    1285
       8    1386    1385    1363    1364    1308    1307    1285    1286
       8    1387    1386    1364    1365    1309    1308    1286    1287
       8    1388    1387    1365    1366    1310    1309    1287    1288
       8    1389    1388    1366    1367    1311    1310    1288    1289
       8    1390    1389    1367    1368    1312    1311    1289    1290
       8    1391    1390    1368    1347    1313    1312    1290    1269
       8    1392    1391    1347    1346    1314    1313    1269    1268
       8    1393    1392    1346    1348    1315    1314    1268    1270
       8    1394    1393    1348    1369    1316    1315    1270    1291
       8    1395    1394    1369    1370    1317    1316    1291    1292
       8    1396    1395    1370    1371    1318    1317    1292    1293
       8    1397    1396    1371    1372    1319    1318    1293    1294
       8    1398    1397    1372    1373    1320    1319    1294    1295
       8    1399    1398    1373    1374    1321    1320    1295    1296
       8    1400    1399    1374    1375    1322    1321    1296    1297
       8    1401    1400    1375    1376    1323    1322    1297    1298
       8    1402    1401    1376    1377    1324    1323    1298    1299
       8    1403    1402    1377    1331    1325    1324    1299    1253
       8    1379    1403    1331    1330    1301    1325    1253    1252
       8    1404    1405    1406    1407    1326    1327    1328    1329
       8    1406    1408    1409    1407    1328    1330    1331    1329
       8    1410    1405    1404    1411    1332    1327    1326    1333
       8    1404    1412    1413    1411    1326    1334    1335    1333
       8    1414    1415    1416    1410    1336    1337    1338    1332
       8    1417    1418    1415    1414    1339    1340    1337    1336
       8    1411    1417    1414    1410    1333    1339    1336    1332
       8    1419    1420    1412    1421    1341    1342    1334    1343
       8    1422    1423    1420    1419    1344    1345    1342    1341
       8    1424    1425    1423    1422    1346    1347    1345    1344
       8    1426    1424    1422    1427    1348    1346    1344    1349
       8    1428    1413    1412    1420    1350    1335    1334    1342
       8    1419    1429    1427    1422    1341    1351    1349    1344
       8    1404    1407    1421    1412    1326    1329    1343    1334
       8    1430    1417    1411    1413    1352    1339    1333    1335
       8    1431    1430    1413    1428    1353    1352    1335    1350
       8    1432    1431    1428    1433    1354    1353    1350    1355
       8    1423    1433    1428    1420    1345    1355    1350    1342
       8    1434    1435    1429    1419    1356    1357    1351    1341
       8    1436    1434    1419    1421    1358    1356    1341    1343
       8    1437    1436    1421    1407    1359    1358    1343    1329
       8    1438    1408    1406    1439    1360    1330    1328    1361
       8    1440    1439    1406    1405    1362    1361    1328    1327
       8    1416    1440    1405    1410    1338    1362    1327    1332
       8    1441    1418    1417    1430    1363    1340    1339    1352
       8    1442    1441    1430    1431    1364    1363    1352    1353
       8    1443    1442    1431    1432    1365    1364    1353    1354
       8    1444    1443    1432    1445    1366    1365    1354    1367
       8    1446    1445    1432    1433    1368    1367    1354    1355
       8    1425    1446    1433    1423    1347    1368    1355    1345
       8    1447    1426    1427    1429    1369    1348    1349    1351
       8    1448    1447    1429    1435    1370    1369    1351    1357
       8    1449    1448    1435    1450    1371    1370    1357    1372
       8    1451    1450    1435    1434    1373    1372    1357    1356
       8    1452    1451    1434    1436    1374    1373    1356    1358
       8    1453    1452    1436    1437    1375    1374    1358    1359
       8    1454    1453    1437    1455    1376    1375    1359    1377
       8    1409    1455    1437    1407    1331    1377    1359    1329
       8    1456    1457    1408    1438    1378    1379    1330    1360
       8    1458    1456    1438    1439    1380    1378    1360    1361
       8    1459    1458    1439    1440    1381    1380    1361    1362
       8    1460    1459    1440    1416    1382    1381    1362    1338
       8    1461    1460    1416    1415    1383    1382    1338    1337
       8    1462    1461    1415    1418    1384    1383    1337    1340
       8    1463    1462    1418    1441    1385    1384    1340    1363
       8    1464    1463    1441    1442    1386    1385    1363    1364
       8    1465    1464    1442    1443    1387    1386    1364    1365
       8    1466    1465    1443    1444    1388    1387    1365    1366
       8    1467    1466    1444    1445    1389    1388    1366    1367
       8    1468    1467    1445    1446    1390    1389    1367    1368
       8    1469    1468    1446    1425    1391    1390    1368    1347
       8    1470    1469    1425    1424    1392    1391    1347    1346
       8    1471    1470    1424    1426    1393    1392    1346    1348
       8    1472    1471    1426    1447    1394    1393    1348    1369
       8    1473    1472    1447    1448    1395    1394    1369    1370
       8    1474    1473    1448    1449    1396    1395    1370    1371
       8    1475    1474    1449    1450    1397    1396    1371    1372
       8    1476    1475    1450    1451    1398    1397    1372    1373
       8    1477    1476    1451    1452    1399    1398    1373    1374
       8    1478    1477    1452    1453    1400    1399    1374    1375
       8    1479    1478    1453    1454    1401    1400    1375    1376
       8    1480    1479    1454    1455    1402    1401    1376    1377
       8    1481    1480    1455    1409    1403    1402    1377    1331
       8    1457    1481    1409    1408    1379    1403    1331    1330
       8    1482    1483    1484    1485    1404    1405    1406    1407
       8    1484    1486    1487    1485    1406    1408    1409    1407
       8    1488    1483    1482    1489    1410    1405    1404    1411
       8    1482    1490    1491    1489    1404    1412    1413    1411
       8    1492    1493    1494    1488    1414    1415    1416    1410
       8    1495    1496    1493    1492    1417    1418    1415    1414
       8    1489    1495    1492    1488    1411    1417    1414    1410
       8    1497    1498    1490    1499    1419    1420    1412    1421
       8    1500    1501    1498    1497    1422    1423    1420    1419
       8    1502    1503    1501    1500    1424    1425    1423    1422
       8    1504    1502    1500    1505    1426    1424    1422    1427
       8    1506    1491    1490    1498    1428    1413    1412    1420
       8    1497    1507    1505    1500    1419    1429    1427    1422
       8    1482    1485    1499    1490    1404    1407    1421    1412
       8    1508    1495    1489    1491    1430    1417    1411    1413
       8    1509    1508    1491    1506    1431    1430    1413    1428
       8    1510    1509    1506    1511    1432    1431    1428    1433
       8    1501    1511    1506    1498    1423    1433    1428    1420
       8    1512    1513    1507    1497    1434    1435    1429    1419
       8    1514    1512    1497    1499    1436    1434    1419    1421
       8    1515    1514    1499    1485    1437    1436    1421    1407
       8    1516    1486    1484    1517    1438    1408    1406    1439
       8    1518    1517    1484    1483    1440    1439    1406    1405
       8    1494    1518    1483    1488    1416    1440    1405    1410
       8    1519    1496    1495    1508    1441    1418    1417    1430
       8    1520    1519    1508    1509    1442    1441    1430    1431
       8    1521    1520    1509    1510    1443    1442    1431    1432
       8    1522    1521    1510    1523    1444    1443    1432    1445
       8    1524    1523    1510    1511    1446    1445    1432    1433
       8    1503    1524    1511    1501    1425    1446    1433    1423
       8    1525    1504    1505    1507    1447    1426    1427    1429
       8    1526    1525    1507    1513    1448    1447    1429    1435
       8    1527    1526    1513    1528    1449    1448    1435    1450
       8    1529    1528    1513    1512    1451    1450    1435    1434
       8    1530    1529    1512    1514    1452    1451    1434    1436
       8    1531    1530    1514    1515    1453    1452    1436    1437
       8    1532    1531    1515    1533    1454    1453    1437    1455
       8    1487    1533    1515    1485    1409    1455    1437    1407
       8    1534    1535    1486    1516    1456    1457    1408    1438
       8    1536    1534    1516    1517    1458    1456    1438    1439
       8    1537    1536    1517    1518    1459    1458    1439    1440
       8    1538    1537    1518    1494    1460    1459    1440    1416
       8    1539    1538    1494    1493    1461    1460    1416    1415
       8    1540    1539    1493    1496    1462    1461    1415    1418
       8    1541    1540    1496    1519    1463    1462    1418    1441
       8    1542    1541    1519    1520    1464    1463    1441    1442
       8    1543    1542    1520    1521    1465    1464    1442    1443
       8    1544    1543    1521    1522    1466    1465    1443    1444
       8    1545    1544    1522    1523    1467    1466    1444    1445
       8    1546    1545    1523    1524    1468    1467    1445    1446
       8    1547    1546    1524    1503    1469    1468    1446    1425
       8    1548    1547    1503    1502    1470    1469    1425    1424
       8    1549    1548    1502    1504    1471    1470    1424    1426
       8    1550    1549    1504    1525    1472    1471    1426    1447
       8    1551    1550    1525    1526    1473    1472    1447    1448
       8    1552    1551    1526    1527    1474    1473    1448    1449
       8    1553    1552    1527    1528    1475    1474    1449    1450
       8    1554    1553    1528    1529    1476    1475    1450    1451
       8    1555    1554    1529    1530    1477    1476    1451    1452
       8    1556    1555    1530    1531    1478    1477    1452    1453
       8    1557    1556    1531    1532    1479    1478    1453    1454
       8    1558    1557    1532    1533    1480    1479    1454    1455
       8    1559    1558    1533    1487    1481    1480    1455    1409
       8    1535    1559    1487    1486    1457    1481    1409    1408
       8    1560    1561    1562    1563    1482    1483    1484    1485
       8    1562    1564    1565    1563    1484    1486    1487    1485
       8    1566    1561    1560    1567    1488    1483    1482    1489
       8    1560    1568    1569    1567    1482    1490    1491    1489
       8    1570    1571    1572    1566    1492    1493    1494    1488
       8    1573    1574    1571    1570    1495    1496    1493    1492
       8    1567    1573    1570    1566    1489    1495    1492    1488
       8    1575    1576    1568    1577    1497    1498    1490    1499
       8    1578    1579    1576    1575    1500    1501    1498    1497
       8    1580    1581    1579    1578    1502    1503    1501    1500
       8    1582    1580    1578    1583    1504    1502    1500    1505
       8    1584    1569    1568    1576    1506    1491    1490    1498
       8    1575    1585    1583    1578    1497    1507    1505    1500
       8    1560    1563    1577    1568    1482    1485    1499    1490
       8    1586    1573    1567    1569    1508    1495    1489    1491
       8    1587    1586    1569    1584    1509    1508    1491    1506
       8    1588    1587    1584    1589    1510    1509    1506    1511
       8    1579    1589    1584    1576    1501    1511    1506    1498
       8    1590    1591    1585    1575    1512    1513    1507    1497
       8    1592    1590    1575    1577    1514    1512    1497    1499
       8    1593    1592    1577    1563    1515    1514    1499    1485
       8    1594    1564    1562    1595    1516    1486    1484    1517
       8    1596    1595    1562    1561    1518    1517    1484    1483
       8    1572    1596    1561    1566    1494    1518    1483    1488
       8    1597    1574    1573    1586    1519    1496    1495    1508
       8    1598    1597    1586    1587    1520    1519    1508    1509
       8    1599    1598    1587    1588    1521    1520    1509    1510
       8    1600    1599    1588    1601    1522    1521    1510    1523
       8    1602    1601    1588    1589    1524    1523    1510    1511
       8    1581    1602    1589    1579    1503    1524    1511    1501
       8    1603    1582    1583    1585    1525    1504    1505    1507
       8    1604    1603    1585    1591    1526    1525    1507    1513
       8    1605    1604    1591    1606    1527    1526    1513    1528
       8    1607    1606    1591    1590    1529    1528    1513    1512
       8    1608    1607    1590    1592    1530    1529    1512    1514
       8    1609    1608    1592    1593    1531    1530    1514    1515
       8    1610    1609    1593    1611    1532    1531    1515    1533
       8    1565    1611    1593    1563    1487    1533    1515    1485
       8    1612    1613    1564    1594    1534    1535    1486    1516
       8    1614    1612    1594    1595    1536    1534    1516    1517
       8    1615    1614    1595    1596    1537    1536    1517    1518
       8    1616    1615    1596    1572    1538    1537    1518    1494
       8    1617    1616    1572    1571    1539    1538    1494    1493
       8    1618    1617    1571    1574    1540    1539    1493    1496
       8    1619    1618    1574    1597    1541    1540    1496    1519
       8    1620    1619    1597    1598    1542    1541    1519    1520
       8    1621    1620    1598    1599    1543    1542    1520    1521
       8    1622    1621    1599    1600    1544    1543    1521    1522
       8    1623    1622    1600    1601    1545    1544    1522    1523
       8    1624    1623    1601    1602    1546    1545    1523    1524
       8    1625    1624    1602    1581    1547    1546    1524    1503
       8    1626    1625    1581    1580    1548    1547    1503    1502
       8    1627    1626    1580    1582    1549    1548    1502    1504
       8    1628    1627    1582    1603    1550    1549    1504    1525
       8    1629    1628    1603    1604    1551    1550    1525    1526
       8    1630    1629    1604    1605    1552    1551    1526    1527
       8    1631    1630    1605    1606    1553    1552    1527    1528
       8    1632    1631    1606    1607    1554    1553    1528    1529
       8    1633    1632    1607    1608    1555    1554    1529    1530
       8    1634    1633    1608    1609    1556    1555    1530    1531
       8    1635    1634    1609    1610    1557    1556    1531    1532
       8    1636    1635    1610    1611    1558    1557    1532    1533
       8    1637    1636    1611    1565    1559    1558    1533    1487
       8    1613    1637    1565    1564    1535    1559    1487    1486
       8    1638    1639    1640    1641    1560    1561    1562    1563
       8    1640    1642    1643    1641    1562    1564    1565    1563
       8    1644    1639    1638    1645    1566    1561    1560    1567
       8    1638    1646    1647    1645    1560    1568    1569    1567
       8    1648    1649    1650    1644    1570    1571    1572    1566
       8    1651    1652    1649    1648    1573    1574    1571    1570
       8    1645    1651    1648    1644    1567    1573    1570    1566
       8    1653    1654    1646    1655    1575    1576    1568    1577
       8    1656    1657    1654    1653    1578    1579    1576    1575
       8    1658    1659    1657    1656    1580    1581    1579    1578
       8    1660    1658    1656    1661    1582    1580    1578    1583
       8    1662    1647    1646    1654    1584    1569    1568    1576
       8    1653    1663    1661    1656    1575    1585    1583    1578
       8    1638    1641    1655    1646    1560    1563    1577    1568
       8    1664    1651    1645    1647    1586    1573    1567    1569
       8    1665    1664    1647    1662    1587    1586    1569    1584
       8    1666    1665    1662    1667    1588    1587    1584    1589
       8    1657    1667    1662    1654    1579    1589    1584    1576
       8    1668    1669    1663    1653    1590    1591    1585    1575
       8    1670    1668    1653    1655    1592    1590    1575    1577
       8    1671    1670    1655    1641    1593    1592    1577    1563
       8    1672    1642    1640    1673    1594    1564    1562    1595
       8    1674    1673    1640    1639    1596    1595    1562    1561
       8    1650    1674    1639    1644    1572    1596    1561    1566
       8    1675    1652    1651    1664    1597    1574    1573    1586
       8    1676    1675    1664    1665    1598    1597    1586    1587
       8    1677    1676    1665    1666    1599    1598    1587    1588
       8    1678    1677    1666    1679    1600    1599    1588    1601
       8    1680    1679    1666    1667    1602    1601    1588    1589
       8    1659    1680    1667    1657    1581    1602    1589    1579
       8    1681    1660    1661    1663    1603    1582    1583    1585
       8    1682    1681    1663    1669    1604    1603    1585    1591
       8    1683    1682    1669    1684    1605    1604    1591    1606
       8    1685    1684    1669    1668    1607    1606    1591    1590
       8    1686    1685    1668    1670    1608    1607    1590    1592
       8    1687    1686    1670    1671    1609    1608    1592    1593
       8    1688    1687    1671    1689    1610    1609    1593    1611
       8    1643    1689    1671    1641    1565    1611    1593    1563
       8    1690    1691    1642    1672    1612    1613    1564    1594
       8    1692    1690    1672    1673    1614    1612    1594    1595
       8    1693    1692    1673    1674    1615    1614    1595    1596
       8    1694    1693    1674    1650    1616    1615    1596    1572
       8    1695    1694    1650    1649    1617    1616    1572    1571
       8    1696    1695    1649    1652    1618    1617    1571    1574
       8    1697    1696    1652    1675    1619    1618    1574    1597
       8    1698    1697    1675    1676    1620    1619    1597    1598
       8    1699    1698    1676    1677    1621    1620    1598    1599
       8    1700    1699    1677    1678    1622    1621    1599    1600
       8    1701    1700    1678    1679    1623    1622    1600    1601
       8    1702    1701    1679    1680    1624    1623    1601    1602
       8    1703    1702    1680    1659    1625    1624    1602    1581
       8    1704    1703    1659    1658    1626    1625    1581    1580
       8    1705    1704    1658    1660    1627    1626    1580    1582
       8    1706    1705    1660    1681    1628    1627    1582    1603
       8    1707    1706    1681    1682    1629    1628    1603    1604
       8    1708    1707    1682    1683    1630    1629    1604    1605
       8    1709    1708    1683    1684    1631    1630    1605    1606
       8    1710    1709    1684    1685    1632    1631    1606    1607
       8    1711    1710    1685    1686    1633    1632    1607    1608
       8    1712    1711    1686    1687    1634    1633    1608    1609
       8    1713    1712    1687    1688    1635    1634    1609    1610
       8    1714    1713    1688    1689    1636    1635    1610    1611
       8    1715    1714    1689    1643    1637    1636    1611    1565
       8    1691    1715    1643    1642    1613    1637    1565    1564
       8    1716    1717    1718    1719    1638    1639    1640    1641
       8    1718    1720    1721    1719    1640    1642    1643    1641
       8    1722    1717    1716    1723    1644    1639    1638    1645
       8    1716    1724    1725    1723    1638    1646    1647    1645
       8    1726    1727    1728    1722    1648    1649    1650    1644
       8    1729    1730    1727    1726    1651    1652    1649    1648
       8    1723    1729    1726    1722    1645    1651    1648    1644
       8    1731    1732    1724    1733    1653    1654    1646    1655
       8    1734    1735    1732    1731    1656    1657    1654    1653
       8    1736    1737    1735    1734    1658    1659    1657    1656
       8    1738    1736    1734    1739    1660    1658    1656    1661
       8    1740    1725    1724    1732    1662    1647    1646    1654
       8    1731    1741    1739    1734    1653    1663    1661    1656
       8    1716    1719    1733    1724    1638    1641    1655    1646
       8    1742    1729    1723    1725    1664    1651    1645    1647
       8    1743    1742    1725    1740    1665    1664    1647    1662
       8    1744    1743    1740    1745    1666    1665    1662    1667
       8    1735    1745    1740    1732    1657    1667    1662    1654
       8    1746    1747    1741    1731    1668    1669    1663    1653
       8    1748    1746    1731    1733    1670    1668    1653    1655
       8    1749    1748    1733    1719    1671    1670    1655    1641
       8    1750    1720    1718    1751    1672    1642    1640    1673
       8    1752    1751    1718    1717    1674    1673    1640    1639
       8    1728    1752    1717    1722    1650    1674    1639    1644
       8    1753    1730    1729    1742    1675    1652    1651    1664
       8    1754    1753    1742    1743    1676    1675    1664    1665
       8    1755    1754    1743    1744    1677    1676    1665    1666
       8    1756    1755    1744    1757    1678    1677    1666    1679
       8    1758    1757    1744    1745    1680    1679    1666    1667
       8    1737    1758    1745    1735    1659    1680    1667    1657
       8    1759    1738    1739    1741    1681    1660    1661    1663
       8    1760    1759    1741    1747    1682    1681    1663    1669
       8    1761    1760    1747    1762    1683    1682    1669    1684
       8    1763    1762    1747    1746    1685    1684    1669    1668
       8    1764    1763    1746    1748    1686    1685    1668    1670
       8    1765    1764    1748    1749    1687    1686    1670    1671
       8    1766    1765    1749    1767    1688    1687    1671    1689
       8    1721    1767    1749    1719    1643    1689    1671    1641
       8    1768    1769    1720    1750    1690    1691    1642    1672
       8    1770    1768    1750    1751    1692    1690    1672    1673
       8    1771    1770    1751    1752    1693    1692    1673    1674
       8    1772    1771    1752    1728    1694    1693    1674    1650
       8    1773    1772    1728    1727    1695    1694    1650    1649
       8    1774    1773    1727    1730    1696    1695    1649    1652
       8    1775    1774    1730    1753    1697    1696    1652    1675
       8    1776    1775    1753    1754    1698    1697    1675    1676
       8    1777    1776    1754    1755    1699    1698    1676    1677
       8    1778    1777    1755    1756    1700    1699    1677    1678
       8    1779    1778    1756    1757    1701    1700    1678    1679
       8    1780    1779    1757    1758    1702    1701    1679    1680
       8    1781    1780    1758    1737    1703    1702    1680    1659
       8    1782    1781    1737    1736    1704    1703    1659    1658
       8    1783    1782    1736    1738    1705    1704    1658    1660
       8    1784    1783    1738    1759    1706    1705    1660    1681
       8    1785    1784    1759    1760    1707    1706    1681    1682
       8    1786    1785    1760    1761    1708    1707    1682    1683
       8    1787    1786    1761    1762    1709    1708    1683    1684
       8    1788    1787    1762    1763    1710    1709    1684    1685
       8    1789    1788    1763    1764    1711    1710    1685    1686
       8    1790    1789    1764    1765    1712    1711    1686    1687
       8    1791    1790    1765    1766    1713    1712    1687    1688
       8    1792    1791    1766    1767    1714    1713    1688    1689
       8    1793    1792    1767    1721    1715    1714    1689    1643
       8    1769    1793    1721    1720    1691    1715    1643    1642
       8    1794    1795    1796    1797    1716    1717    1718    1719
       8    1796    1798    1799    1797    1718    1720    1721    1719
       8    1800    1795    1794    1801    1722    1717    1716    1723
       8    1794    1802    1803    1801    1716    1724    1725    1723
       8    1804    1805    1806    1800    1726    1727    1728    1722
       8    1807    1808    1805    1804    1729    1730    1727    1726
       8    1801    1807    1804    1800    1723    1729    1726    1722
       8    1809    1810    1802    1811    1731    1732    1724    1733
       8    1812    1813    1810    1809    1734    1735    1732    1731
       8    1814    1815    1813    1812    1736    1737    1735    1734
       8    1816    1814    1812    1817    1738    1736    1734    1739
       8    1818    1803    1802    1810    1740    1725    1724    1732
       8    1809    1819    1817    1812    1731    1741    1739    1734
       8    1794    1797    1811    1802    1716    1719    1733    1724
       8    1820    1807    1801    1803    1742    1729    1723    1725
       8    1821    1820    1803    1818    1743    1742    1725    1740
       8    1822    1821    1818    1823    1744    1743    1740    1745
       8    1813    1823    1818    1810    1735    1745    1740    1732
       8    1824    1825    1819    1809    1746    1747    1741    1731
       8    1826    1824    1809    1811    1748    1746    1731    1733
       8    1827    1826    1811    1797    1749    1748    1733    1719
       8    1828    1798    1796    1829    1750    1720    1718    1751
       8    1830    1829    1796    1795    1752    1751    1718    1717
       8    1806    1830    1795    1800    1728    1752    1717    1722
       8    1831    1808    1807    1820    1753    1730    1729    1742
       8    1832    1831    1820    1821    1754    1753    1742    1743
       8    1833    1832    1821    1822    1755    1754    1743    1744
       8    1834    1833    1822    1835    1756    1755    1744    1757
       8    1836    1835    1822    1823    1758    1757    1744    1745
       8    1815    1836    1823    1813    1737    1758    1745    1735
       8    1837    1816    1817    1819    1759    1738    1739    1741
       8    1838    1837    1819    1825    1760    1759    1741    1747
       8    1839    1838    1825    1840    1761    1760    1747    1762
       8    1841    1840    1825    1824    1763    1762    1747    1746
       8    1842    1841    1824    1826    1764    1763    1746    1748
       8    1843    1842    1826    1827    1765    1764    1748    1749
       8    1844    1843    1827    1845    1766    1765    1749    1767
       8    1799    1845    1827    1797    1721    1767    1749    1719
       8    1846    1847    1798    1828    1768    1769    1720    1750
       8    1848    1846    1828    1829    1770    1768    1750    1751
       8    1849    1848    1829    1830    1771    1770    1751    1752
       8    1850    1849    1830    1806    1772    1771    1752    1728
       8    1851    1850    1806    1805    1773    1772    1728    1727
       8    1852    1851    1805    1808    1774    1773    1727    1730
       8    1853    1852    1808    1831    1775    1774    1730    1753
       8    1854    1853    1831    1832    1776    1775    1753    1754
       8    1855    1854    1832    1833    1777    1776    1754    1755
       8    1856    1855    1833    1834    1778    1777    1755    1756
       8    1857    1856    1834    1835    1779    1778    1756    1757
       8    1858    1857    1835    1836    1780    1779    1757    1758
       8    1859    1858    1836    1815    1781    1780    1758    1737
       8    1860    1859    1815    1814    1782    1781    1737    1736
       8    1861    1860    1814    1816    1783    1782    1736    1738
       8    1862    1861    1816    1837    1784    1783    1738    1759
       8    1863    1862    1837    1838    1785    1784    1759    1760
       8    1864    1863    1838    1839    1786    1785    1760    1761
       8    1865    1864    1839    1840    1787    1786    1761    1762
       8    1866    1865    1840    1841    1788    1787    1762    1763
       8    1867    1866    1841    1842    1789    1788    1763    1764
       8    1868    1867    1842    1843    1790    1789    1764    1765
       8    1869    1868    1843    1844    1791    1790    1765    1766
       8    1870    1869    1844    1845    1792    1791    1766    1767
       8    1871    1870    1845    1799    1793    1792    1767    1721
       8    1847    1871    1799    1798    1769    1793    1721    1720
       8    1872    1873    1874    1875    1794    1795    1796    1797
       8    1874    1876    1877    1875    1796    1798    1799    1797
       8    1878    1873    1872    1879    1800    1795    1794    1801
       8    1872    1880    1881    1879    1794    1802    1803    1801
       8    1882    1883    1884    1878    1804    1805    1806    1800
       8    1885    1886    1883    1882    1807    1808    1805    1804
       8    1879    1885    1882    1878    1801    1807    1804    1800
       8    1887    1888    1880    1889    1809    1810    1802    1811
       8    1890    1891    1888    1887    1812    1813    1810    1809
       8    1892    1893    1891    1890    1814    1815    1813    1812
       8    1894    1892    1890    1895    1816    1814    1812    1817
       8    1896    1881    1880    1888    1818    1803    1802    1810
       8    1887    1897    1895    1890    1809    1819    1817    1812
       8    1872    1875    1889    1880    1794    1797    1811    1802
       8    1898    1885    1879    1881    1820    1807    1801    1803
       8    1899    1898    1881    1896    1821    1820    1803    1818
       8    1900    1899    1896    1901    1822    1821    1818    1823
       8    1891    1901    1896    1888    1813    1823    1818    1810
       8    1902    1903    1897    1887    1824    1825    1819    1809
       8    1904    1902    1887    1889    1826    1824    1809    1811
       8    1905    1904    1889    1875    1827    1826    1811    1797
       8    1906    1876    1874    1907    1828    1798    1796    1829
       8    1908    1907    1874    1873    1830    1829    1796    1795
       8    1884    1908    1873    1878    1806    1830    1795    1800
       8    1909    1886    1885    1898    1831    1808    1807    1820
       8    1910    1909    1898    1899    1832    1831    1820    1821
       8    1911    1910    1899    1900    1833    1832    1821    1822
       8    1912    1911    1900    1913    1834    1833    1822    1835
       8    1914    1913    1900    1901    1836    1835    1822    1823
       8    1893    1914    1901    1891    1815    1836    1823    1813
       8    1915    1894    1895    1897    1837    1816    1817    1819
       8    1916    1915    1897    1903    1838    1837    1819    1825
       8    1917    1916    1903    1918    1839    1838    1825    1840
       8    1919    1918    1903    1902    1841    1840    1825    1824
       8    1920    1919    1902    1904    1842    1841    1824    1826
       8    1921    1920    1904    1905    1843    1842    1826    1827
       8    1922    1921    1905    1923    1844    1843    1827    1845
       8    1877    1923    1905    1875    1799    1845    1827    1797
       8    1924    1925    1876    1906    1846    1847    1798    1828
       8    1926    1924    1906    1907    1848    1846    1828    1829
       8    1927    1926    1907    1908    1849    1848    1829    1830
       8    1928    1927    1908    1884    1850    1849    1830    1806
       8    1929    1928    1884    1883    1851    1850    1806    1805
       8    1930    1929    1883    1886    1852    1851    1805    1808
       8    1931    1930    1886    1909    1853    1852    1808    1831
       8    1932    1931    1909    1910    1854    1853    1831    1832
       8    1933    1932    1910    1911    1855    1854    1832    1833
       8    1934    1933    1911    1912    1856    1855    1833    1834
       8    1935    1934    1912    1913    1857    1856    1834    1835
       8    1936    1935    1913    1914    1858    1857    1835    1836
       8    1937    1936    1914    1893    1859    1858    1836    1815
       8    1938    1937    1893    1892    1860    1859    1815    1814
       8    1939    1938    1892    1894    1861    1860    1814    1816
       8    1940    1939    1894    1915    1862    1861    1816    1837
       8    1941    1940    1915    1916    1863    1862    1837    1838
       8    1942    1941    1916    1917    1864    1863    1838    1839
       8    1943    1942    1917    1918    1865    1864    1839    1840
       8    1944    1943    1918    1919    1866    1865    1840    1841
       8    1945    1944    1919    1920    1867    1866    1841    1842
       8    1946    1945    1920    1921    1868    1867    1842    1843
       8    1947    1946    1921    1922    1869    1868    1843    1844
       8    1948    1947    1922    1923    1870    1869    1844    1845
       8    1949    1948    1923    1877    1871    1870    1845    1799
       8    1925    1949    1877    1876    1847    1871    1799    1798
  
CELL_TYPES    3486
       1
       1
       1
       1
       1
       1
       1
       1
       1
       1
       1
       1
       1
       1
       1
       1
       1
       1
       1
       1
       1
       1
       1
       1
       1
       1
       1
       1
       1
       1
       1
       1
       1
       1
       1
       1
       1
       1
       1
       1
       1
       1
       1
       1
       1
       1
       1
       1
       1
       1
       1
       1
       1
       1
       1
       1
       1
       1
       1
       1
       1
       1
       1
       1
       1
       1
       1
       1
       1
       1
       1
       1
       1
       1
       1
       1
       1
       1
       1
       1
       1
       1
       1
       1
       1
       1
       1
       1
       1
       1
       1
       1
       1
       1
       1
       1
       1
       1
       1
       1
       1
       1
       1
       1
       1
       1
       1
       1
       1
       1
       1
       1
       1
       1
       1
       1
       1
       1
       1
       1
       1
       1
       1
       1
       1
       1
       1
       1
       1
       1
       1
       1
       1
       1
       1
       1
       1
       1
       1
       1
       1
       1
       1
       1
       1
       1
       1
       1
       1
       1
       1
       1
       1
       1
       1
       1
       1
       1
       1
       1
       1
       1
       1
       1
       1
       1
       1
       1
       1
       1
       1
       1
       1
       1
       1
       1
       1
       1
       1
       1
       1
       1
       1
       1
       1
       1
       1
       1
       1
       1
       1
       1
       1
       1
       1
       1
       1
       1
       1
       1
       1
       1
       1
       1
       1
       1
       1
       1
       1
       1
       1
       1
       1
       1
       1
       1
       1
       1
       1
       1
       1
       1
       1
       1
       1
       1
       1
       1
       1
       1
       1
       1
       1
       1
       1
       1
       1
       1
       1
       1
       1
       1
       1
       1
       1
       1
       1
       1
       1
       1
       1
       1
       1
       1
       1
       1
       1
       1
       1
       1
       1
       1
       1
       1
       1
       1
       1
       1
       1
       1
       1
       1
       1
       1
       1
       1
       1
       1
       1
       1
       1
       1
       1
       1
       1
       1
       1
       1
       1
       1
       1
       1
       1
       1
       1
       1
       1
       1
       1
       1
       1
       1
       1
       1
       1
       1
       1
       1
       1
       1
       1
       1
       1
       1
       1
       1
       1
       1
       1
       1
       1
       1
       1
       1
       1
       1
       1
       1
       1
       1
       1
       1
       1
       1
       1
       1
       1
       1
       1
       1
       1
       1
       1
       1
       1
       1
       1
       1
       1
       1
       1
       1
       1
       1
       1
       1
       1
       1
       1
       1
       1
       1
       1
       1
       1
       1
       1
       1
       1
       1
       1
       1
       1
       1
       1
       1
       1
       1
       1
       1
       1
       1
       1
       1
       1
       1
       1
       1
       1
       1
       1
       1
       1
       1
       1
       1
       1
       1
       1
       1
       1
       1
       1
       1
       1
       1
       1
       1
       1
       1
       1
       1
       1
       1
       1
       1
       1
       1
       1
       1
       1
       1
       1
       1
       1
       1
       1
       1
       1
       1
       1
       1
       1
       1
       1
       1
       1
       1
       1
       1
       1
       1
       1
       1
       1
       1
       1
       1
       1
       1
       1
       1
       1
       1
       1
       1
       1
       1
       1
       1
       1
       1
       1
       1
       1
       1
       1
       1
       1
       1
       1
       1
       1
       1
       1
       1
       1
       1
       1
       1
       1
       1
       1
       1
       1
       1
       1
       1
       1
       1
       1
       1
       1
       1
       1
       1
       1
       1
       1
       1
       1
       1
       1
       1
       1
       1
       1
       1
       1
       1
       1
       1
       1
       1
       1
       1
       1
       1
       1
       1
       1
       1
       1
       1
       1
       1
       1
       1
       1
       1
       1
       1
       1
       1
       1
       1
       1
       1
       1
       1
       1
       1
       1
       1
       1
       1
       1
       1
       1
       1
       1
       1
       1
       1
       1
       1
       1
       1
       1
       1
       1
       1
       1
       1
       1
       1
       1
       1
       1
       1
       1
       1
       1
       1
       1
       1
       1
       1
       1
       1
       1
       1
       1
       1
       1
       1
       1
       1
       1
       1
       1
       1
       1
       1
       1
       1
       1
       1
       1
       1
       1
       1
       1
       1
       1
       1
       1
       1
       1
       1
       1
       1
       1
       1
       1
       1
       1
       1
       1
       1
       1
       1
       1
       1
       1
       1
       1
       1
       1
       1
       1
       1
       1
       1
       1
       1
       1
       1
       1
       1
       1
       1
       1
       1
       1
       1
       1
       1
       1
       1
       1
       1
       1
       1
       1
       1
       1
       1
       1
       1
       1
       1
       1
       1
       1
       1
       1
       1
       1
       1
       1
       1
       1
       1
       1
       1
       1
       1
       1
       1
       1
       1
       1
       1
       1
       1
       1
       1
       1
       1
       1
       1
       1
       1
       1
       1
       1
       1
       1
       1
       1
       1
       1
       1
       1
       1
       1
       1
       1
       1
       1
       1
       1
       1
       1
       1
       1
       1
       1
       1
       1
       1
       1
       1
       1
       1
       1
       1
       1
       1
       1
       1
       1
       1
       1
       1
       1
       1
       1
       1
       1
       1
       1
       1
       1
       1
       1
       1
       1
       1
       1
       1
       1
       1
       1
       1
       1
       1
       1
       1
       1
       1
       1
       1
       1
       1
       1
       1
       1
       1
       1
       1
       1
       1
       1
       1
       1
       1
       1
       1
       1
       1
       1
       1
       1
       1
       1
       1
       1
       1
       1
       1
       1
       1
       1
       1
       1
       1
       1
       1
       1
       1
       1
       1
       1
       1
       1
       1
       1
       1
       1
       1
       1
       1
       1
       1
       1
       1
       1
       1
       1
       1
       1
       1
       1
       1
       1
       1
       1
       1
       1
       1
       1
       1
       1
       1
       1
       1
       1
       1
       1
       1
       1
       1
       1
       1
       1
       1
       1
       1
       1
       1
       1
       1
       1
       1
       1
       1
       1
       1
       1
       1
       1
       1
       1
       1
       1
       1
       1
       1
       1
       1
       1
       1
       1
       1
       1
       1
       1
       1
       1
       1
       1
       1
       1
       1
       1
       1
       1
       1
       1
       1
       1
       1
       1
       1
       1
       1
       1
       1
       1
       1
       1
       1
       1
       1
       1
       1
       1
       1
       1
       1
       1
       1
       1
       1
       1
       1
       1
       1
       1
       1
       1
       1
       1
       1
       1
       1
       1
       1
       1
       1
       1
       1
       1
       1
       1
       1
       1
       1
       1
       1
       1
       1
       1
       1
       1
       1
       1
       1
       1
       1
       1
       1
       1
       1
       1
       1
       1
       1
       1
       1
       1
       1
       1
       1
       1
       1
       1
       1
       1
       1
       1
       1
       1
       1
       1
       1
       1
       1
       1
       1
       1
       1
       1
       1
       1
       1
       1
       1
       1
       1
       1
       1
       1
       1
       1
       1
       1
       1
       1
       1
       1
       1
       1
       1
       1
       1
       1
       1
       1
       1
       1
       1
       1
       1
       1
       1
       1
       1
       1
       1
       1
       1
       1
       1
       1
       1
       1
       1
       1
       1
       1
       1
       1
       1
       1
       1
       1
       1
       1
       1
       1
       1
       1
       1
       1
       1
       1
       1
       1
       1
       1
       1
       1
       1
       1
       1
       1
       1
       1
       1
       1
       1
       1
       1
       1
       1
       1
       1
       1
       1
       1
       1
       1
       1
       1
       1
       1
       1
       1
       1
       1
       1
       1
       1
       1
       1
       1
       1
       1
       1
       1
       1
       1
       1
       1
       1
       1
       1
       1
       1
       1
       1
       1
       1
       1
       1
       1
       1
       1
       1
       1
       1
       1
       1
       1
       1
       1
       1
       1
       1
       1
       1
       1
       1
       1
       1
       1
       1
       1
       1
       1
       1
       1
       1
       1
       1
       1
       1
       1
       1
       1
       1
       1
       1
       1
       1
       1
       1
       1
       1
       1
       1
       1
       1
       1
       1
       1
       1
       1
       1
       1
       1
       1
       1
       1
       1
       1
       1
       1
       1
       1
       1
       1
       1
       1
       1
       1
       1
       1
       1
       1
       1
       1
       1
       1
       1
       1
       1
       1
       1
       1
       1
       1
       1
       1
       1
       1
       1
       1
       1
       1
       1
       1
       1
       1
       1
       1
       1
       1
       1
       1
       1
       1
       1
       1
       1
       1
       1
       1
       1
       1
       1
       1
       1
       1
       1
       1
       1
       1
       1
       1
       1
       1
       1
       1
       1
       1
       1
       1
       1
       1
       1
       1
       1
       1
       1
       1
       1
       1
       1
       1
       1
       1
       1
       1
       1
       1
       1
       1
       1
       1
       1
       1
       1
       1
       1
       1
       1
       1
       1
       1
       1
       1
       1
       1
       1
       1
       1
       1
       1
       1
       1
       1
       1
       1
       1
       1
       1
       1
       1
       1
       1
       1
       1
       1
       1
       1
       1
       1
       1
       1
       1
       1
       1
       1
       1
       1
       1
       1
       1
       1
       1
       1
       1
       1
       1
       1
       1
       1
       1
       1
       1
       1
       1
       1
       1
       1
       1
       1
       1
       1
       1
       1
       1
       1
       1
       1
       1
       1
       1
       1
       1
       1
       1
       1
       1
       1
       1
       1
       1
       1
       1
       1
       1
       1
       1
       1
       1
       1
       1
       1
       1
       1
       1
       1
       1
       1
       1
       1
       1
       1
       1
       1
       1
       1
       1
       1
       1
       1
       1
       1
       1
       1
       1
       1
       1
       1
       1
       1
       1
       1
       1
       1
       1
       1
       1
       1
       1
       1
       1
       1
       1
       1
       1
       1
       1
       1
       1
       1
       1
       1
       1
       1
       1
       1
       1
       1
       1
       1
       1
       1
       1
       1
       1
       1
       1
       1
       1
       1
       1
       1
       1
       1
       1
       1
       1
       1
       1
       1
       1
       1
       1
       1
       1
       1
       1
       1
       1
       1
       1
       1
       1
       1
       1
       1
       1
       1
       1
       1
       1
       1
       1
       1
       1
       1
       1
       1
       1
       1
       1
       1
       1
       1
       1
       1
       1
       1
       1
       1
       1
       1
       1
       1
       1
       1
       1
       1
       1
       1
       1
       1
       1
       1
       1
       1
       1
       1
       1
       1
       1
       1
       1
       1
       1
       1
       1
       1
       1
       1
       1
       1
       1
       1
       1
       1
       1
       1
       1
       1
       1
       1
       1
       1
       1
       1
       1
       1
       1
       1
       1
       1
       1
       1
       1
       1
       1
       1
       1
       1
       1
       1
       1
       1
       1
       1
       1
       1
       1
       1
       1
       1
       1
       1
       1
       1
       1
       1
       1
       1
       1
       1
       1
       1
       1
       1
       1
       1
       1
       1
       1
       1
       1
       1
       1
       1
       1
       1
       1
       1
       1
       1
       1
       1
       1
       1
       1
       1
       1
       1
       1
       1
       1
       1
       1
       1
       1
       1
       1
       1
       1
       1
       1
       1
       1
       1
       1
       1
       1
       1
       1
       1
       1
       1
       1
       1
       1
       1
       1
       1
       1
       1
       1
       1
       1
       1
       1
       1
       1
       1
       1
       1
       1
       1
       1
       1
       1
       1
       1
       1
       1
       1
       1
       1
       1
       1
       1
       1
       1
       1
       1
       1
       1
       1
       1
       1
       1
       1
       1
       1
       1
       1
       1
       1
       1
       1
       1
       1
       1
       1
       1
       1
       1
       1
       1
       1
       1
       1
       1
       1
       1
       1
       1
       1
       1
       1
       1
       1
       1
       1
       1
       1
       1
       1
       1
       1
       1
       1
       1
       1
       1
       1
       1
       1
       1
       1
       1
       1
       1
       1
       1
       1
       1
       1
       1
       1
       1
       1
       1
       1
       1
       1
       1
       1
       1
       1
       1
       1
       1
       1
       1
       1
       1
       1
       1
       1
       1
       1
       1
       1
       1
       1
       1
       1
       1
       1
       1
       1
       1
       1
       1
       1
       1
       1
       1
       1
       1
       1
       1
       1
       1
       1
       1
       1
       1
       1
       1
       1
       1
       1
       1
       1
       1
       1
       1
       1
       1
       1
       1
       1
       1
       1
       1
       1
       1
       1
       1
       1
       1
       1
       1
       1
       1
       1
       1
       1
       1
       1
       1
       1
       1
       1
       1
       1
       1
       1
       1
       1
       1
       1
       1
       1
       1
       1
       1
       1
       1
       1
       1
       1
       1
       1
       1
       1
       1
       1
       1
       1
       1
       1
       1
       1
       1
       1
       1
       1
       1
       1
       1
       1
       1
       1
       1
       1
       1
       1
       1
       1
       1
       1
       1
       1
       1
       1
       1
       1
       1
       1
       1
       1
       1
       1
       1
       1
       1
       1
       1
       1
       1
       1
       1
       1
       1
       1
       1
       1
       1
       1
       1
       1
       1
       1
       1
       1
       1
       1
       1
       1
       1
       1
       1
       1
       1
       1
       1
       1
       1
       1
       1
       1
       1
       1
       1
       1
       1
       1
       1
       1
       1
       1
       1
       1
       1
       1
       1
       1
       1
       1
       1
       1
       1
       1
       1
       1
       1
       1
       1
       1
       1
       1
       1
       1
       1
       1
       1
       1
       1
       1
       1
       1
       1
       1
       1
       1
       1
       1
       1
       1
       1
      12
      12
      12
      12
      12
      12
      12
      12
      12
      12
      12
      12
      12
      12
      12
      12
      12
      12
      12
      12
      12
      12
      12
      12
      12
      12
      12
      12
      12
      12
      12
      12
      12
      12
      12
      12
      12
      12
      12
      12
      12
      12
      12
      12
      12
      12
      12
      12
      12
      12
      12
      12
      12
      12
      12
      12
      12
      12
      12
      12
      12
      12
      12
      12
      12
      12
      12
      12
      12
      12
      12
      12
      12
      12
      12
      12
      12
      12
      12
      12
      12
      12
      12
      12
      12
      12
      12
      12
      12
      12
      12
      12
      12
      12
      12
      12
      12
      12
      12
      12
      12
      12
      12
      12
      12
      12
      12
      12
      12
      12
      12
      12
      12
      12
      12
      12
      12
      12
      12
      12
      12
      12
      12
      12
      12
      12
      12
      12
      12
      12
      12
      12
      12
      12
      12
      12
      12
      12
      12
      12
      12
      12
      12
      12
      12
      12
      12
      12
      12
      12
      12
      12
      12
      12
      12
      12
      12
      12
      12
      12
      12
      12
      12
      12
      12
      12
      12
      12
      12
      12
      12
      12
      12
      12
      12
      12
      12
      12
      12
      12
      12
      12
      12
      12
      12
      12
      12
      12
      12
      12
      12
      12
      12
      12
      12
      12
      12
      12
      12
      12
      12
      12
      12
      12
      12
      12
      12
      12
      12
      12
      12
      12
      12
      12
      12
      12
      12
      12
      12
      12
      12
      12
      12
      12
      12
      12
      12
      12
      12
      12
      12
      12
      12
      12
      12
      12
      12
      12
      12
      12
      12
      12
      12
      12
      12
      12
      12
      12
      12
      12
      12
      12
      12
      12
      12
      12
      12
      12
      12
      12
      12
      12
      12
      12
      12
      12
      12
      12
      12
      12
      12
      12
      12
      12
      12
      12
      12
      12
      12
      12
      12
      12
      12
      12
      12
      12
      12
      12
      12
      12
      12
      12
      12
      12
      12
      12
      12
      12
      12
      12
      12
      12
      12
      12
      12
      12
      12
      12
      12
      12
      12
      12
      12
      12
      12
      12
      12
      12
      12
      12
      12
      12
      12
      12
      12
      12
      12
      12
      12
      12
      12
      12
      12
      12
      12
      12
      12
      12
      12
      12
      12
      12
      12
      12
      12
      12
      12
      12
      12
      12
      12
      12
      12
      12
      12
      12
      12
      12
      12
      12
      12
      12
      12
      12
      12
      12
      12
      12
      12
      12
      12
      12
      12
      12
      12
      12
      12
      12
      12
      12
      12
      12
      12
      12
      12
      12
      12
      12
      12
      12
      12
      12
      12
      12
      12
      12
      12
      12
      12
      12
      12
      12
      12
      12
      12
      12
      12
      12
      12
      12
      12
      12
      12
      12
      12
      12
      12
      12
      12
      12
      12
      12
      12
      12
      12
      12
      12
      12
      12
      12
      12
      12
      12
      12
      12
      12
      12
      12
      12
      12
      12
      12
      12
      12
      12
      12
      12
      12
      12
      12
      12
      12
      12
      12
      12
      12
      12
      12
      12
      12
      12
      12
      12
      12
      12
      12
      12
      12
      12
      12
      12
      12
      12
      12
      12
      12
      12
      12
      12
      12
      12
      12
      12
      12
      12
      12
      12
      12
      12
      12
      12
      12
      12
      12
      12
      12
      12
      12
      12
      12
      12
      12
      12
      12
      12
      12
      12
      12
      12
      12
      12
      12
      12
      12
      12
      12
      12
      12
      12
      12
      12
      12
      12
      12
      12
      12
      12
      12
      12
      12
      12
      12
      12
      12
      12
      12
      12
      12
      12
      12
      12
      12
      12
      12
      12
      12
      12
      12
      12
      12
      12
      12
      12
      12
      12
      12
      12
      12
      12
      12
      12
      12
      12
      12
      12
      12
      12
      12
      12
      12
      12
      12
      12
      12
      12
      12
      12
      12
      12
      12
      12
      12
      12
      12
      12
      12
      12
      12
      12
      12
      12
      12
      12
      12
      12
      12
      12
      12
      12
      12
      12
      12
      12
      12
      12
      12
      12
      12
      12
      12
      12
      12
      12
      12
      12
      12
      12
      12
      12
      12
      12
      12
      12
      12
      12
      12
      12
      12
      12
      12
      12
      12
      12
      12
      12
      12
      12
      12
      12
      12
      12
      12
      12
      12
      12
      12
      12
      12
      12
      12
      12
      12
      12
      12
      12
      12
      12
      12
      12
      12
      12
      12
      12
      12
      12
      12
      12
      12
      12
      12
      12
      12
      12
      12
      12
      12
      12
      12
      12
      12
      12
      12
      12
      12
      12
      12
      12
      12
      12
      12
      12
      12
      12
      12
      12
      12
      12
      12
      12
      12
      12
      12
      12
      12
      12
      12
      12
      12
      12
      12
      12
      12
      12
      12
      12
      12
      12
      12
      12
      12
      12
      12
      12
      12
      12
      12
      12
      12
      12
      12
      12
      12
      12
      12
      12
      12
      12
      12
      12
      12
      12
      12
      12
      12
      12
      12
      12
      12
      12
      12
      12
      12
      12
      12
      12
      12
      12
      12
      12
      12
      12
      12
      12
      12
      12
      12
      12
      12
      12
      12
      12
      12
      12
      12
      12
      12
      12
      12
      12
      12
      12
      12
      12
      12
      12
      12
      12
      12
      12
      12
      12
      12
      12
      12
      12
      12
      12
      12
      12
      12
      12
      12
      12
      12
      12
      12
      12
      12
      12
      12
      12
      12
      12
      12
      12
      12
      12
      12
      12
      12
      12
      12
      12
      12
      12
      12
      12
      12
      12
      12
      12
      12
      12
      12
      12
      12
      12
      12
      12
      12
      12
      12
      12
      12
      12
      12
      12
      12
      12
      12
      12
      12
      12
      12
      12
      12
      12
      12
      12
      12
      12
      12
      12
      12
      12
      12
      12
      12
      12
      12
      12
      12
      12
      12
      12
      12
      12
      12
      12
      12
      12
      12
      12
      12
      12
      12
      12
      12
      12
      12
      12
      12
      12
      12
      12
      12
      12
      12
      12
      12
      12
      12
      12
      12
      12
      12
      12
      12
      12
      12
      12
      12
      12
      12
      12
      12
      12
      12
      12
      12
      12
      12
      12
      12
      12
      12
      12
      12
      12
      12
      12
      12
      12
      12
      12
      12
      12
      12
      12
      12
      12
      12
      12
      12
      12
      12
      12
      12
      12
      12
      12
      12
      12
      12
      12
      12
      12
      12
      12
      12
      12
      12
      12
      12
      12
      12
      12
      12
      12
      12
      12
      12
      12
      12
      12
      12
      12
      12
      12
      12
      12
      12
      12
      12
      12
      12
      12
      12
      12
      12
      12
      12
      12
      12
      12
      12
      12
      12
      12
      12
      12
      12
      12
      12
      12
      12
      12
      12
      12
      12
      12
      12
      12
      12
      12
      12
      12
      12
      12
      12
      12
      12
      12
      12
      12
      12
      12
      12
      12
      12
      12
      12
      12
      12
      12
      12
      12
      12
      12
      12
      12
      12
      12
      12
      12
      12
      12
      12
      12
      12
      12
      12
      12
      12
      12
      12
      12
      12
      12
      12
      12
      12
      12
      12
      12
      12
      12
      12
      12
      12
      12
      12
      12
      12
      12
      12
      12
      12
      12
      12
      12
      12
      12
      12
      12
      12
      12
      12
      12
      12
      12
      12
      12
      12
      12
      12
      12
      12
      12
      12
      12
      12
      12
      12
      12
      12
      12
      12
      12
      12
      12
      12
      12
      12
      12
      12
      12
      12
      12
      12
      12
      12
      12
      12
      12
      12
      12
      12
      12
      12
      12
      12
      12
      12
      12
      12
      12
      12
      12
      12
      12
      12
      12
      12
      12
      12
      12
      12
      12
      12
      12
      12
      12
      12
      12
      12
      12
      12
      12
      12
      12
      12
      12
      12
      12
      12
      12
      12
      12
      12
      12
      12
      12
      12
      12
      12
      12
      12
      12
      12
      12
      12
      12
      12
      12
      12
      12
      12
      12
      12
      12
      12
      12
      12
      12
      12
      12
      12
      12
      12
      12
      12
      12
      12
      12
      12
      12
      12
      12
      12
      12
      12
      12
      12
      12
      12
      12
      12
      12
      12
      12
      12
      12
      12
      12
      12
      12
      12
      12
      12
      12
      12
      12
      12
      12
      12
      12
      12
      12
      12
      12
      12
      12
      12
      12
      12
      12
      12
      12
      12
      12
      12
      12
      12
      12
      12
      12
      12
      12
      12
      12
      12
      12
      12
      12
      12
      12
      12
      12
      12
      12
      12
      12
      12
      12
      12
      12
      12
      12
      12
      12
      12
      12
      12
      12
      12
      12
      12
      12
      12
      12
      12
      12
      12
      12
      12
      12
      12
      12
      12
      12
      12
      12
      12
      12
      12
      12
      12
      12
      12
      12
      12
      12
      12
      12
      12
      12
      12
      12
      12
      12
      12
      12
      12
      12
      12
      12
      12
      12
      12
      12
      12
      12
      12
      12
      12
      12
      12
      12
      12
      12
      12
      12
      12
      12
      12
      12
      12
      12
      12
      12
      12
      12
      12
      12
      12
      12
      12
      12
      12
      12
      12
      12
      12
      12
      12
      12
      12
      12
      12
      12
      12
      12
      12
      12
      12
      12
      12
      12
      12
      12
      12
      12
      12
      12
      12
      12
      12
      12
      12
      12
      12
      12
      12
      12
      12
      12
      12
      12
      12
      12
      12
      12
      12
      12
      12
      12
      12
      12
      12
      12
      12
      12
      12
      12
      12
      12
      12
      12
      12
      12
      12
      12
      12
      12
      12
      12
      12
      12
      12
      12
      12
      12
      12
      12
      12
      12
      12
      12
      12
      12
      12
      12
      12
      12
      12
      12
      12
      12
      12
      12
      12
      12
      12
      12
      12
      12
      12
      12
      12
      12
      12
      12
      12
      12
      12
      12
      12
      12
      12
      12
      12
      12
      12
      12
      12
      12
      12
      12
      12
      12
      12
      12
      12
      12
      12
      12
      12
      12
      12
      12
      12
      12
      12
      12
      12
      12
      12
      12
      12
      12
      12
      12
      12
      12
      12
      12
      12
      12
      12
      12
      12
      12
      12
      12
      12
      12
      12
      12
      12
      12
      12
      12
      12
      12
      12
      12
      12
      12
      12
      12
      12
      12
      12
      12
      12
  
  
POINT_DATA       1950
  
SCALARS                  material_type  double 1
LOOKUP_TABLE default
                   2
                   2
                   2
                   2
                   2
                   2
                   2
                   2
                   2
                   2
                   2
                   2
                   2
                   2
                   2
                   2
                   2
                   2
                   2
                   2
                   2
                   2
                   2
                   2
                   2
                   2
                   2
                   2
                   2
                   2
                   2
                   2
                   2
                   2
                   2
                   2
                   2
                   2
                   2
                   2
                   2
                   2
                   2
                   2
                   2
                   2
                   2
                   2
                   2
                   2
                   2
                   2
                   2
                   2
                   2
                   2
                   2
                   2
                   2
                   2
                   2
                   2
                   2
                   2
                   2
                   2
                   2
                   2
                   2
                   2
                   2
                   2
                   2
                   2
                   2
                   2
                   2
                   2
                   2
                   2
                   2
                   2
                   2
                   2
                   2
                   2
                   2
                   2
                   2
                   2
                   2
                   2
                   2
                   2
                   2
                   2
                   2
                   2
                   2
                   2
                   2
                   2
                   2
                   2
                   2
                   2
                   2
                   2
                   2
                   2
                   2
                   2
                   2
                   2
                   2
                   2
                   2
                   2
                   2
                   2
                   2
                   2
                   2
                   2
                   2
                   2
                   2
                   2
                   2
                   2
                   2
                   2
                   2
                   2
                   2
                   2
                   2
                   2
                   2
                   2
                   2
                   2
                   2
                   2
                   2
                   2
                   2
                   2
                   2
                   2
                   2
                   2
                   2
                   2
                   2
                   2
                   2
                   2
                   2
                   2
                   2
                   2
                   2
                   2
                   2
                   2
                   2
                   2
                   2
                   2
                   2
                   2
                   2
                   2
                   2
                   2
                   2
                   2
                   2
                   2
                   2
                   2
                   2
                   2
                   2
                   2
                   2
                   2
                   2
                   2
                   2
                   2
                   2
                   2
                   2
                   2
                   2
                   2
                   2
                   2
                   2
                   2
                   2
                   2
                   2
                   2
                   2
                   2
                   2
                   2
                   2
                   2
                   2
                   2
                   2
                   2
                   2
                   2
                   2
                   2
                   2
                   2
                   2
                   2
                   2
                   2
                   2
                   2
                   2
                   2
                   2
                   2
                   2
                   2
                   2
                   2
                   2
                   2
                   2
                   2
                   2
                   2
                   2
                   2
                   2
                   2
                   2
                   2
                   2
                   2
                   2
                   2
                   2
                   2
                   2
                   2
                   2
                   2
                   2
                   2
                   2
                   2
                   2
                   2
                   2
                   2
                   2
                   2
                   2
                   2
                   2
                   2
                   2
                   2
                   2
                   2
                   2
                   2
                   2
                   2
                   2
                   2
                   2
                   2
                   2
                   2
                   2
                   2
                   2
                   2
                   2
                   2
                   2
                   2
                   2
                   2
                   2
                   2
                   2
                   2
                   2
                   2
                   2
                   2
                   2
                   2
                   2
                   2
                   2
                   2
                   2
                   2
                   2
                   2
                   2
                   2
                   2
                   2
                   2
                   2
                   2
                   2
                   2
                   2
                   2
                   2
                   2
                   2
                   2
                   2
                   2
                   2
                   2
                   2
                   2
                   2
                   2
                   2
                   2
                   2
                   2
                   2
                   2
                   2
                   2
                   2
                   2
                   2
                   2
                   2
                   2
                   2
                   2
                   2
                   2
                   2
                   2
                   2
                   2
                   2
                   2
                   2
                   2
                   2
                   2
                   2
                   2
                   2
                   2
                   2
                   2
                   2
                   2
                   2
                   2
                   2
                   2
                   2
                   2
                   2
                   2
                   2
                   2
                   2
                   2
                   2
                   2
                   2
                   2
                   2
                   2
                   2
                   2
                   2
                   2
                   2
                   2
                   2
                   2
                   2
                   2
                   2
                   2
                   2
                   2
                   2
                   2
                   2
                   2
                   2
                   2
                   2
                   2
                   2
                   2
                   2
                   2
                   2
                   2
                   2
                   2
                   2
                   2
                   2
                   2
                   2
                   2
                   2
                   2
                   2
                   2
                   2
                   2
                   2
                   2
                   2
                   2
                   2
                   2
                   2
                   2
                   2
                   2
                   2
                   2
                   2
                   2
                   2
                   2
                   2
                   2
                   2
                   2
                   2
                   2
                   2
                   2
                   2
                   2
                   2
                   2
                   2
                   2
                   2
                   2
                   2
                   2
                   2
                   2
                   2
                   2
                   2
                   2
                   2
                   2
                   2
                   2
                   2
                   2
                   2
                   2
                   2
                   2
                   2
                   2
                   2
                   2
                   2
                   2
                   2
                   2
                   2
                   2
                   2
                   2
                   2
                   2
                   2
                   2
                   2
                   2
                   2
                   2
                   2
                   2
                   2
                   2
                   2
                   2
                   2
                   2
                   2
                   2
                   2
                   2
                   2
                   2
                   2
                   2
                   2
                   2
                   2
                   2
                   2
                   2
                   2
                   2
                   2
                   2
                   2
                   2
                   2
                   2
                   2
                   2
                   2
                   2
                   2
                   2
                   2
                   2
                   2
                   2
                   2
                   2
                   2
                   2
                   2
                   2
                   2
                   2
                   2
                   2
                   2
                   2
                   2
                   2
                   2
                   2
                   2
                   2
                   2
                   2
                   2
                   2
                   2
                   2
                   2
                   2
                   2
                   2
                   2
                   2
                   2
                   2
                   2
                   2
                   2
                   2
                   2
                   2
                   2
                   2
                   2
                   2
                   2
                   2
                   2
                   2
                   2
                   2
                   2
                   2
                   2
                   2
                   2
                   2
                   2
                   2
                   2
                   2
                   2
                   2
                   2
                   2
                   2
                   2
                   2
                   2
                   2
                   2
                   2
                   2
                   2
                   2
                   2
                   2
                   2
                   2
                   2
                   2
                   2
                   2
                   2
                   2
                   2
                   2
                   2
                   2
                   2
                   2
                   2
                   2
                   2
                   2
                   2
                   2
                   2
                   2
                   2
                   2
                   2
                   2
                   2
                   2
                   2
                   2
                   2
                   2
                   2
                   2
                   2
                   2
                   2
                   2
                   2
                   2
                   2
                   2
                   2
                   2
                   2
                   2
                   2
                   2
                   2
                   2
                   2
                   2
                   2
                   2
                   2
                   2
                   2
                   2
                   2
                   2
                   2
                   2
                   2
                   2
                   2
                   2
                   2
                   2
                   2
                   2
                   2
                   2
                   2
                   2
                   2
                   2
                   2
                   2
                   2
                   2
                   2
                   2
                   2
                   2
                   2
                   2
                   2
                   2
                   2
                   2
                   2
                   2
                   2
                   2
                   2
                   2
                   2
                   2
                   2
                   2
                   2
                   2
                   2
                   2
                   2
                   2
                   2
                   2
                   2
                   2
                   2
                   2
                   2
                   2
                   2
                   2
                   2
                   2
                   2
                   2
                   2
                   2
                   2
                   2
                   2
                   2
                   2
                   2
                   2
                   2
                   2
                   2
                   2
                   2
                   2
                   2
                   2
                   2
                   2
                   2
                   2
                   2
                   2
                   2
                   2
                   2
                   2
                   2
                   2
                   2
                   2
                   2
                   2
                   2
                   2
                   2
                   2
                   2
                   2
                   2
                   2
                   2
                   2
                   2
                   2
                   2
                   2
                   2
                   2
                   2
                   2
                   2
                   2
                   2
                   2
                   2
                   2
                   2
                   2
                   2
                   2
                   2
                   2
                   2
                   2
                   2
                   2
                   2
                   2
                   2
                   2
                   2
                   2
                   2
                   2
                   2
                   2
                   2
                   2
                   2
                   2
                   2
                   2
                   2
                   2
                   2
                   2
                   2
                   2
                   2
                   2
                   2
                   2
                   2
                   2
                   2
                   2
                   2
                   2
                   2
                   2
                   2
                   2
                   2
                   2
                   2
                   2
                   2
                   2
                   2
                   2
                   2
                   2
                   2
                   2
                   2
                   2
                   2
                   2
                   2
                   2
                   2
                   2
                   2
                   2
                   2
                   2
                   2
                   2
                   2
                   2
                   2
                   2
                   2
                   2
                   2
                   2
                   2
                   2
                   2
                   2
                   2
                   2
                   2
                   2
                   2
                   2
                   2
                   2
                   2
                   2
                   2
                   2
                   2
                   2
                   2
                   2
                   2
                   2
                   2
                   2
                   2
                   2
                   2
                   2
                   2
                   2
                   2
                   2
                   2
                   2
                   2
                   2
                   2
                   2
                   2
                   2
                   2
                   2
                   2
                   2
                   2
                   2
                   2
                   2
                   2
                   2
                   2
                   2
                   2
                   2
                   2
                   2
                   2
                   2
                   2
                   2
                   2
                   2
                   2
                   2
                   2
                   2
                   2
                   2
                   2
                   2
                   2
                   2
                   2
                   2
                   2
                   2
                   2
                   2
                   2
                   2
                   2
                   2
                   2
                   2
                   2
                   2
                   2
                   2
                   2
                   2
                   2
                   2
                   2
                   2
                   2
                   2
                   2
                   2
                   2
                   2
                   2
                   2
                   2
                   2
                   2
                   2
                   2
                   2
                   2
                   2
                   2
                   2
                   2
                   2
                   2
                   2
                   2
                   2
                   2
                   2
                   2
                   2
                   2
                   2
                   2
                   2
                   2
                   2
                   2
                   2
                   2
                   2
                   2
                   2
                   2
                   2
                   2
                   2
                   2
                   2
                   2
                   2
                   2
                   2
                   2
                   2
                   2
                   2
                   2
                   2
                   2
                   2
                   2
                   2
                   2
                   2
                   2
                   2
                   2
                   2
                   2
                   2
                   2
                   2
                   2
                   2
                   2
                   2
                   2
                   2
                   2
                   2
                   2
                   2
                   2
                   2
                   2
                   2
                   2
                   2
                   2
                   2
                   2
                   2
                   2
                   2
                   2
                   2
                   2
                   2
                   2
                   2
                   2
                   2
                   2
                   2
                   2
                   2
                   2
                   2
                   2
                   2
                   2
                   2
                   2
                   2
                   2
                   2
                   2
                   2
                   2
                   2
                   2
                   2
                   2
                   2
                   2
                   2
                   2
                   2
                   2
                   2
                   2
                   2
                   2
                   2
                   2
                   2
                   2
                   2
                   2
                   2
                   2
                   2
                   2
                   2
                   2
                   2
                   2
                   2
                   2
                   2
                   2
                   2
                   2
                   2
                   2
                   2
                   2
                   2
                   2
                   2
                   2
                   2
                   2
                   2
                   2
                   2
                   2
                   2
                   2
                   2
                   2
                   2
                   2
                   2
                   2
                   2
                   2
                   2
                   2
                   2
                   2
                   2
                   2
                   2
                   2
                   2
                   2
                   2
                   2
                   2
                   2
                   2
                   2
                   2
                   2
                   2
                   2
                   2
                   2
                   2
                   2
                   2
                   2
                   2
                   2
                   2
                   2
                   2
                   2
                   2
                   2
                   2
                   2
                   2
                   2
                   2
                   2
                   2
                   2
                   2
                   2
                   2
                   2
                   2
                   2
                   2
                   2
                   2
                   2
                   2
                   2
                   2
                   2
                   2
                   2
                   2
                   2
                   2
                   2
                   2
                   2
                   2
                   2
                   2
                   2
                   2
                   2
                   2
                   2
                   2
                   2
                   2
                   2
                   2
                   2
                   2
                   2
                   2
                   2
                   2
                   2
                   2
                   2
                   2
                   2
                   2
                   2
                   2
                   2
                   2
                   2
                   2
                   2
                   2
                   2
                   2
                   2
                   2
                   2
                   2
                   2
                   2
                   2
                   2
                   2
                   2
                   2
                   2
                   2
                   2
                   2
                   2
                   2
                   2
                   2
                   2
                   2
                   2
                   2
                   2
                   2
                   2
                   2
                   2
                   2
                   2
                   2
                   2
                   2
                   2
                   2
                   2
                   2
                   2
                   2
                   2
                   2
                   2
                   2
                   2
                   2
                   2
                   2
                   2
                   2
                   2
                   2
                   2
                   2
                   2
                   2
                   2
                   2
                   2
                   2
                   2
                   2
                   2
                   2
                   2
                   2
                   2
                   2
                   2
                   2
                   2
                   2
                   2
                   2
                   2
                   2
                   2
                   2
                   2
                   2
                   2
                   2
                   2
                   2
                   2
                   2
                   2
                   2
                   2
                   2
                   2
                   2
                   2
                   2
                   2
                   2
                   2
                   2
                   2
                   2
                   2
                   2
                   2
                   2
                   2
                   2
                   2
                   2
                   2
                   2
                   2
                   2
                   2
                   2
                   2
                   2
                   2
                   2
                   2
                   2
                   2
                   2
                   2
                   2
                   2
                   2
                   2
                   2
                   2
                   2
                   2
                   2
                   2
                   2
                   2
                   2
                   2
                   2
                   2
                   2
                   2
                   2
                   2
                   2
                   2
                   2
                   2
                   2
                   2
                   2
                   2
                   2
                   2
                   2
                   2
                   2
                   2
                   2
                   2
                   2
                   2
                   2
                   2
                   2
                   2
                   2
                   2
                   2
                   2
                   2
                   2
                   2
                   2
                   2
                   2
                   2
                   2
                   2
                   2
                   2
                   2
                   2
                   2
                   2
                   2
                   2
                   2
                   2
                   2
                   2
                   2
                   2
                   2
                   2
                   2
                   2
                   2
                   2
                   2
                   2
                   2
                   2
                   2
                   2
                   2
                   2
                   2
                   2
                   2
                   2
                   2
                   2
                   2
                   2
                   2
                   2
                   2
                   2
                   2
                   2
                   2
                   2
                   2
                   2
                   2
                   2
                   2
                   2
                   2
                   2
                   2
                   2
                   2
                   2
                   2
                   2
                   2
                   2
                   2
                   2
                   2
                   2
                   2
                   2
                   2
                   2
                   2
                   2
                   2
                   2
                   2
                   2
                   2
                   2
                   2
                   2
                   2
                   2
                   2
                   2
                   2
                   2
                   2
                   2
                   2
                   2
                   2
                   2
                   2
                   2
                   2
                   2
                   2
                   2
                   2
                   2
                   2
                   2
                   2
                   2
                   2
                   2
                   2
                   2
                   2
                   2
                   2
                   2
                   2
                   2
                   2
                   2
                   2
                   2
                   2
                   2
                   2
                   2
                   2
                   2
                   2
                   2
                   2
                   2
                   2
                   2
                   2
                   2
                   2
                   2
                   2
                   2
                   2
                   2
                   2
                   2
                   2
                   2
                   2
                   2
                   2
                   2
                   2
                   2
                   2
                   2
                   2
                   2
                   2
                   2
                   2
                   2
                   2
                   2
                   2
                   2
                   2
                   2
                   2
                   2
                   2
                   2
                   2
                   2
                   2
                   2
                   2
                   2
                   2
                   2
                   2
                   2
                   2
                   2
                   2
                   2
                   2
                   2
                   2
                   2
                   2
                   2
                   2
                   2
                   2
                   2
                   2
                   2
                   2
                   2
                   2
                   2
                   2
                   2
                   2
                   2
                   2
                   2
                   2
                   2
                   2
                   2
                   2
                   2
                   2
                   2
                   2
                   2
                   2
                   2
                   2
                   2
                   2
                   2
                   2
                   2
                   2
                   2
                   2
                   2
                   2
                   2
                   2
                   2
                   2
                   2
                   2
                   2
                   2
                   2
                   2
                   2
                   2
                   2
                   2
                   2
                   2
                   2
                   2
                   2
                   2
                   2
                   2
                   2
                   2
                   2
                   2
                   2
                   2
                   2
                   2
                   2
                   2
                   2
                   2
                   2
                   2
                   2
                   2
                   2
                   2
                   2
                   2
                   2
                   2
                   2
                   2
                   2
                   2
                   2
                   2
                   2
                   2
                   2
                   2
                   2
                   2
                   2
                   2
                   2
                   2
                   2
                   2
                   2
                   2
                   2
                   2
                   2
                   2
                   2
                   2
                   2
                   2
                   2
                   2
                   2
                   2
                   2
                   2
                   2
                   2
                   2
                   2
                   2
                   2
                   2
                   2
                   2
                   2
                   2
                   2
                   2
                   2
                   2
                   2
                   2
                   2
                   2
                   2
                   2
                   2
                   2
                   2
                   2
                   2
                   2
                   2
                   2
                   2
                   2
                   2
                   2
                   2
                   2
                   2
                   2
                   2
                   2
                   2
                   2
                   2
                   2
                   2
                   2
                   2
                   2
                   2
                   2
                   2
                   2
                   2
                   2
                   2
                   2
                   2
                   2
                   2
                   2
                   2
                   2
                   2
                   2
                   2
                   2
                   2
                   2
                   2
                   2
                   2
                   2
                   2
                   2
                   2
                   2
                   2
                   2
                   2
                   2
                   2
                   2
                   2
                   2
                   2
                   2
                   2
                   2
                   2
                   2
                   2
                   2
                   2
                   2
                   2
                   2
                   2
                   2
                   2
                   2
                   2
                   2
                   2
                   2
                   2
                   2
                   2
                   2
                   2
                   2
                   2
                   2
                   2
                   2
                   2
                   2
                   2
                   2
                   2
                   2
                   2
                   2
                   2
                   2
                   2
                   2
                   2
                   2
                   2
                   2
                   2
                   2
                   2
                   2
                   2
                   2
                   2
                   2
                   2
                   2
                   2
                   2
                   2
                   2
                   2
                   2
                   2
                   2
                   2
                   2
                   2
                   2
                   2
                   2
                   2
                   2
                   2
                   2
                   2
                   2
                   2
                   2
                   2
                   2
                   2
                   2
                   2
                   2
                   2
                   2
                   2
                   2
                   2
                   2
                   2
                   2
                   2
                   2
                   2
                   2
                   2
                   2
                   2
                   2
                   2
                   2
                   2
                   2
                   2
                   2
                   2
                   2
                   2
                   2
                   2
                   2
                   2
                   2
                   2
                   2
                   2
                   2
                   2
                   2
                   2
                   2
                   2
                   2
                   2
                   2
                   2
                   2
                   2
                   2
                   2
                   2
                   2
                   2
                   2
                   2
                   2
                   2
                   2
                   2
                   2
                   2
                   2
                   2
                   2
                   2
                   2
  
SCALARS                        node_id  double 1
LOOKUP_TABLE default
                   1
                   2
                   3
                   4
                   5
                   6
                   7
                   8
                   9
                  10
                  11
                  12
                  13
                  14
                  15
                  16
                  17
                  18
                  19
                  20
                  21
                  22
                  23
                  24
                  25
                  26
                  27
                  28
                  29
                  30
                  31
                  32
                  33
                  34
                  35
                  36
                  37
                  38
                  39
                  40
                  41
                  42
                  43
                  44
                  45
                  46
                  47
                  48
                  49
                  50
                  51
                  52
                  53
                  54
                  55
                  56
                  57
                  58
                  59
                  60
                  61
                  62
                  63
                  64
                  65
                  66
                  67
                  68
                  69
                  70
                  71
                  72
                  73
                  74
                  75
                  76
                  77
                  78
                  79
                  80
                  81
                  82
                  83
                  84
                  85
                  86
                  87
                  88
                  89
                  90
                  91
                  92
                  93
                  94
                  95
                  96
                  97
                  98
                  99
                 100
                 101
                 102
                 103
                 104
                 105
                 106
                 107
                 108
                 109
                 110
                 111
                 112
                 113
                 114
                 115
                 116
                 117
                 118
                 119
                 120
                 121
                 122
                 123
                 124
                 125
                 126
                 127
                 128
                 129
                 130
                 131
                 132
                 133
                 134
                 135
                 136
                 137
                 138
                 139
                 140
                 141
                 142
                 143
                 144
                 145
                 146
                 147
                 148
                 149
                 150
                 151
                 152
                 153
                 154
                 155
                 156
                 157
                 158
                 159
                 160
                 161
                 162
                 163
                 164
                 165
                 166
                 167
                 168
                 169
                 170
                 171
                 172
                 173
                 174
                 175
                 176
                 177
                 178
                 179
                 180
                 181
                 182
                 183
                 184
                 185
                 186
                 187
                 188
                 189
                 190
                 191
                 192
                 193
                 194
                 195
                 196
                 197
                 198
                 199
                 200
                 201
                 202
                 203
                 204
                 205
                 206
                 207
                 208
                 209
                 210
                 211
                 212
                 213
                 214
                 215
                 216
                 217
                 218
                 219
                 220
                 221
                 222
                 223
                 224
                 225
                 226
                 227
                 228
                 229
                 230
                 231
                 232
                 233
                 234
                 235
                 236
                 237
                 238
                 239
                 240
                 241
                 242
                 243
                 244
                 245
                 246
                 247
                 248
                 249
                 250
                 251
                 252
                 253
                 254
                 255
                 256
                 257
                 258
                 259
                 260
                 261
                 262
                 263
                 264
                 265
                 266
                 267
                 268
                 269
                 270
                 271
                 272
                 273
                 274
                 275
                 276
                 277
                 278
                 279
                 280
                 281
                 282
                 283
                 284
                 285
                 286
                 287
                 288
                 289
                 290
                 291
                 292
                 293
                 294
                 295
                 296
                 297
                 298
                 299
                 300
                 301
                 302
                 303
                 304
                 305
                 306
                 307
                 308
                 309
                 310
                 311
                 312
                 313
                 314
                 315
                 316
                 317
                 318
                 319
                 320
                 321
                 322
                 323
                 324
                 325
                 326
                 327
                 328
                 329
                 330
                 331
                 332
                 333
                 334
                 335
                 336
                 337
                 338
                 339
                 340
                 341
                 342
                 343
                 344
                 345
                 346
                 347
                 348
                 349
                 350
                 351
                 352
                 353
                 354
                 355
                 356
                 357
                 358
                 359
                 360
                 361
                 362
                 363
                 364
                 365
                 366
                 367
                 368
                 369
                 370
                 371
                 372
                 373
                 374
                 375
                 376
                 377
                 378
                 379
                 380
                 381
                 382
                 383
                 384
                 385
                 386
                 387
                 388
                 389
                 390
                 391
                 392
                 393
                 394
                 395
                 396
                 397
                 398
                 399
                 400
                 401
                 402
                 403
                 404
                 405
                 406
                 407
                 408
                 409
                 410
                 411
                 412
                 413
                 414
                 415
                 416
                 417
                 418
                 419
                 420
                 421
                 422
                 423
                 424
                 425
                 426
                 427
                 428
                 429
                 430
                 431
                 432
                 433
                 434
                 435
                 436
                 437
                 438
                 439
                 440
                 441
                 442
                 443
                 444
                 445
                 446
                 447
                 448
                 449
                 450
                 451
                 452
                 453
                 454
                 455
                 456
                 457
                 458
                 459
                 460
                 461
                 462
                 463
                 464
                 465
                 466
                 467
                 468
                 469
                 470
                 471
                 472
                 473
                 474
                 475
                 476
                 477
                 478
                 479
                 480
                 481
                 482
                 483
                 484
                 485
                 486
                 487
                 488
                 489
                 490
                 491
                 492
                 493
                 494
                 495
                 496
                 497
                 498
                 499
                 500
                 501
                 502
                 503
                 504
                 505
                 506
                 507
                 508
                 509
                 510
                 511
                 512
                 513
                 514
                 515
                 516
                 517
                 518
                 519
                 520
                 521
                 522
                 523
                 524
                 525
                 526
                 527
                 528
                 529
                 530
                 531
                 532
                 533
                 534
                 535
                 536
                 537
                 538
                 539
                 540
                 541
                 542
                 543
                 544
                 545
                 546
                 547
                 548
                 549
                 550
                 551
                 552
                 553
                 554
                 555
                 556
                 557
                 558
                 559
                 560
                 561
                 562
                 563
                 564
                 565
                 566
                 567
                 568
                 569
                 570
                 571
                 572
                 573
                 574
                 575
                 576
                 577
                 578
                 579
                 580
                 581
                 582
                 583
                 584
                 585
                 586
                 587
                 588
                 589
                 590
                 591
                 592
                 593
                 594
                 595
                 596
                 597
                 598
                 599
                 600
                 601
                 602
                 603
                 604
                 605
                 606
                 607
                 608
                 609
                 610
                 611
                 612
                 613
                 614
                 615
                 616
                 617
                 618
                 619
                 620
                 621
                 622
                 623
                 624
                 625
                 626
                 627
                 628
                 629
                 630
                 631
                 632
                 633
                 634
                 635
                 636
                 637
                 638
                 639
                 640
                 641
                 642
                 643
                 644
                 645
                 646
                 647
                 648
                 649
                 650
                 651
                 652
                 653
                 654
                 655
                 656
                 657
                 658
                 659
                 660
                 661
                 662
                 663
                 664
                 665
                 666
                 667
                 668
                 669
                 670
                 671
                 672
                 673
                 674
                 675
                 676
                 677
                 678
                 679
                 680
                 681
                 682
                 683
                 684
                 685
                 686
                 687
                 688
                 689
                 690
                 691
                 692
                 693
                 694
                 695
                 696
                 697
                 698
                 699
                 700
                 701
                 702
                 703
                 704
                 705
                 706
                 707
                 708
                 709
                 710
                 711
                 712
                 713
                 714
                 715
                 716
                 717
                 718
                 719
                 720
                 721
                 722
                 723
                 724
                 725
                 726
                 727
                 728
                 729
                 730
                 731
                 732
                 733
                 734
                 735
                 736
                 737
                 738
                 739
                 740
                 741
                 742
                 743
                 744
                 745
                 746
                 747
                 748
                 749
                 750
                 751
                 752
                 753
                 754
                 755
                 756
                 757
                 758
                 759
                 760
                 761
                 762
                 763
                 764
                 765
                 766
                 767
                 768
                 769
                 770
                 771
                 772
                 773
                 774
                 775
                 776
                 777
                 778
                 779
                 780
                 781
                 782
                 783
                 784
                 785
                 786
                 787
                 788
                 789
                 790
                 791
                 792
                 793
                 794
                 795
                 796
                 797
                 798
                 799
                 800
                 801
                 802
                 803
                 804
                 805
                 806
                 807
                 808
                 809
                 810
                 811
                 812
                 813
                 814
                 815
                 816
                 817
                 818
                 819
                 820
                 821
                 822
                 823
                 824
                 825
                 826
                 827
                 828
                 829
                 830
                 831
                 832
                 833
                 834
                 835
                 836
                 837
                 838
                 839
                 840
                 841
                 842
                 843
                 844
                 845
                 846
                 847
                 848
                 849
                 850
                 851
                 852
                 853
                 854
                 855
                 856
                 857
                 858
                 859
                 860
                 861
                 862
                 863
                 864
                 865
                 866
                 867
                 868
                 869
                 870
                 871
                 872
                 873
                 874
                 875
                 876
                 877
                 878
                 879
                 880
                 881
                 882
                 883
                 884
                 885
                 886
                 887
                 888
                 889
                 890
                 891
                 892
                 893
                 894
                 895
                 896
                 897
                 898
                 899
                 900
                 901
                 902
                 903
                 904
                 905
                 906
                 907
                 908
                 909
                 910
                 911
                 912
                 913
                 914
                 915
                 916
                 917
                 918
                 919
                 920
                 921
                 922
                 923
                 924
                 925
                 926
                 927
                 928
                 929
                 930
                 931
                 932
                 933
                 934
                 935
                 936
                 937
                 938
                 939
                 940
                 941
                 942
                 943
                 944
                 945
                 946
                 947
                 948
                 949
                 950
                 951
                 952
                 953
                 954
                 955
                 956
                 957
                 958
                 959
                 960
                 961
                 962
                 963
                 964
                 965
                 966
                 967
                 968
                 969
                 970
                 971
                 972
                 973
                 974
                 975
                 976
                 977
                 978
                 979
                 980
                 981
                 982
                 983
                 984
                 985
                 986
                 987
                 988
                 989
                 990
                 991
                 992
                 993
                 994
                 995
                 996
                 997
                 998
                 999
                1000
                1001
                1002
                1003
                1004
                1005
                1006
                1007
                1008
                1009
                1010
                1011
                1012
                1013
                1014
                1015
                1016
                1017
                1018
                1019
                1020
                1021
                1022
                1023
                1024
                1025
                1026
                1027
                1028
                1029
                1030
                1031
                1032
                1033
                1034
                1035
                1036
                1037
                1038
                1039
                1040
                1041
                1042
                1043
                1044
                1045
                1046
                1047
                1048
                1049
                1050
                1051
                1052
                1053
                1054
                1055
                1056
                1057
                1058
                1059
                1060
                1061
                1062
                1063
                1064
                1065
                1066
                1067
                1068
                1069
                1070
                1071
                1072
                1073
                1074
                1075
                1076
                1077
                1078
                1079
                1080
                1081
                1082
                1083
                1084
                1085
                1086
                1087
                1088
                1089
                1090
                1091
                1092
                1093
                1094
                1095
                1096
                1097
                1098
                1099
                1100
                1101
                1102
                1103
                1104
                1105
                1106
                1107
                1108
                1109
                1110
                1111
                1112
                1113
                1114
                1115
                1116
                1117
                1118
                1119
                1120
                1121
                1122
                1123
                1124
                1125
                1126
                1127
                1128
                1129
                1130
                1131
                1132
                1133
                1134
                1135
                1136
                1137
                1138
                1139
                1140
                1141
                1142
                1143
                1144
                1145
                1146
                1147
                1148
                1149
                1150
                1151
                1152
                1153
                1154
                1155
                1156
                1157
                1158
                1159
                1160
                1161
                1162
                1163
                1164
                1165
                1166
                1167
                1168
                1169
                1170
                1171
                1172
                1173
                1174
                1175
                1176
                1177
                1178
                1179
                1180
                1181
                1182
                1183
                1184
                1185
                1186
                1187
                1188
                1189
                1190
                1191
                1192
                1193
                1194
                1195
                1196
                1197
                1198
                1199
                1200
                1201
                1202
                1203
                1204
                1205
                1206
                1207
                1208
                1209
                1210
                1211
                1212
                1213
                1214
                1215
                1216
                1217
                1218
                1219
                1220
                1221
                1222
                1223
                1224
                1225
                1226
                1227
                1228
                1229
                1230
                1231
                1232
                1233
                1234
                1235
                1236
                1237
                1238
                1239
                1240
                1241
                1242
                1243
                1244
                1245
                1246
                1247
                1248
                1249
                1250
                1251
                1252
                1253
                1254
                1255
                1256
                1257
                1258
                1259
                1260
                1261
                1262
                1263
                1264
                1265
                1266
                1267
                1268
                1269
                1270
                1271
                1272
                1273
                1274
                1275
                1276
                1277
                1278
                1279
                1280
                1281
                1282
                1283
                1284
                1285
                1286
                1287
                1288
                1289
                1290
                1291
                1292
                1293
                1294
                1295
                1296
                1297
                1298
                1299
                1300
                1301
                1302
                1303
                1304
                1305
                1306
                1307
                1308
                1309
                1310
                1311
                1312
                1313
                1314
                1315
                1316
                1317
                1318
                1319
                1320
                1321
                1322
                1323
                1324
                1325
                1326
                1327
                1328
                1329
                1330
                1331
                1332
                1333
                1334
                1335
                1336
                1337
                1338
                1339
                1340
                1341
                1342
                1343
                1344
                1345
                1346
                1347
                1348
                1349
                1350
                1351
                1352
                1353
                1354
                1355
                1356
                1357
                1358
                1359
                1360
                1361
                1362
                1363
                1364
                1365
                1366
                1367
                1368
                1369
                1370
                1371
                1372
                1373
                1374
                1375
                1376
                1377
                1378
                1379
                1380
                1381
                1382
                1383
                1384
                1385
                1386
                1387
                1388
                1389
                1390
                1391
                1392
                1393
                1394
                1395
                1396
                1397
                1398
                1399
                1400
                1401
                1402
                1403
                1404
                1405
                1406
                1407
                1408
                1409
                1410
                1411
                1412
                1413
                1414
                1415
                1416
                1417
                1418
                1419
                1420
                1421
                1422
                1423
                1424
                1425
                1426
                1427
                1428
                1429
                1430
                1431
                1432
                1433
                1434
                1435
                1436
                1437
                1438
                1439
                1440
                1441
                1442
                1443
                1444
                1445
                1446
                1447
                1448
                1449
                1450
                1451
                1452
                1453
                1454
                1455
                1456
                1457
                1458
                1459
                1460
                1461
                1462
                1463
                1464
                1465
                1466
                1467
                1468
                1469
                1470
                1471
                1472
                1473
                1474
                1475
                1476
                1477
                1478
                1479
                1480
                1481
                1482
                1483
                1484
                1485
                1486
                1487
                1488
                1489
                1490
                1491
                1492
                1493
                1494
                1495
                1496
                1497
                1498
                1499
                1500
                1501
                1502
                1503
                1504
                1505
                1506
                1507
                1508
                1509
                1510
                1511
                1512
                1513
                1514
                1515
                1516
                1517
                1518
                1519
                1520
                1521
                1522
                1523
                1524
                1525
                1526
                1527
                1528
                1529
                1530
                1531
                1532
                1533
                1534
                1535
                1536
                1537
                1538
                1539
                1540
                1541
                1542
                1543
                1544
                1545
                1546
                1547
                1548
                1549
                1550
                1551
                1552
                1553
                1554
                1555
                1556
                1557
                1558
                1559
                1560
                1561
                1562
                1563
                1564
                1565
                1566
                1567
                1568
                1569
                1570
                1571
                1572
                1573
                1574
                1575
                1576
                1577
                1578
                1579
                1580
                1581
                1582
                1583
                1584
                1585
                1586
                1587
                1588
                1589
                1590
                1591
                1592
                1593
                1594
                1595
                1596
                1597
                1598
                1599
                1600
                1601
                1602
                1603
                1604
                1605
                1606
                1607
                1608
                1609
                1610
                1611
                1612
                1613
                1614
                1615
                1616
                1617
                1618
                1619
                1620
                1621
                1622
                1623
                1624
                1625
                1626
                1627
                1628
                1629
                1630
                1631
                1632
                1633
                1634
                1635
                1636
                1637
                1638
                1639
                1640
                1641
                1642
                1643
                1644
                1645
                1646
                1647
                1648
                1649
                1650
                1651
                1652
                1653
                1654
                1655
                1656
                1657
                1658
                1659
                1660
                1661
                1662
                1663
                1664
                1665
                1666
                1667
                1668
                1669
                1670
                1671
                1672
                1673
                1674
                1675
                1676
                1677
                1678
                1679
                1680
                1681
                1682
                1683
                1684
                1685
                1686
                1687
                1688
                1689
                1690
                1691
                1692
                1693
                1694
                1695
                1696
                1697
                1698
                1699
                1700
                1701
                1702
                1703
                1704
                1705
                1706
                1707
                1708
                1709
                1710
                1711
                1712
                1713
                1714
                1715
                1716
                1717
                1718
                1719
                1720
                1721
                1722
                1723
                1724
                1725
                1726
                1727
                1728
                1729
                1730
                1731
                1732
                1733
                1734
                1735
                1736
                1737
                1738
                1739
                1740
                1741
                1742
                1743
                1744
                1745
                1746
                1747
                1748
                1749
                1750
                1751
                1752
                1753
                1754
                1755
                1756
                1757
                1758
                1759
                1760
                1761
                1762
                1763
                1764
                1765
                1766
                1767
                1768
                1769
                1770
                1771
                1772
                1773
                1774
                1775
                1776
                1777
                1778
                1779
                1780
                1781
                1782
                1783
                1784
                1785
                1786
                1787
                1788
                1789
                1790
                1791
                1792
                1793
                1794
                1795
                1796
                1797
                1798
                1799
                1800
                1801
                1802
                1803
                1804
                1805
                1806
                1807
                1808
                1809
                1810
                1811
                1812
                1813
                1814
                1815
                1816
                1817
                1818
                1819
                1820
                1821
                1822
                1823
                1824
                1825
                1826
                1827
                1828
                1829
                1830
                1831
                1832
                1833
                1834
                1835
                1836
                1837
                1838
                1839
                1840
                1841
                1842
                1843
                1844
                1845
                1846
                1847
                1848
                1849
                1850
                1851
                1852
                1853
                1854
                1855
                1856
                1857
                1858
                1859
                1860
                1861
                1862
                1863
                1864
                1865
                1866
                1867
                1868
                1869
                1870
                1871
                1872
                1873
                1874
                1875
                1876
                1877
                1878
                1879
                1880
                1881
                1882
                1883
                1884
                1885
                1886
                1887
                1888
                1889
                1890
                1891
                1892
                1893
                1894
                1895
                1896
                1897
                1898
                1899
                1900
                1901
                1902
                1903
                1904
                1905
                1906
                1907
                1908
                1909
                1910
                1911
                1912
                1913
                1914
                1915
                1916
                1917
                1918
                1919
                1920
                1921
                1922
                1923
                1924
                1925
                1926
                1927
                1928
                1929
                1930
                1931
                1932
                1933
                1934
                1935
                1936
                1937
                1938
                1939
                1940
                1941
                1942
                1943
                1944
                1945
                1946
                1947
                1948
                1949
                1950
  
SCALARS                         bodyid  double 1
LOOKUP_TABLE default
                   1
                   1
                   1
                   1
                   1
                   1
                   1
                   1
                   1
                   1
                   1
                   1
                   1
                   1
                   1
                   1
                   1
                   1
                   1
                   1
                   1
                   1
                   1
                   1
                   1
                   1
                   1
                   1
                   1
                   1
                   1
                   1
                   1
                   1
                   1
                   1
                   1
                   1
                   1
                   1
                   1
                   1
                   1
                   1
                   1
                   1
                   1
                   1
                   1
                   1
                   1
                   1
                   1
                   1
                   1
                   1
                   1
                   1
                   1
                   1
                   1
                   1
                   1
                   1
                   1
                   1
                   1
                   1
                   1
                   1
                   1
                   1
                   1
                   1
                   1
                   1
                   1
                   1
                   1
                   1
                   1
                   1
                   1
                   1
                   1
                   1
                   1
                   1
                   1
                   1
                   1
                   1
                   1
                   1
                   1
                   1
                   1
                   1
                   1
                   1
                   1
                   1
                   1
                   1
                   1
                   1
                   1
                   1
                   1
                   1
                   1
                   1
                   1
                   1
                   1
                   1
                   1
                   1
                   1
                   1
                   1
                   1
                   1
                   1
                   1
                   1
                   1
                   1
                   1
                   1
                   1
                   1
                   1
                   1
                   1
                   1
                   1
                   1
                   1
                   1
                   1
                   1
                   1
                   1
                   1
                   1
                   1
                   1
                   1
                   1
                   1
                   1
                   1
                   1
                   1
                   1
                   1
                   1
                   1
                   1
                   1
                   1
                   1
                   1
                   1
                   1
                   1
                   1
                   1
                   1
                   1
                   1
                   1
                   1
                   1
                   1
                   1
                   1
                   1
                   1
                   1
                   1
                   1
                   1
                   1
                   1
                   1
                   1
                   1
                   1
                   1
                   1
                   1
                   1
                   1
                   1
                   1
                   1
                   1
                   1
                   1
                   1
                   1
                   1
                   1
                   1
                   1
                   1
                   1
                   1
                   1
                   1
                   1
                   1
                   1
                   1
                   1
                   1
                   1
                   1
                   1
                   1
                   1
                   1
                   1
                   1
                   1
                   1
                   1
                   1
                   1
                   1
                   1
                   1
                   1
                   1
                   1
                   1
                   1
                   1
                   1
                   1
                   1
                   1
                   1
                   1
                   1
                   1
                   1
                   1
                   1
                   1
                   1
                   1
                   1
                   1
                   1
                   1
                   1
                   1
                   1
                   1
                   1
                   1
                   1
                   1
                   1
                   1
                   1
                   1
                   1
                   1
                   1
                   1
                   1
                   1
                   1
                   1
                   1
                   1
                   1
                   1
                   1
                   1
                   1
                   1
                   1
                   1
                   1
                   1
                   1
                   1
                   1
                   1
                   1
                   1
                   1
                   1
                   1
                   1
                   1
                   1
                   1
                   1
                   1
                   1
                   1
                   1
                   1
                   1
                   1
                   1
                   1
                   1
                   1
                   1
                   1
                   1
                   1
                   1
                   1
                   1
                   1
                   1
                   1
                   1
                   1
                   1
                   1
                   1
                   1
                   1
                   1
                   1
                   1
                   1
                   1
                   1
                   1
                   1
                   1
                   1
                   1
                   1
                   1
                   1
                   1
                   1
                   1
                   1
                   1
                   1
                   1
                   1
                   1
                   1
                   1
                   1
                   1
                   1
                   1
                   1
                   1
                   1
                   1
                   1
                   1
                   1
                   1
                   1
                   1
                   1
                   1
                   1
                   1
                   1
                   1
                   1
                   1
                   1
                   1
                   1
                   1
                   1
                   1
                   1
                   1
                   1
                   1
                   1
                   1
                   1
                   1
                   1
                   1
                   1
                   1
                   1
                   1
                   1
                   1
                   1
                   1
                   1
                   1
                   1
                   1
                   1
                   1
                   1
                   1
                   1
                   1
                   1
                   1
                   1
                   1
                   1
                   1
                   1
                   1
                   1
                   1
                   1
                   1
                   1
                   1
                   1
                   1
                   1
                   1
                   1
                   1
                   1
                   1
                   1
                   1
                   1
                   1
                   1
                   1
                   1
                   1
                   1
                   1
                   1
                   1
                   1
                   1
                   1
                   1
                   1
                   1
                   1
                   1
                   1
                   1
                   1
                   1
                   1
                   1
                   1
                   1
                   1
                   1
                   1
                   1
                   1
                   1
                   1
                   1
                   1
                   1
                   1
                   1
                   1
                   1
                   1
                   1
                   1
                   1
                   1
                   1
                   1
                   1
                   1
                   1
                   1
                   1
                   1
                   1
                   1
                   1
                   1
                   1
                   1
                   1
                   1
                   1
                   1
                   1
                   1
                   1
                   1
                   1
                   1
                   1
                   1
                   1
                   1
                   1
                   1
                   1
                   1
                   1
                   1
                   1
                   1
                   1
                   1
                   1
                   1
                   1
                   1
                   1
                   1
                   1
                   1
                   1
                   1
                   1
                   1
                   1
                   1
                   1
                   1
                   1
                   1
                   1
                   1
                   1
                   1
                   1
                   1
                   1
                   1
                   1
                   1
                   1
                   1
                   1
                   1
                   1
                   1
                   1
                   1
                   1
                   1
                   1
                   1
                   1
                   1
                   1
                   1
                   1
                   1
                   1
                   1
                   1
                   1
                   1
                   1
                   1
                   1
                   1
                   1
                   1
                   1
                   1
                   1
                   1
                   1
                   1
                   1
                   1
                   1
                   1
                   1
                   1
                   1
                   1
                   1
                   1
                   1
                   1
                   1
                   1
                   1
                   1
                   1
                   1
                   1
                   1
                   1
                   1
                   1
                   1
                   1
                   1
                   1
                   1
                   1
                   1
                   1
                   1
                   1
                   1
                   1
                   1
                   1
                   1
                   1
                   1
                   1
                   1
                   1
                   1
                   1
                   1
                   1
                   1
                   1
                   1
                   1
                   1
                   1
                   1
                   1
                   1
                   1
                   1
                   1
                   1
                   1
                   1
                   1
                   1
                   1
                   1
                   1
                   1
                   1
                   1
                   1
                   1
                   1
                   1
                   1
                   1
                   1
                   1
                   1
                   1
                   1
                   1
                   1
                   1
                   1
                   1
                   1
                   1
                   1
                   1
                   1
                   1
                   1
                   1
                   1
                   1
                   1
                   1
                   1
                   1
                   1
                   1
                   1
                   1
                   1
                   1
                   1
                   1
                   1
                   1
                   1
                   1
                   1
                   1
                   1
                   1
                   1
                   1
                   1
                   1
                   1
                   1
                   1
                   1
                   1
                   1
                   1
                   1
                   1
                   1
                   1
                   1
                   1
                   1
                   1
                   1
                   1
                   1
                   1
                   1
                   1
                   1
                   1
                   1
                   1
                   1
                   1
                   1
                   1
                   1
                   1
                   1
                   1
                   1
                   1
                   1
                   1
                   1
                   1
                   1
                   1
                   1
                   1
                   1
                   1
                   1
                   1
                   1
                   1
                   1
                   1
                   1
                   1
                   1
                   1
                   1
                   1
                   1
                   1
                   1
                   1
                   1
                   1
                   1
                   1
                   1
                   1
                   1
                   1
                   1
                   1
                   1
                   1
                   1
                   1
                   1
                   1
                   1
                   1
                   1
                   1
                   1
                   1
                   1
                   1
                   1
                   1
                   1
                   1
                   1
                   1
                   1
                   1
                   1
                   1
                   1
                   1
                   1
                   1
                   1
                   1
                   1
                   1
                   1
                   1
                   1
                   1
                   1
                   1
                   1
                   1
                   1
                   1
                   1
                   1
                   1
                   1
                   1
                   1
                   1
                   1
                   1
                   1
                   1
                   1
                   1
                   1
                   1
                   1
                   1
                   1
                   1
                   1
                   1
                   1
                   1
                   1
                   1
                   1
                   1
                   1
                   1
                   1
                   1
                   1
                   1
                   1
                   1
                   1
                   1
                   1
                   1
                   1
                   1
                   1
                   1
                   1
                   1
                   1
                   1
                   1
                   1
                   1
                   1
                   1
                   1
                   1
                   1
                   1
                   1
                   1
                   1
                   1
                   1
                   1
                   1
                   1
                   1
                   1
                   1
                   1
                   1
                   1
                   1
                   1
                   1
                   1
                   1
                   1
                   1
                   1
                   1
                   1
                   1
                   1
                   1
                   1
                   1
                   1
                   1
                   1
                   1
                   1
                   1
                   1
                   1
                   1
                   1
                   1
                   1
                   1
                   1
                   1
                   1
                   1
                   1
                   1
                   1
                   1
                   1
                   1
                   1
                   1
                   1
                   1
                   1
                   1
                   1
                   1
                   1
                   1
                   1
                   1
                   1
                   1
                   1
                   1
                   1
                   1
                   1
                   1
                   1
                   1
                   1
                   1
                   1
                   1
                   1
                   1
                   1
                   1
                   1
                   1
                   1
                   1
                   1
                   1
                   1
                   1
                   1
                   1
                   1
                   1
                   1
                   1
                   1
                   1
                   1
                   1
                   1
                   1
                   1
                   1
                   1
                   1
                   1
                   1
                   1
                   1
                   1
                   1
                   1
                   1
                   1
                   1
                   1
                   1
                   1
                   1
                   1
                   1
                   1
                   1
                   1
                   1
                   1
                   1
                   1
                   1
                   1
                   1
                   1
                   1
                   1
                   1
                   1
                   1
                   1
                   1
                   1
                   1
                   1
                   1
                   1
                   1
                   1
                   1
                   1
                   1
                   1
                   1
                   1
                   1
                   1
                   1
                   1
                   1
                   1
                   1
                   1
                   1
                   1
                   1
                   1
                   1
                   1
                   1
                   1
                   1
                   1
                   1
                   1
                   1
                   1
                   1
                   1
                   1
                   1
                   1
                   1
                   1
                   1
                   1
                   1
                   1
                   1
                   1
                   1
                   1
                   1
                   1
                   1
                   1
                   1
                   1
                   1
                   1
                   1
                   1
                   1
                   1
                   1
                   1
                   1
                   1
                   1
                   1
                   1
                   1
                   1
                   1
                   1
                   1
                   1
                   1
                   1
                   1
                   1
                   1
                   1
                   1
                   1
                   1
                   1
                   1
                   1
                   1
                   1
                   1
                   1
                   1
                   1
                   1
                   1
                   1
                   1
                   1
                   1
                   1
                   1
                   1
                   1
                   1
                   1
                   1
                   1
                   1
                   1
                   1
                   1
                   1
                   1
                   1
                   1
                   1
                   1
                   1
                   1
                   1
                   1
                   1
                   1
                   1
                   1
                   1
                   1
                   1
                   1
                   1
                   1
                   1
                   1
                   1
                   1
                   1
                   1
                   1
                   1
                   1
                   1
                   1
                   1
                   1
                   1
                   1
                   1
                   1
                   1
                   1
                   1
                   1
                   1
                   1
                   1
                   1
                   1
                   1
                   1
                   1
                   1
                   1
                   1
                   1
                   1
                   1
                   1
                   1
                   1
                   1
                   1
                   1
                   1
                   1
                   1
                   1
                   1
                   1
                   1
                   1
                   1
                   1
                   1
                   1
                   1
                   1
                   1
                   1
                   1
                   1
                   1
                   1
                   1
                   1
                   1
                   1
                   1
                   1
                   1
                   1
                   1
                   1
                   1
                   1
                   1
                   1
                   1
                   1
                   1
                   1
                   1
                   1
                   1
                   1
                   1
                   1
                   1
                   1
                   1
                   1
                   1
                   1
                   1
                   1
                   1
                   1
                   1
                   1
                   1
                   1
                   1
                   1
                   1
                   1
                   1
                   1
                   1
                   1
                   1
                   1
                   1
                   1
                   1
                   1
                   1
                   1
                   1
                   1
                   1
                   1
                   1
                   1
                   1
                   1
                   1
                   1
                   1
                   1
                   1
                   1
                   1
                   1
                   1
                   1
                   1
                   1
                   1
                   1
                   1
                   1
                   1
                   1
                   1
                   1
                   1
                   1
                   1
                   1
                   1
                   1
                   1
                   1
                   1
                   1
                   1
                   1
                   1
                   1
                   1
                   1
                   1
                   1
                   1
                   1
                   1
                   1
                   1
                   1
                   1
                   1
                   1
                   1
                   1
                   1
                   1
                   1
                   1
                   1
                   1
                   1
                   1
                   1
                   1
                   1
                   1
                   1
                   1
                   1
                   1
                   1
                   1
                   1
                   1
                   1
                   1
                   1
                   1
                   1
                   1
                   1
                   1
                   1
                   1
                   1
                   1
                   1
                   1
                   1
                   1
                   1
                   1
                   1
                   1
                   1
                   1
                   1
                   1
                   1
                   1
                   1
                   1
                   1
                   1
                   1
                   1
                   1
                   1
                   1
                   1
                   1
                   1
                   1
                   1
                   1
                   1
                   1
                   1
                   1
                   1
                   1
                   1
                   1
                   1
                   1
                   1
                   1
                   1
                   1
                   1
                   1
                   1
                   1
                   1
                   1
                   1
                   1
                   1
                   1
                   1
                   1
                   1
                   1
                   1
                   1
                   1
                   1
                   1
                   1
                   1
                   1
                   1
                   1
                   1
                   1
                   1
                   1
                   1
                   1
                   1
                   1
                   1
                   1
                   1
                   1
                   1
                   1
                   1
                   1
                   1
                   1
                   1
                   1
                   1
                   1
                   1
                   1
                   1
                   1
                   1
                   1
                   1
                   1
                   1
                   1
                   1
                   1
                   1
                   1
                   1
                   1
                   1
                   1
                   1
                   1
                   1
                   1
                   1
                   1
                   1
                   1
                   1
                   1
                   1
                   1
                   1
                   1
                   1
                   1
                   1
                   1
                   1
                   1
                   1
                   1
                   1
                   1
                   1
                   1
                   1
                   1
                   1
                   1
                   1
                   1
                   1
                   1
                   1
                   1
                   1
                   1
                   1
                   1
                   1
                   1
                   1
                   1
                   1
                   1
                   1
                   1
                   1
                   1
                   1
                   1
                   1
                   1
                   1
                   1
                   1
                   1
                   1
                   1
                   1
                   1
                   1
                   1
                   1
                   1
                   1
                   1
                   1
                   1
                   1
                   1
                   1
                   1
                   1
                   1
                   1
                   1
                   1
                   1
                   1
                   1
                   1
                   1
                   1
                   1
                   1
                   1
                   1
                   1
                   1
                   1
                   1
                   1
                   1
                   1
                   1
                   1
                   1
                   1
                   1
                   1
                   1
                   1
                   1
                   1
                   1
                   1
                   1
                   1
                   1
                   1
                   1
                   1
                   1
                   1
                   1
                   1
                   1
                   1
                   1
                   1
                   1
                   1
                   1
                   1
                   1
                   1
                   1
                   1
                   1
                   1
                   1
                   1
                   1
                   1
                   1
                   1
                   1
                   1
                   1
                   1
                   1
                   1
                   1
                   1
                   1
                   1
                   1
                   1
                   1
                   1
                   1
                   1
                   1
                   1
                   1
                   1
                   1
                   1
                   1
                   1
                   1
                   1
                   1
                   1
                   1
                   1
                   1
                   1
                   1
                   1
                   1
                   1
                   1
                   1
                   1
                   1
                   1
                   1
                   1
                   1
                   1
                   1
                   1
                   1
                   1
                   1
                   1
                   1
                   1
                   1
                   1
                   1
                   1
                   1
                   1
                   1
                   1
                   1
                   1
                   1
                   1
                   1
                   1
                   1
                   1
                   1
                   1
                   1
                   1
                   1
                   1
                   1
                   1
                   1
                   1
                   1
                   1
                   1
                   1
                   1
                   1
                   1
                   1
                   1
                   1
                   1
                   1
                   1
                   1
                   1
                   1
                   1
                   1
                   1
                   1
                   1
                   1
                   1
                   1
                   1
                   1
                   1
                   1
                   1
                   1
                   1
                   1
                   1
                   1
                   1
                   1
                   1
                   1
                   1
                   1
                   1
                   1
                   1
                   1
                   1
                   1
                   1
                   1
                   1
                   1
                   1
                   1
                   1
                   1
                   1
                   1
                   1
                   1
                   1
                   1
                   1
                   1
                   1
                   1
                   1
                   1
                   1
                   1
                   1
                   1
                   1
                   1
                   1
                   1
                   1
                   1
                   1
                   1
                   1
                   1
                   1
                   1
                   1
                   1
                   1
                   1
                   1
                   1
                   1
                   1
                   1
                   1
                   1
                   1
                   1
                   1
                   1
                   1
                   1
                   1
                   1
                   1
                   1
                   1
                   1
                   1
                   1
                   1
                   1
                   1
                   1
                   1
                   1
                   1
                   1
                   1
                   1
                   1
                   1
                   1
                   1
                   1
                   1
                   1
                   1
                   1
                   1
                   1
                   1
                   1
                   1
                   1
                   1
                   1
                   1
                   1
                   1
                   1
                   1
                   1
                   1
                   1
                   1
                   1
                   1
                   1
                   1
                   1
                   1
                   1
                   1
                   1
                   1
                   1
                   1
                   1
                   1
                   1
                   1
                   1
                   1
                   1
                   1
                   1
                   1
                   1
                   1
                   1
                   1
                   1
                   1
                   1
                   1
                   1
                   1
                   1
                   1
                   1
                   1
                   1
                   1
                   1
                   1
                   1
                   1
                   1
                   1
                   1
                   1
                   1
                   1
                   1
                   1
                   1
                   1
                   1
                   1
                   1
                   1
                   1
                   1
                   1
                   1
                   1
                   1
                   1
                   1
                   1
                   1
                   1
                   1
                   1
                   1
                   1
                   1
                   1
                   1
                   1
                   1
                   1
                   1
                   1
                   1
                   1
                   1
                   1
                   1
                   1
                   1
                   1
                   1
                   1
                   1
                   1
                   1
                   1
                   1
                   1
                   1
                   1
                   1
                   1
                   1
                   1
                   1
                   1
                   1
                   1
                   1
                   1
                   1
                   1
                   1
                   1
                   1
                   1
                   1
                   1
                   1
                   1
                   1
                   1
                   1
                   1
                   1
                   1
                   1
                   1
                   1
                   1
                   1
                   1
                   1
                   1
                   1
                   1
                   1
                   1
                   1
  
SCALARS                  material_type  double 1
LOOKUP_TABLE default
                   2
                   2
                   2
                   2
                   2
                   2
                   2
                   2
                   2
                   2
                   2
                   2
                   2
                   2
                   2
                   2
                   2
                   2
                   2
                   2
                   2
                   2
                   2
                   2
                   2
                   2
                   2
                   2
                   2
                   2
                   2
                   2
                   2
                   2
                   2
                   2
                   2
                   2
                   2
                   2
                   2
                   2
                   2
                   2
                   2
                   2
                   2
                   2
                   2
                   2
                   2
                   2
                   2
                   2
                   2
                   2
                   2
                   2
                   2
                   2
                   2
                   2
                   2
                   2
                   2
                   2
                   2
                   2
                   2
                   2
                   2
                   2
                   2
                   2
                   2
                   2
                   2
                   2
                   2
                   2
                   2
                   2
                   2
                   2
                   2
                   2
                   2
                   2
                   2
                   2
                   2
                   2
                   2
                   2
                   2
                   2
                   2
                   2
                   2
                   2
                   2
                   2
                   2
                   2
                   2
                   2
                   2
                   2
                   2
                   2
                   2
                   2
                   2
                   2
                   2
                   2
                   2
                   2
                   2
                   2
                   2
                   2
                   2
                   2
                   2
                   2
                   2
                   2
                   2
                   2
                   2
                   2
                   2
                   2
                   2
                   2
                   2
                   2
                   2
                   2
                   2
                   2
                   2
                   2
                   2
                   2
                   2
                   2
                   2
                   2
                   2
                   2
                   2
                   2
                   2
                   2
                   2
                   2
                   2
                   2
                   2
                   2
                   2
                   2
                   2
                   2
                   2
                   2
                   2
                   2
                   2
                   2
                   2
                   2
                   2
                   2
                   2
                   2
                   2
                   2
                   2
                   2
                   2
                   2
                   2
                   2
                   2
                   2
                   2
                   2
                   2
                   2
                   2
                   2
                   2
                   2
                   2
                   2
                   2
                   2
                   2
                   2
                   2
                   2
                   2
                   2
                   2
                   2
                   2
                   2
                   2
                   2
                   2
                   2
                   2
                   2
                   2
                   2
                   2
                   2
                   2
                   2
                   2
                   2
                   2
                   2
                   2
                   2
                   2
                   2
                   2
                   2
                   2
                   2
                   2
                   2
                   2
                   2
                   2
                   2
                   2
                   2
                   2
                   2
                   2
                   2
                   2
                   2
                   2
                   2
                   2
                   2
                   2
                   2
                   2
                   2
                   2
                   2
                   2
                   2
                   2
                   2
                   2
                   2
                   2
                   2
                   2
                   2
                   2
                   2
                   2
                   2
                   2
                   2
                   2
                   2
                   2
                   2
                   2
                   2
                   2
                   2
                   2
                   2
                   2
                   2
                   2
                   2
                   2
                   2
                   2
                   2
                   2
                   2
                   2
                   2
                   2
                   2
                   2
                   2
                   2
                   2
                   2
                   2
                   2
                   2
                   2
                   2
                   2
                   2
                   2
                   2
                   2
                   2
                   2
                   2
                   2
                   2
                   2
                   2
                   2
                   2
                   2
                   2
                   2
                   2
                   2
                   2
                   2
                   2
                   2
                   2
                   2
                   2
                   2
                   2
                   2
                   2
                   2
                   2
                   2
                   2
                   2
                   2
                   2
                   2
                   2
                   2
                   2
                   2
                   2
                   2
                   2
                   2
                   2
                   2
                   2
                   2
                   2
                   2
                   2
                   2
                   2
                   2
                   2
                   2
                   2
                   2
                   2
                   2
                   2
                   2
                   2
                   2
                   2
                   2
                   2
                   2
                   2
                   2
                   2
                   2
                   2
                   2
                   2
                   2
                   2
                   2
                   2
                   2
                   2
                   2
                   2
                   2
                   2
                   2
                   2
                   2
                   2
                   2
                   2
                   2
                   2
                   2
                   2
                   2
                   2
                   2
                   2
                   2
                   2
                   2
                   2
                   2
                   2
                   2
                   2
                   2
                   2
                   2
                   2
                   2
                   2
                   2
                   2
                   2
                   2
                   2
                   2
                   2
                   2
                   2
                   2
                   2
                   2
                   2
                   2
                   2
                   2
                   2
                   2
                   2
                   2
                   2
                   2
                   2
                   2
                   2
                   2
                   2
                   2
                   2
                   2
                   2
                   2
                   2
                   2
                   2
                   2
                   2
                   2
                   2
                   2
                   2
                   2
                   2
                   2
                   2
                   2
                   2
                   2
                   2
                   2
                   2
                   2
                   2
                   2
                   2
                   2
                   2
                   2
                   2
                   2
                   2
                   2
                   2
                   2
                   2
                   2
                   2
                   2
                   2
                   2
                   2
                   2
                   2
                   2
                   2
                   2
                   2
                   2
                   2
                   2
                   2
                   2
                   2
                   2
                   2
                   2
                   2
                   2
                   2
                   2
                   2
                   2
                   2
                   2
                   2
                   2
                   2
                   2
                   2
                   2
                   2
                   2
                   2
                   2
                   2
                   2
                   2
                   2
                   2
                   2
                   2
                   2
                   2
                   2
                   2
                   2
                   2
                   2
                   2
                   2
                   2
                   2
                   2
                   2
                   2
                   2
                   2
                   2
                   2
                   2
                   2
                   2
                   2
                   2
                   2
                   2
                   2
                   2
                   2
                   2
                   2
                   2
                   2
                   2
                   2
                   2
                   2
                   2
                   2
                   2
                   2
                   2
                   2
                   2
                   2
                   2
                   2
                   2
                   2
                   2
                   2
                   2
                   2
                   2
                   2
                   2
                   2
                   2
                   2
                   2
                   2
                   2
                   2
                   2
                   2
                   2
                   2
                   2
                   2
                   2
                   2
                   2
                   2
                   2
                   2
                   2
                   2
                   2
                   2
                   2
                   2
                   2
                   2
                   2
                   2
                   2
                   2
                   2
                   2
                   2
                   2
                   2
                   2
                   2
                   2
                   2
                   2
                   2
                   2
                   2
                   2
                   2
                   2
                   2
                   2
                   2
                   2
                   2
                   2
                   2
                   2
                   2
                   2
                   2
                   2
                   2
                   2
                   2
                   2
                   2
                   2
                   2
                   2
                   2
                   2
                   2
                   2
                   2
                   2
                   2
                   2
                   2
                   2
                   2
                   2
                   2
                   2
                   2
                   2
                   2
                   2
                   2
                   2
                   2
                   2
                   2
                   2
                   2
                   2
                   2
                   2
                   2
                   2
                   2
                   2
                   2
                   2
                   2
                   2
                   2
                   2
                   2
                   2
                   2
                   2
                   2
                   2
                   2
                   2
                   2
                   2
                   2
                   2
                   2
                   2
                   2
                   2
                   2
                   2
                   2
                   2
                   2
                   2
                   2
                   2
                   2
                   2
                   2
                   2
                   2
                   2
                   2
                   2
                   2
                   2
                   2
                   2
                   2
                   2
                   2
                   2
                   2
                   2
                   2
                   2
                   2
                   2
                   2
                   2
                   2
                   2
                   2
                   2
                   2
                   2
                   2
                   2
                   2
                   2
                   2
                   2
                   2
                   2
                   2
                   2
                   2
                   2
                   2
                   2
                   2
                   2
                   2
                   2
                   2
                   2
                   2
                   2
                   2
                   2
                   2
                   2
                   2
                   2
                   2
                   2
                   2
                   2
                   2
                   2
                   2
                   2
                   2
                   2
                   2
                   2
                   2
                   2
                   2
                   2
                   2
                   2
                   2
                   2
                   2
                   2
                   2
                   2
                   2
                   2
                   2
                   2
                   2
                   2
                   2
                   2
                   2
                   2
                   2
                   2
                   2
                   2
                   2
                   2
                   2
                   2
                   2
                   2
                   2
                   2
                   2
                   2
                   2
                   2
                   2
                   2
                   2
                   2
                   2
                   2
                   2
                   2
                   2
                   2
                   2
                   2
                   2
                   2
                   2
                   2
                   2
                   2
                   2
                   2
                   2
                   2
                   2
                   2
                   2
                   2
                   2
                   2
                   2
                   2
                   2
                   2
                   2
                   2
                   2
                   2
                   2
                   2
                   2
                   2
                   2
                   2
                   2
                   2
                   2
                   2
                   2
                   2
                   2
                   2
                   2
                   2
                   2
                   2
                   2
                   2
                   2
                   2
                   2
                   2
                   2
                   2
                   2
                   2
                   2
                   2
                   2
                   2
                   2
                   2
                   2
                   2
                   2
                   2
                   2
                   2
                   2
                   2
                   2
                   2
                   2
                   2
                   2
                   2
                   2
                   2
                   2
                   2
                   2
                   2
                   2
                   2
                   2
                   2
                   2
                   2
                   2
                   2
                   2
                   2
                   2
                   2
                   2
                   2
                   2
                   2
                   2
                   2
                   2
                   2
                   2
                   2
                   2
                   2
                   2
                   2
                   2
                   2
                   2
                   2
                   2
                   2
                   2
                   2
                   2
                   2
                   2
                   2
                   2
                   2
                   2
                   2
                   2
                   2
                   2
                   2
                   2
                   2
                   2
                   2
                   2
                   2
                   2
                   2
                   2
                   2
                   2
                   2
                   2
                   2
                   2
                   2
                   2
                   2
                   2
                   2
                   2
                   2
                   2
                   2
                   2
                   2
                   2
                   2
                   2
                   2
                   2
                   2
                   2
                   2
                   2
                   2
                   2
                   2
                   2
                   2
                   2
                   2
                   2
                   2
                   2
                   2
                   2
                   2
                   2
                   2
                   2
                   2
                   2
                   2
                   2
                   2
                   2
                   2
                   2
                   2
                   2
                   2
                   2
                   2
                   2
                   2
                   2
                   2
                   2
                   2
                   2
                   2
                   2
                   2
                   2
                   2
                   2
                   2
                   2
                   2
                   2
                   2
                   2
                   2
                   2
                   2
                   2
                   2
                   2
                   2
                   2
                   2
                   2
                   2
                   2
                   2
                   2
                   2
                   2
                   2
                   2
                   2
                   2
                   2
                   2
                   2
                   2
                   2
                   2
                   2
                   2
                   2
                   2
                   2
                   2
                   2
                   2
                   2
                   2
                   2
                   2
                   2
                   2
                   2
                   2
                   2
                   2
                   2
                   2
                   2
                   2
                   2
                   2
                   2
                   2
                   2
                   2
                   2
                   2
                   2
                   2
                   2
                   2
                   2
                   2
                   2
                   2
                   2
                   2
                   2
                   2
                   2
                   2
                   2
                   2
                   2
                   2
                   2
                   2
                   2
                   2
                   2
                   2
                   2
                   2
                   2
                   2
                   2
                   2
                   2
                   2
                   2
                   2
                   2
                   2
                   2
                   2
                   2
                   2
                   2
                   2
                   2
                   2
                   2
                   2
                   2
                   2
                   2
                   2
                   2
                   2
                   2
                   2
                   2
                   2
                   2
                   2
                   2
                   2
                   2
                   2
                   2
                   2
                   2
                   2
                   2
                   2
                   2
                   2
                   2
                   2
                   2
                   2
                   2
                   2
                   2
                   2
                   2
                   2
                   2
                   2
                   2
                   2
                   2
                   2
                   2
                   2
                   2
                   2
                   2
                   2
                   2
                   2
                   2
                   2
                   2
                   2
                   2
                   2
                   2
                   2
                   2
                   2
                   2
                   2
                   2
                   2
                   2
                   2
                   2
                   2
                   2
                   2
                   2
                   2
                   2
                   2
                   2
                   2
                   2
                   2
                   2
                   2
                   2
                   2
                   2
                   2
                   2
                   2
                   2
                   2
                   2
                   2
                   2
                   2
                   2
                   2
                   2
                   2
                   2
                   2
                   2
                   2
                   2
                   2
                   2
                   2
                   2
                   2
                   2
                   2
                   2
                   2
                   2
                   2
                   2
                   2
                   2
                   2
                   2
                   2
                   2
                   2
                   2
                   2
                   2
                   2
                   2
                   2
                   2
                   2
                   2
                   2
                   2
                   2
                   2
                   2
                   2
                   2
                   2
                   2
                   2
                   2
                   2
                   2
                   2
                   2
                   2
                   2
                   2
                   2
                   2
                   2
                   2
                   2
                   2
                   2
                   2
                   2
                   2
                   2
                   2
                   2
                   2
                   2
                   2
                   2
                   2
                   2
                   2
                   2
                   2
                   2
                   2
                   2
                   2
                   2
                   2
                   2
                   2
                   2
                   2
                   2
                   2
                   2
                   2
                   2
                   2
                   2
                   2
                   2
                   2
                   2
                   2
                   2
                   2
                   2
                   2
                   2
                   2
                   2
                   2
                   2
                   2
                   2
                   2
                   2
                   2
                   2
                   2
                   2
                   2
                   2
                   2
                   2
                   2
                   2
                   2
                   2
                   2
                   2
                   2
                   2
                   2
                   2
                   2
                   2
                   2
                   2
                   2
                   2
                   2
                   2
                   2
                   2
                   2
                   2
                   2
                   2
                   2
                   2
                   2
                   2
                   2
                   2
                   2
                   2
                   2
                   2
                   2
                   2
                   2
                   2
                   2
                   2
                   2
                   2
                   2
                   2
                   2
                   2
                   2
                   2
                   2
                   2
                   2
                   2
                   2
                   2
                   2
                   2
                   2
                   2
                   2
                   2
                   2
                   2
                   2
                   2
                   2
                   2
                   2
                   2
                   2
                   2
                   2
                   2
                   2
                   2
                   2
                   2
                   2
                   2
                   2
                   2
                   2
                   2
                   2
                   2
                   2
                   2
                   2
                   2
                   2
                   2
                   2
                   2
                   2
                   2
                   2
                   2
                   2
                   2
                   2
                   2
                   2
                   2
                   2
                   2
                   2
                   2
                   2
                   2
                   2
                   2
                   2
                   2
                   2
                   2
                   2
                   2
                   2
                   2
                   2
                   2
                   2
                   2
                   2
                   2
                   2
                   2
                   2
                   2
                   2
                   2
                   2
                   2
                   2
                   2
                   2
                   2
                   2
                   2
                   2
                   2
                   2
                   2
                   2
                   2
                   2
                   2
                   2
                   2
                   2
                   2
                   2
                   2
                   2
                   2
                   2
                   2
                   2
                   2
                   2
                   2
                   2
                   2
                   2
                   2
                   2
                   2
                   2
                   2
                   2
                   2
                   2
                   2
                   2
                   2
                   2
                   2
                   2
                   2
                   2
                   2
                   2
                   2
                   2
                   2
                   2
                   2
                   2
                   2
                   2
                   2
                   2
                   2
                   2
                   2
                   2
                   2
                   2
                   2
                   2
                   2
                   2
                   2
                   2
                   2
                   2
                   2
                   2
                   2
                   2
                   2
                   2
                   2
                   2
                   2
                   2
                   2
                   2
                   2
                   2
                   2
                   2
                   2
                   2
                   2
                   2
                   2
                   2
                   2
                   2
                   2
                   2
                   2
                   2
                   2
                   2
                   2
                   2
                   2
                   2
                   2
                   2
                   2
                   2
                   2
                   2
                   2
                   2
                   2
                   2
                   2
                   2
                   2
                   2
                   2
                   2
                   2
                   2
                   2
                   2
                   2
                   2
                   2
                   2
                   2
                   2
                   2
                   2
                   2
                   2
                   2
                   2
                   2
                   2
                   2
                   2
                   2
                   2
                   2
                   2
                   2
                   2
                   2
                   2
                   2
                   2
                   2
                   2
                   2
                   2
                   2
                   2
                   2
                   2
                   2
                   2
                   2
                   2
                   2
                   2
                   2
                   2
                   2
                   2
                   2
                   2
                   2
                   2
                   2
                   2
                   2
                   2
                   2
                   2
                   2
                   2
                   2
                   2
                   2
                   2
                   2
                   2
                   2
                   2
                   2
                   2
                   2
                   2
                   2
                   2
                   2
                   2
                   2
                   2
                   2
                   2
                   2
                   2
                   2
                   2
                   2
                   2
                   2
                   2
                   2
                   2
                   2
                   2
                   2
                   2
                   2
                   2
                   2
                   2
                   2
                   2
                   2
                   2
                   2
                   2
                   2
                   2
                   2
                   2
                   2
                   2
                   2
                   2
                   2
                   2
                   2
                   2
                   2
                   2
                   2
                   2
                   2
                   2
                   2
                   2
                   2
                   2
                   2
                   2
                   2
                   2
                   2
                   2
                   2
                   2
                   2
                   2
                   2
                   2
                   2
                   2
                   2
                   2
                   2
                   2
                   2
                   2
                   2
                   2
                   2
                   2
                   2
                   2
                   2
                   2
                   2
                   2
                   2
                   2
                   2
                   2
                   2
                   2
                   2
                   2
                   2
                   2
                   2
                   2
                   2
                   2
                   2
                   2
                   2
                   2
                   2
                   2
                   2
                   2
                   2
                   2
                   2
                   2
                   2
                   2
                   2
                   2
                   2
                   2
                   2
                   2
                   2
                   2
                   2
                   2
                   2
                   2
                   2
                   2
                   2
                   2
                   2
                   2
                   2
                   2
                   2
                   2
                   2
                   2
                   2
                   2
                   2
                   2
                   2
                   2
                   2
                   2
                   2
                   2
                   2
                   2
                   2
                   2
                   2
                   2
                   2
                   2
                   2
                   2
                   2
                   2
                   2
                   2
                   2
                   2
                   2
                   2
                   2
                   2
                   2
                   2
                   2
                   2
                   2
                   2
                   2
                   2
                   2
                   2
                   2
                   2
                   2
                   2
                   2
                   2
                   2
                   2
                   2
                   2
                   2
                   2
                   2
                   2
                   2
                   2
                   2
                   2
                   2
                   2
                   2
                   2
                   2
                   2
                   2
                   2
                   2
                   2
                   2
                   2
                   2
                   2
                   2
                   2
                   2
                   2
                   2
                   2
                   2
                   2
                   2
                   2
                   2
                   2
                   2
                   2
                   2
                   2
                   2
                   2
                   2
                   2
                   2
                   2
                   2
                   2
                   2
                   2
                   2
                   2
                   2
                   2
                   2
                   2
                   2
                   2
                   2
                   2
                   2
                   2
                   2
                   2
                   2
                   2
                   2
                   2
                   2
                   2
                   2
                   2
                   2
                   2
                   2
                   2
                   2
                   2
                   2
                   2
                   2
                   2
  
SCALARS                       fixity_x  double 1
LOOKUP_TABLE default
                   0
                   0
                   0
                   0
                   0
                   0
                   0
                   0
                   0
                   0
                   0
                   0
                   0
                   0
                   0
                   0
                   0
                   0
                   0
                   0
                   0
                   0
                   0
                   0
                   0
                   0
                   0
                   0
                   0
                   0
                   0
                   0
                   0
                   0
                   0
                   0
                   0
                   0
                   0
                   0
                   0
                   0
                   0
                   0
                   0
                   0
                   0
                   0
                   0
                   0
                   0
                   0
                   0
                   0
                   0
                   0
                   0
                   0
                   0
                   0
                   0
                   0
                   0
                   0
                   0
                   0
                   0
                   0
                   0
                   0
                   0
                   0
                   0
                   0
                   0
                   0
                   0
                   0
                   0
                   0
                   0
                   0
                   0
                   0
                   0
                   0
                   0
                   0
                   0
                   0
                   0
                   0
                   0
                   0
                   0
                   0
                   0
                   0
                   0
                   0
                   0
                   0
                   0
                   0
                   0
                   0
                   0
                   0
                   0
                   0
                   0
                   0
                   0
                   0
                   0
                   0
                   0
                   0
                   0
                   0
                   0
                   0
                   0
                   0
                   0
                   0
                   0
                   0
                   0
                   0
                   0
                   0
                   0
                   0
                   0
                   0
                   0
                   0
                   0
                   0
                   0
                   0
                   0
                   0
                   0
                   0
                   0
                   0
                   0
                   0
                   0
                   0
                   0
                   0
                   0
                   0
                   0
                   0
                   0
                   0
                   0
                   0
                   0
                   0
                   0
                   0
                   0
                   0
                   0
                   0
                   0
                   0
                   0
                   0
                   0
                   0
                   0
                   0
                   0
                   0
                   0
                   0
                   0
                   0
                   0
                   0
                   0
                   0
                   0
                   0
                   0
                   0
                   0
                   0
                   0
                   0
                   0
                   0
                   0
                   0
                   0
                   0
                   0
                   0
                   0
                   0
                   0
                   0
                   0
                   0
                   0
                   0
                   0
                   0
                   0
                   0
                   0
                   0
                   0
                   0
                   0
                   0
                   0
                   0
                   0
                   0
                   0
                   0
                   0
                   0
                   0
                   0
                   0
                   0
                   0
                   0
                   0
                   0
                   0
                   0
                   0
                   0
                   0
                   0
                   0
                   0
                   0
                   0
                   0
                   0
                   0
                   0
                   0
                   0
                   0
                   0
                   0
                   0
                   0
                   0
                   0
                   0
                   0
                   0
                   0
                   0
                   0
                   0
                   0
                   0
                   0
                   0
                   0
                   0
                   0
                   0
                   0
                   0
                   0
                   0
                   0
                   0
                   0
                   0
                   0
                   0
                   0
                   0
                   0
                   0
                   0
                   0
                   0
                   0
                   0
                   0
                   0
                   0
                   0
                   0
                   0
                   0
                   0
                   0
                   0
                   0
                   0
                   0
                   0
                   0
                   0
                   0
                   0
                   0
                   0
                   0
                   0
                   0
                   0
                   0
                   0
                   0
                   0
                   0
                   0
                   0
                   0
                   0
                   0
                   0
                   0
                   0
                   0
                   0
                   0
                   0
                   0
                   0
                   0
                   0
                   0
                   0
                   0
                   0
                   0
                   0
                   0
                   0
                   0
                   0
                   0
                   0
                   0
                   0
                   0
                   0
                   0
                   0
                   0
                   0
                   0
                   0
                   0
                   0
                   0
                   0
                   0
                   0
                   0
                   0
                   0
                   0
                   0
                   0
                   0
                   0
                   0
                   0
                   0
                   0
                   0
                   0
                   0
                   0
                   0
                   0
                   0
                   0
                   0
                   0
                   0
                   0
                   0
                   0
                   0
                   0
                   0
                   0
                   0
                   0
                   0
                   0
                   0
                   0
                   0
                   0
                   0
                   0
                   0
                   0
                   0
                   0
                   0
                   0
                   0
                   0
                   0
                   0
                   0
                   0
                   0
                   0
                   0
                   0
                   0
                   0
                   0
                   0
                   0
                   0
                   0
                   0
                   0
                   0
                   0
                   0
                   0
                   0
                   0
                   0
                   0
                   0
                   0
                   0
                   0
                   0
                   0
                   0
                   0
                   0
                   0
                   0
                   0
                   0
                   0
                   0
                   0
                   0
                   0
                   0
                   0
                   0
                   0
                   0
                   0
                   0
                   0
                   0
                   0
                   0
                   0
                   0
                   0
                   0
                   0
                   0
                   0
                   0
                   0
                   0
                   0
                   0
                   0
                   0
                   0
                   0
                   0
                   0
                   0
                   0
                   0
                   0
                   0
                   0
                   0
                   0
                   0
                   0
                   0
                   0
                   0
                   0
                   0
                   0
                   0
                   0
                   0
                   0
                   0
                   0
                   0
                   0
                   0
                   0
                   0
                   0
                   0
                   0
                   0
                   0
                   0
                   0
                   0
                   0
                   0
                   0
                   0
                   0
                   0
                   0
                   0
                   0
                   0
                   0
                   0
                   0
                   0
                   0
                   0
                   0
                   0
                   0
                   0
                   0
                   0
                   0
                   0
                   0
                   0
                   0
                   0
                   0
                   0
                   0
                   0
                   0
                   0
                   0
                   0
                   0
                   0
                   0
                   0
                   0
                   0
                   0
                   0
                   0
                   0
                   0
                   0
                   0
                   0
                   0
                   0
                   0
                   0
                   0
                   0
                   0
                   0
                   0
                   0
                   0
                   0
                   0
                   0
                   0
                   0
                   0
                   0
                   0
                   0
                   0
                   0
                   0
                   0
                   0
                   0
                   0
                   0
                   0
                   0
                   0
                   0
                   0
                   0
                   0
                   0
                   0
                   0
                   0
                   0
                   0
                   0
                   0
                   0
                   0
                   0
                   0
                   0
                   0
                   0
                   0
                   0
                   0
                   0
                   0
                   0
                   0
                   0
                   0
                   0
                   0
                   0
                   0
                   0
                   0
                   0
                   0
                   0
                   0
                   0
                   0
                   0
                   0
                   0
                   0
                   0
                   0
                   0
                   0
                   0
                   0
                   0
                   0
                   0
                   0
                   0
                   0
                   0
                   0
                   0
                   0
                   0
                   0
                   0
                   0
                   0
                   0
                   0
                   0
                   0
                   0
                   0
                   0
                   0
                   0
                   0
                   0
                   0
                   0
                   0
                   0
                   0
                   0
                   0
                   0
                   0
                   0
                   0
                   0
                   0
                   0
                   0
                   0
                   0
                   0
                   0
                   0
                   0
                   0
                   0
                   0
                   0
                   0
                   0
                   0
                   0
                   0
                   0
                   0
                   0
                   0
                   0
                   0
                   0
                   0
                   0
                   0
                   0
                   0
                   0
                   0
                   0
                   0
                   0
                   0
                   0
                   0
                   0
                   0
                   0
                   0
                   0
                   0
                   0
                   0
                   0
                   0
                   0
                   0
                   0
                   0
                   0
                   0
                   0
                   0
                   0
                   0
                   0
                   0
                   0
                   0
                   0
                   0
                   0
                   0
                   0
                   0
                   0
                   0
                   0
                   0
                   0
                   0
                   0
                   0
                   0
                   0
                   0
                   0
                   0
                   0
                   0
                   0
                   0
                   0
                   0
                   0
                   0
                   0
                   0
                   0
                   0
                   0
                   0
                   0
                   0
                   0
                   0
                   0
                   0
                   0
                   0
                   0
                   0
                   0
                   0
                   0
                   0
                   0
                   0
                   0
                   0
                   0
                   0
                   0
                   0
                   0
                   0
                   0
                   0
                   0
                   0
                   0
                   0
                   0
                   0
                   0
                   0
                   0
                   0
                   0
                   0
                   0
                   0
                   0
                   0
                   0
                   0
                   0
                   0
                   0
                   0
                   0
                   0
                   0
                   0
                   0
                   0
                   0
                   0
                   0
                   0
                   0
                   0
                   0
                   0
                   0
                   0
                   0
                   0
                   0
                   0
                   0
                   0
                   0
                   0
                   0
                   0
                   0
                   0
                   0
                   0
                   0
                   0
                   0
                   0
                   0
                   0
                   0
                   0
                   0
                   0
                   0
                   0
                   0
                   0
                   0
                   0
                   0
                   0
                   0
                   0
                   0
                   0
                   0
                   0
                   0
                   0
                   0
                   0
                   0
                   0
                   0
                   0
                   0
                   0
                   0
                   0
                   0
                   0
                   0
                   0
                   0
                   0
                   0
                   0
                   0
                   0
                   0
                   0
                   0
                   0
                   0
                   0
                   0
                   0
                   0
                   0
                   0
                   0
                   0
                   0
                   0
                   0
                   0
                   0
                   0
                   0
                   0
                   0
                   0
                   0
                   0
                   0
                   0
                   0
                   0
                   0
                   0
                   0
                   0
                   0
                   0
                   0
                   0
                   0
                   0
                   0
                   0
                   0
                   0
                   0
                   0
                   0
                   0
                   0
                   0
                   0
                   0
                   0
                   0
                   0
                   0
                   0
                   0
                   0
                   0
                   0
                   0
                   0
                   0
                   0
                   0
                   0
                   0
                   0
                   0
                   0
                   0
                   0
                   0
                   0
                   0
                   0
                   0
                   0
                   0
                   0
                   0
                   0
                   0
                   0
                   0
                   0
                   0
                   0
                   0
                   0
                   0
                   0
                   0
                   0
                   0
                   0
                   0
                   0
                   0
                   0
                   0
                   0
                   0
                   0
                   0
                   0
                   0
                   0
                   0
                   0
                   0
                   0
                   0
                   0
                   0
                   0
                   0
                   0
                   0
                   0
                   0
                   0
                   0
                   0
                   0
                   0
                   0
                   0
                   0
                   0
                   0
                   0
                   0
                   0
                   0
                   0
                   0
                   0
                   0
                   0
                   0
                   0
                   0
                   0
                   0
                   0
                   0
                   0
                   0
                   0
                   0
                   0
                   0
                   0
                   0
                   0
                   0
                   0
                   0
                   0
                   0
                   0
                   0
                   0
                   0
                   0
                   0
                   0
                   0
                   0
                   0
                   0
                   0
                   0
                   0
                   0
                   0
                   0
                   0
                   0
                   0
                   0
                   0
                   0
                   0
                   0
                   0
                   0
                   0
                   0
                   0
                   0
                   0
                   0
                   0
                   0
                   0
                   0
                   0
                   0
                   0
                   0
                   0
                   0
                   0
                   0
                   0
                   0
                   0
                   0
                   0
                   0
                   0
                   0
                   0
                   0
                   0
                   0
                   0
                   0
                   0
                   0
                   0
                   0
                   0
                   0
                   0
                   0
                   0
                   0
                   0
                   0
                   0
                   0
                   0
                   0
                   0
                   0
                   0
                   0
                   0
                   0
                   0
                   0
                   0
                   0
                   0
                   0
                   0
                   0
                   0
                   0
                   0
                   0
                   0
                   0
                   0
                   0
                   0
                   0
                   0
                   0
                   0
                   0
                   0
                   0
                   0
                   0
                   0
                   0
                   0
                   0
                   0
                   0
                   0
                   0
                   0
                   0
                   0
                   0
                   0
                   0
                   0
                   0
                   0
                   0
                   0
                   0
                   0
                   0
                   0
                   0
                   0
                   0
                   0
                   0
                   0
                   0
                   0
                   0
                   0
                   0
                   0
                   0
                   0
                   0
                   0
                   0
                   0
                   0
                   0
                   0
                   0
                   0
                   0
                   0
                   0
                   0
                   0
                   0
                   0
                   0
                   0
                   0
                   0
                   0
                   0
                   0
                   0
                   0
                   0
                   0
                   0
                   0
                   0
                   0
                   0
                   0
                   0
                   0
                   0
                   0
                   0
                   0
                   0
                   0
                   0
                   0
                   0
                   0
                   0
                   0
                   0
                   0
                   0
                   0
                   0
                   0
                   0
                   0
                   0
                   0
                   0
                   0
                   0
                   0
                   0
                   0
                   0
                   0
                   0
                   0
                   0
                   0
                   0
                   0
                   0
                   0
                   0
                   0
                   0
                   0
                   0
                   0
                   0
                   0
                   0
                   0
                   0
                   0
                   0
                   0
                   0
                   0
                   0
                   0
                   0
                   0
                   0
                   0
                   0
                   0
                   0
                   0
                   0
                   0
                   0
                   0
                   0
                   0
                   0
                   0
                   0
                   0
                   0
                   0
                   0
                   0
                   0
                   0
                   0
                   0
                   0
                   0
                   0
                   0
                   0
                   0
                   0
                   0
                   0
                   0
                   0
                   0
                   0
                   0
                   0
                   0
                   0
                   0
                   0
                   0
                   0
                   0
                   0
                   0
                   0
                   0
                   0
                   0
                   0
                   0
                   0
                   0
                   0
                   0
                   0
                   0
                   0
                   0
                   0
                   0
                   0
                   0
                   0
                   0
                   0
                   0
                   0
                   0
                   0
                   0
                   0
                   0
                   0
                   0
                   0
                   0
                   0
                   0
                   0
                   0
                   0
                   0
                   0
                   0
                   0
                   0
                   0
                   0
                   0
                   0
                   0
                   0
                   0
                   0
                   0
                   0
                   0
                   0
                   0
                   0
                   0
                   0
                   0
                   0
                   0
                   0
                   0
                   0
                   0
                   0
                   0
                   0
                   0
                   0
                   0
                   0
                   0
                   0
                   0
                   0
                   0
                   0
                   0
                   0
                   0
                   0
                   0
                   0
                   0
                   0
                   0
                   0
                   0
                   0
                   0
                   0
                   0
                   0
                   0
                   0
                   0
                   0
                   0
                   0
                   0
                   0
                   0
                   0
                   0
                   0
                   0
                   0
                   0
                   0
                   0
                   0
                   0
                   0
                   0
                   0
                   0
                   0
                   0
                   0
                   0
                   0
                   0
                   0
                   0
                   0
                   0
                   0
                   0
                   0
                   0
                   0
                   0
                   0
                   0
                   0
                   0
                   0
                   0
                   0
                   0
                   0
                   0
                   0
                   0
                   0
                   0
                   0
                   0
                   0
                   0
                   0
                   0
                   0
                   0
                   0
                   0
                   0
                   0
                   0
                   0
                   0
                   0
                   0
                   0
                   0
                   0
                   0
                   0
                   0
                   0
                   0
                   0
                   0
                   0
                   0
                   0
                   0
                   0
                   0
                   0
                   0
                   0
                   0
                   0
                   0
                   0
                   0
                   0
                   0
                   0
                   0
                   0
                   0
                   0
                   0
                   0
                   0
                   0
                   0
                   0
                   0
                   0
                   0
                   0
                   0
                   0
                   0
                   0
                   0
                   0
                   0
                   0
                   0
                   0
                   0
                   0
                   0
                   0
                   0
                   0
                   0
                   0
                   0
                   0
                   0
                   0
                   0
                   0
                   0
                   0
                   0
                   0
                   0
                   0
                   0
                   0
                   0
                   0
                   0
                   0
                   0
                   0
                   0
                   0
                   0
                   0
                   0
                   0
                   0
                   0
                   0
                   0
                   0
                   0
                   0
                   0
                   0
                   0
                   0
                   0
                   0
                   0
                   0
                   0
                   0
                   0
                   0
                   0
                   0
                   0
                   0
                   0
                   0
                   0
                   0
                   0
                   0
                   0
                   0
                   0
                   0
                   0
                   0
                   0
                   0
                   0
                   0
                   0
                   0
                   0
                   0
                   0
                   0
                   0
                   0
                   0
                   0
                   0
                   0
                   0
                   0
                   0
                   0
                   0
                   0
                   0
                   0
                   0
                   0
                   0
                   0
                   0
                   0
                   0
                   0
                   0
                   0
                   0
                   0
                   0
                   0
                   0
                   0
                   0
                   0
                   0
                   0
                   0
                   0
                   0
                   0
                   0
                   0
                   0
                   0
                   0
                   0
                   0
                   0
                   0
                   0
                   0
                   0
                   0
                   0
                   0
                   0
                   0
                   0
                   0
                   0
                   0
                   0
                   0
                   0
                   0
                   0
                   0
                   0
                   0
                   0
                   0
                   0
                   0
                   0
                   0
                   0
                   0
                   0
                   0
                   0
                   0
                   0
                   0
                   0
                   0
                   0
                   0
                   0
                   0
                   0
                   0
                   0
                   0
                   0
                   0
                   0
                   0
                   0
                   0
                   0
                   0
                   0
                   0
                   0
                   0
                   0
                   0
                   0
                   0
                   0
                   0
                   0
                   0
                   0
                   0
                   0
                   0
                   0
                   0
                   0
                   0
                   0
                   0
                   0
                   0
                   0
                   0
                   0
                   0
                   0
                   0
                   0
                   0
                   0
                   0
                   0
                   0
                   0
                   0
                   0
                   0
                   0
                   0
                   0
                   0
                   0
                   0
                   0
                   0
                   0
                   0
                   0
                   0
                   0
                   0
                   0
                   0
                   0
                   0
                   0
                   0
                   0
                   0
                   0
                   0
                   0
                   0
                   0
                   0
                   0
                   0
                   0
                   0
                   0
                   0
                   0
                   0
                   0
                   0
                   0
                   0
                   0
                   0
                   0
                   0
                   0
                   0
                   0
                   0
                   0
                   0
                   0
                   0
                   0
                   0
                   0
                   0
                   0
                   0
                   0
                   0
                   0
                   0
                   0
                   0
                   0
                   0
                   0
                   0
                   0
                   0
                   0
                   0
                   0
                   0
                   0
                   0
                   0
                   0
                   0
                   0
                   0
                   0
                   0
                   0
                   0
                   0
                   0
                   0
                   0
                   0
                   0
                   0
                   0
                   0
                   0
                   0
                   0
                   0
                   0
                   0
                   0
                   0
                   0
                   0
                   0
                   0
                   0
                   0
                   0
                   0
                   0
                   0
                   0
                   0
                   0
                   0
                   0
                   0
                   0
                   0
                   0
                   0
                   0
                   0
                   0
                   0
                   0
                   0
                   0
                   0
                   0
                   0
                   0
                   0
                   0
                   0
                   0
                   0
                   0
                   0
                   0
                   0
                   0
                   0
                   0
                   0
                   0
                   0
                   0
                   0
                   0
                   0
                   0
                   0
                   0
                   0
                   0
                   0
                   0
                   0
  
SCALARS                       fixity_y  double 1
LOOKUP_TABLE default
                   0
                   0
                   0
                   0
                   0
                   0
                   0
                   0
                   0
                   0
                   0
                   0
                   0
                   0
                   0
                   0
                   0
                   0
                   0
                   0
                   0
                   0
                   0
                   0
                   0
                   0
                   0
                   0
                   0
                   0
                   0
                   0
                   0
                   0
                   0
                   0
                   0
                   0
                   0
                   0
                   0
                   0
                   0
                   0
                   0
                   0
                   0
                   0
                   0
                   0
                   0
                   0
                   0
                   0
                   0
                   0
                   0
                   0
                   0
                   0
                   0
                   0
                   0
                   0
                   0
                   0
                   0
                   0
                   0
                   0
                   0
                   0
                   0
                   0
                   0
                   0
                   0
                   0
                   0
                   0
                   0
                   0
                   0
                   0
                   0
                   0
                   0
                   0
                   0
                   0
                   0
                   0
                   0
                   0
                   0
                   0
                   0
                   0
                   0
                   0
                   0
                   0
                   0
                   0
                   0
                   0
                   0
                   0
                   0
                   0
                   0
                   0
                   0
                   0
                   0
                   0
                   0
                   0
                   0
                   0
                   0
                   0
                   0
                   0
                   0
                   0
                   0
                   0
                   0
                   0
                   0
                   0
                   0
                   0
                   0
                   0
                   0
                   0
                   0
                   0
                   0
                   0
                   0
                   0
                   0
                   0
                   0
                   0
                   0
                   0
                   0
                   0
                   0
                   0
                   0
                   0
                   0
                   0
                   0
                   0
                   0
                   0
                   0
                   0
                   0
                   0
                   0
                   0
                   0
                   0
                   0
                   0
                   0
                   0
                   0
                   0
                   0
                   0
                   0
                   0
                   0
                   0
                   0
                   0
                   0
                   0
                   0
                   0
                   0
                   0
                   0
                   0
                   0
                   0
                   0
                   0
                   0
                   0
                   0
                   0
                   0
                   0
                   0
                   0
                   0
                   0
                   0
                   0
                   0
                   0
                   0
                   0
                   0
                   0
                   0
                   0
                   0
                   0
                   0
                   0
                   0
                   0
                   0
                   0
                   0
                   0
                   0
                   0
                   0
                   0
                   0
                   0
                   0
                   0
                   0
                   0
                   0
                   0
                   0
                   0
                   0
                   0
                   0
                   0
                   0
                   0
                   0
                   0
                   0
                   0
                   0
                   0
                   0
                   0
                   0
                   0
                   0
                   0
                   0
                   0
                   0
                   0
                   0
                   0
                   0
                   0
                   0
                   0
                   0
                   0
                   0
                   0
                   0
                   0
                   0
                   0
                   0
                   0
                   0
                   0
                   0
                   0
                   0
                   0
                   0
                   0
                   0
                   0
                   0
                   0
                   0
                   0
                   0
                   0
                   0
                   0
                   0
                   0
                   0
                   0
                   0
                   0
                   0
                   0
                   0
                   0
                   0
                   0
                   0
                   0
                   0
                   0
                   0
                   0
                   0
                   0
                   0
                   0
                   0
                   0
                   0
                   0
                   0
                   0
                   0
                   0
                   0
                   0
                   0
                   0
                   0
                   0
                   0
                   0
                   0
                   0
                   0
                   0
                   0
                   0
                   0
                   0
                   0
                   0
                   0
                   0
                   0
                   0
                   0
                   0
                   0
                   0
                   0
                   0
                   0
                   0
                   0
                   0
                   0
                   0
                   0
                   0
                   0
                   0
                   0
                   0
                   0
                   0
                   0
                   0
                   0
                   0
                   0
                   0
                   0
                   0
                   0
                   0
                   0
                   0
                   0
                   0
                   0
                   0
                   0
                   0
                   0
                   0
                   0
                   0
                   0
                   0
                   0
                   0
                   0
                   0
                   0
                   0
                   0
                   0
                   0
                   0
                   0
                   0
                   0
                   0
                   0
                   0
                   0
                   0
                   0
                   0
                   0
                   0
                   0
                   0
                   0
                   0
                   0
                   0
                   0
                   0
                   0
                   0
                   0
                   0
                   0
                   0
                   0
                   0
                   0
                   0
                   0
                   0
                   0
                   0
                   0
                   0
                   0
                   0
                   0
                   0
                   0
                   0
                   0
                   0
                   0
                   0
                   0
                   0
                   0
                   0
                   0
                   0
                   0
                   0
                   0
                   0
                   0
                   0
                   0
                   0
                   0
                   0
                   0
                   0
                   0
                   0
                   0
                   0
                   0
                   0
                   0
                   0
                   0
                   0
                   0
                   0
                   0
                   0
                   0
                   0
                   0
                   0
                   0
                   0
                   0
                   0
                   0
                   0
                   0
                   0
                   0
                   0
                   0
                   0
                   0
                   0
                   0
                   0
                   0
                   0
                   0
                   0
                   0
                   0
                   0
                   0
                   0
                   0
                   0
                   0
                   0
                   0
                   0
                   0
                   0
                   0
                   0
                   0
                   0
                   0
                   0
                   0
                   0
                   0
                   0
                   0
                   0
                   0
                   0
                   0
                   0
                   0
                   0
                   0
                   0
                   0
                   0
                   0
                   0
                   0
                   0
                   0
                   0
                   0
                   0
                   0
                   0
                   0
                   0
                   0
                   0
                   0
                   0
                   0
                   0
                   0
                   0
                   0
                   0
                   0
                   0
                   0
                   0
                   0
                   0
                   0
                   0
                   0
                   0
                   0
                   0
                   0
                   0
                   0
                   0
                   0
                   0
                   0
                   0
                   0
                   0
                   0
                   0
                   0
                   0
                   0
                   0
                   0
                   0
                   0
                   0
                   0
                   0
                   0
                   0
                   0
                   0
                   0
                   0
                   0
                   0
                   0
                   0
                   0
                   0
                   0
                   0
                   0
                   0
                   0
                   0
                   0
                   0
                   0
                   0
                   0
                   0
                   0
                   0
                   0
                   0
                   0
                   0
                   0
                   0
                   0
                   0
                   0
                   0
                   0
                   0
                   0
                   0
                   0
                   0
                   0
                   0
                   0
                   0
                   0
                   0
                   0
                   0
                   0
                   0
                   0
                   0
                   0
                   0
                   0
                   0
                   0
                   0
                   0
                   0
                   0
                   0
                   0
                   0
                   0
                   0
                   0
                   0
                   0
                   0
                   0
                   0
                   0
                   0
                   0
                   0
                   0
                   0
                   0
                   0
                   0
                   0
                   0
                   0
                   0
                   0
                   0
                   0
                   0
                   0
                   0
                   0
                   0
                   0
                   0
                   0
                   0
                   0
                   0
                   0
                   0
                   0
                   0
                   0
                   0
                   0
                   0
                   0
                   0
                   0
                   0
                   0
                   0
                   0
                   0
                   0
                   0
                   0
                   0
                   0
                   0
                   0
                   0
                   0
                   0
                   0
                   0
                   0
                   0
                   0
                   0
                   0
                   0
                   0
                   0
                   0
                   0
                   0
                   0
                   0
                   0
                   0
                   0
                   0
                   0
                   0
                   0
                   0
                   0
                   0
                   0
                   0
                   0
                   0
                   0
                   0
                   0
                   0
                   0
                   0
                   0
                   0
                   0
                   0
                   0
                   0
                   0
                   0
                   0
                   0
                   0
                   0
                   0
                   0
                   0
                   0
                   0
                   0
                   0
                   0
                   0
                   0
                   0
                   0
                   0
                   0
                   0
                   0
                   0
                   0
                   0
                   0
                   0
                   0
                   0
                   0
                   0
                   0
                   0
                   0
                   0
                   0
                   0
                   0
                   0
                   0
                   0
                   0
                   0
                   0
                   0
                   0
                   0
                   0
                   0
                   0
                   0
                   0
                   0
                   0
                   0
                   0
                   0
                   0
                   0
                   0
                   0
                   0
                   0
                   0
                   0
                   0
                   0
                   0
                   0
                   0
                   0
                   0
                   0
                   0
                   0
                   0
                   0
                   0
                   0
                   0
                   0
                   0
                   0
                   0
                   0
                   0
                   0
                   0
                   0
                   0
                   0
                   0
                   0
                   0
                   0
                   0
                   0
                   0
                   0
                   0
                   0
                   0
                   0
                   0
                   0
                   0
                   0
                   0
                   0
                   0
                   0
                   0
                   0
                   0
                   0
                   0
                   0
                   0
                   0
                   0
                   0
                   0
                   0
                   0
                   0
                   0
                   0
                   0
                   0
                   0
                   0
                   0
                   0
                   0
                   0
                   0
                   0
                   0
                   0
                   0
                   0
                   0
                   0
                   0
                   0
                   0
                   0
                   0
                   0
                   0
                   0
                   0
                   0
                   0
                   0
                   0
                   0
                   0
                   0
                   0
                   0
                   0
                   0
                   0
                   0
                   0
                   0
                   0
                   0
                   0
                   0
                   0
                   0
                   0
                   0
                   0
                   0
                   0
                   0
                   0
                   0
                   0
                   0
                   0
                   0
                   0
                   0
                   0
                   0
                   0
                   0
                   0
                   0
                   0
                   0
                   0
                   0
                   0
                   0
                   0
                   0
                   0
                   0
                   0
                   0
                   0
                   0
                   0
                   0
                   0
                   0
                   0
                   0
                   0
                   0
                   0
                   0
                   0
                   0
                   0
                   0
                   0
                   0
                   0
                   0
                   0
                   0
                   0
                   0
                   0
                   0
                   0
                   0
                   0
                   0
                   0
                   0
                   0
                   0
                   0
                   0
                   0
                   0
                   0
                   0
                   0
                   0
                   0
                   0
                   0
                   0
                   0
                   0
                   0
                   0
                   0
                   0
                   0
                   0
                   0
                   0
                   0
                   0
                   0
                   0
                   0
                   0
                   0
                   0
                   0
                   0
                   0
                   0
                   0
                   0
                   0
                   0
                   0
                   0
                   0
                   0
                   0
                   0
                   0
                   0
                   0
                   0
                   0
                   0
                   0
                   0
                   0
                   0
                   0
                   0
                   0
                   0
                   0
                   0
                   0
                   0
                   0
                   0
                   0
                   0
                   0
                   0
                   0
                   0
                   0
                   0
                   0
                   0
                   0
                   0
                   0
                   0
                   0
                   0
                   0
                   0
                   0
                   0
                   0
                   0
                   0
                   0
                   0
                   0
                   0
                   0
                   0
                   0
                   0
                   0
                   0
                   0
                   0
                   0
                   0
                   0
                   0
                   0
                   0
                   0
                   0
                   0
                   0
                   0
                   0
                   0
                   0
                   0
                   0
                   0
                   0
                   0
                   0
                   0
                   0
                   0
                   0
                   0
                   0
                   0
                   0
                   0
                   0
                   0
                   0
                   0
                   0
                   0
                   0
                   0
                   0
                   0
                   0
                   0
                   0
                   0
                   0
                   0
                   0
                   0
                   0
                   0
                   0
                   0
                   0
                   0
                   0
                   0
                   0
                   0
                   0
                   0
                   0
                   0
                   0
                   0
                   0
                   0
                   0
                   0
                   0
                   0
                   0
                   0
                   0
                   0
                   0
                   0
                   0
                   0
                   0
                   0
                   0
                   0
                   0
                   0
                   0
                   0
                   0
                   0
                   0
                   0
                   0
                   0
                   0
                   0
                   0
                   0
                   0
                   0
                   0
                   0
                   0
                   0
                   0
                   0
                   0
                   0
                   0
                   0
                   0
                   0
                   0
                   0
                   0
                   0
                   0
                   0
                   0
                   0
                   0
                   0
                   0
                   0
                   0
                   0
                   0
                   0
                   0
                   0
                   0
                   0
                   0
                   0
                   0
                   0
                   0
                   0
                   0
                   0
                   0
                   0
                   0
                   0
                   0
                   0
                   0
                   0
                   0
                   0
                   0
                   0
                   0
                   0
                   0
                   0
                   0
                   0
                   0
                   0
                   0
                   0
                   0
                   0
                   0
                   0
                   0
                   0
                   0
                   0
                   0
                   0
                   0
                   0
                   0
                   0
                   0
                   0
                   0
                   0
                   0
                   0
                   0
                   0
                   0
                   0
                   0
                   0
                   0
                   0
                   0
                   0
                   0
                   0
                   0
                   0
                   0
                   0
                   0
                   0
                   0
                   0
                   0
                   0
                   0
                   0
                   0
                   0
                   0
                   0
                   0
                   0
                   0
                   0
                   0
                   0
                   0
                   0
                   0
                   0
                   0
                   0
                   0
                   0
                   0
                   0
                   0
                   0
                   0
                   0
                   0
                   0
                   0
                   0
                   0
                   0
                   0
                   0
                   0
                   0
                   0
                   0
                   0
                   0
                   0
                   0
                   0
                   0
                   0
                   0
                   0
                   0
                   0
                   0
                   0
                   0
                   0
                   0
                   0
                   0
                   0
                   0
                   0
                   0
                   0
                   0
                   0
                   0
                   0
                   0
                   0
                   0
                   0
                   0
                   0
                   0
                   0
                   0
                   0
                   0
                   0
                   0
                   0
                   0
                   0
                   0
                   0
                   0
                   0
                   0
                   0
                   0
                   0
                   0
                   0
                   0
                   0
                   0
                   0
                   0
                   0
                   0
                   0
                   0
                   0
                   0
                   0
                   0
                   0
                   0
                   0
                   0
                   0
                   0
                   0
                   0
                   0
                   0
                   0
                   0
                   0
                   0
                   0
                   0
                   0
                   0
                   0
                   0
                   0
                   0
                   0
                   0
                   0
                   0
                   0
                   0
                   0
                   0
                   0
                   0
                   0
                   0
                   0
                   0
                   0
                   0
                   0
                   0
                   0
                   0
                   0
                   0
                   0
                   0
                   0
                   0
                   0
                   0
                   0
                   0
                   0
                   0
                   0
                   0
                   0
                   0
                   0
                   0
                   0
                   0
                   0
                   0
                   0
                   0
                   0
                   0
                   0
                   0
                   0
                   0
                   0
                   0
                   0
                   0
                   0
                   0
                   0
                   0
                   0
                   0
                   0
                   0
                   0
                   0
                   0
                   0
                   0
                   0
                   0
                   0
                   0
                   0
                   0
                   0
                   0
                   0
                   0
                   0
                   0
                   0
                   0
                   0
                   0
                   0
                   0
                   0
                   0
                   0
                   0
                   0
                   0
                   0
                   0
                   0
                   0
                   0
                   0
                   0
                   0
                   0
                   0
                   0
                   0
                   0
                   0
                   0
                   0
                   0
                   0
                   0
                   0
                   0
                   0
                   0
                   0
                   0
                   0
                   0
                   0
                   0
                   0
                   0
                   0
                   0
                   0
                   0
                   0
                   0
                   0
                   0
                   0
                   0
                   0
                   0
                   0
                   0
                   0
                   0
                   0
                   0
                   0
                   0
                   0
                   0
                   0
                   0
                   0
                   0
                   0
                   0
                   0
                   0
                   0
                   0
                   0
                   0
                   0
                   0
                   0
                   0
                   0
                   0
                   0
                   0
                   0
                   0
                   0
                   0
                   0
                   0
                   0
                   0
                   0
                   0
                   0
                   0
                   0
                   0
                   0
                   0
                   0
                   0
                   0
                   0
                   0
                   0
                   0
                   0
                   0
                   0
                   0
                   0
                   0
                   0
                   0
                   0
                   0
                   0
                   0
                   0
                   0
                   0
                   0
                   0
                   0
                   0
                   0
                   0
                   0
                   0
                   0
                   0
                   0
                   0
                   0
                   0
                   0
                   0
                   0
                   0
                   0
                   0
                   0
                   0
                   0
                   0
                   0
                   0
                   0
                   0
                   0
                   0
                   0
                   0
                   0
                   0
                   0
                   0
                   0
                   0
                   0
                   0
                   0
                   0
                   0
                   0
                   0
                   0
                   0
                   0
                   0
                   0
                   0
                   0
                   0
                   0
                   0
                   0
                   0
                   0
                   0
                   0
                   0
                   0
                   0
                   0
                   0
                   0
                   0
                   0
                   0
                   0
                   0
                   0
                   0
                   0
                   0
                   0
                   0
                   0
                   0
                   0
                   0
                   0
                   0
                   0
                   0
                   0
                   0
                   0
                   0
                   0
                   0
                   0
                   0
                   0
                   0
                   0
                   0
                   0
                   0
                   0
                   0
                   0
                   0
                   0
                   0
                   0
                   0
                   0
                   0
                   0
                   0
                   0
                   0
                   0
                   0
                   0
                   0
                   0
                   0
                   0
                   0
                   0
                   0
                   0
                   0
                   0
                   0
                   0
                   0
                   0
                   0
                   0
                   0
                   0
                   0
                   0
                   0
                   0
                   0
                   0
                   0
                   0
                   0
                   0
                   0
                   0
                   0
                   0
                   0
                   0
                   0
                   0
                   0
                   0
                   0
                   0
                   0
                   0
                   0
                   0
                   0
                   0
                   0
                   0
                   0
                   0
                   0
                   0
                   0
                   0
                   0
                   0
                   0
                   0
                   0
                   0
                   0
                   0
                   0
                   0
                   0
                   0
                   0
                   0
                   0
                   0
                   0
                   0
                   0
                   0
                   0
                   0
                   0
                   0
                   0
                   0
                   0
                   0
                   0
                   0
                   0
                   0
                   0
                   0
                   0
                   0
                   0
                   0
                   0
                   0
                   0
                   0
                   0
                   0
                   0
                   0
                   0
                   0
                   0
                   0
                   0
                   0
                   0
                   0
                   0
                   0
                   0
                   0
                   0
                   0
                   0
                   0
                   0
                   0
                   0
                   0
                   0
                   0
                   0
                   0
                   0
                   0
                   0
                   0
                   0
                   0
                   0
                   0
                   0
                   0
                   0
                   0
                   0
                   0
                   0
                   0
                   0
                   0
                   0
                   0
                   0
                   0
                   0
                   0
                   0
                   0
                   0
                   0
                   0
                   0
                   0
                   0
                   0
                   0
                   0
                   0
                   0
                   0
                   0
                   0
                   0
                   0
                   0
                   0
                   0
                   0
                   0
                   0
                   0
                   0
                   0
                   0
                   0
                   0
                   0
                   0
                   0
                   0
                   0
                   0
                   0
                   0
                   0
                   0
                   0
                   0
                   0
                   0
                   0
                   0
                   0
                   0
                   0
                   0
                   0
                   0
                   0
                   0
                   0
                   0
  
SCALARS                       fixity_z  double 1
LOOKUP_TABLE default
                   0
                   0
                   0
                   0
                   1
                   1
                   1
                   1
                   0
                   0
                   1
                   1
                   0
                   0
                   1
                   1
                   0
                   0
                   1
                   1
                   0
                   0
                   0
                   1
                   1
                   1
                   0
                   0
                   1
                   1
                   0
                   0
                   0
                   1
                   1
                   1
                   0
                   0
                   1
                   1
                   0
                   0
                   1
                   1
                   0
                   0
                   1
                   1
                   0
                   1
                   0
                   1
                   0
                   1
                   0
                   1
                   0
                   0
                   1
                   1
                   0
                   0
                   1
                   1
                   0
                   1
                   0
                   1
                   0
                   0
                   1
                   1
                   0
                   1
                   0
                   1
                   0
                   1
                   0
                   1
                   0
                   0
                   1
                   1
                   0
                   1
                   0
                   1
                   0
                   1
                   0
                   0
                   1
                   1
                   0
                   1
                   0
                   1
                   0
                   1
                   0
                   0
                   1
                   1
                   0
                   0
                   1
                   1
                   0
                   1
                   0
                   1
                   0
                   1
                   0
                   1
                   0
                   1
                   0
                   1
                   0
                   1
                   0
                   1
                   0
                   1
                   0
                   1
                   0
                   1
                   0
                   1
                   0
                   1
                   0
                   1
                   0
                   1
                   0
                   1
                   0
                   1
                   0
                   1
                   0
                   1
                   0
                   1
                   0
                   1
                   0
                   1
                   0
                   1
                   0
                   1
                   0
                   0
                   0
                   0
                   0
                   0
                   0
                   0
                   0
                   0
                   0
                   0
                   0
                   0
                   0
                   0
                   0
                   0
                   0
                   0
                   0
                   0
                   0
                   0
                   0
                   0
                   0
                   0
                   0
                   0
                   0
                   0
                   0
                   0
                   0
                   0
                   0
                   0
                   0
                   0
                   0
                   0
                   0
                   0
                   0
                   0
                   0
                   0
                   0
                   0
                   0
                   0
                   0
                   0
                   0
                   0
                   0
                   0
                   0
                   0
                   0
                   0
                   0
                   0
                   0
                   0
                   0
                   0
                   0
                   0
                   0
                   0
                   0
                   0
                   0
                   0
                   0
                   0
                   0
                   0
                   0
                   0
                   0
                   0
                   0
                   0
                   0
                   0
                   0
                   0
                   0
                   0
                   0
                   0
                   0
                   0
                   0
                   0
                   0
                   0
                   0
                   0
                   0
                   0
                   0
                   0
                   0
                   0
                   0
                   0
                   0
                   0
                   0
                   0
                   0
                   0
                   0
                   0
                   0
                   0
                   0
                   0
                   0
                   0
                   0
                   0
                   0
                   0
                   0
                   0
                   0
                   0
                   0
                   0
                   0
                   0
                   0
                   0
                   0
                   0
                   0
                   0
                   0
                   0
                   0
                   0
                   0
                   0
                   0
                   0
                   0
                   0
                   0
                   0
                   0
                   0
                   0
                   0
                   0
                   0
                   0
                   0
                   0
                   0
                   0
                   0
                   0
                   0
                   0
                   0
                   0
                   0
                   0
                   0
                   0
                   0
                   0
                   0
                   0
                   0
                   0
                   0
                   0
                   0
                   0
                   0
                   0
                   0
                   0
                   0
                   0
                   0
                   0
                   0
                   0
                   0
                   0
                   0
                   0
                   0
                   0
                   0
                   0
                   0
                   0
                   0
                   0
                   0
                   0
                   0
                   0
                   0
                   0
                   0
                   0
                   0
                   0
                   0
                   0
                   0
                   0
                   0
                   0
                   0
                   0
                   0
                   0
                   0
                   0
                   0
                   0
                   0
                   0
                   0
                   0
                   0
                   0
                   0
                   0
                   0
                   0
                   0
                   0
                   0
                   0
                   0
                   0
                   0
                   0
                   0
                   0
                   0
                   0
                   0
                   0
                   0
                   0
                   0
                   0
                   0
                   0
                   0
                   0
                   0
                   0
                   0
                   0
                   0
                   0
                   0
                   0
                   0
                   0
                   0
                   0
                   0
                   0
                   0
                   0
                   0
                   0
                   0
                   0
                   0
                   0
                   0
                   0
                   0
                   0
                   0
                   0
                   0
                   0
                   0
                   0
                   0
                   0
                   0
                   0
                   0
                   0
                   0
                   0
                   0
                   0
                   0
                   0
                   0
                   0
                   0
                   0
                   0
                   0
                   0
                   0
                   0
                   0
                   0
                   0
                   0
                   0
                   0
                   0
                   0
                   0
                   0
                   0
                   0
                   0
                   0
                   0
                   0
                   0
                   0
                   0
                   0
                   0
                   0
                   0
                   0
                   0
                   0
                   0
                   0
                   0
                   0
                   0
                   0
                   0
                   0
                   0
                   0
                   0
                   0
                   0
                   0
                   0
                   0
                   0
                   0
                   0
                   0
                   0
                   0
                   0
                   0
                   0
                   0
                   0
                   0
                   0
                   0
                   0
                   0
                   0
                   0
                   0
                   0
                   0
                   0
                   0
                   0
                   0
                   0
                   0
                   0
                   0
                   0
                   0
                   0
                   0
                   0
                   0
                   0
                   0
                   0
                   0
                   0
                   0
                   0
                   0
                   0
                   0
                   0
                   0
                   0
                   0
                   0
                   0
                   0
                   0
                   0
                   0
                   0
                   0
                   0
                   0
                   0
                   0
                   0
                   0
                   0
                   0
                   0
                   0
                   0
                   0
                   0
                   0
                   0
                   0
                   0
                   0
                   0
                   0
                   0
                   0
                   0
                   0
                   0
                   0
                   0
                   0
                   0
                   0
                   0
                   0
                   0
                   0
                   0
                   0
                   0
                   0
                   0
                   0
                   0
                   0
                   0
                   0
                   0
                   0
                   0
                   0
                   0
                   0
                   0
                   0
                   0
                   0
                   0
                   0
                   0
                   0
                   0
                   0
                   0
                   0
                   0
                   0
                   0
                   0
                   0
                   0
                   0
                   0
                   0
                   0
                   0
                   0
                   0
                   0
                   0
                   0
                   0
                   0
                   0
                   0
                   0
                   0
                   0
                   0
                   0
                   0
                   0
                   0
                   0
                   0
                   0
                   0
                   0
                   0
                   0
                   0
                   0
                   0
                   0
                   0
                   0
                   0
                   0
                   0
                   0
                   0
                   0
                   0
                   0
                   0
                   0
                   0
                   0
                   0
                   0
                   0
                   0
                   0
                   0
                   0
                   0
                   0
                   0
                   0
                   0
                   0
                   0
                   0
                   0
                   0
                   0
                   0
                   0
                   0
                   0
                   0
                   0
                   0
                   0
                   0
                   0
                   0
                   0
                   0
                   0
                   0
                   0
                   0
                   0
                   0
                   0
                   0
                   0
                   0
                   0
                   0
                   0
                   0
                   0
                   0
                   0
                   0
                   0
                   0
                   0
                   0
                   0
                   0
                   0
                   0
                   0
                   0
                   0
                   0
                   0
                   0
                   0
                   0
                   0
                   0
                   0
                   0
                   0
                   0
                   0
                   0
                   0
                   0
                   0
                   0
                   0
                   0
                   0
                   0
                   0
                   0
                   0
                   0
                   0
                   0
                   0
                   0
                   0
                   0
                   0
                   0
                   0
                   0
                   0
                   0
                   0
                   0
                   0
                   0
                   0
                   0
                   0
                   0
                   0
                   0
                   0
                   0
                   0
                   0
                   0
                   0
                   0
                   0
                   0
                   0
                   0
                   0
                   0
                   0
                   0
                   0
                   0
                   0
                   0
                   0
                   0
                   0
                   0
                   0
                   0
                   0
                   0
                   0
                   0
                   0
                   0
                   0
                   0
                   0
                   0
                   0
                   0
                   0
                   0
                   0
                   0
                   0
                   0
                   0
                   0
                   0
                   0
                   0
                   0
                   0
                   0
                   0
                   0
                   0
                   0
                   0
                   0
                   0
                   0
                   0
                   0
                   0
                   0
                   0
                   0
                   0
                   0
                   0
                   0
                   0
                   0
                   0
                   0
                   0
                   0
                   0
                   0
                   0
                   0
                   0
                   0
                   0
                   0
                   0
                   0
                   0
                   0
                   0
                   0
                   0
                   0
                   0
                   0
                   0
                   0
                   0
                   0
                   0
                   0
                   0
                   0
                   0
                   0
                   0
                   0
                   0
                   0
                   0
                   0
                   0
                   0
                   0
                   0
                   0
                   0
                   0
                   0
                   0
                   0
                   0
                   0
                   0
                   0
                   0
                   0
                   0
                   0
                   0
                   0
                   0
                   0
                   0
                   0
                   0
                   0
                   0
                   0
                   0
                   0
                   0
                   0
                   0
                   0
                   0
                   0
                   0
                   0
                   0
                   0
                   0
                   0
                   0
                   0
                   0
                   0
                   0
                   0
                   0
                   0
                   0
                   0
                   0
                   0
                   0
                   0
                   0
                   0
                   0
                   0
                   0
                   0
                   0
                   0
                   0
                   0
                   0
                   0
                   0
                   0
                   0
                   0
                   0
                   0
                   0
                   0
                   0
                   0
                   0
                   0
                   0
                   0
                   0
                   0
                   0
                   0
                   0
                   0
                   0
                   0
                   0
                   0
                   0
                   0
                   0
                   0
                   0
                   0
                   0
                   0
                   0
                   0
                   0
                   0
                   0
                   0
                   0
                   0
                   0
                   0
                   0
                   0
                   0
                   0
                   0
                   0
                   0
                   0
                   0
                   0
                   0
                   0
                   0
                   0
                   0
                   0
                   0
                   0
                   0
                   0
                   0
                   0
                   0
                   0
                   0
                   0
                   0
                   0
                   0
                   0
                   0
                   0
                   0
                   0
                   0
                   0
                   0
                   0
                   0
                   0
                   0
                   0
                   0
                   0
                   0
                   0
                   0
                   0
                   0
                   0
                   0
                   0
                   0
                   0
                   0
                   0
                   0
                   0
                   0
                   0
                   0
                   0
                   0
                   0
                   0
                   0
                   0
                   0
                   0
                   0
                   0
                   0
                   0
                   0
                   0
                   0
                   0
                   0
                   0
                   0
                   0
                   0
                   0
                   0
                   0
                   0
                   0
                   0
                   0
                   0
                   0
                   0
                   0
                   0
                   0
                   0
                   0
                   0
                   0
                   0
                   0
                   0
                   0
                   0
                   0
                   0
                   0
                   0
                   0
                   0
                   0
                   0
                   0
                   0
                   0
                   0
                   0
                   0
                   0
                   0
                   0
                   0
                   0
                   0
                   0
                   0
                   0
                   0
                   0
                   0
                   0
                   0
                   0
                   0
                   0
                   0
                   0
                   0
                   0
                   0
                   0
                   0
                   0
                   0
                   0
                   0
                   0
                   0
                   0
                   0
                   0
                   0
                   0
                   0
                   0
                   0
                   0
                   0
                   0
                   0
                   0
                   0
                   0
                   0
                   0
                   0
                   0
                   0
                   0
                   0
                   0
                   0
                   0
                   0
                   0
                   0
                   0
                   0
                   0
                   0
                   0
                   0
                   0
                   0
                   0
                   0
                   0
                   0
                   0
                   0
                   0
                   0
                   0
                   0
                   0
                   0
                   0
                   0
                   0
                   0
                   0
                   0
                   0
                   0
                   0
                   0
                   0
                   0
                   0
                   0
                   0
                   0
                   0
                   0
                   0
                   0
                   0
                   0
                   0
                   0
                   0
                   0
                   0
                   0
                   0
                   0
                   0
                   0
                   0
                   0
                   0
                   0
                   0
                   0
                   0
                   0
                   0
                   0
                   0
                   0
                   0
                   0
                   0
                   0
                   0
                   0
                   0
                   0
                   0
                   0
                   0
                   0
                   0
                   0
                   0
                   0
                   0
                   0
                   0
                   0
                   0
                   0
                   0
                   0
                   0
                   0
                   0
                   0
                   0
                   0
                   0
                   0
                   0
                   0
                   0
                   0
                   0
                   0
                   0
                   0
                   0
                   0
                   0
                   0
                   0
                   0
                   0
                   0
                   0
                   0
                   0
                   0
                   0
                   0
                   0
                   0
                   0
                   0
                   0
                   0
                   0
                   0
                   0
                   0
                   0
                   0
                   0
                   0
                   0
                   0
                   0
                   0
                   0
                   0
                   0
                   0
                   0
                   0
                   0
                   0
                   0
                   0
                   0
                   0
                   0
                   0
                   0
                   0
                   0
                   0
                   0
                   0
                   0
                   0
                   0
                   0
                   0
                   0
                   0
                   0
                   0
                   0
                   0
                   0
                   0
                   0
                   0
                   0
                   0
                   0
                   0
                   0
                   0
                   0
                   0
                   0
                   0
                   0
                   0
                   0
                   0
                   0
                   0
                   0
                   0
                   0
                   0
                   0
                   0
                   0
                   0
                   0
                   0
                   0
                   0
                   0
                   0
                   0
                   0
                   0
                   0
                   0
                   0
                   0
                   0
                   0
                   0
                   0
                   0
                   0
                   0
                   0
                   0
                   0
                   0
                   0
                   0
                   0
                   0
                   0
                   0
                   0
                   0
                   0
                   0
                   0
                   0
                   0
                   0
                   0
                   0
                   0
                   0
                   0
                   0
                   0
                   0
                   0
                   0
                   0
                   0
                   0
                   0
                   0
                   0
                   0
                   0
                   0
                   0
                   0
                   0
                   0
                   0
                   0
                   0
                   0
                   0
                   0
                   0
                   0
                   0
                   0
                   0
                   0
                   0
                   0
                   0
                   0
                   0
                   0
                   0
                   0
                   0
                   0
                   0
                   0
                   0
                   0
                   0
                   0
                   0
                   0
                   0
                   0
                   0
                   0
                   0
                   0
                   0
                   0
                   0
                   0
                   0
                   0
                   0
                   0
                   0
                   0
                   0
                   0
                   0
                   0
                   0
                   0
                   0
                   0
                   0
                   0
                   0
                   0
                   0
                   0
                   0
                   0
                   0
                   0
                   0
                   0
                   0
                   0
                   0
                   0
                   0
                   0
                   0
                   0
                   0
                   0
                   0
                   0
                   0
                   0
                   0
                   0
                   0
                   0
                   0
                   0
                   0
                   0
                   0
                   0
                   0
                   0
                   0
                   0
                   0
                   0
                   0
                   0
                   0
                   0
                   0
                   0
                   0
                   0
                   0
                   0
                   0
                   0
                   0
                   0
                   0
                   0
                   0
                   0
                   0
                   0
                   0
                   0
                   0
                   0
                   0
                   0
                   0
                   0
                   0
                   0
                   0
                   0
                   0
                   0
                   0
                   0
                   0
                   0
                   0
                   0
                   0
                   0
                   0
                   0
                   0
                   0
                   0
                   0
                   0
                   0
                   0
                   0
                   0
                   0
                   0
                   0
                   0
                   0
                   0
                   0
                   0
                   0
                   0
                   0
                   0
                   0
                   0
                   0
                   0
                   0
                   0
                   0
                   0
                   0
                   0
                   0
                   0
                   0
                   0
                   0
                   0
                   0
                   0
                   0
                   0
                   0
                   0
                   0
                   0
                   0
                   0
                   0
                   0
                   0
                   0
                   0
                   0
                   0
                   0
                   0
                   0
                   0
                   0
                   0
                   0
                   0
                   0
                   0
                   0
                   0
                   0
                   0
                   0
                   0
                   0
                   0
                   0
                   0
                   0
                   0
                   0
                   0
                   0
                   0
                   0
                   0
                   0
                   0
                   0
                   0
                   0
                   0
                   0
                   0
                   0
                   0
                   0
                   0
                   0
                   0
                   0
                   0
                   0
                   0
                   0
                   0
                   0
                   0
                   0
                   0
                   0
                   0
                   0
                   0
                   0
                   0
                   0
                   0
                   0
                   0
                   0
                   0
                   0
                   0
                   0
                   0
                   0
                   0
                   0
                   0
                   0
                   0
                   0
                   0
                   0
                   0
                   0
                   0
                   0
                   0
                   0
                   0
                   0
                   0
                   0
                   0
                   0
                   0
                   0
                   0
                   0
                   0
                   0
                   0
                   0
                   0
                   0
                   0
                   0
                   0
                   0
                   0
                   0
                   0
                   0
                   0
                   0
                   0
                   0
                   0
                   0
                   0
                   0
                   0
                   0
                   0
                   0
                   0
                   0
                   0
                   0
                   0
                   0
                   0
                   0
                   0
                   0
                   0
                   0
                   0
                   0
                   0
                   0
                   0
                   0
                   0
                   0
                   0
                   0
                   0
                   0
                   0
                   0
                   0
                   0
                   0
                   0
                   0
                   0
                   0
                   0
                   0
                   0
                   0
                   0
                   0
                   0
                   0
                   0
                   0
                   0
                   0
                   0
                   0
                   0
                   0
                   0
                   0
                   0
                   0
                   0
                   0
                   0
                   0
                   0
                   0
                   0
                   0
                   0
                   0
                   0
                   0
                   0
                   0
                   0
                   0
                   0
                   0
                   0
                   0
                   0
                   0
                   0
                   0
                   0
                   0
                   0
                   0
                   0
                   0
                   0
                   0
                   0
                   0
                   0
                   0
                   0
                   0
                   0
                   0
                   0
                   0
                   0
                   0
                   0
                   0
                   0
                   0
                   0
                   0
                   0
                   0
                   0
                   0
                   0
                   0
                   0
                   0
                   0
                   0
                   0
                   0
                   0
                   0
                   0
                   0
                   0
                   0
                   0
                   0
                   0
                   0
                   0
                   0
                   0
                   0
                   0
                   0
                   0
                   0
                   0
                   0
                   0
                   0
                   0
                   0
                   0
                   0
                   0
                   0
                   0
                   0
                   0
                   0
                   0
                   0
                   0
                   0
                   0
                   0
                   0
                   0
                   0
                   0
                   0
                   0
                   0
                   0
                   0
                   0
                   0
                   0
                   0
                   0
                   0
                   0
                   0
                   0
                   0
                   0
                   0
                   0
                   0
                   0
                   0
                   0
                   0
                   0
                   0
                   0
                   0
                   0
                   0
                   0
                   0
                   0
                   0
                   0
                   0
                   0
  
SCALARS                         Ispace  double 1
LOOKUP_TABLE default
                  12
                  12
                  12
                  12
                  12
                  12
                  12
                  12
                  12
                  12
                  12
                  12
                  12
                  11
                  12
                  11
                  11
                  11
                  11
                  11
                  11
                  12
                  12
                  11
                  12
                  12
                  11
                  11
                  11
                  11
                  11
                  11
                  11
                  11
                  11
                  11
                  11
                  11
                  11
                  11
                  11
                  11
                  11
                  11
                  11
                  11
                  11
                  11
                  11
                  11
                  11
                  11
                  11
                  11
                  11
                  11
                  11
                  11
                  11
                  11
                  11
                  11
                  11
                  11
                  11
                  11
                  12
                  12
                  12
                  12
                  12
                  12
                  12
                  12
                  11
                  11
                  11
                  11
                  11
                  11
                  11
                  11
                  11
                  11
                  11
                  11
                  11
                  11
                  11
                  11
                  11
                  11
                  11
                  11
                  11
                  11
                  12
                  12
                  12
                  12
                  12
                  12
                  12
                  12
                  12
                  12
                  12
                  12
                  12
                  12
                  12
                  12
                  12
                  12
                  12
                  12
                  11
                  11
                  11
                  11
                  11
                  11
                  11
                  11
                  11
                  11
                  11
                  11
                  11
                  11
                  11
                  11
                  11
                  11
                  11
                  11
                  11
                  11
                  11
                  11
                  11
                  11
                  11
                  11
                  11
                  11
                  12
                  12
                  12
                  12
                  12
                  12
                  12
                  12
                  12
                  12
                  12
                  12
                  12
                  12
                  12
                  12
                  12
                  11
                  11
                  11
                  11
                  12
                  12
                  11
                  11
                  11
                  11
                  11
                  11
                  11
                  11
                  11
                  11
                  11
                  11
                  11
                  11
                  11
                  11
                  11
                  11
                  11
                  11
                  12
                  12
                  12
                  12
                  11
                  11
                  11
                  11
                  11
                  11
                  11
                  11
                  11
                  11
                  11
                  12
                  12
                  12
                  12
                  12
                  12
                  12
                  12
                  12
                  12
                  11
                  11
                  11
                  11
                  11
                  11
                  11
                  11
                  11
                  11
                  11
                  11
                  11
                  11
                  11
                  12
                  12
                  12
                  12
                  12
                  12
                  12
                  12
                  12
                  12
                  12
                  12
                  11
                  11
                  11
                  11
                  12
                  12
                  11
                  11
                  11
                  11
                  11
                  11
                  11
                  11
                  11
                  11
                  11
                  11
                  11
                  11
                  11
                  11
                  11
                  11
                  11
                  11
                  12
                  12
                  12
                  12
                  11
                  11
                  11
                  11
                  11
                  11
                  11
                  11
                  11
                  11
                  11
                  12
                  12
                  12
                  12
                  12
                  12
                  12
                  12
                  12
                  12
                  11
                  11
                  11
                  11
                  11
                  11
                  11
                  11
                  11
                  11
                  11
                  11
                  11
                  11
                  11
                  12
                  12
                  12
                  12
                  12
                  12
                  12
                  12
                  12
                  12
                  12
                  12
                  11
                  11
                  11
                  11
                  12
                  12
                  11
                  11
                  11
                  11
                  11
                  11
                  11
                  11
                  11
                  11
                  11
                  11
                  11
                  11
                  11
                  11
                  11
                  11
                  11
                  11
                  12
                  12
                  12
                  12
                  11
                  11
                  11
                  11
                  11
                  11
                  11
                  11
                  11
                  11
                  11
                  12
                  12
                  12
                  12
                  12
                  12
                  12
                  12
                  12
                  12
                  11
                  11
                  11
                  11
                  11
                  11
                  11
                  11
                  11
                  11
                  11
                  11
                  11
                  11
                  11
                  12
                  12
                  12
                  12
                  12
                  12
                  12
                  12
                  12
                  12
                  12
                  12
                  11
                  11
                  11
                  11
                  12
                  12
                  11
                  11
                  11
                  11
                  11
                  11
                  11
                  11
                  11
                  11
                  11
                  11
                  11
                  11
                  11
                  11
                  11
                  11
                  11
                  11
                  12
                  12
                  12
                  12
                  11
                  11
                  11
                  11
                  11
                  11
                  11
                  11
                  11
                  11
                  11
                  12
                  12
                  12
                  12
                  12
                  12
                  12
                  12
                  12
                  12
                  11
                  11
                  11
                  11
                  11
                  11
                  11
                  11
                  11
                  11
                  11
                  11
                  11
                  11
                  11
                  12
                  12
                  12
                  12
                  12
                  12
                  12
                  12
                  12
                  12
                  12
                  12
                  11
                  11
                  11
                  11
                  12
                  12
                  11
                  11
                  11
                  11
                  11
                  11
                  11
                  11
                  11
                  11
                  11
                  11
                  11
                  11
                  11
                  11
                  11
                  11
                  11
                  11
                  12
                  12
                  12
                  12
                  11
                  11
                  11
                  11
                  11
                  11
                  11
                  11
                  11
                  11
                  11
                  12
                  12
                  12
                  12
                  12
                  12
                  12
                  12
                  12
                  12
                  11
                  11
                  11
                  11
                  11
                  11
                  11
                  11
                  11
                  11
                  11
                  11
                  11
                  11
                  11
                  12
                  12
                  12
                  12
                  12
                  12
                  12
                  12
                  12
                  12
                  12
                  12
                  11
                  11
                  11
                  11
                  12
                  12
                  11
                  11
                  11
                  11
                  11
                  11
                  11
                  11
                  11
                  11
                  11
                  11
                  11
                  11
                  11
                  11
                  11
                  11
                  11
                  11
                  12
                  12
                  12
                  12
                  11
                  11
                  11
                  11
                  11
                  11
                  11
                  11
                  11
                  11
                  11
                  12
                  12
                  12
                  12
                  12
                  12
                  12
                  12
                  12
                  12
                  11
                  11
                  11
                  11
                  11
                  11
                  11
                  11
                  11
                  11
                  11
                  11
                  11
                  11
                  11
                  12
                  12
                  12
                  12
                  12
                  12
                  12
                  12
                  12
                  12
                  12
                  12
                  11
                  11
                  11
                  11
                  12
                  12
                  11
                  11
                  11
                  11
                  11
                  11
                  11
                  11
                  11
                  11
                  11
                  11
                  11
                  11
                  11
                  11
                  11
                  11
                  11
                  11
                  12
                  12
                  12
                  12
                  11
                  11
                  11
                  11
                  11
                  11
                  11
                  11
                  11
                  11
                  11
                  12
                  12
                  12
                  12
                  12
                  12
                  12
                  12
                  12
                  12
                  11
                  11
                  11
                  11
                  11
                  11
                  11
                  11
                  11
                  11
                  11
                  11
                  11
                  11
                  11
                  12
                  12
                  12
                  12
                  12
                  12
                  12
                  12
                  12
                  12
                  12
                  12
                  11
                  11
                  11
                  11
                  12
                  12
                  11
                  11
                  11
                  11
                  11
                  11
                  11
                  11
                  11
                  11
                  11
                  11
                  11
                  11
                  11
                  11
                  11
                  11
                  11
                  11
                  12
                  12
                  12
                  12
                  11
                  11
                  11
                  11
                  11
                  11
                  11
                  11
                  11
                  11
                  11
                  12
                  12
                  12
                  12
                  12
                  12
                  12
                  12
                  12
                  12
                  11
                  11
                  11
                  11
                  11
                  11
                  11
                  11
                  11
                  11
                  11
                  11
                  11
                  11
                  11
                  12
                  12
                  12
                  12
                  12
                  12
                  12
                  12
                  12
                  12
                  12
                  12
                  11
                  11
                  11
                  11
                  12
                  12
                  11
                  11
                  11
                  11
                  11
                  11
                  11
                  11
                  11
                  11
                  11
                  11
                  11
                  11
                  11
                  11
                  11
                  11
                  11
                  11
                  12
                  12
                  12
                  12
                  11
                  11
                  11
                  11
                  11
                  11
                  11
                  11
                  11
                  11
                  11
                  12
                  12
                  12
                  12
                  12
                  12
                  12
                  12
                  12
                  12
                  11
                  11
                  11
                  11
                  11
                  11
                  11
                  11
                  11
                  11
                  11
                  11
                  11
                  11
                  11
                  12
                  12
                  12
                  12
                  12
                  12
                  12
                  12
                  12
                  12
                  12
                  12
                  11
                  11
                  11
                  11
                  12
                  12
                  11
                  11
                  11
                  11
                  11
                  11
                  11
                  11
                  11
                  11
                  11
                  11
                  11
                  11
                  11
                  11
                  11
                  11
                  11
                  11
                  12
                  12
                  12
                  12
                  11
                  11
                  11
                  11
                  11
                  11
                  11
                  11
                  11
                  11
                  11
                  12
                  12
                  12
                  12
                  12
                  12
                  12
                  12
                  12
                  12
                  11
                  11
                  11
                  11
                  11
                  11
                  11
                  11
                  11
                  11
                  11
                  11
                  11
                  11
                  11
                  12
                  12
                  12
                  12
                  12
                  12
                  12
                  12
                  12
                  12
                  12
                  12
                  11
                  11
                  11
                  11
                  12
                  12
                  11
                  11
                  11
                  11
                  11
                  11
                  11
                  11
                  11
                  11
                  11
                  11
                  11
                  11
                  11
                  11
                  11
                  11
                  11
                  11
                  12
                  12
                  12
                  12
                  11
                  11
                  11
                  11
                  11
                  11
                  11
                  11
                  11
                  11
                  11
                  12
                  12
                  12
                  12
                  12
                  12
                  12
                  12
                  12
                  12
                  11
                  11
                  11
                  11
                  11
                  11
                  11
                  11
                  11
                  11
                  11
                  11
                  11
                  11
                  11
                  12
                  12
                  12
                  12
                  12
                  12
                  12
                  12
                  12
                  12
                  12
                  12
                  11
                  11
                  11
                  11
                  12
                  12
                  11
                  11
                  11
                  11
                  11
                  11
                  11
                  11
                  11
                  11
                  11
                  11
                  11
                  11
                  11
                  11
                  11
                  11
                  11
                  11
                  12
                  12
                  12
                  12
                  11
                  11
                  11
                  11
                  11
                  11
                  11
                  11
                  11
                  11
                  11
                  12
                  12
                  12
                  12
                  12
                  12
                  12
                  12
                  12
                  12
                  11
                  11
                  11
                  11
                  11
                  11
                  11
                  11
                  11
                  11
                  11
                  11
                  11
                  11
                  11
                  12
                  12
                  12
                  12
                  12
                  12
                  12
                  12
                  12
                  12
                  12
                  12
                  11
                  11
                  11
                  11
                  12
                  12
                  11
                  11
                  11
                  11
                  11
                  11
                  11
                  11
                  11
                  11
                  11
                  11
                  11
                  11
                  11
                  11
                  11
                  11
                  11
                  11
                  12
                  12
                  12
                  12
                  11
                  11
                  11
                  11
                  11
                  11
                  11
                  11
                  11
                  11
                  11
                  12
                  12
                  12
                  12
                  12
                  12
                  12
                  12
                  12
                  12
                  11
                  11
                  11
                  11
                  11
                  11
                  11
                  11
                  11
                  11
                  11
                  11
                  11
                  11
                  11
                  12
                  12
                  12
                  12
                  12
                  12
                  12
                  12
                  12
                  12
                  12
                  12
                  11
                  11
                  11
                  11
                  12
                  12
                  11
                  11
                  11
                  11
                  11
                  11
                  11
                  11
                  11
                  11
                  11
                  11
                  11
                  11
                  11
                  11
                  11
                  11
                  11
                  11
                  12
                  12
                  12
                  12
                  11
                  11
                  11
                  11
                  11
                  11
                  11
                  11
                  11
                  11
                  11
                  12
                  12
                  12
                  12
                  12
                  12
                  12
                  12
                  12
                  12
                  11
                  11
                  11
                  11
                  11
                  11
                  11
                  11
                  11
                  11
                  11
                  11
                  11
                  11
                  11
                  12
                  12
                  12
                  12
                  12
                  12
                  12
                  12
                  12
                  12
                  12
                  12
                  11
                  11
                  11
                  11
                  12
                  12
                  11
                  11
                  11
                  11
                  11
                  11
                  11
                  11
                  11
                  11
                  11
                  11
                  11
                  11
                  11
                  11
                  11
                  11
                  11
                  11
                  12
                  12
                  12
                  12
                  11
                  11
                  11
                  11
                  11
                  11
                  11
                  11
                  11
                  11
                  11
                  12
                  12
                  12
                  12
                  12
                  12
                  12
                  12
                  12
                  12
                  11
                  11
                  11
                  11
                  11
                  11
                  11
                  11
                  11
                  11
                  11
                  11
                  11
                  11
                  11
                  12
                  12
                  12
                  12
                  12
                  12
                  12
                  12
                  12
                  12
                  12
                  12
                  11
                  11
                  11
                  11
                  12
                  12
                  11
                  11
                  11
                  11
                  11
                  11
                  11
                  11
                  11
                  11
                  11
                  11
                  11
                  11
                  11
                  11
                  11
                  11
                  11
                  11
                  12
                  12
                  12
                  12
                  11
                  11
                  11
                  11
                  11
                  11
                  11
                  11
                  11
                  11
                  11
                  12
                  12
                  12
                  12
                  12
                  12
                  12
                  12
                  12
                  12
                  11
                  11
                  11
                  11
                  11
                  11
                  11
                  11
                  11
                  11
                  11
                  11
                  11
                  11
                  11
                  12
                  12
                  12
                  12
                  12
                  12
                  12
                  12
                  12
                  12
                  12
                  12
                  11
                  11
                  11
                  11
                  12
                  12
                  11
                  11
                  11
                  11
                  11
                  11
                  11
                  11
                  11
                  11
                  11
                  11
                  11
                  11
                  11
                  11
                  11
                  11
                  11
                  11
                  12
                  12
                  12
                  12
                  11
                  11
                  11
                  11
                  11
                  11
                  11
                  11
                  11
                  11
                  11
                  12
                  12
                  12
                  12
                  12
                  12
                  12
                  12
                  12
                  12
                  11
                  11
                  11
                  11
                  11
                  11
                  11
                  11
                  11
                  11
                  11
                  11
                  11
                  11
                  11
                  12
                  12
                  12
                  12
                  12
                  12
                  12
                  12
                  12
                  12
                  12
                  12
                  11
                  11
                  11
                  11
                  12
                  12
                  11
                  11
                  11
                  11
                  11
                  11
                  11
                  11
                  11
                  11
                  11
                  11
                  11
                  11
                  11
                  11
                  11
                  11
                  11
                  11
                  12
                  12
                  12
                  12
                  11
                  11
                  11
                  11
                  11
                  11
                  11
                  11
                  11
                  11
                  11
                  12
                  12
                  12
                  12
                  12
                  12
                  12
                  12
                  12
                  12
                  11
                  11
                  11
                  11
                  11
                  11
                  11
                  11
                  11
                  11
                  11
                  11
                  11
                  11
                  11
                  12
                  12
                  12
                  12
                  12
                  12
                  12
                  12
                  12
                  12
                  12
                  12
                  11
                  11
                  11
                  11
                  12
                  12
                  11
                  11
                  11
                  11
                  11
                  11
                  11
                  11
                  11
                  11
                  11
                  11
                  11
                  11
                  11
                  11
                  11
                  11
                  11
                  11
                  12
                  12
                  12
                  12
                  11
                  11
                  11
                  11
                  11
                  11
                  11
                  11
                  11
                  11
                  11
                  12
                  12
                  12
                  12
                  12
                  12
                  12
                  12
                  12
                  12
                  11
                  11
                  11
                  11
                  11
                  11
                  11
                  11
                  11
                  11
                  11
                  11
                  11
                  11
                  11
                  12
                  12
                  12
                  12
                  12
                  12
                  12
                  12
                  12
                  12
                  12
                  12
                  11
                  11
                  11
                  11
                  12
                  12
                  11
                  11
                  11
                  11
                  11
                  11
                  11
                  11
                  11
                  11
                  11
                  11
                  11
                  11
                  11
                  11
                  11
                  11
                  11
                  11
                  12
                  12
                  12
                  12
                  11
                  11
                  11
                  11
                  11
                  11
                  11
                  11
                  11
                  11
                  11
                  12
                  12
                  12
                  12
                  12
                  12
                  12
                  12
                  12
                  12
                  11
                  11
                  11
                  11
                  11
                  11
                  11
                  11
                  11
                  11
                  11
                  11
                  11
                  11
                  11
                  12
                  12
                  12
                  12
                  12
                  12
                  12
                  12
                  12
                  12
                  12
                  12
                  11
                  11
                  11
                  11
                  12
                  12
                  11
                  11
                  11
                  11
                  11
                  11
                  11
                  11
                  11
                  11
                  11
                  11
                  11
                  11
                  11
                  11
                  11
                  11
                  11
                  11
                  12
                  12
                  12
                  12
                  11
                  11
                  11
                  11
                  11
                  11
                  11
                  11
                  11
                  11
                  11
                  12
                  12
                  12
                  12
                  12
                  12
                  12
                  12
                  12
                  12
                  11
                  11
                  11
                  11
                  11
                  11
                  11
                  11
                  11
                  11
                  11
                  11
                  11
                  11
                  11
                  12
                  12
                  12
                  12
                  12
                  12
                  12
                  12
                  12
                  12
                  12
                  12
                  11
                  11
                  11
                  11
                  12
                  12
                  11
                  11
                  11
                  11
                  11
                  11
                  11
                  11
                  11
                  11
                  11
                  11
                  11
                  11
                  11
                  11
                  11
                  11
                  11
                  11
                  12
                  12
                  12
                  12
                  11
                  11
                  11
                  11
                  11
                  11
                  11
                  11
                  11
                  11
                  11
                  12
                  12
                  12
                  12
                  12
                  12
                  12
                  12
                  12
                  12
                  11
                  11
                  11
                  11
                  11
                  11
                  11
                  11
                  11
                  11
                  11
                  11
                  11
                  11
                  11
                  12
                  12
                  12
                  12
                  12
                  12
                  12
                  12
                  12
                  12
                  12
                  12
                  11
                  11
                  11
                  11
                  12
                  12
                  11
                  11
                  11
                  11
                  11
                  11
                  11
                  11
                  11
                  11
                  11
                  11
                  11
                  11
                  11
                  11
                  11
                  11
                  11
                  11
                  12
                  12
                  12
                  12
                  11
                  11
                  11
                  11
                  11
                  11
                  11
                  11
                  11
                  11
                  11
                  12
                  12
                  12
                  12
                  12
                  12
                  12
                  12
                  12
                  12
                  11
                  11
                  11
                  11
                  11
                  11
                  11
                  11
                  11
                  11
                  11
                  11
                  11
                  11
                  11
                  12
                  12
                  12
                  12
                  12
  
SCALARS                         Jspace  double 1
LOOKUP_TABLE default
                  11
                  12
                  11
                  11
                  11
                  12
                  11
                  11
                  11
                  11
                  11
                  11
                  12
                  12
                  12
                  12
                  11
                  12
                  11
                  12
                  12
                  12
                  12
                  12
                  12
                  12
                  12
                  12
                  12
                  12
                  11
                  11
                  11
                  11
                  11
                  11
                  11
                  11
                  11
                  11
                  11
                  11
                  11
                  11
                  11
                  11
                  11
                  11
                  11
                  11
                  11
                  11
                  12
                  12
                  12
                  12
                  12
                  11
                  12
                  11
                  11
                  11
                  11
                  11
                  11
                  11
                  11
                  11
                  11
                  12
                  11
                  12
                  12
                  12
                  12
                  12
                  12
                  12
                  12
                  12
                  12
                  12
                  12
                  12
                  11
                  11
                  11
                  11
                  11
                  11
                  11
                  11
                  11
                  11
                  11
                  11
                  11
                  11
                  11
                  11
                  11
                  11
                  11
                  11
                  11
                  11
                  11
                  11
                  12
                  12
                  12
                  12
                  12
                  12
                  12
                  12
                  12
                  12
                  12
                  12
                  12
                  12
                  12
                  12
                  12
                  12
                  12
                  12
                  11
                  11
                  11
                  11
                  11
                  11
                  11
                  11
                  11
                  11
                  11
                  11
                  11
                  11
                  11
                  11
                  11
                  11
                  11
                  11
                  11
                  11
                  11
                  11
                  11
                  11
                  11
                  11
                  11
                  12
                  11
                  11
                  11
                  11
                  12
                  12
                  11
                  12
                  12
                  12
                  12
                  12
                  12
                  11
                  11
                  11
                  11
                  11
                  11
                  11
                  11
                  11
                  11
                  11
                  12
                  12
                  12
                  11
                  11
                  11
                  11
                  11
                  11
                  12
                  12
                  12
                  12
                  12
                  12
                  12
                  11
                  11
                  11
                  11
                  11
                  11
                  11
                  11
                  11
                  11
                  11
                  11
                  12
                  12
                  12
                  12
                  12
                  12
                  12
                  12
                  12
                  12
                  11
                  11
                  11
                  11
                  11
                  11
                  11
                  11
                  11
                  11
                  11
                  11
                  11
                  11
                  11
                  12
                  11
                  11
                  11
                  11
                  12
                  12
                  11
                  12
                  12
                  12
                  12
                  12
                  12
                  11
                  11
                  11
                  11
                  11
                  11
                  11
                  11
                  11
                  11
                  11
                  12
                  12
                  12
                  11
                  11
                  11
                  11
                  11
                  11
                  12
                  12
                  12
                  12
                  12
                  12
                  12
                  11
                  11
                  11
                  11
                  11
                  11
                  11
                  11
                  11
                  11
                  11
                  11
                  12
                  12
                  12
                  12
                  12
                  12
                  12
                  12
                  12
                  12
                  11
                  11
                  11
                  11
                  11
                  11
                  11
                  11
                  11
                  11
                  11
                  11
                  11
                  11
                  11
                  12
                  11
                  11
                  11
                  11
                  12
                  12
                  11
                  12
                  12
                  12
                  12
                  12
                  12
                  11
                  11
                  11
                  11
                  11
                  11
                  11
                  11
                  11
                  11
                  11
                  12
                  12
                  12
                  11
                  11
                  11
                  11
                  11
                  11
                  12
                  12
                  12
                  12
                  12
                  12
                  12
                  11
                  11
                  11
                  11
                  11
                  11
                  11
                  11
                  11
                  11
                  11
                  11
                  12
                  12
                  12
                  12
                  12
                  12
                  12
                  12
                  12
                  12
                  11
                  11
                  11
                  11
                  11
                  11
                  11
                  11
                  11
                  11
                  11
                  11
                  11
                  11
                  11
                  12
                  11
                  11
                  11
                  11
                  12
                  12
                  11
                  12
                  12
                  12
                  12
                  12
                  12
                  11
                  11
                  11
                  11
                  11
                  11
                  11
                  11
                  11
                  11
                  11
                  12
                  12
                  12
                  11
                  11
                  11
                  11
                  11
                  11
                  12
                  12
                  12
                  12
                  12
                  12
                  12
                  11
                  11
                  11
                  11
                  11
                  11
                  11
                  11
                  11
                  11
                  11
                  11
                  12
                  12
                  12
                  12
                  12
                  12
                  12
                  12
                  12
                  12
                  11
                  11
                  11
                  11
                  11
                  11
                  11
                  11
                  11
                  11
                  11
                  11
                  11
                  11
                  11
                  12
                  11
                  11
                  11
                  11
                  12
                  12
                  11
                  12
                  12
                  12
                  12
                  12
                  12
                  11
                  11
                  11
                  11
                  11
                  11
                  11
                  11
                  11
                  11
                  11
                  12
                  12
                  12
                  11
                  11
                  11
                  11
                  11
                  11
                  12
                  12
                  12
                  12
                  12
                  12
                  12
                  11
                  11
                  11
                  11
                  11
                  11
                  11
                  11
                  11
                  11
                  11
                  11
                  12
                  12
                  12
                  12
                  12
                  12
                  12
                  12
                  12
                  12
                  11
                  11
                  11
                  11
                  11
                  11
                  11
                  11
                  11
                  11
                  11
                  11
                  11
                  11
                  11
                  12
                  11
                  11
                  11
                  11
                  12
                  12
                  11
                  12
                  12
                  12
                  12
                  12
                  12
                  11
                  11
                  11
                  11
                  11
                  11
                  11
                  11
                  11
                  11
                  11
                  12
                  12
                  12
                  11
                  11
                  11
                  11
                  11
                  11
                  12
                  12
                  12
                  12
                  12
                  12
                  12
                  11
                  11
                  11
                  11
                  11
                  11
                  11
                  11
                  11
                  11
                  11
                  11
                  12
                  12
                  12
                  12
                  12
                  12
                  12
                  12
                  12
                  12
                  11
                  11
                  11
                  11
                  11
                  11
                  11
                  11
                  11
                  11
                  11
                  11
                  11
                  11
                  11
                  12
                  11
                  11
                  11
                  11
                  12
                  12
                  11
                  12
                  12
                  12
                  12
                  12
                  12
                  11
                  11
                  11
                  11
                  11
                  11
                  11
                  11
                  11
                  11
                  11
                  12
                  12
                  12
                  11
                  11
                  11
                  11
                  11
                  11
                  12
                  12
                  12
                  12
                  12
                  12
                  12
                  11
                  11
                  11
                  11
                  11
                  11
                  11
                  11
                  11
                  11
                  11
                  11
                  12
                  12
                  12
                  12
                  12
                  12
                  12
                  12
                  12
                  12
                  11
                  11
                  11
                  11
                  11
                  11
                  11
                  11
                  11
                  11
                  11
                  11
                  11
                  11
                  11
                  12
                  11
                  11
                  11
                  11
                  12
                  12
                  11
                  12
                  12
                  12
                  12
                  12
                  12
                  11
                  11
                  11
                  11
                  11
                  11
                  11
                  11
                  11
                  11
                  11
                  12
                  12
                  12
                  11
                  11
                  11
                  11
                  11
                  11
                  12
                  12
                  12
                  12
                  12
                  12
                  12
                  11
                  11
                  11
                  11
                  11
                  11
                  11
                  11
                  11
                  11
                  11
                  11
                  12
                  12
                  12
                  12
                  12
                  12
                  12
                  12
                  12
                  12
                  11
                  11
                  11
                  11
                  11
                  11
                  11
                  11
                  11
                  11
                  11
                  11
                  11
                  11
                  11
                  12
                  11
                  11
                  11
                  11
                  12
                  12
                  11
                  12
                  12
                  12
                  12
                  12
                  12
                  11
                  11
                  11
                  11
                  11
                  11
                  11
                  11
                  11
                  11
                  11
                  12
                  12
                  12
                  11
                  11
                  11
                  11
                  11
                  11
                  12
                  12
                  12
                  12
                  12
                  12
                  12
                  11
                  11
                  11
                  11
                  11
                  11
                  11
                  11
                  11
                  11
                  11
                  11
                  12
                  12
                  12
                  12
                  12
                  12
                  12
                  12
                  12
                  12
                  11
                  11
                  11
                  11
                  11
                  11
                  11
                  11
                  11
                  11
                  11
                  11
                  11
                  11
                  11
                  12
                  11
                  11
                  11
                  11
                  12
                  12
                  11
                  12
                  12
                  12
                  12
                  12
                  12
                  11
                  11
                  11
                  11
                  11
                  11
                  11
                  11
                  11
                  11
                  11
                  12
                  12
                  12
                  11
                  11
                  11
                  11
                  11
                  11
                  12
                  12
                  12
                  12
                  12
                  12
                  12
                  11
                  11
                  11
                  11
                  11
                  11
                  11
                  11
                  11
                  11
                  11
                  11
                  12
                  12
                  12
                  12
                  12
                  12
                  12
                  12
                  12
                  12
                  11
                  11
                  11
                  11
                  11
                  11
                  11
                  11
                  11
                  11
                  11
                  11
                  11
                  11
                  11
                  12
                  11
                  11
                  11
                  11
                  12
                  12
                  11
                  12
                  12
                  12
                  12
                  12
                  12
                  11
                  11
                  11
                  11
                  11
                  11
                  11
                  11
                  11
                  11
                  11
                  12
                  12
                  12
                  11
                  11
                  11
                  11
                  11
                  11
                  12
                  12
                  12
                  12
                  12
                  12
                  12
                  11
                  11
                  11
                  11
                  11
                  11
                  11
                  11
                  11
                  11
                  11
                  11
                  12
                  12
                  12
                  12
                  12
                  12
                  12
                  12
                  12
                  12
                  11
                  11
                  11
                  11
                  11
                  11
                  11
                  11
                  11
                  11
                  11
                  11
                  11
                  11
                  11
                  12
                  11
                  11
                  11
                  11
                  12
                  12
                  11
                  12
                  12
                  12
                  12
                  12
                  12
                  11
                  11
                  11
                  11
                  11
                  11
                  11
                  11
                  11
                  11
                  11
                  12
                  12
                  12
                  11
                  11
                  11
                  11
                  11
                  11
                  12
                  12
                  12
                  12
                  12
                  12
                  12
                  11
                  11
                  11
                  11
                  11
                  11
                  11
                  11
                  11
                  11
                  11
                  11
                  12
                  12
                  12
                  12
                  12
                  12
                  12
                  12
                  12
                  12
                  11
                  11
                  11
                  11
                  11
                  11
                  11
                  11
                  11
                  11
                  11
                  11
                  11
                  11
                  11
                  12
                  11
                  11
                  11
                  11
                  12
                  12
                  11
                  12
                  12
                  12
                  12
                  12
                  12
                  11
                  11
                  11
                  11
                  11
                  11
                  11
                  11
                  11
                  11
                  11
                  12
                  12
                  12
                  11
                  11
                  11
                  11
                  11
                  11
                  12
                  12
                  12
                  12
                  12
                  12
                  12
                  11
                  11
                  11
                  11
                  11
                  11
                  11
                  11
                  11
                  11
                  11
                  11
                  12
                  12
                  12
                  12
                  12
                  12
                  12
                  12
                  12
                  12
                  11
                  11
                  11
                  11
                  11
                  11
                  11
                  11
                  11
                  11
                  11
                  11
                  11
                  11
                  11
                  12
                  11
                  11
                  11
                  11
                  12
                  12
                  11
                  12
                  12
                  12
                  12
                  12
                  12
                  11
                  11
                  11
                  11
                  11
                  11
                  11
                  11
                  11
                  11
                  11
                  12
                  12
                  12
                  11
                  11
                  11
                  11
                  11
                  11
                  12
                  12
                  12
                  12
                  12
                  12
                  12
                  11
                  11
                  11
                  11
                  11
                  11
                  11
                  11
                  11
                  11
                  11
                  11
                  12
                  12
                  12
                  12
                  12
                  12
                  12
                  12
                  12
                  12
                  11
                  11
                  11
                  11
                  11
                  11
                  11
                  11
                  11
                  11
                  11
                  11
                  11
                  11
                  11
                  12
                  11
                  11
                  11
                  11
                  12
                  12
                  11
                  12
                  12
                  12
                  12
                  12
                  12
                  11
                  11
                  11
                  11
                  11
                  11
                  11
                  11
                  11
                  11
                  11
                  12
                  12
                  12
                  11
                  11
                  11
                  11
                  11
                  11
                  12
                  12
                  12
                  12
                  12
                  12
                  12
                  11
                  11
                  11
                  11
                  11
                  11
                  11
                  11
                  11
                  11
                  11
                  11
                  12
                  12
                  12
                  12
                  12
                  12
                  12
                  12
                  12
                  12
                  11
                  11
                  11
                  11
                  11
                  11
                  11
                  11
                  11
                  11
                  11
                  11
                  11
                  11
                  11
                  12
                  11
                  11
                  11
                  11
                  12
                  12
                  11
                  12
                  12
                  12
                  12
                  12
                  12
                  11
                  11
                  11
                  11
                  11
                  11
                  11
                  11
                  11
                  11
                  11
                  12
                  12
                  12
                  11
                  11
                  11
                  11
                  11
                  11
                  12
                  12
                  12
                  12
                  12
                  12
                  12
                  11
                  11
                  11
                  11
                  11
                  11
                  11
                  11
                  11
                  11
                  11
                  11
                  12
                  12
                  12
                  12
                  12
                  12
                  12
                  12
                  12
                  12
                  11
                  11
                  11
                  11
                  11
                  11
                  11
                  11
                  11
                  11
                  11
                  11
                  11
                  11
                  11
                  12
                  11
                  11
                  11
                  11
                  12
                  12
                  11
                  12
                  12
                  12
                  12
                  12
                  12
                  11
                  11
                  11
                  11
                  11
                  11
                  11
                  11
                  11
                  11
                  11
                  12
                  12
                  12
                  11
                  11
                  11
                  11
                  11
                  11
                  12
                  12
                  12
                  12
                  12
                  12
                  12
                  11
                  11
                  11
                  11
                  11
                  11
                  11
                  11
                  11
                  11
                  11
                  11
                  12
                  12
                  12
                  12
                  12
                  12
                  12
                  12
                  12
                  12
                  11
                  11
                  11
                  11
                  11
                  11
                  11
                  11
                  11
                  11
                  11
                  11
                  11
                  11
                  11
                  12
                  11
                  11
                  11
                  11
                  12
                  12
                  11
                  12
                  12
                  12
                  12
                  12
                  12
                  11
                  11
                  11
                  11
                  11
                  11
                  11
                  11
                  11
                  11
                  11
                  12
                  12
                  12
                  11
                  11
                  11
                  11
                  11
                  11
                  12
                  12
                  12
                  12
                  12
                  12
                  12
                  11
                  11
                  11
                  11
                  11
                  11
                  11
                  11
                  11
                  11
                  11
                  11
                  12
                  12
                  12
                  12
                  12
                  12
                  12
                  12
                  12
                  12
                  11
                  11
                  11
                  11
                  11
                  11
                  11
                  11
                  11
                  11
                  11
                  11
                  11
                  11
                  11
                  12
                  11
                  11
                  11
                  11
                  12
                  12
                  11
                  12
                  12
                  12
                  12
                  12
                  12
                  11
                  11
                  11
                  11
                  11
                  11
                  11
                  11
                  11
                  11
                  11
                  12
                  12
                  12
                  11
                  11
                  11
                  11
                  11
                  11
                  12
                  12
                  12
                  12
                  12
                  12
                  12
                  11
                  11
                  11
                  11
                  11
                  11
                  11
                  11
                  11
                  11
                  11
                  11
                  12
                  12
                  12
                  12
                  12
                  12
                  12
                  12
                  12
                  12
                  11
                  11
                  11
                  11
                  11
                  11
                  11
                  11
                  11
                  11
                  11
                  11
                  11
                  11
                  11
                  12
                  11
                  11
                  11
                  11
                  12
                  12
                  11
                  12
                  12
                  12
                  12
                  12
                  12
                  11
                  11
                  11
                  11
                  11
                  11
                  11
                  11
                  11
                  11
                  11
                  12
                  12
                  12
                  11
                  11
                  11
                  11
                  11
                  11
                  12
                  12
                  12
                  12
                  12
                  12
                  12
                  11
                  11
                  11
                  11
                  11
                  11
                  11
                  11
                  11
                  11
                  11
                  11
                  12
                  12
                  12
                  12
                  12
                  12
                  12
                  12
                  12
                  12
                  11
                  11
                  11
                  11
                  11
                  11
                  11
                  11
                  11
                  11
                  11
                  11
                  11
                  11
                  11
                  12
                  11
                  11
                  11
                  11
                  12
                  12
                  11
                  12
                  12
                  12
                  12
                  12
                  12
                  11
                  11
                  11
                  11
                  11
                  11
                  11
                  11
                  11
                  11
                  11
                  12
                  12
                  12
                  11
                  11
                  11
                  11
                  11
                  11
                  12
                  12
                  12
                  12
                  12
                  12
                  12
                  11
                  11
                  11
                  11
                  11
                  11
                  11
                  11
                  11
                  11
                  11
                  11
                  12
                  12
                  12
                  12
                  12
                  12
                  12
                  12
                  12
                  12
                  11
                  11
                  11
                  11
                  11
                  11
                  11
                  11
                  11
                  11
                  11
                  11
                  11
                  11
                  11
                  12
                  11
                  11
                  11
                  11
                  12
                  12
                  11
                  12
                  12
                  12
                  12
                  12
                  12
                  11
                  11
                  11
                  11
                  11
                  11
                  11
                  11
                  11
                  11
                  11
                  12
                  12
                  12
                  11
                  11
                  11
                  11
                  11
                  11
                  12
                  12
                  12
                  12
                  12
                  12
                  12
                  11
                  11
                  11
                  11
                  11
                  11
                  11
                  11
                  11
                  11
                  11
                  11
                  12
                  12
                  12
                  12
                  12
                  12
                  12
                  12
                  12
                  12
                  11
                  11
                  11
                  11
                  11
                  11
                  11
                  11
                  11
                  11
                  11
                  11
                  11
                  11
                  11
                  12
                  11
                  11
                  11
                  11
                  12
                  12
                  11
                  12
                  12
                  12
                  12
                  12
                  12
                  11
                  11
                  11
                  11
                  11
                  11
                  11
                  11
                  11
                  11
                  11
                  12
                  12
                  12
                  11
                  11
                  11
                  11
                  11
                  11
                  12
                  12
                  12
                  12
                  12
                  12
                  12
                  11
                  11
                  11
                  11
                  11
                  11
                  11
                  11
                  11
                  11
                  11
                  11
                  12
                  12
                  12
                  12
                  12
                  12
                  12
                  12
                  12
                  12
                  11
                  11
                  11
                  11
                  11
                  11
                  11
                  11
                  11
                  11
                  11
                  11
                  11
                  11
  
SCALARS                         Kspace  double 1
LOOKUP_TABLE default
                  11
                  11
                  11
                  11
                  11
                  11
                  11
                  11
                  11
                  11
                  11
                  11
                  11
                  11
                  11
                  11
                  11
                  11
                  11
                  11
                  11
                  11
                  11
                  11
                  11
                  11
                  11
                  11
                  11
                  11
                  11
                  11
                  11
                  11
                  11
                  11
                  11
                  11
                  11
                  11
                  11
                  11
                  11
                  11
                  11
                  11
                  11
                  11
                  11
                  11
                  11
                  11
                  11
                  11
                  11
                  11
                  11
                  11
                  11
                  11
                  11
                  11
                  11
                  11
                  11
                  11
                  11
                  11
                  11
                  11
                  11
                  11
                  11
                  11
                  11
                  11
                  11
                  11
                  11
                  11
                  11
                  11
                  11
                  11
                  11
                  11
                  11
                  11
                  11
                  11
                  11
                  11
                  11
                  11
                  11
                  11
                  11
                  11
                  11
                  11
                  11
                  11
                  11
                  11
                  11
                  11
                  11
                  11
                  11
                  11
                  11
                  11
                  11
                  11
                  11
                  11
                  11
                  11
                  11
                  11
                  11
                  11
                  11
                  11
                  11
                  11
                  11
                  11
                  11
                  11
                  11
                  11
                  11
                  11
                  11
                  11
                  11
                  11
                  11
                  11
                  11
                  11
                  11
                  11
                  11
                  11
                  11
                  11
                  11
                  11
                  11
                  11
                  11
                  11
                  11
                  11
                  11
                  11
                  11
                  11
                  11
                  11
                  11
                  11
                  11
                  11
                  11
                  11
                  11
                  11
                  11
                  11
                  11
                  11
                  11
                  11
                  11
                  11
                  11
                  11
                  11
                  11
                  11
                  11
                  11
                  11
                  11
                  11
                  11
                  11
                  11
                  11
                  11
                  11
                  11
                  11
                  11
                  11
                  11
                  11
                  11
                  11
                  11
                  11
                  11
                  11
                  11
                  11
                  11
                  11
                  11
                  11
                  11
                  11
                  11
                  11
                  11
                  11
                  11
                  11
                  11
                  11
                  11
                  11
                  11
                  11
                  11
                  11
                  11
                  11
                  11
                  11
                  11
                  11
                  11
                  11
                  11
                  11
                  11
                  11
                  11
                  11
                  11
                  11
                  11
                  11
                  11
                  11
                  11
                  11
                  11
                  11
                  11
                  11
                  11
                  11
                  11
                  11
                  11
                  11
                  11
                  11
                  11
                  11
                  11
                  11
                  11
                  11
                  11
                  11
                  11
                  11
                  11
                  11
                  11
                  11
                  11
                  11
                  11
                  11
                  11
                  11
                  11
                  11
                  11
                  11
                  11
                  11
                  11
                  11
                  11
                  11
                  11
                  11
                  11
                  11
                  11
                  11
                  11
                  11
                  11
                  11
                  11
                  11
                  11
                  11
                  11
                  11
                  11
                  11
                  11
                  11
                  12
                  12
                  12
                  12
                  12
                  12
                  12
                  12
                  12
                  12
                  12
                  12
                  12
                  12
                  12
                  12
                  12
                  12
                  12
                  12
                  12
                  12
                  12
                  12
                  12
                  12
                  12
                  12
                  12
                  12
                  12
                  12
                  12
                  12
                  12
                  12
                  12
                  12
                  12
                  12
                  12
                  12
                  12
                  12
                  12
                  12
                  12
                  12
                  12
                  12
                  12
                  12
                  12
                  12
                  12
                  12
                  12
                  12
                  12
                  12
                  12
                  12
                  12
                  12
                  12
                  12
                  12
                  12
                  12
                  12
                  12
                  12
                  12
                  12
                  12
                  12
                  12
                  12
                  12
                  12
                  12
                  12
                  12
                  12
                  12
                  12
                  12
                  12
                  12
                  12
                  12
                  12
                  12
                  12
                  12
                  12
                  12
                  12
                  12
                  12
                  12
                  12
                  12
                  12
                  12
                  12
                  12
                  12
                  12
                  12
                  12
                  12
                  12
                  12
                  12
                  12
                  12
                  12
                  12
                  12
                  12
                  12
                  12
                  12
                  12
                  12
                  12
                  12
                  12
                  12
                  12
                  12
                  12
                  12
                  12
                  12
                  12
                  12
                  12
                  12
                  12
                  12
                  12
                  12
                  12
                  12
                  12
                  12
                  12
                  12
                  12
                  12
                  12
                  12
                  12
                  12
                  12
                  12
                  12
                  12
                  12
                  12
                  12
                  12
                  12
                  12
                  12
                  12
                  12
                  12
                  12
                  12
                  12
                  12
                  12
                  12
                  12
                  12
                  12
                  12
                  12
                  12
                  12
                  12
                  12
                  12
                  12
                  12
                  12
                  12
                  12
                  12
                  12
                  12
                  12
                  12
                  12
                  12
                  12
                  12
                  12
                  12
                  12
                  12
                  12
                  12
                  12
                  12
                  12
                  12
                  12
                  12
                  12
                  12
                  12
                  12
                  12
                  12
                  12
                  12
                  12
                  12
                  12
                  12
                  12
                  12
                  12
                  12
                  12
                  12
                  12
                  12
                  12
                  12
                  13
                  13
                  13
                  13
                  13
                  13
                  13
                  13
                  13
                  13
                  13
                  13
                  13
                  13
                  13
                  13
                  13
                  13
                  13
                  13
                  13
                  13
                  13
                  13
                  13
                  13
                  13
                  13
                  13
                  13
                  13
                  13
                  13
                  13
                  13
                  13
                  13
                  13
                  13
                  13
                  13
                  13
                  13
                  13
                  13
                  13
                  13
                  13
                  13
                  13
                  13
                  13
                  13
                  13
                  13
                  13
                  13
                  13
                  13
                  13
                  13
                  13
                  13
                  13
                  13
                  13
                  13
                  13
                  13
                  13
                  13
                  13
                  13
                  13
                  13
                  13
                  13
                  13
                  13
                  13
                  13
                  13
                  13
                  13
                  13
                  13
                  13
                  13
                  13
                  13
                  13
                  13
                  13
                  13
                  13
                  13
                  13
                  13
                  13
                  13
                  13
                  13
                  13
                  13
                  13
                  13
                  13
                  13
                  13
                  13
                  13
                  13
                  13
                  13
                  13
                  13
                  13
                  13
                  13
                  13
                  13
                  13
                  13
                  13
                  13
                  13
                  13
                  13
                  13
                  13
                  13
                  13
                  13
                  13
                  13
                  13
                  13
                  13
                  13
                  13
                  13
                  13
                  13
                  13
                  13
                  13
                  13
                  13
                  13
                  13
                  13
                  13
                  13
                  13
                  13
                  13
                  13
                  13
                  13
                  13
                  13
                  13
                  13
                  13
                  13
                  13
                  13
                  13
                  13
                  13
                  13
                  13
                  13
                  13
                  13
                  13
                  13
                  13
                  13
                  13
                  13
                  13
                  13
                  13
                  13
                  13
                  13
                  13
                  13
                  13
                  13
                  13
                  13
                  13
                  13
                  13
                  13
                  13
                  13
                  13
                  13
                  13
                  13
                  13
                  13
                  13
                  13
                  13
                  13
                  13
                  13
                  13
                  13
                  13
                  13
                  13
                  13
                  13
                  13
                  13
                  13
                  13
                  13
                  13
                  13
                  13
                  13
                  13
                  13
                  13
                  13
                  13
                  13
                  13
                  14
                  14
                  14
                  14
                  14
                  14
                  14
                  14
                  14
                  14
                  14
                  14
                  14
                  14
                  14
                  14
                  14
                  14
                  14
                  14
                  14
                  14
                  14
                  14
                  14
                  14
                  14
                  14
                  14
                  14
                  14
                  14
                  14
                  14
                  14
                  14
                  14
                  14
                  14
                  14
                  14
                  14
                  14
                  14
                  14
                  14
                  14
                  14
                  14
                  14
                  14
                  14
                  14
                  14
                  14
                  14
                  14
                  14
                  14
                  14
                  14
                  14
                  14
                  14
                  14
                  14
                  14
                  14
                  14
                  14
                  14
                  14
                  14
                  14
                  14
                  14
                  14
                  14
                  14
                  14
                  14
                  14
                  14
                  14
                  14
                  14
                  14
                  14
                  14
                  14
                  14
                  14
                  14
                  14
                  14
                  14
                  14
                  14
                  14
                  14
                  14
                  14
                  14
                  14
                  14
                  14
                  14
                  14
                  14
                  14
                  14
                  14
                  14
                  14
                  14
                  14
                  14
                  14
                  14
                  14
                  14
                  14
                  14
                  14
                  14
                  14
                  14
                  14
                  14
                  14
                  14
                  14
                  14
                  14
                  14
                  14
                  14
                  14
                  14
                  14
                  14
                  14
                  14
                  14
                  14
                  14
                  14
                  14
                  14
                  14
                  14
                  14
                  14
                  14
                  14
                  14
                  14
                  14
                  14
                  14
                  14
                  14
                  14
                  14
                  14
                  14
                  14
                  14
                  14
                  14
                  14
                  14
                  14
                  14
                  14
                  14
                  14
                  14
                  14
                  14
                  14
                  14
                  14
                  14
                  14
                  14
                  14
                  14
                  14
                  14
                  14
                  14
                  14
                  14
                  14
                  14
                  14
                  14
                  14
                  14
                  14
                  14
                  14
                  14
                  14
                  14
                  14
                  14
                  14
                  14
                  14
                  14
                  14
                  14
                  14
                  14
                  14
                  14
                  14
                  14
                  14
                  14
                  14
                  14
                  14
                  14
                  14
                  14
                  14
                  14
                  14
                  14
                  14
                  14
                  15
                  15
                  15
                  15
                  15
                  15
                  15
                  15
                  15
                  15
                  15
                  15
                  15
                  15
                  15
                  15
                  15
                  15
                  15
                  15
                  15
                  15
                  15
                  15
                  15
                  15
                  15
                  15
                  15
                  15
                  15
                  15
                  15
                  15
                  15
                  15
                  15
                  15
                  15
                  15
                  15
                  15
                  15
                  15
                  15
                  15
                  15
                  15
                  15
                  15
                  15
                  15
                  15
                  15
                  15
                  15
                  15
                  15
                  15
                  15
                  15
                  15
                  15
                  15
                  15
                  15
                  15
                  15
                  15
                  15
                  15
                  15
                  15
                  15
                  15
                  15
                  15
                  15
                  15
                  15
                  15
                  15
                  15
                  15
                  15
                  15
                  15
                  15
                  15
                  15
                  15
                  15
                  15
                  15
                  15
                  15
                  15
                  15
                  15
                  15
                  15
                  15
                  15
                  15
                  15
                  15
                  15
                  15
                  15
                  15
                  15
                  15
                  15
                  15
                  15
                  15
                  15
                  15
                  15
                  15
                  15
                  15
                  15
                  15
                  15
                  15
                  15
                  15
                  15
                  15
                  15
                  15
                  15
                  15
                  15
                  15
                  15
                  15
                  15
                  15
                  15
                  15
                  15
                  15
                  15
                  15
                  15
                  15
                  15
                  15
                  15
                  15
                  15
                  15
                  15
                  15
                  15
                  15
                  15
                  15
                  15
                  15
                  15
                  15
                  15
                  15
                  15
                  15
                  15
                  15
                  15
                  15
                  15
                  15
                  15
                  15
                  15
                  15
                  15
                  15
                  15
                  15
                  15
                  15
                  15
                  15
                  15
                  15
                  15
                  15
                  15
                  15
                  15
                  15
                  15
                  15
                  15
                  15
                  15
                  15
                  15
                  15
                  15
                  15
                  15
                  15
                  15
                  15
                  15
                  15
                  15
                  15
                  15
                  15
                  15
                  15
                  15
                  15
                  15
                  15
                  15
                  15
                  15
                  15
                  15
                  15
                  15
                  15
                  15
                  15
                  15
                  15
                  15
                  15
                  15
                  15
                  15
                  15
                  15
                  15
                  15
                  15
                  15
                  15
                  15
                  15
                  15
                  15
                  15
                  15
                  15
                  15
                  15
                  15
                  15
                  15
                  15
                  15
                  15
                  15
                  15
                  15
                  15
                  15
                  15
                  15
                  15
                  15
                  15
                  15
                  15
                  15
                  15
                  15
                  15
                  15
                  15
                  15
                  15
                  15
                  15
                  15
                  15
                  15
                  15
                  15
                  15
                  15
                  15
                  15
                  15
                  15
                  15
                  15
                  15
                  15
                  15
                  15
                  15
                  15
                  15
                  15
                  15
                  15
                  15
                  15
                  15
                  15
                  15
                  15
                  15
                  15
                  16
                  16
                  16
                  16
                  16
                  16
                  16
                  16
                  16
                  16
                  16
                  16
                  16
                  16
                  16
                  16
                  16
                  16
                  16
                  16
                  16
                  16
                  16
                  16
                  16
                  16
                  16
                  16
                  16
                  16
                  16
                  16
                  16
                  16
                  16
                  16
                  16
                  16
                  16
                  16
                  16
                  16
                  16
                  16
                  16
                  16
                  16
                  16
                  16
                  16
                  16
                  16
                  16
                  16
                  16
                  16
                  16
                  16
                  16
                  16
                  16
                  16
                  16
                  16
                  16
                  16
                  16
                  16
                  16
                  16
                  16
                  16
                  16
                  16
                  16
                  16
                  16
                  16
                  16
                  16
                  16
                  16
                  16
                  16
                  16
                  16
                  16
                  16
                  16
                  16
                  16
                  16
                  16
                  16
                  16
                  16
                  16
                  16
                  16
                  16
                  16
                  16
                  16
                  16
                  16
                  16
                  16
                  16
                  16
                  16
                  16
                  16
                  16
                  16
                  16
                  16
                  16
                  16
                  16
                  16
                  16
                  16
                  16
                  16
                  16
                  16
                  16
                  16
                  16
                  16
                  16
                  16
                  16
                  16
                  16
                  16
                  16
                  16
                  16
                  16
                  16
                  16
                  16
                  16
                  16
                  16
                  16
                  16
                  16
                  16
                  16
                  16
                  16
                  16
                  16
                  16
                  16
                  16
                  16
                  16
                  16
                  16
                  16
                  16
                  16
                  16
                  16
                  16
                  16
                  16
                  16
                  16
                  16
                  16
                  16
                  16
                  16
                  16
                  16
                  16
                  16
                  16
                  16
                  16
                  16
                  16
                  16
                  16
                  16
                  16
                  16
                  16
                  16
                  16
                  16
                  16
                  16
                  16
                  16
                  16
                  16
                  16
                  16
                  16
                  16
                  16
                  16
                  16
                  16
                  16
                  16
                  16
                  16
                  16
                  16
                  16
                  16
                  16
                  16
                  16
                  16
                  16
                  16
                  16
                  16
                  16
                  16
                  16
                  16
                  16
                  16
                  16
                  16
                  16
                  17
                  17
                  17
                  17
                  17
                  17
                  17
                  17
                  17
                  17
                  17
                  17
                  17
                  17
                  17
                  17
                  17
                  17
                  17
                  17
                  17
                  17
                  17
                  17
                  17
                  17
                  17
                  17
                  17
                  17
                  17
                  17
                  17
                  17
                  17
                  17
                  17
                  17
                  17
                  17
                  17
                  17
                  17
                  17
                  17
                  17
                  17
                  17
                  17
                  17
                  17
                  17
                  17
                  17
                  17
                  17
                  17
                  17
                  17
                  17
                  17
                  17
                  17
                  17
                  17
                  17
                  17
                  17
                  17
                  17
                  17
                  17
                  17
                  17
                  17
                  17
                  17
                  17
                  17
                  17
                  17
                  17
                  17
                  17
                  17
                  17
                  17
                  17
                  17
                  17
                  17
                  17
                  17
                  17
                  17
                  17
                  17
                  17
                  17
                  17
                  17
                  17
                  17
                  17
                  17
                  17
                  17
                  17
                  17
                  17
                  17
                  17
                  17
                  17
                  17
                  17
                  17
                  17
                  17
                  17
                  17
                  17
                  17
                  17
                  17
                  17
                  17
                  17
                  17
                  17
                  17
                  17
                  17
                  17
                  17
                  17
                  17
                  17
                  17
                  17
                  17
                  17
                  17
                  17
                  17
                  17
                  17
                  17
                  17
                  17
                  17
                  17
                  17
                  17
                  17
                  17
                  17
                  17
                  17
                  17
                  17
                  17
                  17
                  17
                  17
                  17
                  17
                  17
                  17
                  17
                  17
                  17
                  17
                  17
                  17
                  17
                  17
                  17
                  17
                  17
                  17
                  17
                  17
                  17
                  17
                  17
                  17
                  17
                  17
                  17
                  17
                  17
                  17
                  17
                  17
                  17
                  17
                  17
                  17
                  17
                  17
                  17
                  17
                  17
                  17
                  17
                  17
                  17
                  17
                  17
                  17
                  17
                  17
                  17
                  17
                  17
                  17
                  17
                  17
                  17
                  17
                  17
                  17
                  17
                  17
                  17
                  17
                  17
                  17
                  17
                  17
                  17
                  17
                  17
                  18
                  18
                  18
                  18
                  18
                  18
                  18
                  18
                  18
                  18
                  18
                  18
                  18
                  18
                  18
                  18
                  18
                  18
                  18
                  18
                  18
                  18
                  18
                  18
                  18
                  18
                  18
                  18
                  18
                  18
                  18
                  18
                  18
                  18
                  18
                  18
                  18
                  18
                  18
                  18
                  18
                  18
                  18
                  18
                  18
                  18
                  18
                  18
                  18
                  18
                  18
                  18
                  18
                  18
                  18
                  18
                  18
                  18
                  18
                  18
                  18
                  18
                  18
                  18
                  18
                  18
                  18
                  18
                  18
                  18
                  18
                  18
                  18
                  18
                  18
                  18
                  18
                  18
                  18
                  18
                  18
                  18
                  18
                  18
                  18
                  18
                  18
                  18
                  18
                  18
                  18
                  18
                  18
                  18
                  18
                  18
                  18
                  18
                  18
                  18
                  18
                  18
                  18
                  18
                  18
                  18
                  18
                  18
                  18
                  18
                  18
                  18
                  18
                  18
                  18
                  18
                  18
                  18
                  18
                  18
                  18
                  18
                  18
                  18
                  18
                  18
                  18
                  18
                  18
                  18
                  18
                  18
                  18
                  18
                  18
                  18
                  18
                  18
                  18
                  18
                  18
                  18
                  18
                  18
                  18
                  18
                  18
                  18
                  18
                  18
                  18
                  18
                  18
                  18
                  18
                  18
  
SCALARS                 displacement_x  double 1
LOOKUP_TABLE default
         0.00000E+00
         0.00000E+00
         0.00000E+00
         0.00000E+00
         0.00000E+00
         0.00000E+00
         0.00000E+00
         0.00000E+00
         0.00000E+00
         0.00000E+00
         0.00000E+00
         0.00000E+00
         0.00000E+00
         0.00000E+00
         0.00000E+00
         0.00000E+00
         0.00000E+00
         0.00000E+00
         0.00000E+00
         0.00000E+00
         0.00000E+00
         0.00000E+00
         0.00000E+00
         0.00000E+00
         0.00000E+00
         0.00000E+00
         0.00000E+00
         0.00000E+00
         0.00000E+00
         0.00000E+00
         0.00000E+00
         0.00000E+00
         0.00000E+00
         0.00000E+00
         0.00000E+00
         0.00000E+00
         0.00000E+00
         0.00000E+00
         0.00000E+00
         0.00000E+00
         0.00000E+00
         0.00000E+00
         0.00000E+00
         0.00000E+00
         0.00000E+00
         0.00000E+00
         0.00000E+00
         0.00000E+00
         0.00000E+00
         0.00000E+00
         0.00000E+00
         0.00000E+00
         0.00000E+00
         0.00000E+00
         0.00000E+00
         0.00000E+00
         0.00000E+00
         0.00000E+00
         0.00000E+00
         0.00000E+00
         0.00000E+00
         0.00000E+00
         0.00000E+00
         0.00000E+00
         0.00000E+00
         0.00000E+00
         0.00000E+00
         0.00000E+00
         0.00000E+00
         0.00000E+00
         0.00000E+00
         0.00000E+00
         0.00000E+00
         0.00000E+00
         0.00000E+00
         0.00000E+00
         0.00000E+00
         0.00000E+00
         0.00000E+00
         0.00000E+00
         0.00000E+00
         0.00000E+00
         0.00000E+00
         0.00000E+00
         0.00000E+00
         0.00000E+00
         0.00000E+00
         0.00000E+00
         0.00000E+00
         0.00000E+00
         0.00000E+00
         0.00000E+00
         0.00000E+00
         0.00000E+00
         0.00000E+00
         0.00000E+00
         0.00000E+00
         0.00000E+00
         0.00000E+00
         0.00000E+00
         0.00000E+00
         0.00000E+00
         0.00000E+00
         0.00000E+00
         0.00000E+00
         0.00000E+00
         0.00000E+00
         0.00000E+00
         0.00000E+00
         0.00000E+00
         0.00000E+00
         0.00000E+00
         0.00000E+00
         0.00000E+00
         0.00000E+00
         0.00000E+00
         0.00000E+00
         0.00000E+00
         0.00000E+00
         0.00000E+00
         0.00000E+00
         0.00000E+00
         0.00000E+00
         0.00000E+00
         0.00000E+00
         0.00000E+00
         0.00000E+00
         0.00000E+00
         0.00000E+00
         0.00000E+00
         0.00000E+00
         0.00000E+00
         0.00000E+00
         0.00000E+00
         0.00000E+00
         0.00000E+00
         0.00000E+00
         0.00000E+00
         0.00000E+00
         0.00000E+00
         0.00000E+00
         0.00000E+00
         0.00000E+00
         0.00000E+00
         0.00000E+00
         0.00000E+00
         0.00000E+00
         0.00000E+00
         0.00000E+00
         0.00000E+00
         0.00000E+00
         0.00000E+00
         0.00000E+00
         0.00000E+00
         0.00000E+00
         0.00000E+00
         0.00000E+00
         0.00000E+00
         0.00000E+00
         0.00000E+00
         0.00000E+00
         0.00000E+00
         0.00000E+00
         0.00000E+00
         0.00000E+00
         0.00000E+00
         0.00000E+00
         0.00000E+00
         0.00000E+00
         0.00000E+00
         0.00000E+00
         0.00000E+00
         0.00000E+00
         0.00000E+00
         0.00000E+00
         0.00000E+00
         0.00000E+00
         0.00000E+00
         0.00000E+00
         0.00000E+00
         0.00000E+00
         0.00000E+00
         0.00000E+00
         0.00000E+00
         0.00000E+00
         0.00000E+00
         0.00000E+00
         0.00000E+00
         0.00000E+00
         0.00000E+00
         0.00000E+00
         0.00000E+00
         0.00000E+00
         0.00000E+00
         0.00000E+00
         0.00000E+00
         0.00000E+00
         0.00000E+00
         0.00000E+00
         0.00000E+00
         0.00000E+00
         0.00000E+00
         0.00000E+00
         0.00000E+00
         0.00000E+00
         0.00000E+00
         0.00000E+00
         0.00000E+00
         0.00000E+00
         0.00000E+00
         0.00000E+00
         0.00000E+00
         0.00000E+00
         0.00000E+00
         0.00000E+00
         0.00000E+00
         0.00000E+00
         0.00000E+00
         0.00000E+00
         0.00000E+00
         0.00000E+00
         0.00000E+00
         0.00000E+00
         0.00000E+00
         0.00000E+00
         0.00000E+00
         0.00000E+00
         0.00000E+00
         0.00000E+00
         0.00000E+00
         0.00000E+00
         0.00000E+00
         0.00000E+00
         0.00000E+00
         0.00000E+00
         0.00000E+00
         0.00000E+00
         0.00000E+00
         0.00000E+00
         0.00000E+00
         0.00000E+00
         0.00000E+00
         0.00000E+00
         0.00000E+00
         0.00000E+00
         0.00000E+00
         0.00000E+00
         0.00000E+00
         0.00000E+00
         0.00000E+00
         0.00000E+00
         0.00000E+00
         0.00000E+00
         0.00000E+00
         0.00000E+00
         0.00000E+00
         0.00000E+00
         0.00000E+00
         0.00000E+00
         0.00000E+00
         0.00000E+00
         0.00000E+00
         0.00000E+00
         0.00000E+00
         0.00000E+00
         0.00000E+00
         0.00000E+00
         0.00000E+00
         0.00000E+00
         0.00000E+00
         0.00000E+00
         0.00000E+00
         0.00000E+00
         0.00000E+00
         0.00000E+00
         0.00000E+00
         0.00000E+00
         0.00000E+00
         0.00000E+00
         0.00000E+00
         0.00000E+00
         0.00000E+00
         0.00000E+00
         0.00000E+00
         0.00000E+00
         0.00000E+00
         0.00000E+00
         0.00000E+00
         0.00000E+00
         0.00000E+00
         0.00000E+00
         0.00000E+00
         0.00000E+00
         0.00000E+00
         0.00000E+00
         0.00000E+00
         0.00000E+00
         0.00000E+00
         0.00000E+00
         0.00000E+00
         0.00000E+00
         0.00000E+00
         0.00000E+00
         0.00000E+00
         0.00000E+00
         0.00000E+00
         0.00000E+00
         0.00000E+00
         0.00000E+00
         0.00000E+00
         0.00000E+00
         0.00000E+00
         0.00000E+00
         0.00000E+00
         0.00000E+00
         0.00000E+00
         0.00000E+00
         0.00000E+00
         0.00000E+00
         0.00000E+00
         0.00000E+00
         0.00000E+00
         0.00000E+00
         0.00000E+00
         0.00000E+00
         0.00000E+00
         0.00000E+00
         0.00000E+00
         0.00000E+00
         0.00000E+00
         0.00000E+00
         0.00000E+00
         0.00000E+00
         0.00000E+00
         0.00000E+00
         0.00000E+00
         0.00000E+00
         0.00000E+00
         0.00000E+00
         0.00000E+00
         0.00000E+00
         0.00000E+00
         0.00000E+00
         0.00000E+00
         0.00000E+00
         0.00000E+00
         0.00000E+00
         0.00000E+00
         0.00000E+00
         0.00000E+00
         0.00000E+00
         0.00000E+00
         0.00000E+00
         0.00000E+00
         0.00000E+00
         0.00000E+00
         0.00000E+00
         0.00000E+00
         0.00000E+00
         0.00000E+00
         0.00000E+00
         0.00000E+00
         0.00000E+00
         0.00000E+00
         0.00000E+00
         0.00000E+00
         0.00000E+00
         0.00000E+00
         0.00000E+00
         0.00000E+00
         0.00000E+00
         0.00000E+00
         0.00000E+00
         0.00000E+00
         0.00000E+00
         0.00000E+00
         0.00000E+00
         0.00000E+00
         0.00000E+00
         0.00000E+00
         0.00000E+00
         0.00000E+00
         0.00000E+00
         0.00000E+00
         0.00000E+00
         0.00000E+00
         0.00000E+00
         0.00000E+00
         0.00000E+00
         0.00000E+00
         0.00000E+00
         0.00000E+00
         0.00000E+00
         0.00000E+00
         0.00000E+00
         0.00000E+00
         0.00000E+00
         0.00000E+00
         0.00000E+00
         0.00000E+00
         0.00000E+00
         0.00000E+00
         0.00000E+00
         0.00000E+00
         0.00000E+00
         0.00000E+00
         0.00000E+00
         0.00000E+00
         0.00000E+00
         0.00000E+00
         0.00000E+00
         0.00000E+00
         0.00000E+00
         0.00000E+00
         0.00000E+00
         0.00000E+00
         0.00000E+00
         0.00000E+00
         0.00000E+00
         0.00000E+00
         0.00000E+00
         0.00000E+00
         0.00000E+00
         0.00000E+00
         0.00000E+00
         0.00000E+00
         0.00000E+00
         0.00000E+00
         0.00000E+00
         0.00000E+00
         0.00000E+00
         0.00000E+00
         0.00000E+00
         0.00000E+00
         0.00000E+00
         0.00000E+00
         0.00000E+00
         0.00000E+00
         0.00000E+00
         0.00000E+00
         0.00000E+00
         0.00000E+00
         0.00000E+00
         0.00000E+00
         0.00000E+00
         0.00000E+00
         0.00000E+00
         0.00000E+00
         0.00000E+00
         0.00000E+00
         0.00000E+00
         0.00000E+00
         0.00000E+00
         0.00000E+00
         0.00000E+00
         0.00000E+00
         0.00000E+00
         0.00000E+00
         0.00000E+00
         0.00000E+00
         0.00000E+00
         0.00000E+00
         0.00000E+00
         0.00000E+00
         0.00000E+00
         0.00000E+00
         0.00000E+00
         0.00000E+00
         0.00000E+00
         0.00000E+00
         0.00000E+00
         0.00000E+00
         0.00000E+00
         0.00000E+00
         0.00000E+00
         0.00000E+00
         0.00000E+00
         0.00000E+00
         0.00000E+00
         0.00000E+00
         0.00000E+00
         0.00000E+00
         0.00000E+00
         0.00000E+00
         0.00000E+00
         0.00000E+00
         0.00000E+00
         0.00000E+00
         0.00000E+00
         0.00000E+00
         0.00000E+00
         0.00000E+00
         0.00000E+00
         0.00000E+00
         0.00000E+00
         0.00000E+00
         0.00000E+00
         0.00000E+00
         0.00000E+00
         0.00000E+00
         0.00000E+00
         0.00000E+00
         0.00000E+00
         0.00000E+00
         0.00000E+00
         0.00000E+00
         0.00000E+00
         0.00000E+00
         0.00000E+00
         0.00000E+00
         0.00000E+00
         0.00000E+00
         0.00000E+00
         0.00000E+00
         0.00000E+00
         0.00000E+00
         0.00000E+00
         0.00000E+00
         0.00000E+00
         0.00000E+00
         0.00000E+00
         0.00000E+00
         0.00000E+00
         0.00000E+00
         0.00000E+00
         0.00000E+00
         0.00000E+00
         0.00000E+00
         0.00000E+00
         0.00000E+00
         0.00000E+00
         0.00000E+00
         0.00000E+00
         0.00000E+00
         0.00000E+00
         0.00000E+00
         0.00000E+00
         0.00000E+00
         0.00000E+00
         0.00000E+00
         0.00000E+00
         0.00000E+00
         0.00000E+00
         0.00000E+00
         0.00000E+00
         0.00000E+00
         0.00000E+00
         0.00000E+00
         0.00000E+00
         0.00000E+00
         0.00000E+00
         0.00000E+00
         0.00000E+00
         0.00000E+00
         0.00000E+00
         0.00000E+00
         0.00000E+00
         0.00000E+00
         0.00000E+00
         0.00000E+00
         0.00000E+00
         0.00000E+00
         0.00000E+00
         0.00000E+00
         0.00000E+00
         0.00000E+00
         0.00000E+00
         0.00000E+00
         0.00000E+00
         0.00000E+00
         0.00000E+00
         0.00000E+00
         0.00000E+00
         0.00000E+00
         0.00000E+00
         0.00000E+00
         0.00000E+00
         0.00000E+00
         0.00000E+00
         0.00000E+00
         0.00000E+00
         0.00000E+00
         0.00000E+00
         0.00000E+00
         0.00000E+00
         0.00000E+00
         0.00000E+00
         0.00000E+00
         0.00000E+00
         0.00000E+00
         0.00000E+00
         0.00000E+00
         0.00000E+00
         0.00000E+00
         0.00000E+00
         0.00000E+00
         0.00000E+00
         0.00000E+00
         0.00000E+00
         0.00000E+00
         0.00000E+00
         0.00000E+00
         0.00000E+00
         0.00000E+00
         0.00000E+00
         0.00000E+00
         0.00000E+00
         0.00000E+00
         0.00000E+00
         0.00000E+00
         0.00000E+00
         0.00000E+00
         0.00000E+00
         0.00000E+00
         0.00000E+00
         0.00000E+00
         0.00000E+00
         0.00000E+00
         0.00000E+00
         0.00000E+00
         0.00000E+00
         0.00000E+00
         0.00000E+00
         0.00000E+00
         0.00000E+00
         0.00000E+00
         0.00000E+00
         0.00000E+00
         0.00000E+00
         0.00000E+00
         0.00000E+00
         0.00000E+00
         0.00000E+00
         0.00000E+00
         0.00000E+00
         0.00000E+00
         0.00000E+00
         0.00000E+00
         0.00000E+00
         0.00000E+00
         0.00000E+00
         0.00000E+00
         0.00000E+00
         0.00000E+00
         0.00000E+00
         0.00000E+00
         0.00000E+00
         0.00000E+00
         0.00000E+00
         0.00000E+00
         0.00000E+00
         0.00000E+00
         0.00000E+00
         0.00000E+00
         0.00000E+00
         0.00000E+00
         0.00000E+00
         0.00000E+00
         0.00000E+00
         0.00000E+00
         0.00000E+00
         0.00000E+00
         0.00000E+00
         0.00000E+00
         0.00000E+00
         0.00000E+00
         0.00000E+00
         0.00000E+00
         0.00000E+00
         0.00000E+00
         0.00000E+00
         0.00000E+00
         0.00000E+00
         0.00000E+00
         0.00000E+00
         0.00000E+00
         0.00000E+00
         0.00000E+00
         0.00000E+00
         0.00000E+00
         0.00000E+00
         0.00000E+00
         0.00000E+00
         0.00000E+00
         0.00000E+00
         0.00000E+00
         0.00000E+00
         0.00000E+00
         0.00000E+00
         0.00000E+00
         0.00000E+00
         0.00000E+00
         0.00000E+00
         0.00000E+00
         0.00000E+00
         0.00000E+00
         0.00000E+00
         0.00000E+00
         0.00000E+00
         0.00000E+00
         0.00000E+00
         0.00000E+00
         0.00000E+00
         0.00000E+00
         0.00000E+00
         0.00000E+00
         0.00000E+00
         0.00000E+00
         0.00000E+00
         0.00000E+00
         0.00000E+00
         0.00000E+00
         0.00000E+00
         0.00000E+00
         0.00000E+00
         0.00000E+00
         0.00000E+00
         0.00000E+00
         0.00000E+00
         0.00000E+00
         0.00000E+00
         0.00000E+00
         0.00000E+00
         0.00000E+00
         0.00000E+00
         0.00000E+00
         0.00000E+00
         0.00000E+00
         0.00000E+00
         0.00000E+00
         0.00000E+00
         0.00000E+00
         0.00000E+00
         0.00000E+00
         0.00000E+00
         0.00000E+00
         0.00000E+00
         0.00000E+00
         0.00000E+00
         0.00000E+00
         0.00000E+00
         0.00000E+00
         0.00000E+00
         0.00000E+00
         0.00000E+00
         0.00000E+00
         0.00000E+00
         0.00000E+00
         0.00000E+00
         0.00000E+00
         0.00000E+00
         0.00000E+00
         0.00000E+00
         0.00000E+00
         0.00000E+00
         0.00000E+00
         0.00000E+00
         0.00000E+00
         0.00000E+00
         0.00000E+00
         0.00000E+00
         0.00000E+00
         0.00000E+00
         0.00000E+00
         0.00000E+00
         0.00000E+00
         0.00000E+00
         0.00000E+00
         0.00000E+00
         0.00000E+00
         0.00000E+00
         0.00000E+00
         0.00000E+00
         0.00000E+00
         0.00000E+00
         0.00000E+00
         0.00000E+00
         0.00000E+00
         0.00000E+00
         0.00000E+00
         0.00000E+00
         0.00000E+00
         0.00000E+00
         0.00000E+00
         0.00000E+00
         0.00000E+00
         0.00000E+00
         0.00000E+00
         0.00000E+00
         0.00000E+00
         0.00000E+00
         0.00000E+00
         0.00000E+00
         0.00000E+00
         0.00000E+00
         0.00000E+00
         0.00000E+00
         0.00000E+00
         0.00000E+00
         0.00000E+00
         0.00000E+00
         0.00000E+00
         0.00000E+00
         0.00000E+00
         0.00000E+00
         0.00000E+00
         0.00000E+00
         0.00000E+00
         0.00000E+00
         0.00000E+00
         0.00000E+00
         0.00000E+00
         0.00000E+00
         0.00000E+00
         0.00000E+00
         0.00000E+00
         0.00000E+00
         0.00000E+00
         0.00000E+00
         0.00000E+00
         0.00000E+00
         0.00000E+00
         0.00000E+00
         0.00000E+00
         0.00000E+00
         0.00000E+00
         0.00000E+00
         0.00000E+00
         0.00000E+00
         0.00000E+00
         0.00000E+00
         0.00000E+00
         0.00000E+00
         0.00000E+00
         0.00000E+00
         0.00000E+00
         0.00000E+00
         0.00000E+00
         0.00000E+00
         0.00000E+00
         0.00000E+00
         0.00000E+00
         0.00000E+00
         0.00000E+00
         0.00000E+00
         0.00000E+00
         0.00000E+00
         0.00000E+00
         0.00000E+00
         0.00000E+00
         0.00000E+00
         0.00000E+00
         0.00000E+00
         0.00000E+00
         0.00000E+00
         0.00000E+00
         0.00000E+00
         0.00000E+00
         0.00000E+00
         0.00000E+00
         0.00000E+00
         0.00000E+00
         0.00000E+00
         0.00000E+00
         0.00000E+00
         0.00000E+00
         0.00000E+00
         0.00000E+00
         0.00000E+00
         0.00000E+00
         0.00000E+00
         0.00000E+00
         0.00000E+00
         0.00000E+00
         0.00000E+00
         0.00000E+00
         0.00000E+00
         0.00000E+00
         0.00000E+00
         0.00000E+00
         0.00000E+00
         0.00000E+00
         0.00000E+00
         0.00000E+00
         0.00000E+00
         0.00000E+00
         0.00000E+00
         0.00000E+00
         0.00000E+00
         0.00000E+00
         0.00000E+00
         0.00000E+00
         0.00000E+00
         0.00000E+00
         0.00000E+00
         0.00000E+00
         0.00000E+00
         0.00000E+00
         0.00000E+00
         0.00000E+00
         0.00000E+00
         0.00000E+00
         0.00000E+00
         0.00000E+00
         0.00000E+00
         0.00000E+00
         0.00000E+00
         0.00000E+00
         0.00000E+00
         0.00000E+00
         0.00000E+00
         0.00000E+00
         0.00000E+00
         0.00000E+00
         0.00000E+00
         0.00000E+00
         0.00000E+00
         0.00000E+00
         0.00000E+00
         0.00000E+00
         0.00000E+00
         0.00000E+00
         0.00000E+00
         0.00000E+00
         0.00000E+00
         0.00000E+00
         0.00000E+00
         0.00000E+00
         0.00000E+00
         0.00000E+00
         0.00000E+00
         0.00000E+00
         0.00000E+00
         0.00000E+00
         0.00000E+00
         0.00000E+00
         0.00000E+00
         0.00000E+00
         0.00000E+00
         0.00000E+00
         0.00000E+00
         0.00000E+00
         0.00000E+00
         0.00000E+00
         0.00000E+00
         0.00000E+00
         0.00000E+00
         0.00000E+00
         0.00000E+00
         0.00000E+00
         0.00000E+00
         0.00000E+00
         0.00000E+00
         0.00000E+00
         0.00000E+00
         0.00000E+00
         0.00000E+00
         0.00000E+00
         0.00000E+00
         0.00000E+00
         0.00000E+00
         0.00000E+00
         0.00000E+00
         0.00000E+00
         0.00000E+00
         0.00000E+00
         0.00000E+00
         0.00000E+00
         0.00000E+00
         0.00000E+00
         0.00000E+00
         0.00000E+00
         0.00000E+00
         0.00000E+00
         0.00000E+00
         0.00000E+00
         0.00000E+00
         0.00000E+00
         0.00000E+00
         0.00000E+00
         0.00000E+00
         0.00000E+00
         0.00000E+00
         0.00000E+00
         0.00000E+00
         0.00000E+00
         0.00000E+00
         0.00000E+00
         0.00000E+00
         0.00000E+00
         0.00000E+00
         0.00000E+00
         0.00000E+00
         0.00000E+00
         0.00000E+00
         0.00000E+00
         0.00000E+00
         0.00000E+00
         0.00000E+00
         0.00000E+00
         0.00000E+00
         0.00000E+00
         0.00000E+00
         0.00000E+00
         0.00000E+00
         0.00000E+00
         0.00000E+00
         0.00000E+00
         0.00000E+00
         0.00000E+00
         0.00000E+00
         0.00000E+00
         0.00000E+00
         0.00000E+00
         0.00000E+00
         0.00000E+00
         0.00000E+00
         0.00000E+00
         0.00000E+00
         0.00000E+00
         0.00000E+00
         0.00000E+00
         0.00000E+00
         0.00000E+00
         0.00000E+00
         0.00000E+00
         0.00000E+00
         0.00000E+00
         0.00000E+00
         0.00000E+00
         0.00000E+00
         0.00000E+00
         0.00000E+00
         0.00000E+00
         0.00000E+00
         0.00000E+00
         0.00000E+00
         0.00000E+00
         0.00000E+00
         0.00000E+00
         0.00000E+00
         0.00000E+00
         0.00000E+00
         0.00000E+00
         0.00000E+00
         0.00000E+00
         0.00000E+00
         0.00000E+00
         0.00000E+00
         0.00000E+00
         0.00000E+00
         0.00000E+00
         0.00000E+00
         0.00000E+00
         0.00000E+00
         0.00000E+00
         0.00000E+00
         0.00000E+00
         0.00000E+00
         0.00000E+00
         0.00000E+00
         0.00000E+00
         0.00000E+00
         0.00000E+00
         0.00000E+00
         0.00000E+00
         0.00000E+00
         0.00000E+00
         0.00000E+00
         0.00000E+00
         0.00000E+00
         0.00000E+00
         0.00000E+00
         0.00000E+00
         0.00000E+00
         0.00000E+00
         0.00000E+00
         0.00000E+00
         0.00000E+00
         0.00000E+00
         0.00000E+00
         0.00000E+00
         0.00000E+00
         0.00000E+00
         0.00000E+00
         0.00000E+00
         0.00000E+00
         0.00000E+00
         0.00000E+00
         0.00000E+00
         0.00000E+00
         0.00000E+00
         0.00000E+00
         0.00000E+00
         0.00000E+00
         0.00000E+00
         0.00000E+00
         0.00000E+00
         0.00000E+00
         0.00000E+00
         0.00000E+00
         0.00000E+00
         0.00000E+00
         0.00000E+00
         0.00000E+00
         0.00000E+00
         0.00000E+00
         0.00000E+00
         0.00000E+00
         0.00000E+00
         0.00000E+00
         0.00000E+00
         0.00000E+00
         0.00000E+00
         0.00000E+00
         0.00000E+00
         0.00000E+00
         0.00000E+00
         0.00000E+00
         0.00000E+00
         0.00000E+00
         0.00000E+00
         0.00000E+00
         0.00000E+00
         0.00000E+00
         0.00000E+00
         0.00000E+00
         0.00000E+00
         0.00000E+00
         0.00000E+00
         0.00000E+00
         0.00000E+00
         0.00000E+00
         0.00000E+00
         0.00000E+00
         0.00000E+00
         0.00000E+00
         0.00000E+00
         0.00000E+00
         0.00000E+00
         0.00000E+00
         0.00000E+00
         0.00000E+00
         0.00000E+00
         0.00000E+00
         0.00000E+00
         0.00000E+00
         0.00000E+00
         0.00000E+00
         0.00000E+00
         0.00000E+00
         0.00000E+00
         0.00000E+00
         0.00000E+00
         0.00000E+00
         0.00000E+00
         0.00000E+00
         0.00000E+00
         0.00000E+00
         0.00000E+00
         0.00000E+00
         0.00000E+00
         0.00000E+00
         0.00000E+00
         0.00000E+00
         0.00000E+00
         0.00000E+00
         0.00000E+00
         0.00000E+00
         0.00000E+00
         0.00000E+00
         0.00000E+00
         0.00000E+00
         0.00000E+00
         0.00000E+00
         0.00000E+00
         0.00000E+00
         0.00000E+00
         0.00000E+00
         0.00000E+00
         0.00000E+00
         0.00000E+00
         0.00000E+00
         0.00000E+00
         0.00000E+00
         0.00000E+00
         0.00000E+00
         0.00000E+00
         0.00000E+00
         0.00000E+00
         0.00000E+00
         0.00000E+00
         0.00000E+00
         0.00000E+00
         0.00000E+00
         0.00000E+00
         0.00000E+00
         0.00000E+00
         0.00000E+00
         0.00000E+00
         0.00000E+00
         0.00000E+00
         0.00000E+00
         0.00000E+00
         0.00000E+00
         0.00000E+00
         0.00000E+00
         0.00000E+00
         0.00000E+00
         0.00000E+00
         0.00000E+00
         0.00000E+00
         0.00000E+00
         0.00000E+00
         0.00000E+00
         0.00000E+00
         0.00000E+00
         0.00000E+00
         0.00000E+00
         0.00000E+00
         0.00000E+00
         0.00000E+00
         0.00000E+00
         0.00000E+00
         0.00000E+00
         0.00000E+00
         0.00000E+00
         0.00000E+00
         0.00000E+00
         0.00000E+00
         0.00000E+00
         0.00000E+00
         0.00000E+00
         0.00000E+00
         0.00000E+00
         0.00000E+00
         0.00000E+00
         0.00000E+00
         0.00000E+00
         0.00000E+00
         0.00000E+00
         0.00000E+00
         0.00000E+00
         0.00000E+00
         0.00000E+00
         0.00000E+00
         0.00000E+00
         0.00000E+00
         0.00000E+00
         0.00000E+00
         0.00000E+00
         0.00000E+00
         0.00000E+00
         0.00000E+00
         0.00000E+00
         0.00000E+00
         0.00000E+00
         0.00000E+00
         0.00000E+00
         0.00000E+00
         0.00000E+00
         0.00000E+00
         0.00000E+00
         0.00000E+00
         0.00000E+00
         0.00000E+00
         0.00000E+00
         0.00000E+00
         0.00000E+00
         0.00000E+00
         0.00000E+00
         0.00000E+00
         0.00000E+00
         0.00000E+00
         0.00000E+00
         0.00000E+00
         0.00000E+00
         0.00000E+00
         0.00000E+00
         0.00000E+00
         0.00000E+00
         0.00000E+00
         0.00000E+00
         0.00000E+00
         0.00000E+00
         0.00000E+00
         0.00000E+00
         0.00000E+00
         0.00000E+00
         0.00000E+00
         0.00000E+00
         0.00000E+00
         0.00000E+00
         0.00000E+00
         0.00000E+00
         0.00000E+00
         0.00000E+00
         0.00000E+00
         0.00000E+00
         0.00000E+00
         0.00000E+00
         0.00000E+00
         0.00000E+00
         0.00000E+00
         0.00000E+00
         0.00000E+00
         0.00000E+00
         0.00000E+00
         0.00000E+00
         0.00000E+00
         0.00000E+00
         0.00000E+00
         0.00000E+00
         0.00000E+00
         0.00000E+00
         0.00000E+00
         0.00000E+00
         0.00000E+00
         0.00000E+00
         0.00000E+00
         0.00000E+00
         0.00000E+00
         0.00000E+00
         0.00000E+00
         0.00000E+00
         0.00000E+00
         0.00000E+00
         0.00000E+00
         0.00000E+00
         0.00000E+00
         0.00000E+00
         0.00000E+00
         0.00000E+00
         0.00000E+00
         0.00000E+00
         0.00000E+00
         0.00000E+00
         0.00000E+00
         0.00000E+00
         0.00000E+00
         0.00000E+00
         0.00000E+00
         0.00000E+00
         0.00000E+00
         0.00000E+00
         0.00000E+00
         0.00000E+00
         0.00000E+00
         0.00000E+00
         0.00000E+00
         0.00000E+00
         0.00000E+00
         0.00000E+00
         0.00000E+00
         0.00000E+00
         0.00000E+00
         0.00000E+00
         0.00000E+00
         0.00000E+00
         0.00000E+00
         0.00000E+00
         0.00000E+00
         0.00000E+00
         0.00000E+00
         0.00000E+00
         0.00000E+00
         0.00000E+00
         0.00000E+00
         0.00000E+00
         0.00000E+00
         0.00000E+00
         0.00000E+00
         0.00000E+00
         0.00000E+00
         0.00000E+00
         0.00000E+00
         0.00000E+00
         0.00000E+00
         0.00000E+00
         0.00000E+00
         0.00000E+00
         0.00000E+00
         0.00000E+00
         0.00000E+00
         0.00000E+00
         0.00000E+00
         0.00000E+00
         0.00000E+00
         0.00000E+00
         0.00000E+00
         0.00000E+00
         0.00000E+00
         0.00000E+00
         0.00000E+00
         0.00000E+00
         0.00000E+00
         0.00000E+00
         0.00000E+00
         0.00000E+00
         0.00000E+00
         0.00000E+00
         0.00000E+00
         0.00000E+00
         0.00000E+00
         0.00000E+00
         0.00000E+00
         0.00000E+00
         0.00000E+00
         0.00000E+00
         0.00000E+00
         0.00000E+00
         0.00000E+00
         0.00000E+00
         0.00000E+00
         0.00000E+00
         0.00000E+00
         0.00000E+00
         0.00000E+00
         0.00000E+00
         0.00000E+00
         0.00000E+00
         0.00000E+00
         0.00000E+00
         0.00000E+00
         0.00000E+00
         0.00000E+00
         0.00000E+00
         0.00000E+00
         0.00000E+00
         0.00000E+00
         0.00000E+00
         0.00000E+00
         0.00000E+00
         0.00000E+00
         0.00000E+00
         0.00000E+00
         0.00000E+00
         0.00000E+00
         0.00000E+00
         0.00000E+00
         0.00000E+00
         0.00000E+00
         0.00000E+00
         0.00000E+00
         0.00000E+00
         0.00000E+00
         0.00000E+00
         0.00000E+00
         0.00000E+00
         0.00000E+00
         0.00000E+00
         0.00000E+00
         0.00000E+00
         0.00000E+00
         0.00000E+00
         0.00000E+00
         0.00000E+00
         0.00000E+00
         0.00000E+00
         0.00000E+00
         0.00000E+00
         0.00000E+00
         0.00000E+00
         0.00000E+00
         0.00000E+00
         0.00000E+00
         0.00000E+00
         0.00000E+00
         0.00000E+00
         0.00000E+00
         0.00000E+00
         0.00000E+00
         0.00000E+00
         0.00000E+00
         0.00000E+00
         0.00000E+00
         0.00000E+00
         0.00000E+00
         0.00000E+00
         0.00000E+00
         0.00000E+00
         0.00000E+00
         0.00000E+00
         0.00000E+00
         0.00000E+00
         0.00000E+00
         0.00000E+00
         0.00000E+00
         0.00000E+00
         0.00000E+00
         0.00000E+00
         0.00000E+00
         0.00000E+00
         0.00000E+00
         0.00000E+00
         0.00000E+00
         0.00000E+00
         0.00000E+00
         0.00000E+00
         0.00000E+00
         0.00000E+00
         0.00000E+00
         0.00000E+00
         0.00000E+00
         0.00000E+00
         0.00000E+00
         0.00000E+00
         0.00000E+00
         0.00000E+00
         0.00000E+00
         0.00000E+00
         0.00000E+00
         0.00000E+00
         0.00000E+00
         0.00000E+00
         0.00000E+00
         0.00000E+00
         0.00000E+00
         0.00000E+00
         0.00000E+00
         0.00000E+00
         0.00000E+00
         0.00000E+00
         0.00000E+00
         0.00000E+00
         0.00000E+00
         0.00000E+00
         0.00000E+00
         0.00000E+00
         0.00000E+00
         0.00000E+00
         0.00000E+00
         0.00000E+00
         0.00000E+00
         0.00000E+00
         0.00000E+00
         0.00000E+00
         0.00000E+00
         0.00000E+00
         0.00000E+00
         0.00000E+00
         0.00000E+00
         0.00000E+00
         0.00000E+00
         0.00000E+00
         0.00000E+00
         0.00000E+00
         0.00000E+00
         0.00000E+00
         0.00000E+00
         0.00000E+00
         0.00000E+00
         0.00000E+00
         0.00000E+00
         0.00000E+00
         0.00000E+00
         0.00000E+00
         0.00000E+00
         0.00000E+00
         0.00000E+00
         0.00000E+00
         0.00000E+00
         0.00000E+00
         0.00000E+00
         0.00000E+00
         0.00000E+00
         0.00000E+00
         0.00000E+00
         0.00000E+00
         0.00000E+00
         0.00000E+00
         0.00000E+00
         0.00000E+00
         0.00000E+00
         0.00000E+00
         0.00000E+00
         0.00000E+00
         0.00000E+00
         0.00000E+00
         0.00000E+00
         0.00000E+00
         0.00000E+00
         0.00000E+00
         0.00000E+00
         0.00000E+00
         0.00000E+00
         0.00000E+00
         0.00000E+00
         0.00000E+00
         0.00000E+00
         0.00000E+00
         0.00000E+00
         0.00000E+00
         0.00000E+00
         0.00000E+00
         0.00000E+00
         0.00000E+00
         0.00000E+00
         0.00000E+00
         0.00000E+00
         0.00000E+00
         0.00000E+00
         0.00000E+00
         0.00000E+00
         0.00000E+00
         0.00000E+00
         0.00000E+00
         0.00000E+00
         0.00000E+00
         0.00000E+00
         0.00000E+00
         0.00000E+00
         0.00000E+00
         0.00000E+00
         0.00000E+00
         0.00000E+00
         0.00000E+00
         0.00000E+00
         0.00000E+00
         0.00000E+00
         0.00000E+00
         0.00000E+00
         0.00000E+00
         0.00000E+00
         0.00000E+00
         0.00000E+00
         0.00000E+00
         0.00000E+00
         0.00000E+00
         0.00000E+00
         0.00000E+00
         0.00000E+00
         0.00000E+00
         0.00000E+00
         0.00000E+00
         0.00000E+00
         0.00000E+00
         0.00000E+00
         0.00000E+00
         0.00000E+00
         0.00000E+00
         0.00000E+00
         0.00000E+00
         0.00000E+00
         0.00000E+00
         0.00000E+00
         0.00000E+00
         0.00000E+00
         0.00000E+00
         0.00000E+00
         0.00000E+00
         0.00000E+00
         0.00000E+00
         0.00000E+00
         0.00000E+00
         0.00000E+00
         0.00000E+00
         0.00000E+00
         0.00000E+00
         0.00000E+00
         0.00000E+00
         0.00000E+00
         0.00000E+00
         0.00000E+00
         0.00000E+00
         0.00000E+00
         0.00000E+00
         0.00000E+00
         0.00000E+00
         0.00000E+00
         0.00000E+00
         0.00000E+00
         0.00000E+00
         0.00000E+00
         0.00000E+00
         0.00000E+00
         0.00000E+00
         0.00000E+00
         0.00000E+00
         0.00000E+00
         0.00000E+00
         0.00000E+00
         0.00000E+00
         0.00000E+00
         0.00000E+00
         0.00000E+00
         0.00000E+00
         0.00000E+00
         0.00000E+00
         0.00000E+00
         0.00000E+00
         0.00000E+00
         0.00000E+00
         0.00000E+00
         0.00000E+00
         0.00000E+00
         0.00000E+00
         0.00000E+00
         0.00000E+00
         0.00000E+00
         0.00000E+00
         0.00000E+00
         0.00000E+00
         0.00000E+00
         0.00000E+00
         0.00000E+00
         0.00000E+00
         0.00000E+00
         0.00000E+00
         0.00000E+00
         0.00000E+00
         0.00000E+00
         0.00000E+00
         0.00000E+00
         0.00000E+00
         0.00000E+00
         0.00000E+00
         0.00000E+00
         0.00000E+00
         0.00000E+00
         0.00000E+00
         0.00000E+00
         0.00000E+00
         0.00000E+00
         0.00000E+00
         0.00000E+00
         0.00000E+00
         0.00000E+00
         0.00000E+00
         0.00000E+00
         0.00000E+00
         0.00000E+00
         0.00000E+00
         0.00000E+00
         0.00000E+00
         0.00000E+00
         0.00000E+00
         0.00000E+00
         0.00000E+00
         0.00000E+00
         0.00000E+00
         0.00000E+00
         0.00000E+00
         0.00000E+00
         0.00000E+00
         0.00000E+00
         0.00000E+00
         0.00000E+00
         0.00000E+00
         0.00000E+00
         0.00000E+00
         0.00000E+00
         0.00000E+00
         0.00000E+00
         0.00000E+00
         0.00000E+00
         0.00000E+00
         0.00000E+00
         0.00000E+00
         0.00000E+00
         0.00000E+00
         0.00000E+00
         0.00000E+00
         0.00000E+00
         0.00000E+00
         0.00000E+00
         0.00000E+00
         0.00000E+00
         0.00000E+00
         0.00000E+00
         0.00000E+00
         0.00000E+00
         0.00000E+00
         0.00000E+00
         0.00000E+00
         0.00000E+00
         0.00000E+00
         0.00000E+00
         0.00000E+00
         0.00000E+00
         0.00000E+00
         0.00000E+00
         0.00000E+00
         0.00000E+00
         0.00000E+00
         0.00000E+00
         0.00000E+00
         0.00000E+00
         0.00000E+00
         0.00000E+00
         0.00000E+00
         0.00000E+00
         0.00000E+00
         0.00000E+00
         0.00000E+00
         0.00000E+00
         0.00000E+00
         0.00000E+00
         0.00000E+00
         0.00000E+00
         0.00000E+00
         0.00000E+00
         0.00000E+00
         0.00000E+00
         0.00000E+00
         0.00000E+00
         0.00000E+00
         0.00000E+00
         0.00000E+00
         0.00000E+00
         0.00000E+00
         0.00000E+00
         0.00000E+00
         0.00000E+00
         0.00000E+00
         0.00000E+00
         0.00000E+00
         0.00000E+00
         0.00000E+00
         0.00000E+00
         0.00000E+00
         0.00000E+00
         0.00000E+00
         0.00000E+00
         0.00000E+00
         0.00000E+00
         0.00000E+00
         0.00000E+00
         0.00000E+00
         0.00000E+00
         0.00000E+00
         0.00000E+00
         0.00000E+00
         0.00000E+00
         0.00000E+00
         0.00000E+00
         0.00000E+00
         0.00000E+00
         0.00000E+00
         0.00000E+00
         0.00000E+00
         0.00000E+00
         0.00000E+00
         0.00000E+00
         0.00000E+00
         0.00000E+00
         0.00000E+00
         0.00000E+00
         0.00000E+00
         0.00000E+00
         0.00000E+00
         0.00000E+00
         0.00000E+00
         0.00000E+00
         0.00000E+00
         0.00000E+00
         0.00000E+00
         0.00000E+00
         0.00000E+00
         0.00000E+00
         0.00000E+00
         0.00000E+00
         0.00000E+00
         0.00000E+00
         0.00000E+00
         0.00000E+00
         0.00000E+00
         0.00000E+00
         0.00000E+00
         0.00000E+00
         0.00000E+00
         0.00000E+00
         0.00000E+00
         0.00000E+00
         0.00000E+00
         0.00000E+00
         0.00000E+00
         0.00000E+00
         0.00000E+00
         0.00000E+00
         0.00000E+00
         0.00000E+00
         0.00000E+00
         0.00000E+00
         0.00000E+00
         0.00000E+00
         0.00000E+00
         0.00000E+00
         0.00000E+00
         0.00000E+00
         0.00000E+00
         0.00000E+00
         0.00000E+00
         0.00000E+00
         0.00000E+00
         0.00000E+00
         0.00000E+00
         0.00000E+00
         0.00000E+00
         0.00000E+00
         0.00000E+00
         0.00000E+00
         0.00000E+00
         0.00000E+00
         0.00000E+00
         0.00000E+00
         0.00000E+00
         0.00000E+00
         0.00000E+00
         0.00000E+00
         0.00000E+00
         0.00000E+00
         0.00000E+00
         0.00000E+00
         0.00000E+00
         0.00000E+00
         0.00000E+00
         0.00000E+00
         0.00000E+00
         0.00000E+00
         0.00000E+00
         0.00000E+00
         0.00000E+00
         0.00000E+00
         0.00000E+00
         0.00000E+00
         0.00000E+00
         0.00000E+00
         0.00000E+00
         0.00000E+00
         0.00000E+00
         0.00000E+00
         0.00000E+00
         0.00000E+00
         0.00000E+00
         0.00000E+00
         0.00000E+00
         0.00000E+00
         0.00000E+00
         0.00000E+00
         0.00000E+00
         0.00000E+00
         0.00000E+00
         0.00000E+00
         0.00000E+00
         0.00000E+00
         0.00000E+00
         0.00000E+00
         0.00000E+00
         0.00000E+00
  
SCALARS                 displacement_y  double 1
LOOKUP_TABLE default
         0.00000E+00
         0.00000E+00
         0.00000E+00
         0.00000E+00
         0.00000E+00
         0.00000E+00
         0.00000E+00
         0.00000E+00
         0.00000E+00
         0.00000E+00
         0.00000E+00
         0.00000E+00
         0.00000E+00
         0.00000E+00
         0.00000E+00
         0.00000E+00
         0.00000E+00
         0.00000E+00
         0.00000E+00
         0.00000E+00
         0.00000E+00
         0.00000E+00
         0.00000E+00
         0.00000E+00
         0.00000E+00
         0.00000E+00
         0.00000E+00
         0.00000E+00
         0.00000E+00
         0.00000E+00
         0.00000E+00
         0.00000E+00
         0.00000E+00
         0.00000E+00
         0.00000E+00
         0.00000E+00
         0.00000E+00
         0.00000E+00
         0.00000E+00
         0.00000E+00
         0.00000E+00
         0.00000E+00
         0.00000E+00
         0.00000E+00
         0.00000E+00
         0.00000E+00
         0.00000E+00
         0.00000E+00
         0.00000E+00
         0.00000E+00
         0.00000E+00
         0.00000E+00
         0.00000E+00
         0.00000E+00
         0.00000E+00
         0.00000E+00
         0.00000E+00
         0.00000E+00
         0.00000E+00
         0.00000E+00
         0.00000E+00
         0.00000E+00
         0.00000E+00
         0.00000E+00
         0.00000E+00
         0.00000E+00
         0.00000E+00
         0.00000E+00
         0.00000E+00
         0.00000E+00
         0.00000E+00
         0.00000E+00
         0.00000E+00
         0.00000E+00
         0.00000E+00
         0.00000E+00
         0.00000E+00
         0.00000E+00
         0.00000E+00
         0.00000E+00
         0.00000E+00
         0.00000E+00
         0.00000E+00
         0.00000E+00
         0.00000E+00
         0.00000E+00
         0.00000E+00
         0.00000E+00
         0.00000E+00
         0.00000E+00
         0.00000E+00
         0.00000E+00
         0.00000E+00
         0.00000E+00
         0.00000E+00
         0.00000E+00
         0.00000E+00
         0.00000E+00
         0.00000E+00
         0.00000E+00
         0.00000E+00
         0.00000E+00
         0.00000E+00
         0.00000E+00
         0.00000E+00
         0.00000E+00
         0.00000E+00
         0.00000E+00
         0.00000E+00
         0.00000E+00
         0.00000E+00
         0.00000E+00
         0.00000E+00
         0.00000E+00
         0.00000E+00
         0.00000E+00
         0.00000E+00
         0.00000E+00
         0.00000E+00
         0.00000E+00
         0.00000E+00
         0.00000E+00
         0.00000E+00
         0.00000E+00
         0.00000E+00
         0.00000E+00
         0.00000E+00
         0.00000E+00
         0.00000E+00
         0.00000E+00
         0.00000E+00
         0.00000E+00
         0.00000E+00
         0.00000E+00
         0.00000E+00
         0.00000E+00
         0.00000E+00
         0.00000E+00
         0.00000E+00
         0.00000E+00
         0.00000E+00
         0.00000E+00
         0.00000E+00
         0.00000E+00
         0.00000E+00
         0.00000E+00
         0.00000E+00
         0.00000E+00
         0.00000E+00
         0.00000E+00
         0.00000E+00
         0.00000E+00
         0.00000E+00
         0.00000E+00
         0.00000E+00
         0.00000E+00
         0.00000E+00
         0.00000E+00
         0.00000E+00
         0.00000E+00
         0.00000E+00
         0.00000E+00
         0.00000E+00
         0.00000E+00
         0.00000E+00
         0.00000E+00
         0.00000E+00
         0.00000E+00
         0.00000E+00
         0.00000E+00
         0.00000E+00
         0.00000E+00
         0.00000E+00
         0.00000E+00
         0.00000E+00
         0.00000E+00
         0.00000E+00
         0.00000E+00
         0.00000E+00
         0.00000E+00
         0.00000E+00
         0.00000E+00
         0.00000E+00
         0.00000E+00
         0.00000E+00
         0.00000E+00
         0.00000E+00
         0.00000E+00
         0.00000E+00
         0.00000E+00
         0.00000E+00
         0.00000E+00
         0.00000E+00
         0.00000E+00
         0.00000E+00
         0.00000E+00
         0.00000E+00
         0.00000E+00
         0.00000E+00
         0.00000E+00
         0.00000E+00
         0.00000E+00
         0.00000E+00
         0.00000E+00
         0.00000E+00
         0.00000E+00
         0.00000E+00
         0.00000E+00
         0.00000E+00
         0.00000E+00
         0.00000E+00
         0.00000E+00
         0.00000E+00
         0.00000E+00
         0.00000E+00
         0.00000E+00
         0.00000E+00
         0.00000E+00
         0.00000E+00
         0.00000E+00
         0.00000E+00
         0.00000E+00
         0.00000E+00
         0.00000E+00
         0.00000E+00
         0.00000E+00
         0.00000E+00
         0.00000E+00
         0.00000E+00
         0.00000E+00
         0.00000E+00
         0.00000E+00
         0.00000E+00
         0.00000E+00
         0.00000E+00
         0.00000E+00
         0.00000E+00
         0.00000E+00
         0.00000E+00
         0.00000E+00
         0.00000E+00
         0.00000E+00
         0.00000E+00
         0.00000E+00
         0.00000E+00
         0.00000E+00
         0.00000E+00
         0.00000E+00
         0.00000E+00
         0.00000E+00
         0.00000E+00
         0.00000E+00
         0.00000E+00
         0.00000E+00
         0.00000E+00
         0.00000E+00
         0.00000E+00
         0.00000E+00
         0.00000E+00
         0.00000E+00
         0.00000E+00
         0.00000E+00
         0.00000E+00
         0.00000E+00
         0.00000E+00
         0.00000E+00
         0.00000E+00
         0.00000E+00
         0.00000E+00
         0.00000E+00
         0.00000E+00
         0.00000E+00
         0.00000E+00
         0.00000E+00
         0.00000E+00
         0.00000E+00
         0.00000E+00
         0.00000E+00
         0.00000E+00
         0.00000E+00
         0.00000E+00
         0.00000E+00
         0.00000E+00
         0.00000E+00
         0.00000E+00
         0.00000E+00
         0.00000E+00
         0.00000E+00
         0.00000E+00
         0.00000E+00
         0.00000E+00
         0.00000E+00
         0.00000E+00
         0.00000E+00
         0.00000E+00
         0.00000E+00
         0.00000E+00
         0.00000E+00
         0.00000E+00
         0.00000E+00
         0.00000E+00
         0.00000E+00
         0.00000E+00
         0.00000E+00
         0.00000E+00
         0.00000E+00
         0.00000E+00
         0.00000E+00
         0.00000E+00
         0.00000E+00
         0.00000E+00
         0.00000E+00
         0.00000E+00
         0.00000E+00
         0.00000E+00
         0.00000E+00
         0.00000E+00
         0.00000E+00
         0.00000E+00
         0.00000E+00
         0.00000E+00
         0.00000E+00
         0.00000E+00
         0.00000E+00
         0.00000E+00
         0.00000E+00
         0.00000E+00
         0.00000E+00
         0.00000E+00
         0.00000E+00
         0.00000E+00
         0.00000E+00
         0.00000E+00
         0.00000E+00
         0.00000E+00
         0.00000E+00
         0.00000E+00
         0.00000E+00
         0.00000E+00
         0.00000E+00
         0.00000E+00
         0.00000E+00
         0.00000E+00
         0.00000E+00
         0.00000E+00
         0.00000E+00
         0.00000E+00
         0.00000E+00
         0.00000E+00
         0.00000E+00
         0.00000E+00
         0.00000E+00
         0.00000E+00
         0.00000E+00
         0.00000E+00
         0.00000E+00
         0.00000E+00
         0.00000E+00
         0.00000E+00
         0.00000E+00
         0.00000E+00
         0.00000E+00
         0.00000E+00
         0.00000E+00
         0.00000E+00
         0.00000E+00
         0.00000E+00
         0.00000E+00
         0.00000E+00
         0.00000E+00
         0.00000E+00
         0.00000E+00
         0.00000E+00
         0.00000E+00
         0.00000E+00
         0.00000E+00
         0.00000E+00
         0.00000E+00
         0.00000E+00
         0.00000E+00
         0.00000E+00
         0.00000E+00
         0.00000E+00
         0.00000E+00
         0.00000E+00
         0.00000E+00
         0.00000E+00
         0.00000E+00
         0.00000E+00
         0.00000E+00
         0.00000E+00
         0.00000E+00
         0.00000E+00
         0.00000E+00
         0.00000E+00
         0.00000E+00
         0.00000E+00
         0.00000E+00
         0.00000E+00
         0.00000E+00
         0.00000E+00
         0.00000E+00
         0.00000E+00
         0.00000E+00
         0.00000E+00
         0.00000E+00
         0.00000E+00
         0.00000E+00
         0.00000E+00
         0.00000E+00
         0.00000E+00
         0.00000E+00
         0.00000E+00
         0.00000E+00
         0.00000E+00
         0.00000E+00
         0.00000E+00
         0.00000E+00
         0.00000E+00
         0.00000E+00
         0.00000E+00
         0.00000E+00
         0.00000E+00
         0.00000E+00
         0.00000E+00
         0.00000E+00
         0.00000E+00
         0.00000E+00
         0.00000E+00
         0.00000E+00
         0.00000E+00
         0.00000E+00
         0.00000E+00
         0.00000E+00
         0.00000E+00
         0.00000E+00
         0.00000E+00
         0.00000E+00
         0.00000E+00
         0.00000E+00
         0.00000E+00
         0.00000E+00
         0.00000E+00
         0.00000E+00
         0.00000E+00
         0.00000E+00
         0.00000E+00
         0.00000E+00
         0.00000E+00
         0.00000E+00
         0.00000E+00
         0.00000E+00
         0.00000E+00
         0.00000E+00
         0.00000E+00
         0.00000E+00
         0.00000E+00
         0.00000E+00
         0.00000E+00
         0.00000E+00
         0.00000E+00
         0.00000E+00
         0.00000E+00
         0.00000E+00
         0.00000E+00
         0.00000E+00
         0.00000E+00
         0.00000E+00
         0.00000E+00
         0.00000E+00
         0.00000E+00
         0.00000E+00
         0.00000E+00
         0.00000E+00
         0.00000E+00
         0.00000E+00
         0.00000E+00
         0.00000E+00
         0.00000E+00
         0.00000E+00
         0.00000E+00
         0.00000E+00
         0.00000E+00
         0.00000E+00
         0.00000E+00
         0.00000E+00
         0.00000E+00
         0.00000E+00
         0.00000E+00
         0.00000E+00
         0.00000E+00
         0.00000E+00
         0.00000E+00
         0.00000E+00
         0.00000E+00
         0.00000E+00
         0.00000E+00
         0.00000E+00
         0.00000E+00
         0.00000E+00
         0.00000E+00
         0.00000E+00
         0.00000E+00
         0.00000E+00
         0.00000E+00
         0.00000E+00
         0.00000E+00
         0.00000E+00
         0.00000E+00
         0.00000E+00
         0.00000E+00
         0.00000E+00
         0.00000E+00
         0.00000E+00
         0.00000E+00
         0.00000E+00
         0.00000E+00
         0.00000E+00
         0.00000E+00
         0.00000E+00
         0.00000E+00
         0.00000E+00
         0.00000E+00
         0.00000E+00
         0.00000E+00
         0.00000E+00
         0.00000E+00
         0.00000E+00
         0.00000E+00
         0.00000E+00
         0.00000E+00
         0.00000E+00
         0.00000E+00
         0.00000E+00
         0.00000E+00
         0.00000E+00
         0.00000E+00
         0.00000E+00
         0.00000E+00
         0.00000E+00
         0.00000E+00
         0.00000E+00
         0.00000E+00
         0.00000E+00
         0.00000E+00
         0.00000E+00
         0.00000E+00
         0.00000E+00
         0.00000E+00
         0.00000E+00
         0.00000E+00
         0.00000E+00
         0.00000E+00
         0.00000E+00
         0.00000E+00
         0.00000E+00
         0.00000E+00
         0.00000E+00
         0.00000E+00
         0.00000E+00
         0.00000E+00
         0.00000E+00
         0.00000E+00
         0.00000E+00
         0.00000E+00
         0.00000E+00
         0.00000E+00
         0.00000E+00
         0.00000E+00
         0.00000E+00
         0.00000E+00
         0.00000E+00
         0.00000E+00
         0.00000E+00
         0.00000E+00
         0.00000E+00
         0.00000E+00
         0.00000E+00
         0.00000E+00
         0.00000E+00
         0.00000E+00
         0.00000E+00
         0.00000E+00
         0.00000E+00
         0.00000E+00
         0.00000E+00
         0.00000E+00
         0.00000E+00
         0.00000E+00
         0.00000E+00
         0.00000E+00
         0.00000E+00
         0.00000E+00
         0.00000E+00
         0.00000E+00
         0.00000E+00
         0.00000E+00
         0.00000E+00
         0.00000E+00
         0.00000E+00
         0.00000E+00
         0.00000E+00
         0.00000E+00
         0.00000E+00
         0.00000E+00
         0.00000E+00
         0.00000E+00
         0.00000E+00
         0.00000E+00
         0.00000E+00
         0.00000E+00
         0.00000E+00
         0.00000E+00
         0.00000E+00
         0.00000E+00
         0.00000E+00
         0.00000E+00
         0.00000E+00
         0.00000E+00
         0.00000E+00
         0.00000E+00
         0.00000E+00
         0.00000E+00
         0.00000E+00
         0.00000E+00
         0.00000E+00
         0.00000E+00
         0.00000E+00
         0.00000E+00
         0.00000E+00
         0.00000E+00
         0.00000E+00
         0.00000E+00
         0.00000E+00
         0.00000E+00
         0.00000E+00
         0.00000E+00
         0.00000E+00
         0.00000E+00
         0.00000E+00
         0.00000E+00
         0.00000E+00
         0.00000E+00
         0.00000E+00
         0.00000E+00
         0.00000E+00
         0.00000E+00
         0.00000E+00
         0.00000E+00
         0.00000E+00
         0.00000E+00
         0.00000E+00
         0.00000E+00
         0.00000E+00
         0.00000E+00
         0.00000E+00
         0.00000E+00
         0.00000E+00
         0.00000E+00
         0.00000E+00
         0.00000E+00
         0.00000E+00
         0.00000E+00
         0.00000E+00
         0.00000E+00
         0.00000E+00
         0.00000E+00
         0.00000E+00
         0.00000E+00
         0.00000E+00
         0.00000E+00
         0.00000E+00
         0.00000E+00
         0.00000E+00
         0.00000E+00
         0.00000E+00
         0.00000E+00
         0.00000E+00
         0.00000E+00
         0.00000E+00
         0.00000E+00
         0.00000E+00
         0.00000E+00
         0.00000E+00
         0.00000E+00
         0.00000E+00
         0.00000E+00
         0.00000E+00
         0.00000E+00
         0.00000E+00
         0.00000E+00
         0.00000E+00
         0.00000E+00
         0.00000E+00
         0.00000E+00
         0.00000E+00
         0.00000E+00
         0.00000E+00
         0.00000E+00
         0.00000E+00
         0.00000E+00
         0.00000E+00
         0.00000E+00
         0.00000E+00
         0.00000E+00
         0.00000E+00
         0.00000E+00
         0.00000E+00
         0.00000E+00
         0.00000E+00
         0.00000E+00
         0.00000E+00
         0.00000E+00
         0.00000E+00
         0.00000E+00
         0.00000E+00
         0.00000E+00
         0.00000E+00
         0.00000E+00
         0.00000E+00
         0.00000E+00
         0.00000E+00
         0.00000E+00
         0.00000E+00
         0.00000E+00
         0.00000E+00
         0.00000E+00
         0.00000E+00
         0.00000E+00
         0.00000E+00
         0.00000E+00
         0.00000E+00
         0.00000E+00
         0.00000E+00
         0.00000E+00
         0.00000E+00
         0.00000E+00
         0.00000E+00
         0.00000E+00
         0.00000E+00
         0.00000E+00
         0.00000E+00
         0.00000E+00
         0.00000E+00
         0.00000E+00
         0.00000E+00
         0.00000E+00
         0.00000E+00
         0.00000E+00
         0.00000E+00
         0.00000E+00
         0.00000E+00
         0.00000E+00
         0.00000E+00
         0.00000E+00
         0.00000E+00
         0.00000E+00
         0.00000E+00
         0.00000E+00
         0.00000E+00
         0.00000E+00
         0.00000E+00
         0.00000E+00
         0.00000E+00
         0.00000E+00
         0.00000E+00
         0.00000E+00
         0.00000E+00
         0.00000E+00
         0.00000E+00
         0.00000E+00
         0.00000E+00
         0.00000E+00
         0.00000E+00
         0.00000E+00
         0.00000E+00
         0.00000E+00
         0.00000E+00
         0.00000E+00
         0.00000E+00
         0.00000E+00
         0.00000E+00
         0.00000E+00
         0.00000E+00
         0.00000E+00
         0.00000E+00
         0.00000E+00
         0.00000E+00
         0.00000E+00
         0.00000E+00
         0.00000E+00
         0.00000E+00
         0.00000E+00
         0.00000E+00
         0.00000E+00
         0.00000E+00
         0.00000E+00
         0.00000E+00
         0.00000E+00
         0.00000E+00
         0.00000E+00
         0.00000E+00
         0.00000E+00
         0.00000E+00
         0.00000E+00
         0.00000E+00
         0.00000E+00
         0.00000E+00
         0.00000E+00
         0.00000E+00
         0.00000E+00
         0.00000E+00
         0.00000E+00
         0.00000E+00
         0.00000E+00
         0.00000E+00
         0.00000E+00
         0.00000E+00
         0.00000E+00
         0.00000E+00
         0.00000E+00
         0.00000E+00
         0.00000E+00
         0.00000E+00
         0.00000E+00
         0.00000E+00
         0.00000E+00
         0.00000E+00
         0.00000E+00
         0.00000E+00
         0.00000E+00
         0.00000E+00
         0.00000E+00
         0.00000E+00
         0.00000E+00
         0.00000E+00
         0.00000E+00
         0.00000E+00
         0.00000E+00
         0.00000E+00
         0.00000E+00
         0.00000E+00
         0.00000E+00
         0.00000E+00
         0.00000E+00
         0.00000E+00
         0.00000E+00
         0.00000E+00
         0.00000E+00
         0.00000E+00
         0.00000E+00
         0.00000E+00
         0.00000E+00
         0.00000E+00
         0.00000E+00
         0.00000E+00
         0.00000E+00
         0.00000E+00
         0.00000E+00
         0.00000E+00
         0.00000E+00
         0.00000E+00
         0.00000E+00
         0.00000E+00
         0.00000E+00
         0.00000E+00
         0.00000E+00
         0.00000E+00
         0.00000E+00
         0.00000E+00
         0.00000E+00
         0.00000E+00
         0.00000E+00
         0.00000E+00
         0.00000E+00
         0.00000E+00
         0.00000E+00
         0.00000E+00
         0.00000E+00
         0.00000E+00
         0.00000E+00
         0.00000E+00
         0.00000E+00
         0.00000E+00
         0.00000E+00
         0.00000E+00
         0.00000E+00
         0.00000E+00
         0.00000E+00
         0.00000E+00
         0.00000E+00
         0.00000E+00
         0.00000E+00
         0.00000E+00
         0.00000E+00
         0.00000E+00
         0.00000E+00
         0.00000E+00
         0.00000E+00
         0.00000E+00
         0.00000E+00
         0.00000E+00
         0.00000E+00
         0.00000E+00
         0.00000E+00
         0.00000E+00
         0.00000E+00
         0.00000E+00
         0.00000E+00
         0.00000E+00
         0.00000E+00
         0.00000E+00
         0.00000E+00
         0.00000E+00
         0.00000E+00
         0.00000E+00
         0.00000E+00
         0.00000E+00
         0.00000E+00
         0.00000E+00
         0.00000E+00
         0.00000E+00
         0.00000E+00
         0.00000E+00
         0.00000E+00
         0.00000E+00
         0.00000E+00
         0.00000E+00
         0.00000E+00
         0.00000E+00
         0.00000E+00
         0.00000E+00
         0.00000E+00
         0.00000E+00
         0.00000E+00
         0.00000E+00
         0.00000E+00
         0.00000E+00
         0.00000E+00
         0.00000E+00
         0.00000E+00
         0.00000E+00
         0.00000E+00
         0.00000E+00
         0.00000E+00
         0.00000E+00
         0.00000E+00
         0.00000E+00
         0.00000E+00
         0.00000E+00
         0.00000E+00
         0.00000E+00
         0.00000E+00
         0.00000E+00
         0.00000E+00
         0.00000E+00
         0.00000E+00
         0.00000E+00
         0.00000E+00
         0.00000E+00
         0.00000E+00
         0.00000E+00
         0.00000E+00
         0.00000E+00
         0.00000E+00
         0.00000E+00
         0.00000E+00
         0.00000E+00
         0.00000E+00
         0.00000E+00
         0.00000E+00
         0.00000E+00
         0.00000E+00
         0.00000E+00
         0.00000E+00
         0.00000E+00
         0.00000E+00
         0.00000E+00
         0.00000E+00
         0.00000E+00
         0.00000E+00
         0.00000E+00
         0.00000E+00
         0.00000E+00
         0.00000E+00
         0.00000E+00
         0.00000E+00
         0.00000E+00
         0.00000E+00
         0.00000E+00
         0.00000E+00
         0.00000E+00
         0.00000E+00
         0.00000E+00
         0.00000E+00
         0.00000E+00
         0.00000E+00
         0.00000E+00
         0.00000E+00
         0.00000E+00
         0.00000E+00
         0.00000E+00
         0.00000E+00
         0.00000E+00
         0.00000E+00
         0.00000E+00
         0.00000E+00
         0.00000E+00
         0.00000E+00
         0.00000E+00
         0.00000E+00
         0.00000E+00
         0.00000E+00
         0.00000E+00
         0.00000E+00
         0.00000E+00
         0.00000E+00
         0.00000E+00
         0.00000E+00
         0.00000E+00
         0.00000E+00
         0.00000E+00
         0.00000E+00
         0.00000E+00
         0.00000E+00
         0.00000E+00
         0.00000E+00
         0.00000E+00
         0.00000E+00
         0.00000E+00
         0.00000E+00
         0.00000E+00
         0.00000E+00
         0.00000E+00
         0.00000E+00
         0.00000E+00
         0.00000E+00
         0.00000E+00
         0.00000E+00
         0.00000E+00
         0.00000E+00
         0.00000E+00
         0.00000E+00
         0.00000E+00
         0.00000E+00
         0.00000E+00
         0.00000E+00
         0.00000E+00
         0.00000E+00
         0.00000E+00
         0.00000E+00
         0.00000E+00
         0.00000E+00
         0.00000E+00
         0.00000E+00
         0.00000E+00
         0.00000E+00
         0.00000E+00
         0.00000E+00
         0.00000E+00
         0.00000E+00
         0.00000E+00
         0.00000E+00
         0.00000E+00
         0.00000E+00
         0.00000E+00
         0.00000E+00
         0.00000E+00
         0.00000E+00
         0.00000E+00
         0.00000E+00
         0.00000E+00
         0.00000E+00
         0.00000E+00
         0.00000E+00
         0.00000E+00
         0.00000E+00
         0.00000E+00
         0.00000E+00
         0.00000E+00
         0.00000E+00
         0.00000E+00
         0.00000E+00
         0.00000E+00
         0.00000E+00
         0.00000E+00
         0.00000E+00
         0.00000E+00
         0.00000E+00
         0.00000E+00
         0.00000E+00
         0.00000E+00
         0.00000E+00
         0.00000E+00
         0.00000E+00
         0.00000E+00
         0.00000E+00
         0.00000E+00
         0.00000E+00
         0.00000E+00
         0.00000E+00
         0.00000E+00
         0.00000E+00
         0.00000E+00
         0.00000E+00
         0.00000E+00
         0.00000E+00
         0.00000E+00
         0.00000E+00
         0.00000E+00
         0.00000E+00
         0.00000E+00
         0.00000E+00
         0.00000E+00
         0.00000E+00
         0.00000E+00
         0.00000E+00
         0.00000E+00
         0.00000E+00
         0.00000E+00
         0.00000E+00
         0.00000E+00
         0.00000E+00
         0.00000E+00
         0.00000E+00
         0.00000E+00
         0.00000E+00
         0.00000E+00
         0.00000E+00
         0.00000E+00
         0.00000E+00
         0.00000E+00
         0.00000E+00
         0.00000E+00
         0.00000E+00
         0.00000E+00
         0.00000E+00
         0.00000E+00
         0.00000E+00
         0.00000E+00
         0.00000E+00
         0.00000E+00
         0.00000E+00
         0.00000E+00
         0.00000E+00
         0.00000E+00
         0.00000E+00
         0.00000E+00
         0.00000E+00
         0.00000E+00
         0.00000E+00
         0.00000E+00
         0.00000E+00
         0.00000E+00
         0.00000E+00
         0.00000E+00
         0.00000E+00
         0.00000E+00
         0.00000E+00
         0.00000E+00
         0.00000E+00
         0.00000E+00
         0.00000E+00
         0.00000E+00
         0.00000E+00
         0.00000E+00
         0.00000E+00
         0.00000E+00
         0.00000E+00
         0.00000E+00
         0.00000E+00
         0.00000E+00
         0.00000E+00
         0.00000E+00
         0.00000E+00
         0.00000E+00
         0.00000E+00
         0.00000E+00
         0.00000E+00
         0.00000E+00
         0.00000E+00
         0.00000E+00
         0.00000E+00
         0.00000E+00
         0.00000E+00
         0.00000E+00
         0.00000E+00
         0.00000E+00
         0.00000E+00
         0.00000E+00
         0.00000E+00
         0.00000E+00
         0.00000E+00
         0.00000E+00
         0.00000E+00
         0.00000E+00
         0.00000E+00
         0.00000E+00
         0.00000E+00
         0.00000E+00
         0.00000E+00
         0.00000E+00
         0.00000E+00
         0.00000E+00
         0.00000E+00
         0.00000E+00
         0.00000E+00
         0.00000E+00
         0.00000E+00
         0.00000E+00
         0.00000E+00
         0.00000E+00
         0.00000E+00
         0.00000E+00
         0.00000E+00
         0.00000E+00
         0.00000E+00
         0.00000E+00
         0.00000E+00
         0.00000E+00
         0.00000E+00
         0.00000E+00
         0.00000E+00
         0.00000E+00
         0.00000E+00
         0.00000E+00
         0.00000E+00
         0.00000E+00
         0.00000E+00
         0.00000E+00
         0.00000E+00
         0.00000E+00
         0.00000E+00
         0.00000E+00
         0.00000E+00
         0.00000E+00
         0.00000E+00
         0.00000E+00
         0.00000E+00
         0.00000E+00
         0.00000E+00
         0.00000E+00
         0.00000E+00
         0.00000E+00
         0.00000E+00
         0.00000E+00
         0.00000E+00
         0.00000E+00
         0.00000E+00
         0.00000E+00
         0.00000E+00
         0.00000E+00
         0.00000E+00
         0.00000E+00
         0.00000E+00
         0.00000E+00
         0.00000E+00
         0.00000E+00
         0.00000E+00
         0.00000E+00
         0.00000E+00
         0.00000E+00
         0.00000E+00
         0.00000E+00
         0.00000E+00
         0.00000E+00
         0.00000E+00
         0.00000E+00
         0.00000E+00
         0.00000E+00
         0.00000E+00
         0.00000E+00
         0.00000E+00
         0.00000E+00
         0.00000E+00
         0.00000E+00
         0.00000E+00
         0.00000E+00
         0.00000E+00
         0.00000E+00
         0.00000E+00
         0.00000E+00
         0.00000E+00
         0.00000E+00
         0.00000E+00
         0.00000E+00
         0.00000E+00
         0.00000E+00
         0.00000E+00
         0.00000E+00
         0.00000E+00
         0.00000E+00
         0.00000E+00
         0.00000E+00
         0.00000E+00
         0.00000E+00
         0.00000E+00
         0.00000E+00
         0.00000E+00
         0.00000E+00
         0.00000E+00
         0.00000E+00
         0.00000E+00
         0.00000E+00
         0.00000E+00
         0.00000E+00
         0.00000E+00
         0.00000E+00
         0.00000E+00
         0.00000E+00
         0.00000E+00
         0.00000E+00
         0.00000E+00
         0.00000E+00
         0.00000E+00
         0.00000E+00
         0.00000E+00
         0.00000E+00
         0.00000E+00
         0.00000E+00
         0.00000E+00
         0.00000E+00
         0.00000E+00
         0.00000E+00
         0.00000E+00
         0.00000E+00
         0.00000E+00
         0.00000E+00
         0.00000E+00
         0.00000E+00
         0.00000E+00
         0.00000E+00
         0.00000E+00
         0.00000E+00
         0.00000E+00
         0.00000E+00
         0.00000E+00
         0.00000E+00
         0.00000E+00
         0.00000E+00
         0.00000E+00
         0.00000E+00
         0.00000E+00
         0.00000E+00
         0.00000E+00
         0.00000E+00
         0.00000E+00
         0.00000E+00
         0.00000E+00
         0.00000E+00
         0.00000E+00
         0.00000E+00
         0.00000E+00
         0.00000E+00
         0.00000E+00
         0.00000E+00
         0.00000E+00
         0.00000E+00
         0.00000E+00
         0.00000E+00
         0.00000E+00
         0.00000E+00
         0.00000E+00
         0.00000E+00
         0.00000E+00
         0.00000E+00
         0.00000E+00
         0.00000E+00
         0.00000E+00
         0.00000E+00
         0.00000E+00
         0.00000E+00
         0.00000E+00
         0.00000E+00
         0.00000E+00
         0.00000E+00
         0.00000E+00
         0.00000E+00
         0.00000E+00
         0.00000E+00
         0.00000E+00
         0.00000E+00
         0.00000E+00
         0.00000E+00
         0.00000E+00
         0.00000E+00
         0.00000E+00
         0.00000E+00
         0.00000E+00
         0.00000E+00
         0.00000E+00
         0.00000E+00
         0.00000E+00
         0.00000E+00
         0.00000E+00
         0.00000E+00
         0.00000E+00
         0.00000E+00
         0.00000E+00
         0.00000E+00
         0.00000E+00
         0.00000E+00
         0.00000E+00
         0.00000E+00
         0.00000E+00
         0.00000E+00
         0.00000E+00
         0.00000E+00
         0.00000E+00
         0.00000E+00
         0.00000E+00
         0.00000E+00
         0.00000E+00
         0.00000E+00
         0.00000E+00
         0.00000E+00
         0.00000E+00
         0.00000E+00
         0.00000E+00
         0.00000E+00
         0.00000E+00
         0.00000E+00
         0.00000E+00
         0.00000E+00
         0.00000E+00
         0.00000E+00
         0.00000E+00
         0.00000E+00
         0.00000E+00
         0.00000E+00
         0.00000E+00
         0.00000E+00
         0.00000E+00
         0.00000E+00
         0.00000E+00
         0.00000E+00
         0.00000E+00
         0.00000E+00
         0.00000E+00
         0.00000E+00
         0.00000E+00
         0.00000E+00
         0.00000E+00
         0.00000E+00
         0.00000E+00
         0.00000E+00
         0.00000E+00
         0.00000E+00
         0.00000E+00
         0.00000E+00
         0.00000E+00
         0.00000E+00
         0.00000E+00
         0.00000E+00
         0.00000E+00
         0.00000E+00
         0.00000E+00
         0.00000E+00
         0.00000E+00
         0.00000E+00
         0.00000E+00
         0.00000E+00
         0.00000E+00
         0.00000E+00
         0.00000E+00
         0.00000E+00
         0.00000E+00
         0.00000E+00
         0.00000E+00
         0.00000E+00
         0.00000E+00
         0.00000E+00
         0.00000E+00
         0.00000E+00
         0.00000E+00
         0.00000E+00
         0.00000E+00
         0.00000E+00
         0.00000E+00
         0.00000E+00
         0.00000E+00
         0.00000E+00
         0.00000E+00
         0.00000E+00
         0.00000E+00
         0.00000E+00
         0.00000E+00
         0.00000E+00
         0.00000E+00
         0.00000E+00
         0.00000E+00
         0.00000E+00
         0.00000E+00
         0.00000E+00
         0.00000E+00
         0.00000E+00
         0.00000E+00
         0.00000E+00
         0.00000E+00
         0.00000E+00
         0.00000E+00
         0.00000E+00
         0.00000E+00
         0.00000E+00
         0.00000E+00
         0.00000E+00
         0.00000E+00
         0.00000E+00
         0.00000E+00
         0.00000E+00
         0.00000E+00
         0.00000E+00
         0.00000E+00
         0.00000E+00
         0.00000E+00
         0.00000E+00
         0.00000E+00
         0.00000E+00
         0.00000E+00
         0.00000E+00
         0.00000E+00
         0.00000E+00
         0.00000E+00
         0.00000E+00
         0.00000E+00
         0.00000E+00
         0.00000E+00
         0.00000E+00
         0.00000E+00
         0.00000E+00
         0.00000E+00
         0.00000E+00
         0.00000E+00
         0.00000E+00
         0.00000E+00
         0.00000E+00
         0.00000E+00
         0.00000E+00
         0.00000E+00
         0.00000E+00
         0.00000E+00
         0.00000E+00
         0.00000E+00
         0.00000E+00
         0.00000E+00
         0.00000E+00
         0.00000E+00
         0.00000E+00
         0.00000E+00
         0.00000E+00
         0.00000E+00
         0.00000E+00
         0.00000E+00
         0.00000E+00
         0.00000E+00
         0.00000E+00
         0.00000E+00
         0.00000E+00
         0.00000E+00
         0.00000E+00
         0.00000E+00
         0.00000E+00
         0.00000E+00
         0.00000E+00
         0.00000E+00
         0.00000E+00
         0.00000E+00
         0.00000E+00
         0.00000E+00
         0.00000E+00
         0.00000E+00
         0.00000E+00
         0.00000E+00
         0.00000E+00
         0.00000E+00
         0.00000E+00
         0.00000E+00
         0.00000E+00
         0.00000E+00
         0.00000E+00
         0.00000E+00
         0.00000E+00
         0.00000E+00
         0.00000E+00
         0.00000E+00
         0.00000E+00
         0.00000E+00
         0.00000E+00
         0.00000E+00
         0.00000E+00
         0.00000E+00
         0.00000E+00
         0.00000E+00
         0.00000E+00
         0.00000E+00
         0.00000E+00
         0.00000E+00
         0.00000E+00
         0.00000E+00
         0.00000E+00
         0.00000E+00
         0.00000E+00
         0.00000E+00
         0.00000E+00
         0.00000E+00
         0.00000E+00
         0.00000E+00
         0.00000E+00
         0.00000E+00
         0.00000E+00
         0.00000E+00
         0.00000E+00
         0.00000E+00
         0.00000E+00
         0.00000E+00
         0.00000E+00
         0.00000E+00
         0.00000E+00
         0.00000E+00
         0.00000E+00
         0.00000E+00
         0.00000E+00
         0.00000E+00
         0.00000E+00
         0.00000E+00
         0.00000E+00
         0.00000E+00
         0.00000E+00
         0.00000E+00
         0.00000E+00
         0.00000E+00
         0.00000E+00
         0.00000E+00
         0.00000E+00
         0.00000E+00
         0.00000E+00
         0.00000E+00
         0.00000E+00
         0.00000E+00
         0.00000E+00
         0.00000E+00
         0.00000E+00
         0.00000E+00
         0.00000E+00
         0.00000E+00
         0.00000E+00
         0.00000E+00
         0.00000E+00
         0.00000E+00
         0.00000E+00
         0.00000E+00
         0.00000E+00
         0.00000E+00
         0.00000E+00
         0.00000E+00
         0.00000E+00
         0.00000E+00
         0.00000E+00
         0.00000E+00
         0.00000E+00
         0.00000E+00
         0.00000E+00
         0.00000E+00
         0.00000E+00
         0.00000E+00
         0.00000E+00
         0.00000E+00
         0.00000E+00
         0.00000E+00
         0.00000E+00
         0.00000E+00
         0.00000E+00
         0.00000E+00
         0.00000E+00
         0.00000E+00
         0.00000E+00
         0.00000E+00
         0.00000E+00
         0.00000E+00
         0.00000E+00
         0.00000E+00
         0.00000E+00
         0.00000E+00
         0.00000E+00
         0.00000E+00
         0.00000E+00
         0.00000E+00
         0.00000E+00
         0.00000E+00
         0.00000E+00
         0.00000E+00
         0.00000E+00
         0.00000E+00
         0.00000E+00
         0.00000E+00
         0.00000E+00
         0.00000E+00
         0.00000E+00
         0.00000E+00
         0.00000E+00
         0.00000E+00
         0.00000E+00
         0.00000E+00
         0.00000E+00
         0.00000E+00
         0.00000E+00
         0.00000E+00
         0.00000E+00
         0.00000E+00
         0.00000E+00
         0.00000E+00
         0.00000E+00
         0.00000E+00
         0.00000E+00
         0.00000E+00
         0.00000E+00
         0.00000E+00
         0.00000E+00
         0.00000E+00
         0.00000E+00
         0.00000E+00
         0.00000E+00
         0.00000E+00
         0.00000E+00
         0.00000E+00
         0.00000E+00
         0.00000E+00
         0.00000E+00
         0.00000E+00
         0.00000E+00
         0.00000E+00
         0.00000E+00
         0.00000E+00
         0.00000E+00
         0.00000E+00
         0.00000E+00
         0.00000E+00
         0.00000E+00
         0.00000E+00
         0.00000E+00
         0.00000E+00
         0.00000E+00
         0.00000E+00
         0.00000E+00
         0.00000E+00
         0.00000E+00
         0.00000E+00
         0.00000E+00
         0.00000E+00
         0.00000E+00
         0.00000E+00
         0.00000E+00
         0.00000E+00
         0.00000E+00
         0.00000E+00
         0.00000E+00
         0.00000E+00
         0.00000E+00
         0.00000E+00
         0.00000E+00
         0.00000E+00
         0.00000E+00
         0.00000E+00
         0.00000E+00
         0.00000E+00
         0.00000E+00
         0.00000E+00
         0.00000E+00
         0.00000E+00
         0.00000E+00
         0.00000E+00
         0.00000E+00
         0.00000E+00
         0.00000E+00
         0.00000E+00
         0.00000E+00
         0.00000E+00
         0.00000E+00
         0.00000E+00
         0.00000E+00
         0.00000E+00
         0.00000E+00
         0.00000E+00
         0.00000E+00
         0.00000E+00
         0.00000E+00
         0.00000E+00
         0.00000E+00
         0.00000E+00
         0.00000E+00
         0.00000E+00
         0.00000E+00
         0.00000E+00
         0.00000E+00
         0.00000E+00
         0.00000E+00
         0.00000E+00
         0.00000E+00
         0.00000E+00
         0.00000E+00
         0.00000E+00
         0.00000E+00
         0.00000E+00
         0.00000E+00
         0.00000E+00
         0.00000E+00
         0.00000E+00
         0.00000E+00
         0.00000E+00
         0.00000E+00
         0.00000E+00
         0.00000E+00
         0.00000E+00
         0.00000E+00
         0.00000E+00
         0.00000E+00
         0.00000E+00
         0.00000E+00
         0.00000E+00
         0.00000E+00
         0.00000E+00
         0.00000E+00
         0.00000E+00
         0.00000E+00
         0.00000E+00
         0.00000E+00
         0.00000E+00
         0.00000E+00
         0.00000E+00
         0.00000E+00
         0.00000E+00
         0.00000E+00
         0.00000E+00
         0.00000E+00
         0.00000E+00
         0.00000E+00
         0.00000E+00
         0.00000E+00
         0.00000E+00
         0.00000E+00
         0.00000E+00
         0.00000E+00
         0.00000E+00
         0.00000E+00
         0.00000E+00
         0.00000E+00
         0.00000E+00
         0.00000E+00
         0.00000E+00
         0.00000E+00
         0.00000E+00
         0.00000E+00
         0.00000E+00
         0.00000E+00
         0.00000E+00
         0.00000E+00
         0.00000E+00
         0.00000E+00
         0.00000E+00
         0.00000E+00
         0.00000E+00
         0.00000E+00
         0.00000E+00
         0.00000E+00
         0.00000E+00
         0.00000E+00
         0.00000E+00
         0.00000E+00
         0.00000E+00
         0.00000E+00
         0.00000E+00
         0.00000E+00
         0.00000E+00
         0.00000E+00
         0.00000E+00
         0.00000E+00
         0.00000E+00
         0.00000E+00
         0.00000E+00
         0.00000E+00
         0.00000E+00
         0.00000E+00
         0.00000E+00
         0.00000E+00
         0.00000E+00
         0.00000E+00
         0.00000E+00
         0.00000E+00
         0.00000E+00
         0.00000E+00
         0.00000E+00
         0.00000E+00
         0.00000E+00
         0.00000E+00
         0.00000E+00
         0.00000E+00
         0.00000E+00
         0.00000E+00
         0.00000E+00
         0.00000E+00
         0.00000E+00
         0.00000E+00
         0.00000E+00
         0.00000E+00
         0.00000E+00
         0.00000E+00
         0.00000E+00
         0.00000E+00
         0.00000E+00
         0.00000E+00
         0.00000E+00
         0.00000E+00
         0.00000E+00
         0.00000E+00
         0.00000E+00
         0.00000E+00
         0.00000E+00
         0.00000E+00
         0.00000E+00
         0.00000E+00
         0.00000E+00
         0.00000E+00
         0.00000E+00
         0.00000E+00
         0.00000E+00
         0.00000E+00
         0.00000E+00
         0.00000E+00
         0.00000E+00
         0.00000E+00
         0.00000E+00
         0.00000E+00
         0.00000E+00
         0.00000E+00
         0.00000E+00
         0.00000E+00
         0.00000E+00
         0.00000E+00
         0.00000E+00
         0.00000E+00
         0.00000E+00
         0.00000E+00
         0.00000E+00
         0.00000E+00
         0.00000E+00
         0.00000E+00
         0.00000E+00
         0.00000E+00
         0.00000E+00
         0.00000E+00
  
SCALARS                 displacement_z  double 1
LOOKUP_TABLE default
        -0.77985E-02
        -0.77861E-02
        -0.77842E-02
        -0.78072E-02
        -0.47923E-16
        -0.53737E-16
        -0.51456E-16
        -0.46746E-16
        -0.77609E-02
        -0.77884E-02
        -0.48324E-16
        -0.46766E-16
        -0.77726E-02
        -0.77901E-02
        -0.57417E-16
        -0.53987E-16
        -0.77995E-02
        -0.78028E-02
        -0.42427E-16
        -0.47057E-16
        -0.77632E-02
        -0.77525E-02
        -0.77577E-02
        -0.56907E-16
        -0.49698E-16
        -0.51319E-16
        -0.77849E-02
        -0.77779E-02
        -0.54593E-16
        -0.46041E-16
        -0.78094E-02
        -0.78154E-02
        -0.78051E-02
        -0.46590E-16
        -0.43313E-16
        -0.42111E-16
        -0.77846E-02
        -0.78098E-02
        -0.49290E-16
        -0.44977E-16
        -0.77773E-02
        -0.77985E-02
        -0.42600E-16
        -0.37713E-16
        -0.77577E-02
        -0.77676E-02
        -0.46684E-16
        -0.52162E-16
        -0.78172E-02
        -0.45605E-16
        -0.77814E-02
        -0.53589E-16
        -0.78078E-02
        -0.48159E-16
        -0.78155E-02
        -0.46195E-16
        -0.77944E-02
        -0.78112E-02
        -0.47068E-16
        -0.45840E-16
        -0.78037E-02
        -0.77813E-02
        -0.47199E-16
        -0.53357E-16
        -0.78023E-02
        -0.45544E-16
        -0.77930E-02
        -0.49706E-16
        -0.77261E-02
        -0.77532E-02
        -0.47846E-16
        -0.50133E-16
        -0.77633E-02
        -0.50554E-16
        -0.77923E-02
        -0.39941E-16
        -0.77896E-02
        -0.38769E-16
        -0.77641E-02
        -0.40878E-16
        -0.77351E-02
        -0.77714E-02
        -0.38948E-16
        -0.40605E-16
        -0.78010E-02
        -0.37818E-16
        -0.77602E-02
        -0.49593E-16
        -0.77496E-02
        -0.50758E-16
        -0.77233E-02
        -0.77592E-02
        -0.48744E-16
        -0.49313E-16
        -0.77836E-02
        -0.44791E-16
        -0.77800E-02
        -0.44152E-16
        -0.77606E-02
        -0.47266E-16
        -0.77326E-02
        -0.77653E-02
        -0.46351E-16
        -0.47711E-16
        -0.76518E-02
        -0.76647E-02
        -0.35986E-16
        -0.33847E-16
        -0.76632E-02
        -0.34362E-16
        -0.76539E-02
        -0.32947E-16
        -0.76547E-02
        -0.32489E-16
        -0.76535E-02
        -0.30702E-16
        -0.76609E-02
        -0.27276E-16
        -0.76641E-02
        -0.24560E-16
        -0.76622E-02
        -0.24390E-16
        -0.76606E-02
        -0.26449E-16
        -0.76494E-02
        -0.27797E-16
        -0.76638E-02
        -0.25382E-16
        -0.76690E-02
        -0.22879E-16
        -0.76676E-02
        -0.22853E-16
        -0.76618E-02
        -0.25544E-16
        -0.76561E-02
        -0.29126E-16
        -0.76531E-02
        -0.31290E-16
        -0.76621E-02
        -0.33793E-16
        -0.76534E-02
        -0.36204E-16
        -0.76665E-02
        -0.33165E-16
        -0.76620E-02
        -0.29095E-16
        -0.76578E-02
        -0.29005E-16
        -0.76652E-02
        -0.31735E-16
        -0.76548E-02
        -0.33832E-16
        -0.76652E-02
        -0.32106E-16
        -0.76654E-02
        -0.31039E-16
        -0.10992E-01
        -0.10990E-01
        -0.10989E-01
        -0.10993E-01
        -0.10986E-01
        -0.10990E-01
        -0.10987E-01
        -0.10990E-01
        -0.10992E-01
        -0.10993E-01
        -0.10986E-01
        -0.10985E-01
        -0.10985E-01
        -0.10989E-01
        -0.10988E-01
        -0.10993E-01
        -0.10994E-01
        -0.10993E-01
        -0.10989E-01
        -0.10993E-01
        -0.10988E-01
        -0.10992E-01
        -0.10985E-01
        -0.10987E-01
        -0.10994E-01
        -0.10989E-01
        -0.10993E-01
        -0.10994E-01
        -0.10991E-01
        -0.10993E-01
        -0.10992E-01
        -0.10989E-01
        -0.10992E-01
        -0.10990E-01
        -0.10981E-01
        -0.10984E-01
        -0.10986E-01
        -0.10991E-01
        -0.10990E-01
        -0.10986E-01
        -0.10982E-01
        -0.10987E-01
        -0.10992E-01
        -0.10985E-01
        -0.10984E-01
        -0.10981E-01
        -0.10985E-01
        -0.10989E-01
        -0.10989E-01
        -0.10985E-01
        -0.10982E-01
        -0.10986E-01
        -0.10973E-01
        -0.10975E-01
        -0.10975E-01
        -0.10974E-01
        -0.10974E-01
        -0.10974E-01
        -0.10975E-01
        -0.10975E-01
        -0.10975E-01
        -0.10974E-01
        -0.10972E-01
        -0.10975E-01
        -0.10976E-01
        -0.10976E-01
        -0.10975E-01
        -0.10974E-01
        -0.10974E-01
        -0.10975E-01
        -0.10973E-01
        -0.10976E-01
        -0.10976E-01
        -0.10975E-01
        -0.10975E-01
        -0.10973E-01
        -0.10975E-01
        -0.10976E-01
        -0.11253E-01
        -0.11253E-01
        -0.11253E-01
        -0.11253E-01
        -0.11253E-01
        -0.11253E-01
        -0.11253E-01
        -0.11253E-01
        -0.11253E-01
        -0.11253E-01
        -0.11253E-01
        -0.11253E-01
        -0.11253E-01
        -0.11253E-01
        -0.11253E-01
        -0.11253E-01
        -0.11253E-01
        -0.11253E-01
        -0.11253E-01
        -0.11253E-01
        -0.11253E-01
        -0.11253E-01
        -0.11253E-01
        -0.11253E-01
        -0.11253E-01
        -0.11253E-01
        -0.11253E-01
        -0.11253E-01
        -0.11253E-01
        -0.11253E-01
        -0.11253E-01
        -0.11253E-01
        -0.11253E-01
        -0.11253E-01
        -0.11253E-01
        -0.11253E-01
        -0.11253E-01
        -0.11253E-01
        -0.11253E-01
        -0.11253E-01
        -0.11253E-01
        -0.11253E-01
        -0.11253E-01
        -0.11253E-01
        -0.11253E-01
        -0.11253E-01
        -0.11253E-01
        -0.11253E-01
        -0.11253E-01
        -0.11253E-01
        -0.11253E-01
        -0.11253E-01
        -0.11253E-01
        -0.11253E-01
        -0.11253E-01
        -0.11253E-01
        -0.11253E-01
        -0.11253E-01
        -0.11253E-01
        -0.11253E-01
        -0.11253E-01
        -0.11253E-01
        -0.11253E-01
        -0.11253E-01
        -0.11253E-01
        -0.11253E-01
        -0.11253E-01
        -0.11253E-01
        -0.11253E-01
        -0.11253E-01
        -0.11253E-01
        -0.11253E-01
        -0.11253E-01
        -0.11253E-01
        -0.11253E-01
        -0.11253E-01
        -0.11253E-01
        -0.11253E-01
        -0.11253E-01
        -0.11253E-01
        -0.11253E-01
        -0.11253E-01
        -0.11253E-01
        -0.11253E-01
        -0.11253E-01
        -0.11253E-01
        -0.11253E-01
        -0.11253E-01
        -0.11253E-01
        -0.11253E-01
        -0.11253E-01
        -0.11253E-01
        -0.11253E-01
        -0.11253E-01
        -0.11253E-01
        -0.11253E-01
        -0.11253E-01
        -0.11253E-01
        -0.11253E-01
        -0.11253E-01
        -0.11253E-01
        -0.11253E-01
        -0.11253E-01
        -0.11253E-01
        -0.11253E-01
        -0.11253E-01
        -0.11253E-01
        -0.11253E-01
        -0.11253E-01
        -0.11253E-01
        -0.11253E-01
        -0.11253E-01
        -0.11253E-01
        -0.11253E-01
        -0.11253E-01
        -0.11253E-01
        -0.11253E-01
        -0.11253E-01
        -0.11253E-01
        -0.11253E-01
        -0.11253E-01
        -0.11253E-01
        -0.11253E-01
        -0.11253E-01
        -0.11253E-01
        -0.11253E-01
        -0.11253E-01
        -0.11253E-01
        -0.11253E-01
        -0.11253E-01
        -0.11253E-01
        -0.11253E-01
        -0.11253E-01
        -0.11253E-01
        -0.11253E-01
        -0.11253E-01
        -0.11253E-01
        -0.11253E-01
        -0.11253E-01
        -0.11253E-01
        -0.11253E-01
        -0.11253E-01
        -0.11253E-01
        -0.11253E-01
        -0.11253E-01
        -0.11253E-01
        -0.11253E-01
        -0.11253E-01
        -0.11253E-01
        -0.11253E-01
        -0.11253E-01
        -0.11253E-01
        -0.11253E-01
        -0.11253E-01
        -0.11253E-01
        -0.11253E-01
        -0.11253E-01
        -0.11253E-01
        -0.11253E-01
        -0.11253E-01
        -0.11253E-01
        -0.11253E-01
        -0.11253E-01
        -0.11253E-01
        -0.11253E-01
        -0.11253E-01
        -0.11253E-01
        -0.11253E-01
        -0.11253E-01
        -0.11253E-01
        -0.11253E-01
        -0.11253E-01
        -0.11253E-01
        -0.11253E-01
        -0.11253E-01
        -0.11253E-01
        -0.11253E-01
        -0.11253E-01
        -0.11253E-01
        -0.11253E-01
        -0.11253E-01
        -0.11253E-01
        -0.11253E-01
        -0.11253E-01
        -0.11253E-01
        -0.11253E-01
        -0.11253E-01
        -0.11253E-01
        -0.11253E-01
        -0.11253E-01
        -0.11253E-01
        -0.11253E-01
        -0.11253E-01
        -0.11253E-01
        -0.11253E-01
        -0.11253E-01
        -0.11253E-01
        -0.11253E-01
        -0.11253E-01
        -0.11253E-01
        -0.11253E-01
        -0.11253E-01
        -0.11253E-01
        -0.11253E-01
        -0.11253E-01
        -0.11253E-01
        -0.11253E-01
        -0.11253E-01
        -0.11253E-01
        -0.11253E-01
        -0.11253E-01
        -0.11253E-01
        -0.11253E-01
        -0.11253E-01
        -0.11253E-01
        -0.11253E-01
        -0.11253E-01
        -0.11253E-01
        -0.11253E-01
        -0.11253E-01
        -0.11253E-01
        -0.11253E-01
        -0.11253E-01
        -0.11253E-01
        -0.11253E-01
        -0.11253E-01
        -0.11253E-01
        -0.11253E-01
        -0.11253E-01
        -0.11253E-01
        -0.11253E-01
        -0.11253E-01
        -0.11253E-01
        -0.11253E-01
        -0.11253E-01
        -0.11253E-01
        -0.11253E-01
        -0.11253E-01
        -0.11253E-01
        -0.11253E-01
        -0.11253E-01
        -0.11253E-01
        -0.11253E-01
        -0.11253E-01
        -0.11253E-01
        -0.11253E-01
        -0.11253E-01
        -0.11253E-01
        -0.11253E-01
        -0.11253E-01
        -0.11253E-01
        -0.11253E-01
        -0.11253E-01
        -0.11253E-01
        -0.11253E-01
        -0.11253E-01
        -0.11253E-01
        -0.11253E-01
        -0.11253E-01
        -0.11253E-01
        -0.11253E-01
        -0.11253E-01
        -0.11253E-01
        -0.11253E-01
        -0.11253E-01
        -0.11253E-01
        -0.11253E-01
        -0.11253E-01
        -0.11253E-01
        -0.11253E-01
        -0.11253E-01
        -0.11253E-01
        -0.11253E-01
        -0.11253E-01
        -0.11253E-01
        -0.11253E-01
        -0.11253E-01
        -0.11253E-01
        -0.11253E-01
        -0.11253E-01
        -0.11253E-01
        -0.11253E-01
        -0.11253E-01
        -0.11253E-01
        -0.11253E-01
        -0.11253E-01
        -0.11253E-01
        -0.11253E-01
        -0.11253E-01
        -0.11253E-01
        -0.11253E-01
        -0.11253E-01
        -0.11253E-01
        -0.11253E-01
        -0.11253E-01
        -0.11253E-01
        -0.11253E-01
        -0.11253E-01
        -0.11253E-01
        -0.11253E-01
        -0.11253E-01
        -0.11253E-01
        -0.11253E-01
        -0.11253E-01
        -0.11253E-01
        -0.11253E-01
        -0.11253E-01
        -0.11253E-01
        -0.11253E-01
        -0.11253E-01
        -0.11253E-01
        -0.11253E-01
        -0.11253E-01
        -0.11253E-01
        -0.11253E-01
        -0.11253E-01
        -0.11253E-01
        -0.11253E-01
        -0.11253E-01
        -0.11253E-01
        -0.11253E-01
        -0.11253E-01
        -0.11253E-01
        -0.11253E-01
        -0.11253E-01
        -0.11253E-01
        -0.11253E-01
        -0.11253E-01
        -0.11253E-01
        -0.11253E-01
        -0.11253E-01
        -0.11253E-01
        -0.11253E-01
        -0.11253E-01
        -0.11253E-01
        -0.11253E-01
        -0.11253E-01
        -0.11253E-01
        -0.11253E-01
        -0.11253E-01
        -0.11253E-01
        -0.11253E-01
        -0.11253E-01
        -0.11253E-01
        -0.11253E-01
        -0.11253E-01
        -0.11253E-01
        -0.11253E-01
        -0.11253E-01
        -0.11253E-01
        -0.11253E-01
        -0.11253E-01
        -0.11253E-01
        -0.11253E-01
        -0.11253E-01
        -0.11253E-01
        -0.11253E-01
        -0.11253E-01
        -0.11253E-01
        -0.11253E-01
        -0.11253E-01
        -0.11253E-01
        -0.11253E-01
        -0.11253E-01
        -0.11253E-01
        -0.11253E-01
        -0.11253E-01
        -0.11253E-01
        -0.11253E-01
        -0.11253E-01
        -0.11253E-01
        -0.11253E-01
        -0.11253E-01
        -0.11253E-01
        -0.11253E-01
        -0.11253E-01
        -0.11253E-01
        -0.11253E-01
        -0.11253E-01
        -0.11253E-01
        -0.11253E-01
        -0.11253E-01
        -0.11253E-01
        -0.11253E-01
        -0.11253E-01
        -0.11253E-01
        -0.11253E-01
        -0.11253E-01
        -0.11253E-01
        -0.11253E-01
        -0.11253E-01
        -0.11253E-01
        -0.11253E-01
        -0.11253E-01
        -0.11253E-01
        -0.11253E-01
        -0.11253E-01
        -0.11253E-01
        -0.11253E-01
        -0.11253E-01
        -0.11253E-01
        -0.11253E-01
        -0.11253E-01
        -0.11253E-01
        -0.11253E-01
        -0.11253E-01
        -0.11253E-01
        -0.11253E-01
        -0.11253E-01
        -0.11253E-01
        -0.11253E-01
        -0.11253E-01
        -0.11253E-01
        -0.11253E-01
        -0.11253E-01
        -0.11253E-01
        -0.11253E-01
        -0.11253E-01
        -0.11253E-01
        -0.11253E-01
        -0.11253E-01
        -0.11253E-01
        -0.11253E-01
        -0.11253E-01
        -0.11253E-01
        -0.11253E-01
        -0.11253E-01
        -0.11253E-01
        -0.11253E-01
        -0.11253E-01
        -0.11253E-01
        -0.11253E-01
        -0.11253E-01
        -0.11253E-01
        -0.11253E-01
        -0.11253E-01
        -0.11253E-01
        -0.11253E-01
        -0.11253E-01
        -0.11253E-01
        -0.11253E-01
        -0.11253E-01
        -0.11253E-01
        -0.11253E-01
        -0.11253E-01
        -0.11253E-01
        -0.11253E-01
        -0.11253E-01
        -0.11253E-01
        -0.11253E-01
        -0.11253E-01
        -0.11253E-01
        -0.11253E-01
        -0.11253E-01
        -0.11253E-01
        -0.11253E-01
        -0.11253E-01
        -0.11253E-01
        -0.11253E-01
        -0.11253E-01
        -0.11253E-01
        -0.11253E-01
        -0.11253E-01
        -0.11253E-01
        -0.11253E-01
        -0.11253E-01
        -0.11253E-01
        -0.11253E-01
        -0.11253E-01
        -0.11253E-01
        -0.11253E-01
        -0.11253E-01
        -0.11253E-01
        -0.11253E-01
        -0.11253E-01
        -0.11253E-01
        -0.11253E-01
        -0.11253E-01
        -0.11253E-01
        -0.11253E-01
        -0.11253E-01
        -0.11253E-01
        -0.11253E-01
        -0.11253E-01
        -0.11253E-01
        -0.11253E-01
        -0.11253E-01
        -0.11253E-01
        -0.11253E-01
        -0.11253E-01
        -0.11253E-01
        -0.11253E-01
        -0.11253E-01
        -0.11253E-01
        -0.11253E-01
        -0.11253E-01
        -0.11253E-01
        -0.11253E-01
        -0.11253E-01
        -0.11253E-01
        -0.11253E-01
        -0.11253E-01
        -0.11253E-01
        -0.11253E-01
        -0.11253E-01
        -0.11253E-01
        -0.11253E-01
        -0.11253E-01
        -0.11253E-01
        -0.11253E-01
        -0.11253E-01
        -0.11253E-01
        -0.11253E-01
        -0.11253E-01
        -0.11253E-01
        -0.11253E-01
        -0.11253E-01
        -0.11253E-01
        -0.11253E-01
        -0.11253E-01
        -0.11253E-01
        -0.11253E-01
        -0.11253E-01
        -0.11253E-01
        -0.11253E-01
        -0.11253E-01
        -0.11253E-01
        -0.11253E-01
        -0.11253E-01
        -0.11253E-01
        -0.11253E-01
        -0.11253E-01
        -0.11253E-01
        -0.11253E-01
        -0.11253E-01
        -0.11253E-01
        -0.11253E-01
        -0.11253E-01
        -0.11253E-01
        -0.11253E-01
        -0.11253E-01
        -0.11253E-01
        -0.11253E-01
        -0.11253E-01
        -0.11253E-01
        -0.11253E-01
        -0.11253E-01
        -0.11253E-01
        -0.11253E-01
        -0.11253E-01
        -0.11253E-01
        -0.11253E-01
        -0.11253E-01
        -0.11253E-01
        -0.11253E-01
        -0.11253E-01
        -0.11253E-01
        -0.11253E-01
        -0.11253E-01
        -0.11253E-01
        -0.11253E-01
        -0.11253E-01
        -0.11253E-01
        -0.11253E-01
        -0.11253E-01
        -0.11253E-01
        -0.11253E-01
        -0.11253E-01
        -0.11253E-01
        -0.11253E-01
        -0.11253E-01
        -0.11253E-01
        -0.11253E-01
        -0.11253E-01
        -0.11253E-01
        -0.11253E-01
        -0.11253E-01
        -0.11253E-01
        -0.11253E-01
        -0.11253E-01
        -0.11253E-01
        -0.11253E-01
        -0.11253E-01
        -0.11253E-01
        -0.11253E-01
        -0.11253E-01
        -0.11253E-01
        -0.11253E-01
        -0.11253E-01
        -0.11253E-01
        -0.11253E-01
        -0.11253E-01
        -0.11253E-01
        -0.11253E-01
        -0.11253E-01
        -0.11253E-01
        -0.11253E-01
        -0.11253E-01
        -0.11253E-01
        -0.11253E-01
        -0.11253E-01
        -0.11253E-01
        -0.11253E-01
        -0.11253E-01
        -0.11253E-01
        -0.11253E-01
        -0.11253E-01
        -0.11253E-01
        -0.11253E-01
        -0.11253E-01
        -0.11253E-01
        -0.11253E-01
        -0.11253E-01
        -0.11253E-01
        -0.11253E-01
        -0.11253E-01
        -0.11253E-01
        -0.11253E-01
        -0.11253E-01
        -0.11253E-01
        -0.11253E-01
        -0.11253E-01
        -0.11253E-01
        -0.11253E-01
        -0.11253E-01
        -0.11253E-01
        -0.11253E-01
        -0.11253E-01
        -0.11253E-01
        -0.11253E-01
        -0.11253E-01
        -0.11253E-01
        -0.11253E-01
        -0.11253E-01
        -0.11253E-01
        -0.11253E-01
        -0.11253E-01
        -0.11253E-01
        -0.11253E-01
        -0.11253E-01
        -0.11253E-01
        -0.11253E-01
        -0.11253E-01
        -0.11253E-01
        -0.11253E-01
        -0.11253E-01
        -0.11253E-01
        -0.11253E-01
        -0.11253E-01
        -0.11253E-01
        -0.11253E-01
        -0.11253E-01
        -0.11253E-01
        -0.11253E-01
        -0.11253E-01
        -0.11253E-01
        -0.11253E-01
        -0.11253E-01
        -0.11253E-01
        -0.11253E-01
        -0.11253E-01
        -0.11253E-01
        -0.11253E-01
        -0.11253E-01
        -0.11253E-01
        -0.11253E-01
        -0.11253E-01
        -0.11253E-01
        -0.11253E-01
        -0.11253E-01
        -0.11253E-01
        -0.11253E-01
        -0.11253E-01
        -0.11253E-01
        -0.11253E-01
        -0.11253E-01
        -0.11253E-01
        -0.11253E-01
        -0.11253E-01
        -0.11253E-01
        -0.11253E-01
        -0.11253E-01
        -0.11253E-01
        -0.11253E-01
        -0.11253E-01
        -0.11253E-01
        -0.11253E-01
        -0.11253E-01
        -0.11253E-01
        -0.11253E-01
        -0.11253E-01
        -0.11253E-01
        -0.11253E-01
        -0.11253E-01
        -0.11253E-01
        -0.11253E-01
        -0.11253E-01
        -0.11253E-01
        -0.11253E-01
        -0.11253E-01
        -0.11253E-01
        -0.11253E-01
        -0.11253E-01
        -0.11253E-01
        -0.11253E-01
        -0.11253E-01
        -0.11253E-01
        -0.11253E-01
        -0.11253E-01
        -0.11253E-01
        -0.11253E-01
        -0.11253E-01
        -0.11253E-01
        -0.11253E-01
        -0.11253E-01
        -0.11253E-01
        -0.11253E-01
        -0.11253E-01
        -0.11253E-01
        -0.11253E-01
        -0.11253E-01
        -0.11253E-01
        -0.11253E-01
        -0.11253E-01
        -0.11253E-01
        -0.11253E-01
        -0.11253E-01
        -0.11253E-01
        -0.11253E-01
        -0.11253E-01
        -0.11253E-01
        -0.11253E-01
        -0.11253E-01
        -0.11253E-01
        -0.11253E-01
        -0.11253E-01
        -0.11253E-01
        -0.11253E-01
        -0.11253E-01
        -0.11253E-01
        -0.11253E-01
        -0.11253E-01
        -0.11253E-01
        -0.11253E-01
        -0.11253E-01
        -0.11253E-01
        -0.11253E-01
        -0.11253E-01
        -0.11253E-01
        -0.11253E-01
        -0.11253E-01
        -0.11253E-01
        -0.11253E-01
        -0.11253E-01
        -0.11253E-01
        -0.11253E-01
        -0.11253E-01
        -0.11253E-01
        -0.11253E-01
        -0.11253E-01
        -0.11253E-01
        -0.11253E-01
        -0.11253E-01
        -0.11253E-01
        -0.11253E-01
        -0.11253E-01
        -0.11253E-01
        -0.11253E-01
        -0.11253E-01
        -0.11253E-01
        -0.11253E-01
        -0.11253E-01
        -0.11253E-01
        -0.11253E-01
        -0.11253E-01
        -0.11253E-01
        -0.11253E-01
        -0.11253E-01
        -0.11253E-01
        -0.11253E-01
        -0.11253E-01
        -0.11253E-01
        -0.11253E-01
        -0.11253E-01
        -0.11253E-01
        -0.11253E-01
        -0.11253E-01
        -0.11253E-01
        -0.11253E-01
        -0.11253E-01
        -0.11253E-01
        -0.11253E-01
        -0.11253E-01
        -0.11253E-01
        -0.11253E-01
        -0.11253E-01
        -0.11253E-01
        -0.11253E-01
        -0.11253E-01
        -0.11253E-01
        -0.11253E-01
        -0.11253E-01
        -0.11253E-01
        -0.11253E-01
        -0.11253E-01
        -0.11253E-01
        -0.11253E-01
        -0.11253E-01
        -0.11253E-01
        -0.11253E-01
        -0.11253E-01
        -0.11253E-01
        -0.11253E-01
        -0.11253E-01
        -0.11253E-01
        -0.11253E-01
        -0.11253E-01
        -0.11253E-01
        -0.11253E-01
        -0.11253E-01
        -0.11253E-01
        -0.11253E-01
        -0.11253E-01
        -0.11253E-01
        -0.11253E-01
        -0.11253E-01
        -0.11253E-01
        -0.11253E-01
        -0.11253E-01
        -0.11253E-01
        -0.11253E-01
        -0.11253E-01
        -0.11253E-01
        -0.11253E-01
        -0.11253E-01
        -0.11253E-01
        -0.11253E-01
        -0.11253E-01
        -0.11253E-01
        -0.11253E-01
        -0.11253E-01
        -0.11253E-01
        -0.11253E-01
        -0.11253E-01
        -0.11253E-01
        -0.11253E-01
        -0.11253E-01
        -0.11253E-01
        -0.11253E-01
        -0.11253E-01
        -0.11253E-01
        -0.11253E-01
        -0.11253E-01
        -0.11253E-01
        -0.11253E-01
        -0.11253E-01
        -0.11253E-01
        -0.11253E-01
        -0.11253E-01
        -0.11253E-01
        -0.11253E-01
        -0.11253E-01
        -0.11253E-01
        -0.11253E-01
        -0.11253E-01
        -0.11253E-01
        -0.11253E-01
        -0.11253E-01
        -0.11253E-01
        -0.11253E-01
        -0.11253E-01
        -0.11253E-01
        -0.11253E-01
        -0.11253E-01
        -0.11253E-01
        -0.11253E-01
        -0.11253E-01
        -0.11253E-01
        -0.11253E-01
        -0.11253E-01
        -0.11253E-01
        -0.11253E-01
        -0.11253E-01
        -0.11253E-01
        -0.11253E-01
        -0.11253E-01
        -0.11253E-01
        -0.11253E-01
        -0.11253E-01
        -0.11253E-01
        -0.11253E-01
        -0.11253E-01
        -0.11253E-01
        -0.11253E-01
        -0.11253E-01
        -0.11253E-01
        -0.11253E-01
        -0.11253E-01
        -0.11253E-01
        -0.11253E-01
        -0.11253E-01
        -0.11253E-01
        -0.11253E-01
        -0.11253E-01
        -0.11253E-01
        -0.11253E-01
        -0.11253E-01
        -0.11253E-01
        -0.11253E-01
        -0.11253E-01
        -0.11253E-01
        -0.11253E-01
        -0.11253E-01
        -0.11253E-01
        -0.11253E-01
        -0.11253E-01
        -0.11253E-01
        -0.11253E-01
        -0.11253E-01
        -0.11253E-01
        -0.11253E-01
        -0.11253E-01
        -0.11253E-01
        -0.11253E-01
        -0.11253E-01
        -0.11253E-01
        -0.11253E-01
        -0.11253E-01
        -0.11253E-01
        -0.11253E-01
        -0.11253E-01
        -0.11253E-01
        -0.11253E-01
        -0.11253E-01
        -0.11253E-01
        -0.11253E-01
        -0.11253E-01
        -0.11253E-01
        -0.11253E-01
        -0.11253E-01
        -0.11253E-01
        -0.11253E-01
        -0.11253E-01
        -0.11253E-01
        -0.11253E-01
        -0.11253E-01
        -0.11253E-01
        -0.11253E-01
        -0.11253E-01
        -0.11253E-01
        -0.11253E-01
        -0.11253E-01
        -0.11253E-01
        -0.11253E-01
        -0.11253E-01
        -0.11253E-01
        -0.11253E-01
        -0.11253E-01
        -0.11253E-01
        -0.11253E-01
        -0.11253E-01
        -0.11253E-01
        -0.11253E-01
        -0.11253E-01
        -0.11253E-01
        -0.11253E-01
        -0.11253E-01
        -0.11253E-01
        -0.11253E-01
        -0.11253E-01
        -0.11253E-01
        -0.11253E-01
        -0.11253E-01
        -0.11253E-01
        -0.11253E-01
        -0.11253E-01
        -0.11253E-01
        -0.11253E-01
        -0.11253E-01
        -0.11253E-01
        -0.11253E-01
        -0.11253E-01
        -0.11253E-01
        -0.11253E-01
        -0.11253E-01
        -0.11253E-01
        -0.11253E-01
        -0.11253E-01
        -0.11253E-01
        -0.11253E-01
        -0.11253E-01
        -0.11253E-01
        -0.11253E-01
        -0.11253E-01
        -0.11253E-01
        -0.11253E-01
        -0.11253E-01
        -0.11253E-01
        -0.11253E-01
        -0.11253E-01
        -0.11253E-01
        -0.11253E-01
        -0.11253E-01
        -0.11253E-01
        -0.11253E-01
        -0.11253E-01
        -0.11253E-01
        -0.11253E-01
        -0.11253E-01
        -0.11253E-01
        -0.11253E-01
        -0.11253E-01
        -0.11253E-01
        -0.11253E-01
        -0.11253E-01
        -0.11253E-01
        -0.11253E-01
        -0.11253E-01
        -0.11253E-01
        -0.11253E-01
        -0.11253E-01
        -0.11253E-01
        -0.11253E-01
        -0.11253E-01
        -0.11253E-01
        -0.11253E-01
        -0.11253E-01
        -0.11253E-01
        -0.11253E-01
        -0.11253E-01
        -0.11253E-01
        -0.11253E-01
        -0.11253E-01
        -0.11253E-01
        -0.11253E-01
        -0.11253E-01
        -0.11253E-01
        -0.11253E-01
        -0.11253E-01
        -0.11253E-01
        -0.11253E-01
        -0.11253E-01
        -0.11253E-01
        -0.11253E-01
        -0.11253E-01
        -0.11253E-01
        -0.11253E-01
        -0.11253E-01
        -0.11253E-01
        -0.11253E-01
        -0.11253E-01
        -0.11253E-01
        -0.11253E-01
        -0.11253E-01
        -0.11253E-01
        -0.11253E-01
        -0.11253E-01
        -0.11253E-01
        -0.11253E-01
        -0.11253E-01
        -0.11253E-01
        -0.11253E-01
        -0.11253E-01
        -0.11253E-01
        -0.11253E-01
        -0.11253E-01
        -0.11253E-01
        -0.11253E-01
        -0.11253E-01
        -0.11253E-01
        -0.11253E-01
        -0.11253E-01
        -0.11253E-01
        -0.11253E-01
        -0.11253E-01
        -0.11253E-01
        -0.11253E-01
        -0.11253E-01
        -0.11253E-01
        -0.11253E-01
        -0.11253E-01
        -0.11253E-01
        -0.11253E-01
        -0.11253E-01
        -0.11253E-01
        -0.11253E-01
        -0.11253E-01
        -0.11253E-01
        -0.11253E-01
        -0.11253E-01
        -0.11253E-01
        -0.11253E-01
        -0.11253E-01
        -0.11253E-01
        -0.11253E-01
        -0.11253E-01
        -0.11253E-01
        -0.11253E-01
        -0.11253E-01
        -0.11253E-01
        -0.11253E-01
        -0.11253E-01
        -0.11253E-01
        -0.11253E-01
        -0.11253E-01
        -0.11253E-01
        -0.11253E-01
        -0.11253E-01
        -0.11253E-01
        -0.11253E-01
        -0.11253E-01
        -0.11253E-01
        -0.11253E-01
        -0.11253E-01
        -0.11253E-01
        -0.11253E-01
        -0.11253E-01
        -0.11253E-01
        -0.11253E-01
        -0.11253E-01
        -0.11253E-01
        -0.11253E-01
        -0.11253E-01
        -0.11253E-01
        -0.11253E-01
        -0.11253E-01
        -0.11253E-01
        -0.11253E-01
        -0.11253E-01
        -0.11253E-01
        -0.11253E-01
        -0.11253E-01
        -0.11253E-01
        -0.11253E-01
        -0.11253E-01
        -0.11253E-01
        -0.11253E-01
        -0.11253E-01
        -0.11253E-01
        -0.11253E-01
        -0.11253E-01
        -0.11253E-01
        -0.11253E-01
        -0.11253E-01
        -0.11253E-01
        -0.11253E-01
        -0.11253E-01
        -0.11253E-01
        -0.11253E-01
        -0.11253E-01
        -0.11253E-01
        -0.11253E-01
        -0.11253E-01
        -0.11253E-01
        -0.11253E-01
        -0.11253E-01
        -0.11253E-01
        -0.11253E-01
        -0.11253E-01
        -0.11253E-01
        -0.11253E-01
        -0.11253E-01
        -0.11253E-01
        -0.11253E-01
        -0.11253E-01
        -0.11253E-01
        -0.11253E-01
        -0.11253E-01
        -0.11253E-01
        -0.11253E-01
        -0.11253E-01
        -0.11253E-01
        -0.11253E-01
        -0.11253E-01
        -0.11253E-01
        -0.11253E-01
        -0.11253E-01
        -0.11253E-01
        -0.11253E-01
        -0.11253E-01
        -0.11253E-01
        -0.11253E-01
        -0.11253E-01
        -0.11253E-01
        -0.11253E-01
        -0.11253E-01
        -0.11253E-01
        -0.11253E-01
        -0.11253E-01
        -0.11253E-01
        -0.11253E-01
        -0.11253E-01
        -0.11253E-01
        -0.11253E-01
        -0.11253E-01
        -0.11253E-01
        -0.11253E-01
        -0.11253E-01
        -0.11253E-01
        -0.11253E-01
        -0.11253E-01
        -0.11253E-01
        -0.11253E-01
        -0.11253E-01
        -0.11253E-01
        -0.11253E-01
        -0.11253E-01
        -0.11253E-01
        -0.11253E-01
        -0.11253E-01
        -0.11253E-01
        -0.11253E-01
        -0.11253E-01
        -0.11253E-01
        -0.11253E-01
        -0.11253E-01
        -0.11253E-01
        -0.11253E-01
        -0.11253E-01
        -0.11253E-01
        -0.11253E-01
        -0.11253E-01
        -0.11253E-01
        -0.11253E-01
        -0.11253E-01
        -0.11253E-01
        -0.11253E-01
        -0.11253E-01
        -0.11253E-01
        -0.11253E-01
        -0.11253E-01
        -0.11253E-01
        -0.11253E-01
        -0.11253E-01
        -0.11253E-01
        -0.11253E-01
        -0.11253E-01
        -0.11253E-01
        -0.11253E-01
        -0.11253E-01
        -0.11253E-01
        -0.11253E-01
        -0.11253E-01
        -0.11253E-01
        -0.11253E-01
        -0.11253E-01
        -0.11253E-01
        -0.11253E-01
        -0.11253E-01
        -0.11253E-01
        -0.11253E-01
        -0.11253E-01
        -0.11253E-01
        -0.11253E-01
        -0.11253E-01
        -0.11253E-01
        -0.11253E-01
        -0.11253E-01
        -0.11253E-01
        -0.11253E-01
        -0.11253E-01
        -0.11253E-01
        -0.11253E-01
        -0.11253E-01
        -0.11253E-01
        -0.11253E-01
        -0.11253E-01
        -0.11253E-01
        -0.11253E-01
        -0.11253E-01
        -0.11253E-01
        -0.11253E-01
        -0.11253E-01
        -0.11253E-01
        -0.11253E-01
        -0.11253E-01
        -0.11253E-01
        -0.11253E-01
        -0.11253E-01
        -0.11253E-01
        -0.11253E-01
        -0.11253E-01
        -0.11253E-01
        -0.11253E-01
        -0.11253E-01
        -0.11253E-01
        -0.11253E-01
        -0.11253E-01
        -0.11253E-01
        -0.11253E-01
        -0.11253E-01
        -0.11253E-01
        -0.11253E-01
        -0.11253E-01
        -0.11253E-01
        -0.11253E-01
        -0.11253E-01
        -0.11253E-01
        -0.11253E-01
        -0.11253E-01
        -0.11253E-01
        -0.11253E-01
        -0.11253E-01
        -0.11253E-01
        -0.11253E-01
        -0.11253E-01
        -0.11253E-01
        -0.11253E-01
        -0.11253E-01
        -0.11253E-01
        -0.11253E-01
        -0.11253E-01
        -0.11253E-01
        -0.11253E-01
        -0.11253E-01
        -0.11253E-01
        -0.11253E-01
        -0.11253E-01
        -0.11253E-01
        -0.11253E-01
        -0.11253E-01
        -0.11253E-01
        -0.11253E-01
        -0.11253E-01
        -0.11253E-01
        -0.11253E-01
        -0.11253E-01
        -0.11253E-01
        -0.11253E-01
        -0.11253E-01
        -0.11253E-01
        -0.11253E-01
        -0.11253E-01
        -0.11253E-01
        -0.11253E-01
        -0.11253E-01
        -0.11253E-01
        -0.11253E-01
        -0.11253E-01
        -0.11253E-01
        -0.11253E-01
        -0.11253E-01
        -0.11253E-01
        -0.11253E-01
        -0.11253E-01
        -0.11253E-01
        -0.11253E-01
        -0.11253E-01
        -0.11253E-01
        -0.11253E-01
        -0.11253E-01
        -0.11253E-01
        -0.11253E-01
        -0.11253E-01
        -0.11253E-01
        -0.11253E-01
        -0.11253E-01
        -0.11253E-01
        -0.11253E-01
        -0.11253E-01
        -0.11253E-01
        -0.11253E-01
        -0.11253E-01
        -0.11253E-01
        -0.11253E-01
        -0.11253E-01
        -0.11253E-01
        -0.11253E-01
        -0.11253E-01
        -0.11253E-01
        -0.11253E-01
        -0.11253E-01
        -0.11253E-01
        -0.11253E-01
        -0.11253E-01
        -0.11253E-01
        -0.11253E-01
        -0.11253E-01
        -0.11253E-01
        -0.11253E-01
        -0.11253E-01
        -0.11253E-01
        -0.11253E-01
        -0.11253E-01
        -0.11253E-01
        -0.11253E-01
        -0.11253E-01
        -0.11253E-01
        -0.11253E-01
        -0.11253E-01
        -0.11253E-01
        -0.11253E-01
        -0.11253E-01
        -0.11253E-01
        -0.11253E-01
        -0.11253E-01
        -0.11253E-01
        -0.11253E-01
        -0.11253E-01
        -0.11253E-01
        -0.11253E-01
        -0.11253E-01
        -0.11253E-01
        -0.11253E-01
        -0.11253E-01
        -0.11253E-01
        -0.11253E-01
        -0.11253E-01
        -0.11253E-01
        -0.11253E-01
        -0.11253E-01
        -0.11253E-01
        -0.11253E-01
        -0.11253E-01
        -0.11253E-01
        -0.11253E-01
        -0.11253E-01
        -0.11253E-01
        -0.11253E-01
        -0.11253E-01
        -0.11253E-01
        -0.11253E-01
        -0.11253E-01
        -0.11253E-01
        -0.11253E-01
        -0.11253E-01
        -0.11253E-01
        -0.11253E-01
        -0.11253E-01
        -0.11253E-01
        -0.11253E-01
        -0.11253E-01
        -0.11253E-01
        -0.11253E-01
        -0.11253E-01
        -0.11253E-01
        -0.11253E-01
        -0.11253E-01
        -0.11253E-01
        -0.11253E-01
        -0.11253E-01
        -0.11253E-01
        -0.11253E-01
        -0.11253E-01
        -0.11253E-01
        -0.11253E-01
        -0.11253E-01
        -0.11253E-01
        -0.11253E-01
        -0.11253E-01
        -0.11253E-01
        -0.11253E-01
        -0.11253E-01
        -0.11253E-01
        -0.11253E-01
        -0.11253E-01
        -0.11253E-01
        -0.11253E-01
        -0.11253E-01
        -0.11253E-01
        -0.11253E-01
        -0.11253E-01
        -0.11253E-01
        -0.11253E-01
        -0.11253E-01
        -0.11253E-01
        -0.11253E-01
        -0.11253E-01
        -0.11253E-01
        -0.11253E-01
        -0.11253E-01
        -0.11253E-01
        -0.11253E-01
        -0.11253E-01
        -0.11253E-01
        -0.11253E-01
        -0.11253E-01
        -0.11253E-01
        -0.11253E-01
        -0.11253E-01
        -0.11253E-01
        -0.11253E-01
        -0.11253E-01
        -0.11253E-01
        -0.11253E-01
        -0.11253E-01
        -0.11253E-01
        -0.11253E-01
        -0.11253E-01
        -0.11253E-01
        -0.11253E-01
        -0.11253E-01
        -0.11253E-01
        -0.11253E-01
        -0.11253E-01
        -0.11253E-01
        -0.11253E-01
        -0.11253E-01
        -0.11253E-01
        -0.11253E-01
        -0.11253E-01
        -0.11253E-01
        -0.11253E-01
        -0.11253E-01
        -0.11253E-01
        -0.11253E-01
        -0.11253E-01
        -0.11253E-01
        -0.11253E-01
        -0.11253E-01
        -0.11253E-01
        -0.11253E-01
        -0.11253E-01
        -0.11253E-01
        -0.11253E-01
        -0.11253E-01
        -0.11253E-01
        -0.11253E-01
        -0.11253E-01
        -0.11253E-01
        -0.11253E-01
        -0.11253E-01
        -0.11253E-01
        -0.11253E-01
        -0.11253E-01
        -0.11253E-01
        -0.11253E-01
        -0.11253E-01
        -0.11253E-01
        -0.11253E-01
        -0.11253E-01
        -0.11253E-01
        -0.11253E-01
        -0.11253E-01
        -0.11253E-01
        -0.11253E-01
        -0.11253E-01
        -0.11253E-01
        -0.11253E-01
        -0.11253E-01
        -0.11253E-01
        -0.11253E-01
        -0.11253E-01
        -0.11253E-01
        -0.11253E-01
        -0.11253E-01
        -0.11253E-01
        -0.11253E-01
        -0.11253E-01
        -0.11253E-01
        -0.11253E-01
        -0.11253E-01
        -0.11253E-01
        -0.11253E-01
        -0.11253E-01
        -0.11253E-01
        -0.11253E-01
        -0.11253E-01
        -0.11253E-01
        -0.11253E-01
        -0.11253E-01
        -0.11253E-01
        -0.11253E-01
        -0.11253E-01
        -0.11253E-01
        -0.11253E-01
        -0.11253E-01
        -0.11253E-01
        -0.11253E-01
        -0.11253E-01
        -0.11253E-01
        -0.11253E-01
        -0.11253E-01
        -0.11253E-01
        -0.11253E-01
        -0.11253E-01
        -0.11253E-01
        -0.11253E-01
        -0.11253E-01
        -0.11253E-01
        -0.11253E-01
        -0.11253E-01
        -0.11253E-01
        -0.11253E-01
        -0.11253E-01
        -0.11253E-01
        -0.11253E-01
        -0.11253E-01
        -0.11253E-01
        -0.11253E-01
        -0.11253E-01
        -0.11253E-01
        -0.11253E-01
        -0.11253E-01
        -0.11253E-01
        -0.11253E-01
        -0.11253E-01
        -0.11253E-01
        -0.11253E-01
        -0.11253E-01
        -0.11253E-01
        -0.11253E-01
        -0.11253E-01
        -0.11253E-01
        -0.11253E-01
        -0.11253E-01
        -0.11253E-01
        -0.11253E-01
        -0.11253E-01
        -0.11253E-01
        -0.11253E-01
        -0.11253E-01
        -0.11253E-01
        -0.11253E-01
        -0.11253E-01
        -0.11253E-01
        -0.11253E-01
        -0.11253E-01
        -0.11253E-01
        -0.11253E-01
        -0.11253E-01
        -0.11253E-01
        -0.11253E-01
        -0.11253E-01
        -0.11253E-01
        -0.11253E-01
        -0.11253E-01
        -0.11253E-01
        -0.11253E-01
        -0.11253E-01
        -0.11253E-01
        -0.11253E-01
        -0.11253E-01
        -0.11253E-01
        -0.11253E-01
        -0.11253E-01
        -0.11253E-01
        -0.11253E-01
        -0.11253E-01
        -0.11253E-01
        -0.11253E-01
        -0.11253E-01
        -0.11253E-01
        -0.11253E-01
        -0.11253E-01
        -0.11253E-01
        -0.11253E-01
        -0.11253E-01
        -0.11253E-01
        -0.11253E-01
        -0.11253E-01
        -0.11253E-01
        -0.11253E-01
        -0.11253E-01
        -0.11253E-01
        -0.11253E-01
        -0.11253E-01
        -0.11253E-01
        -0.11253E-01
        -0.11253E-01
        -0.11253E-01
        -0.11253E-01
        -0.11253E-01
        -0.11253E-01
        -0.11253E-01
        -0.11253E-01
        -0.11253E-01
        -0.11253E-01
        -0.11253E-01
        -0.11253E-01
        -0.11253E-01
        -0.11253E-01
        -0.11253E-01
        -0.11253E-01
        -0.11253E-01
        -0.11253E-01
        -0.11253E-01
        -0.11253E-01
        -0.11253E-01
        -0.11253E-01
        -0.11253E-01
        -0.11253E-01
        -0.11253E-01
        -0.11253E-01
        -0.11253E-01
        -0.11253E-01
        -0.11253E-01
        -0.11253E-01
        -0.11253E-01
        -0.11253E-01
        -0.11253E-01
        -0.11253E-01
        -0.11253E-01
        -0.11253E-01
        -0.11253E-01
        -0.11253E-01
        -0.11253E-01
        -0.11253E-01
        -0.11253E-01
        -0.11253E-01
        -0.11253E-01
        -0.11253E-01
        -0.11253E-01
        -0.11253E-01
        -0.11253E-01
        -0.11253E-01
        -0.11253E-01
        -0.11253E-01
        -0.11253E-01
        -0.11253E-01
        -0.11253E-01
        -0.11253E-01
        -0.11253E-01
        -0.11253E-01
        -0.11253E-01
        -0.11253E-01
  
SCALARS                     velocity_x  double 1
LOOKUP_TABLE default
         0.00000E+00
         0.00000E+00
         0.00000E+00
         0.00000E+00
         0.00000E+00
         0.00000E+00
         0.00000E+00
         0.00000E+00
         0.00000E+00
         0.00000E+00
         0.00000E+00
         0.00000E+00
         0.00000E+00
         0.00000E+00
         0.00000E+00
         0.00000E+00
         0.00000E+00
         0.00000E+00
         0.00000E+00
         0.00000E+00
         0.00000E+00
         0.00000E+00
         0.00000E+00
         0.00000E+00
         0.00000E+00
         0.00000E+00
         0.00000E+00
         0.00000E+00
         0.00000E+00
         0.00000E+00
         0.00000E+00
         0.00000E+00
         0.00000E+00
         0.00000E+00
         0.00000E+00
         0.00000E+00
         0.00000E+00
         0.00000E+00
         0.00000E+00
         0.00000E+00
         0.00000E+00
         0.00000E+00
         0.00000E+00
         0.00000E+00
         0.00000E+00
         0.00000E+00
         0.00000E+00
         0.00000E+00
         0.00000E+00
         0.00000E+00
         0.00000E+00
         0.00000E+00
         0.00000E+00
         0.00000E+00
         0.00000E+00
         0.00000E+00
         0.00000E+00
         0.00000E+00
         0.00000E+00
         0.00000E+00
         0.00000E+00
         0.00000E+00
         0.00000E+00
         0.00000E+00
         0.00000E+00
         0.00000E+00
         0.00000E+00
         0.00000E+00
         0.00000E+00
         0.00000E+00
         0.00000E+00
         0.00000E+00
         0.00000E+00
         0.00000E+00
         0.00000E+00
         0.00000E+00
         0.00000E+00
         0.00000E+00
         0.00000E+00
         0.00000E+00
         0.00000E+00
         0.00000E+00
         0.00000E+00
         0.00000E+00
         0.00000E+00
         0.00000E+00
         0.00000E+00
         0.00000E+00
         0.00000E+00
         0.00000E+00
         0.00000E+00
         0.00000E+00
         0.00000E+00
         0.00000E+00
         0.00000E+00
         0.00000E+00
         0.00000E+00
         0.00000E+00
         0.00000E+00
         0.00000E+00
         0.00000E+00
         0.00000E+00
         0.00000E+00
         0.00000E+00
         0.00000E+00
         0.00000E+00
         0.00000E+00
         0.00000E+00
         0.00000E+00
         0.00000E+00
         0.00000E+00
         0.00000E+00
         0.00000E+00
         0.00000E+00
         0.00000E+00
         0.00000E+00
         0.00000E+00
         0.00000E+00
         0.00000E+00
         0.00000E+00
         0.00000E+00
         0.00000E+00
         0.00000E+00
         0.00000E+00
         0.00000E+00
         0.00000E+00
         0.00000E+00
         0.00000E+00
         0.00000E+00
         0.00000E+00
         0.00000E+00
         0.00000E+00
         0.00000E+00
         0.00000E+00
         0.00000E+00
         0.00000E+00
         0.00000E+00
         0.00000E+00
         0.00000E+00
         0.00000E+00
         0.00000E+00
         0.00000E+00
         0.00000E+00
         0.00000E+00
         0.00000E+00
         0.00000E+00
         0.00000E+00
         0.00000E+00
         0.00000E+00
         0.00000E+00
         0.00000E+00
         0.00000E+00
         0.00000E+00
         0.00000E+00
         0.00000E+00
         0.00000E+00
         0.00000E+00
         0.00000E+00
         0.00000E+00
         0.00000E+00
         0.00000E+00
         0.00000E+00
         0.00000E+00
         0.00000E+00
         0.00000E+00
         0.00000E+00
         0.00000E+00
         0.00000E+00
         0.00000E+00
         0.00000E+00
         0.00000E+00
         0.00000E+00
         0.00000E+00
         0.00000E+00
         0.00000E+00
         0.00000E+00
         0.00000E+00
         0.00000E+00
         0.00000E+00
         0.00000E+00
         0.00000E+00
         0.00000E+00
         0.00000E+00
         0.00000E+00
         0.00000E+00
         0.00000E+00
         0.00000E+00
         0.00000E+00
         0.00000E+00
         0.00000E+00
         0.00000E+00
         0.00000E+00
         0.00000E+00
         0.00000E+00
         0.00000E+00
         0.00000E+00
         0.00000E+00
         0.00000E+00
         0.00000E+00
         0.00000E+00
         0.00000E+00
         0.00000E+00
         0.00000E+00
         0.00000E+00
         0.00000E+00
         0.00000E+00
         0.00000E+00
         0.00000E+00
         0.00000E+00
         0.00000E+00
         0.00000E+00
         0.00000E+00
         0.00000E+00
         0.00000E+00
         0.00000E+00
         0.00000E+00
         0.00000E+00
         0.00000E+00
         0.00000E+00
         0.00000E+00
         0.00000E+00
         0.00000E+00
         0.00000E+00
         0.00000E+00
         0.00000E+00
         0.00000E+00
         0.00000E+00
         0.00000E+00
         0.00000E+00
         0.00000E+00
         0.00000E+00
         0.00000E+00
         0.00000E+00
         0.00000E+00
         0.00000E+00
         0.00000E+00
         0.00000E+00
         0.00000E+00
         0.00000E+00
         0.00000E+00
         0.00000E+00
         0.00000E+00
         0.00000E+00
         0.00000E+00
         0.00000E+00
         0.00000E+00
         0.00000E+00
         0.00000E+00
         0.00000E+00
         0.00000E+00
         0.00000E+00
         0.00000E+00
         0.00000E+00
         0.00000E+00
         0.00000E+00
         0.00000E+00
         0.00000E+00
         0.00000E+00
         0.00000E+00
         0.00000E+00
         0.00000E+00
         0.00000E+00
         0.00000E+00
         0.00000E+00
         0.00000E+00
         0.00000E+00
         0.00000E+00
         0.00000E+00
         0.00000E+00
         0.00000E+00
         0.00000E+00
         0.00000E+00
         0.00000E+00
         0.00000E+00
         0.00000E+00
         0.00000E+00
         0.00000E+00
         0.00000E+00
         0.00000E+00
         0.00000E+00
         0.00000E+00
         0.00000E+00
         0.00000E+00
         0.00000E+00
         0.00000E+00
         0.00000E+00
         0.00000E+00
         0.00000E+00
         0.00000E+00
         0.00000E+00
         0.00000E+00
         0.00000E+00
         0.00000E+00
         0.00000E+00
         0.00000E+00
         0.00000E+00
         0.00000E+00
         0.00000E+00
         0.00000E+00
         0.00000E+00
         0.00000E+00
         0.00000E+00
         0.00000E+00
         0.00000E+00
         0.00000E+00
         0.00000E+00
         0.00000E+00
         0.00000E+00
         0.00000E+00
         0.00000E+00
         0.00000E+00
         0.00000E+00
         0.00000E+00
         0.00000E+00
         0.00000E+00
         0.00000E+00
         0.00000E+00
         0.00000E+00
         0.00000E+00
         0.00000E+00
         0.00000E+00
         0.00000E+00
         0.00000E+00
         0.00000E+00
         0.00000E+00
         0.00000E+00
         0.00000E+00
         0.00000E+00
         0.00000E+00
         0.00000E+00
         0.00000E+00
         0.00000E+00
         0.00000E+00
         0.00000E+00
         0.00000E+00
         0.00000E+00
         0.00000E+00
         0.00000E+00
         0.00000E+00
         0.00000E+00
         0.00000E+00
         0.00000E+00
         0.00000E+00
         0.00000E+00
         0.00000E+00
         0.00000E+00
         0.00000E+00
         0.00000E+00
         0.00000E+00
         0.00000E+00
         0.00000E+00
         0.00000E+00
         0.00000E+00
         0.00000E+00
         0.00000E+00
         0.00000E+00
         0.00000E+00
         0.00000E+00
         0.00000E+00
         0.00000E+00
         0.00000E+00
         0.00000E+00
         0.00000E+00
         0.00000E+00
         0.00000E+00
         0.00000E+00
         0.00000E+00
         0.00000E+00
         0.00000E+00
         0.00000E+00
         0.00000E+00
         0.00000E+00
         0.00000E+00
         0.00000E+00
         0.00000E+00
         0.00000E+00
         0.00000E+00
         0.00000E+00
         0.00000E+00
         0.00000E+00
         0.00000E+00
         0.00000E+00
         0.00000E+00
         0.00000E+00
         0.00000E+00
         0.00000E+00
         0.00000E+00
         0.00000E+00
         0.00000E+00
         0.00000E+00
         0.00000E+00
         0.00000E+00
         0.00000E+00
         0.00000E+00
         0.00000E+00
         0.00000E+00
         0.00000E+00
         0.00000E+00
         0.00000E+00
         0.00000E+00
         0.00000E+00
         0.00000E+00
         0.00000E+00
         0.00000E+00
         0.00000E+00
         0.00000E+00
         0.00000E+00
         0.00000E+00
         0.00000E+00
         0.00000E+00
         0.00000E+00
         0.00000E+00
         0.00000E+00
         0.00000E+00
         0.00000E+00
         0.00000E+00
         0.00000E+00
         0.00000E+00
         0.00000E+00
         0.00000E+00
         0.00000E+00
         0.00000E+00
         0.00000E+00
         0.00000E+00
         0.00000E+00
         0.00000E+00
         0.00000E+00
         0.00000E+00
         0.00000E+00
         0.00000E+00
         0.00000E+00
         0.00000E+00
         0.00000E+00
         0.00000E+00
         0.00000E+00
         0.00000E+00
         0.00000E+00
         0.00000E+00
         0.00000E+00
         0.00000E+00
         0.00000E+00
         0.00000E+00
         0.00000E+00
         0.00000E+00
         0.00000E+00
         0.00000E+00
         0.00000E+00
         0.00000E+00
         0.00000E+00
         0.00000E+00
         0.00000E+00
         0.00000E+00
         0.00000E+00
         0.00000E+00
         0.00000E+00
         0.00000E+00
         0.00000E+00
         0.00000E+00
         0.00000E+00
         0.00000E+00
         0.00000E+00
         0.00000E+00
         0.00000E+00
         0.00000E+00
         0.00000E+00
         0.00000E+00
         0.00000E+00
         0.00000E+00
         0.00000E+00
         0.00000E+00
         0.00000E+00
         0.00000E+00
         0.00000E+00
         0.00000E+00
         0.00000E+00
         0.00000E+00
         0.00000E+00
         0.00000E+00
         0.00000E+00
         0.00000E+00
         0.00000E+00
         0.00000E+00
         0.00000E+00
         0.00000E+00
         0.00000E+00
         0.00000E+00
         0.00000E+00
         0.00000E+00
         0.00000E+00
         0.00000E+00
         0.00000E+00
         0.00000E+00
         0.00000E+00
         0.00000E+00
         0.00000E+00
         0.00000E+00
         0.00000E+00
         0.00000E+00
         0.00000E+00
         0.00000E+00
         0.00000E+00
         0.00000E+00
         0.00000E+00
         0.00000E+00
         0.00000E+00
         0.00000E+00
         0.00000E+00
         0.00000E+00
         0.00000E+00
         0.00000E+00
         0.00000E+00
         0.00000E+00
         0.00000E+00
         0.00000E+00
         0.00000E+00
         0.00000E+00
         0.00000E+00
         0.00000E+00
         0.00000E+00
         0.00000E+00
         0.00000E+00
         0.00000E+00
         0.00000E+00
         0.00000E+00
         0.00000E+00
         0.00000E+00
         0.00000E+00
         0.00000E+00
         0.00000E+00
         0.00000E+00
         0.00000E+00
         0.00000E+00
         0.00000E+00
         0.00000E+00
         0.00000E+00
         0.00000E+00
         0.00000E+00
         0.00000E+00
         0.00000E+00
         0.00000E+00
         0.00000E+00
         0.00000E+00
         0.00000E+00
         0.00000E+00
         0.00000E+00
         0.00000E+00
         0.00000E+00
         0.00000E+00
         0.00000E+00
         0.00000E+00
         0.00000E+00
         0.00000E+00
         0.00000E+00
         0.00000E+00
         0.00000E+00
         0.00000E+00
         0.00000E+00
         0.00000E+00
         0.00000E+00
         0.00000E+00
         0.00000E+00
         0.00000E+00
         0.00000E+00
         0.00000E+00
         0.00000E+00
         0.00000E+00
         0.00000E+00
         0.00000E+00
         0.00000E+00
         0.00000E+00
         0.00000E+00
         0.00000E+00
         0.00000E+00
         0.00000E+00
         0.00000E+00
         0.00000E+00
         0.00000E+00
         0.00000E+00
         0.00000E+00
         0.00000E+00
         0.00000E+00
         0.00000E+00
         0.00000E+00
         0.00000E+00
         0.00000E+00
         0.00000E+00
         0.00000E+00
         0.00000E+00
         0.00000E+00
         0.00000E+00
         0.00000E+00
         0.00000E+00
         0.00000E+00
         0.00000E+00
         0.00000E+00
         0.00000E+00
         0.00000E+00
         0.00000E+00
         0.00000E+00
         0.00000E+00
         0.00000E+00
         0.00000E+00
         0.00000E+00
         0.00000E+00
         0.00000E+00
         0.00000E+00
         0.00000E+00
         0.00000E+00
         0.00000E+00
         0.00000E+00
         0.00000E+00
         0.00000E+00
         0.00000E+00
         0.00000E+00
         0.00000E+00
         0.00000E+00
         0.00000E+00
         0.00000E+00
         0.00000E+00
         0.00000E+00
         0.00000E+00
         0.00000E+00
         0.00000E+00
         0.00000E+00
         0.00000E+00
         0.00000E+00
         0.00000E+00
         0.00000E+00
         0.00000E+00
         0.00000E+00
         0.00000E+00
         0.00000E+00
         0.00000E+00
         0.00000E+00
         0.00000E+00
         0.00000E+00
         0.00000E+00
         0.00000E+00
         0.00000E+00
         0.00000E+00
         0.00000E+00
         0.00000E+00
         0.00000E+00
         0.00000E+00
         0.00000E+00
         0.00000E+00
         0.00000E+00
         0.00000E+00
         0.00000E+00
         0.00000E+00
         0.00000E+00
         0.00000E+00
         0.00000E+00
         0.00000E+00
         0.00000E+00
         0.00000E+00
         0.00000E+00
         0.00000E+00
         0.00000E+00
         0.00000E+00
         0.00000E+00
         0.00000E+00
         0.00000E+00
         0.00000E+00
         0.00000E+00
         0.00000E+00
         0.00000E+00
         0.00000E+00
         0.00000E+00
         0.00000E+00
         0.00000E+00
         0.00000E+00
         0.00000E+00
         0.00000E+00
         0.00000E+00
         0.00000E+00
         0.00000E+00
         0.00000E+00
         0.00000E+00
         0.00000E+00
         0.00000E+00
         0.00000E+00
         0.00000E+00
         0.00000E+00
         0.00000E+00
         0.00000E+00
         0.00000E+00
         0.00000E+00
         0.00000E+00
         0.00000E+00
         0.00000E+00
         0.00000E+00
         0.00000E+00
         0.00000E+00
         0.00000E+00
         0.00000E+00
         0.00000E+00
         0.00000E+00
         0.00000E+00
         0.00000E+00
         0.00000E+00
         0.00000E+00
         0.00000E+00
         0.00000E+00
         0.00000E+00
         0.00000E+00
         0.00000E+00
         0.00000E+00
         0.00000E+00
         0.00000E+00
         0.00000E+00
         0.00000E+00
         0.00000E+00
         0.00000E+00
         0.00000E+00
         0.00000E+00
         0.00000E+00
         0.00000E+00
         0.00000E+00
         0.00000E+00
         0.00000E+00
         0.00000E+00
         0.00000E+00
         0.00000E+00
         0.00000E+00
         0.00000E+00
         0.00000E+00
         0.00000E+00
         0.00000E+00
         0.00000E+00
         0.00000E+00
         0.00000E+00
         0.00000E+00
         0.00000E+00
         0.00000E+00
         0.00000E+00
         0.00000E+00
         0.00000E+00
         0.00000E+00
         0.00000E+00
         0.00000E+00
         0.00000E+00
         0.00000E+00
         0.00000E+00
         0.00000E+00
         0.00000E+00
         0.00000E+00
         0.00000E+00
         0.00000E+00
         0.00000E+00
         0.00000E+00
         0.00000E+00
         0.00000E+00
         0.00000E+00
         0.00000E+00
         0.00000E+00
         0.00000E+00
         0.00000E+00
         0.00000E+00
         0.00000E+00
         0.00000E+00
         0.00000E+00
         0.00000E+00
         0.00000E+00
         0.00000E+00
         0.00000E+00
         0.00000E+00
         0.00000E+00
         0.00000E+00
         0.00000E+00
         0.00000E+00
         0.00000E+00
         0.00000E+00
         0.00000E+00
         0.00000E+00
         0.00000E+00
         0.00000E+00
         0.00000E+00
         0.00000E+00
         0.00000E+00
         0.00000E+00
         0.00000E+00
         0.00000E+00
         0.00000E+00
         0.00000E+00
         0.00000E+00
         0.00000E+00
         0.00000E+00
         0.00000E+00
         0.00000E+00
         0.00000E+00
         0.00000E+00
         0.00000E+00
         0.00000E+00
         0.00000E+00
         0.00000E+00
         0.00000E+00
         0.00000E+00
         0.00000E+00
         0.00000E+00
         0.00000E+00
         0.00000E+00
         0.00000E+00
         0.00000E+00
         0.00000E+00
         0.00000E+00
         0.00000E+00
         0.00000E+00
         0.00000E+00
         0.00000E+00
         0.00000E+00
         0.00000E+00
         0.00000E+00
         0.00000E+00
         0.00000E+00
         0.00000E+00
         0.00000E+00
         0.00000E+00
         0.00000E+00
         0.00000E+00
         0.00000E+00
         0.00000E+00
         0.00000E+00
         0.00000E+00
         0.00000E+00
         0.00000E+00
         0.00000E+00
         0.00000E+00
         0.00000E+00
         0.00000E+00
         0.00000E+00
         0.00000E+00
         0.00000E+00
         0.00000E+00
         0.00000E+00
         0.00000E+00
         0.00000E+00
         0.00000E+00
         0.00000E+00
         0.00000E+00
         0.00000E+00
         0.00000E+00
         0.00000E+00
         0.00000E+00
         0.00000E+00
         0.00000E+00
         0.00000E+00
         0.00000E+00
         0.00000E+00
         0.00000E+00
         0.00000E+00
         0.00000E+00
         0.00000E+00
         0.00000E+00
         0.00000E+00
         0.00000E+00
         0.00000E+00
         0.00000E+00
         0.00000E+00
         0.00000E+00
         0.00000E+00
         0.00000E+00
         0.00000E+00
         0.00000E+00
         0.00000E+00
         0.00000E+00
         0.00000E+00
         0.00000E+00
         0.00000E+00
         0.00000E+00
         0.00000E+00
         0.00000E+00
         0.00000E+00
         0.00000E+00
         0.00000E+00
         0.00000E+00
         0.00000E+00
         0.00000E+00
         0.00000E+00
         0.00000E+00
         0.00000E+00
         0.00000E+00
         0.00000E+00
         0.00000E+00
         0.00000E+00
         0.00000E+00
         0.00000E+00
         0.00000E+00
         0.00000E+00
         0.00000E+00
         0.00000E+00
         0.00000E+00
         0.00000E+00
         0.00000E+00
         0.00000E+00
         0.00000E+00
         0.00000E+00
         0.00000E+00
         0.00000E+00
         0.00000E+00
         0.00000E+00
         0.00000E+00
         0.00000E+00
         0.00000E+00
         0.00000E+00
         0.00000E+00
         0.00000E+00
         0.00000E+00
         0.00000E+00
         0.00000E+00
         0.00000E+00
         0.00000E+00
         0.00000E+00
         0.00000E+00
         0.00000E+00
         0.00000E+00
         0.00000E+00
         0.00000E+00
         0.00000E+00
         0.00000E+00
         0.00000E+00
         0.00000E+00
         0.00000E+00
         0.00000E+00
         0.00000E+00
         0.00000E+00
         0.00000E+00
         0.00000E+00
         0.00000E+00
         0.00000E+00
         0.00000E+00
         0.00000E+00
         0.00000E+00
         0.00000E+00
         0.00000E+00
         0.00000E+00
         0.00000E+00
         0.00000E+00
         0.00000E+00
         0.00000E+00
         0.00000E+00
         0.00000E+00
         0.00000E+00
         0.00000E+00
         0.00000E+00
         0.00000E+00
         0.00000E+00
         0.00000E+00
         0.00000E+00
         0.00000E+00
         0.00000E+00
         0.00000E+00
         0.00000E+00
         0.00000E+00
         0.00000E+00
         0.00000E+00
         0.00000E+00
         0.00000E+00
         0.00000E+00
         0.00000E+00
         0.00000E+00
         0.00000E+00
         0.00000E+00
         0.00000E+00
         0.00000E+00
         0.00000E+00
         0.00000E+00
         0.00000E+00
         0.00000E+00
         0.00000E+00
         0.00000E+00
         0.00000E+00
         0.00000E+00
         0.00000E+00
         0.00000E+00
         0.00000E+00
         0.00000E+00
         0.00000E+00
         0.00000E+00
         0.00000E+00
         0.00000E+00
         0.00000E+00
         0.00000E+00
         0.00000E+00
         0.00000E+00
         0.00000E+00
         0.00000E+00
         0.00000E+00
         0.00000E+00
         0.00000E+00
         0.00000E+00
         0.00000E+00
         0.00000E+00
         0.00000E+00
         0.00000E+00
         0.00000E+00
         0.00000E+00
         0.00000E+00
         0.00000E+00
         0.00000E+00
         0.00000E+00
         0.00000E+00
         0.00000E+00
         0.00000E+00
         0.00000E+00
         0.00000E+00
         0.00000E+00
         0.00000E+00
         0.00000E+00
         0.00000E+00
         0.00000E+00
         0.00000E+00
         0.00000E+00
         0.00000E+00
         0.00000E+00
         0.00000E+00
         0.00000E+00
         0.00000E+00
         0.00000E+00
         0.00000E+00
         0.00000E+00
         0.00000E+00
         0.00000E+00
         0.00000E+00
         0.00000E+00
         0.00000E+00
         0.00000E+00
         0.00000E+00
         0.00000E+00
         0.00000E+00
         0.00000E+00
         0.00000E+00
         0.00000E+00
         0.00000E+00
         0.00000E+00
         0.00000E+00
         0.00000E+00
         0.00000E+00
         0.00000E+00
         0.00000E+00
         0.00000E+00
         0.00000E+00
         0.00000E+00
         0.00000E+00
         0.00000E+00
         0.00000E+00
         0.00000E+00
         0.00000E+00
         0.00000E+00
         0.00000E+00
         0.00000E+00
         0.00000E+00
         0.00000E+00
         0.00000E+00
         0.00000E+00
         0.00000E+00
         0.00000E+00
         0.00000E+00
         0.00000E+00
         0.00000E+00
         0.00000E+00
         0.00000E+00
         0.00000E+00
         0.00000E+00
         0.00000E+00
         0.00000E+00
         0.00000E+00
         0.00000E+00
         0.00000E+00
         0.00000E+00
         0.00000E+00
         0.00000E+00
         0.00000E+00
         0.00000E+00
         0.00000E+00
         0.00000E+00
         0.00000E+00
         0.00000E+00
         0.00000E+00
         0.00000E+00
         0.00000E+00
         0.00000E+00
         0.00000E+00
         0.00000E+00
         0.00000E+00
         0.00000E+00
         0.00000E+00
         0.00000E+00
         0.00000E+00
         0.00000E+00
         0.00000E+00
         0.00000E+00
         0.00000E+00
         0.00000E+00
         0.00000E+00
         0.00000E+00
         0.00000E+00
         0.00000E+00
         0.00000E+00
         0.00000E+00
         0.00000E+00
         0.00000E+00
         0.00000E+00
         0.00000E+00
         0.00000E+00
         0.00000E+00
         0.00000E+00
         0.00000E+00
         0.00000E+00
         0.00000E+00
         0.00000E+00
         0.00000E+00
         0.00000E+00
         0.00000E+00
         0.00000E+00
         0.00000E+00
         0.00000E+00
         0.00000E+00
         0.00000E+00
         0.00000E+00
         0.00000E+00
         0.00000E+00
         0.00000E+00
         0.00000E+00
         0.00000E+00
         0.00000E+00
         0.00000E+00
         0.00000E+00
         0.00000E+00
         0.00000E+00
         0.00000E+00
         0.00000E+00
         0.00000E+00
         0.00000E+00
         0.00000E+00
         0.00000E+00
         0.00000E+00
         0.00000E+00
         0.00000E+00
         0.00000E+00
         0.00000E+00
         0.00000E+00
         0.00000E+00
         0.00000E+00
         0.00000E+00
         0.00000E+00
         0.00000E+00
         0.00000E+00
         0.00000E+00
         0.00000E+00
         0.00000E+00
         0.00000E+00
         0.00000E+00
         0.00000E+00
         0.00000E+00
         0.00000E+00
         0.00000E+00
         0.00000E+00
         0.00000E+00
         0.00000E+00
         0.00000E+00
         0.00000E+00
         0.00000E+00
         0.00000E+00
         0.00000E+00
         0.00000E+00
         0.00000E+00
         0.00000E+00
         0.00000E+00
         0.00000E+00
         0.00000E+00
         0.00000E+00
         0.00000E+00
         0.00000E+00
         0.00000E+00
         0.00000E+00
         0.00000E+00
         0.00000E+00
         0.00000E+00
         0.00000E+00
         0.00000E+00
         0.00000E+00
         0.00000E+00
         0.00000E+00
         0.00000E+00
         0.00000E+00
         0.00000E+00
         0.00000E+00
         0.00000E+00
         0.00000E+00
         0.00000E+00
         0.00000E+00
         0.00000E+00
         0.00000E+00
         0.00000E+00
         0.00000E+00
         0.00000E+00
         0.00000E+00
         0.00000E+00
         0.00000E+00
         0.00000E+00
         0.00000E+00
         0.00000E+00
         0.00000E+00
         0.00000E+00
         0.00000E+00
         0.00000E+00
         0.00000E+00
         0.00000E+00
         0.00000E+00
         0.00000E+00
         0.00000E+00
         0.00000E+00
         0.00000E+00
         0.00000E+00
         0.00000E+00
         0.00000E+00
         0.00000E+00
         0.00000E+00
         0.00000E+00
         0.00000E+00
         0.00000E+00
         0.00000E+00
         0.00000E+00
         0.00000E+00
         0.00000E+00
         0.00000E+00
         0.00000E+00
         0.00000E+00
         0.00000E+00
         0.00000E+00
         0.00000E+00
         0.00000E+00
         0.00000E+00
         0.00000E+00
         0.00000E+00
         0.00000E+00
         0.00000E+00
         0.00000E+00
         0.00000E+00
         0.00000E+00
         0.00000E+00
         0.00000E+00
         0.00000E+00
         0.00000E+00
         0.00000E+00
         0.00000E+00
         0.00000E+00
         0.00000E+00
         0.00000E+00
         0.00000E+00
         0.00000E+00
         0.00000E+00
         0.00000E+00
         0.00000E+00
         0.00000E+00
         0.00000E+00
         0.00000E+00
         0.00000E+00
         0.00000E+00
         0.00000E+00
         0.00000E+00
         0.00000E+00
         0.00000E+00
         0.00000E+00
         0.00000E+00
         0.00000E+00
         0.00000E+00
         0.00000E+00
         0.00000E+00
         0.00000E+00
         0.00000E+00
         0.00000E+00
         0.00000E+00
         0.00000E+00
         0.00000E+00
         0.00000E+00
         0.00000E+00
         0.00000E+00
         0.00000E+00
         0.00000E+00
         0.00000E+00
         0.00000E+00
         0.00000E+00
         0.00000E+00
         0.00000E+00
         0.00000E+00
         0.00000E+00
         0.00000E+00
         0.00000E+00
         0.00000E+00
         0.00000E+00
         0.00000E+00
         0.00000E+00
         0.00000E+00
         0.00000E+00
         0.00000E+00
         0.00000E+00
         0.00000E+00
         0.00000E+00
         0.00000E+00
         0.00000E+00
         0.00000E+00
         0.00000E+00
         0.00000E+00
         0.00000E+00
         0.00000E+00
         0.00000E+00
         0.00000E+00
         0.00000E+00
         0.00000E+00
         0.00000E+00
         0.00000E+00
         0.00000E+00
         0.00000E+00
         0.00000E+00
         0.00000E+00
         0.00000E+00
         0.00000E+00
         0.00000E+00
         0.00000E+00
         0.00000E+00
         0.00000E+00
         0.00000E+00
         0.00000E+00
         0.00000E+00
         0.00000E+00
         0.00000E+00
         0.00000E+00
         0.00000E+00
         0.00000E+00
         0.00000E+00
         0.00000E+00
         0.00000E+00
         0.00000E+00
         0.00000E+00
         0.00000E+00
         0.00000E+00
         0.00000E+00
         0.00000E+00
         0.00000E+00
         0.00000E+00
         0.00000E+00
         0.00000E+00
         0.00000E+00
         0.00000E+00
         0.00000E+00
         0.00000E+00
         0.00000E+00
         0.00000E+00
         0.00000E+00
         0.00000E+00
         0.00000E+00
         0.00000E+00
         0.00000E+00
         0.00000E+00
         0.00000E+00
         0.00000E+00
         0.00000E+00
         0.00000E+00
         0.00000E+00
         0.00000E+00
         0.00000E+00
         0.00000E+00
         0.00000E+00
         0.00000E+00
         0.00000E+00
         0.00000E+00
         0.00000E+00
         0.00000E+00
         0.00000E+00
         0.00000E+00
         0.00000E+00
         0.00000E+00
         0.00000E+00
         0.00000E+00
         0.00000E+00
         0.00000E+00
         0.00000E+00
         0.00000E+00
         0.00000E+00
         0.00000E+00
         0.00000E+00
         0.00000E+00
         0.00000E+00
         0.00000E+00
         0.00000E+00
         0.00000E+00
         0.00000E+00
         0.00000E+00
         0.00000E+00
         0.00000E+00
         0.00000E+00
         0.00000E+00
         0.00000E+00
         0.00000E+00
         0.00000E+00
         0.00000E+00
         0.00000E+00
         0.00000E+00
         0.00000E+00
         0.00000E+00
         0.00000E+00
         0.00000E+00
         0.00000E+00
         0.00000E+00
         0.00000E+00
         0.00000E+00
         0.00000E+00
         0.00000E+00
         0.00000E+00
         0.00000E+00
         0.00000E+00
         0.00000E+00
         0.00000E+00
         0.00000E+00
         0.00000E+00
         0.00000E+00
         0.00000E+00
         0.00000E+00
         0.00000E+00
         0.00000E+00
         0.00000E+00
         0.00000E+00
         0.00000E+00
         0.00000E+00
         0.00000E+00
         0.00000E+00
         0.00000E+00
         0.00000E+00
         0.00000E+00
         0.00000E+00
         0.00000E+00
         0.00000E+00
         0.00000E+00
         0.00000E+00
         0.00000E+00
         0.00000E+00
         0.00000E+00
         0.00000E+00
         0.00000E+00
         0.00000E+00
         0.00000E+00
         0.00000E+00
         0.00000E+00
         0.00000E+00
         0.00000E+00
         0.00000E+00
         0.00000E+00
         0.00000E+00
         0.00000E+00
         0.00000E+00
         0.00000E+00
         0.00000E+00
         0.00000E+00
         0.00000E+00
         0.00000E+00
         0.00000E+00
         0.00000E+00
         0.00000E+00
         0.00000E+00
         0.00000E+00
         0.00000E+00
         0.00000E+00
         0.00000E+00
         0.00000E+00
         0.00000E+00
         0.00000E+00
         0.00000E+00
         0.00000E+00
         0.00000E+00
         0.00000E+00
         0.00000E+00
         0.00000E+00
         0.00000E+00
         0.00000E+00
         0.00000E+00
         0.00000E+00
         0.00000E+00
         0.00000E+00
         0.00000E+00
         0.00000E+00
         0.00000E+00
         0.00000E+00
         0.00000E+00
         0.00000E+00
         0.00000E+00
         0.00000E+00
         0.00000E+00
         0.00000E+00
         0.00000E+00
         0.00000E+00
         0.00000E+00
         0.00000E+00
         0.00000E+00
         0.00000E+00
         0.00000E+00
         0.00000E+00
         0.00000E+00
         0.00000E+00
         0.00000E+00
         0.00000E+00
         0.00000E+00
         0.00000E+00
         0.00000E+00
         0.00000E+00
         0.00000E+00
         0.00000E+00
         0.00000E+00
         0.00000E+00
         0.00000E+00
         0.00000E+00
         0.00000E+00
         0.00000E+00
         0.00000E+00
         0.00000E+00
         0.00000E+00
         0.00000E+00
         0.00000E+00
         0.00000E+00
         0.00000E+00
         0.00000E+00
         0.00000E+00
         0.00000E+00
         0.00000E+00
         0.00000E+00
         0.00000E+00
         0.00000E+00
         0.00000E+00
         0.00000E+00
         0.00000E+00
         0.00000E+00
         0.00000E+00
         0.00000E+00
         0.00000E+00
         0.00000E+00
         0.00000E+00
         0.00000E+00
         0.00000E+00
         0.00000E+00
         0.00000E+00
         0.00000E+00
         0.00000E+00
         0.00000E+00
         0.00000E+00
         0.00000E+00
         0.00000E+00
         0.00000E+00
         0.00000E+00
         0.00000E+00
         0.00000E+00
         0.00000E+00
         0.00000E+00
         0.00000E+00
         0.00000E+00
         0.00000E+00
         0.00000E+00
         0.00000E+00
         0.00000E+00
         0.00000E+00
         0.00000E+00
         0.00000E+00
         0.00000E+00
         0.00000E+00
         0.00000E+00
         0.00000E+00
         0.00000E+00
         0.00000E+00
         0.00000E+00
         0.00000E+00
         0.00000E+00
         0.00000E+00
         0.00000E+00
         0.00000E+00
         0.00000E+00
         0.00000E+00
         0.00000E+00
         0.00000E+00
         0.00000E+00
         0.00000E+00
         0.00000E+00
         0.00000E+00
         0.00000E+00
         0.00000E+00
         0.00000E+00
         0.00000E+00
         0.00000E+00
         0.00000E+00
         0.00000E+00
         0.00000E+00
         0.00000E+00
         0.00000E+00
         0.00000E+00
         0.00000E+00
         0.00000E+00
         0.00000E+00
         0.00000E+00
         0.00000E+00
         0.00000E+00
         0.00000E+00
         0.00000E+00
         0.00000E+00
         0.00000E+00
         0.00000E+00
         0.00000E+00
         0.00000E+00
         0.00000E+00
         0.00000E+00
         0.00000E+00
         0.00000E+00
         0.00000E+00
         0.00000E+00
         0.00000E+00
         0.00000E+00
         0.00000E+00
         0.00000E+00
         0.00000E+00
         0.00000E+00
         0.00000E+00
         0.00000E+00
         0.00000E+00
         0.00000E+00
         0.00000E+00
         0.00000E+00
         0.00000E+00
         0.00000E+00
         0.00000E+00
         0.00000E+00
         0.00000E+00
         0.00000E+00
         0.00000E+00
         0.00000E+00
         0.00000E+00
         0.00000E+00
         0.00000E+00
         0.00000E+00
         0.00000E+00
         0.00000E+00
         0.00000E+00
         0.00000E+00
         0.00000E+00
         0.00000E+00
         0.00000E+00
         0.00000E+00
         0.00000E+00
         0.00000E+00
         0.00000E+00
         0.00000E+00
         0.00000E+00
         0.00000E+00
         0.00000E+00
         0.00000E+00
         0.00000E+00
         0.00000E+00
         0.00000E+00
         0.00000E+00
         0.00000E+00
         0.00000E+00
         0.00000E+00
         0.00000E+00
         0.00000E+00
         0.00000E+00
         0.00000E+00
         0.00000E+00
         0.00000E+00
         0.00000E+00
         0.00000E+00
         0.00000E+00
         0.00000E+00
         0.00000E+00
         0.00000E+00
         0.00000E+00
         0.00000E+00
         0.00000E+00
         0.00000E+00
         0.00000E+00
         0.00000E+00
         0.00000E+00
         0.00000E+00
         0.00000E+00
         0.00000E+00
         0.00000E+00
         0.00000E+00
         0.00000E+00
         0.00000E+00
         0.00000E+00
         0.00000E+00
         0.00000E+00
         0.00000E+00
         0.00000E+00
         0.00000E+00
         0.00000E+00
         0.00000E+00
         0.00000E+00
         0.00000E+00
         0.00000E+00
         0.00000E+00
         0.00000E+00
         0.00000E+00
         0.00000E+00
         0.00000E+00
         0.00000E+00
         0.00000E+00
         0.00000E+00
         0.00000E+00
         0.00000E+00
         0.00000E+00
         0.00000E+00
         0.00000E+00
         0.00000E+00
         0.00000E+00
         0.00000E+00
         0.00000E+00
         0.00000E+00
         0.00000E+00
         0.00000E+00
         0.00000E+00
         0.00000E+00
         0.00000E+00
         0.00000E+00
         0.00000E+00
         0.00000E+00
         0.00000E+00
         0.00000E+00
         0.00000E+00
         0.00000E+00
         0.00000E+00
         0.00000E+00
         0.00000E+00
         0.00000E+00
         0.00000E+00
         0.00000E+00
         0.00000E+00
         0.00000E+00
         0.00000E+00
         0.00000E+00
         0.00000E+00
         0.00000E+00
         0.00000E+00
         0.00000E+00
         0.00000E+00
         0.00000E+00
         0.00000E+00
         0.00000E+00
         0.00000E+00
         0.00000E+00
         0.00000E+00
         0.00000E+00
         0.00000E+00
         0.00000E+00
         0.00000E+00
         0.00000E+00
         0.00000E+00
         0.00000E+00
         0.00000E+00
         0.00000E+00
         0.00000E+00
         0.00000E+00
         0.00000E+00
         0.00000E+00
         0.00000E+00
         0.00000E+00
         0.00000E+00
         0.00000E+00
         0.00000E+00
         0.00000E+00
         0.00000E+00
         0.00000E+00
         0.00000E+00
         0.00000E+00
         0.00000E+00
         0.00000E+00
         0.00000E+00
         0.00000E+00
         0.00000E+00
         0.00000E+00
         0.00000E+00
         0.00000E+00
         0.00000E+00
         0.00000E+00
         0.00000E+00
         0.00000E+00
         0.00000E+00
         0.00000E+00
         0.00000E+00
         0.00000E+00
         0.00000E+00
         0.00000E+00
         0.00000E+00
         0.00000E+00
         0.00000E+00
         0.00000E+00
         0.00000E+00
         0.00000E+00
         0.00000E+00
         0.00000E+00
         0.00000E+00
         0.00000E+00
         0.00000E+00
         0.00000E+00
         0.00000E+00
         0.00000E+00
         0.00000E+00
         0.00000E+00
         0.00000E+00
         0.00000E+00
         0.00000E+00
         0.00000E+00
         0.00000E+00
         0.00000E+00
         0.00000E+00
         0.00000E+00
         0.00000E+00
         0.00000E+00
         0.00000E+00
         0.00000E+00
         0.00000E+00
         0.00000E+00
         0.00000E+00
         0.00000E+00
         0.00000E+00
         0.00000E+00
         0.00000E+00
         0.00000E+00
         0.00000E+00
         0.00000E+00
         0.00000E+00
         0.00000E+00
         0.00000E+00
         0.00000E+00
         0.00000E+00
         0.00000E+00
         0.00000E+00
         0.00000E+00
         0.00000E+00
         0.00000E+00
         0.00000E+00
         0.00000E+00
         0.00000E+00
         0.00000E+00
         0.00000E+00
         0.00000E+00
         0.00000E+00
         0.00000E+00
         0.00000E+00
         0.00000E+00
         0.00000E+00
         0.00000E+00
         0.00000E+00
         0.00000E+00
         0.00000E+00
         0.00000E+00
         0.00000E+00
         0.00000E+00
         0.00000E+00
         0.00000E+00
         0.00000E+00
         0.00000E+00
         0.00000E+00
         0.00000E+00
         0.00000E+00
         0.00000E+00
         0.00000E+00
         0.00000E+00
         0.00000E+00
         0.00000E+00
         0.00000E+00
         0.00000E+00
         0.00000E+00
         0.00000E+00
         0.00000E+00
         0.00000E+00
         0.00000E+00
         0.00000E+00
         0.00000E+00
         0.00000E+00
         0.00000E+00
         0.00000E+00
         0.00000E+00
         0.00000E+00
         0.00000E+00
         0.00000E+00
         0.00000E+00
         0.00000E+00
         0.00000E+00
         0.00000E+00
         0.00000E+00
         0.00000E+00
         0.00000E+00
         0.00000E+00
         0.00000E+00
         0.00000E+00
         0.00000E+00
         0.00000E+00
         0.00000E+00
         0.00000E+00
         0.00000E+00
         0.00000E+00
         0.00000E+00
         0.00000E+00
         0.00000E+00
         0.00000E+00
         0.00000E+00
         0.00000E+00
         0.00000E+00
         0.00000E+00
         0.00000E+00
         0.00000E+00
         0.00000E+00
         0.00000E+00
         0.00000E+00
         0.00000E+00
         0.00000E+00
         0.00000E+00
         0.00000E+00
         0.00000E+00
         0.00000E+00
         0.00000E+00
         0.00000E+00
         0.00000E+00
         0.00000E+00
         0.00000E+00
         0.00000E+00
         0.00000E+00
         0.00000E+00
         0.00000E+00
         0.00000E+00
         0.00000E+00
         0.00000E+00
         0.00000E+00
         0.00000E+00
         0.00000E+00
         0.00000E+00
         0.00000E+00
         0.00000E+00
         0.00000E+00
         0.00000E+00
         0.00000E+00
         0.00000E+00
         0.00000E+00
         0.00000E+00
         0.00000E+00
         0.00000E+00
         0.00000E+00
         0.00000E+00
         0.00000E+00
         0.00000E+00
         0.00000E+00
         0.00000E+00
         0.00000E+00
  
SCALARS                     velocity_y  double 1
LOOKUP_TABLE default
         0.00000E+00
         0.00000E+00
         0.00000E+00
         0.00000E+00
         0.00000E+00
         0.00000E+00
         0.00000E+00
         0.00000E+00
         0.00000E+00
         0.00000E+00
         0.00000E+00
         0.00000E+00
         0.00000E+00
         0.00000E+00
         0.00000E+00
         0.00000E+00
         0.00000E+00
         0.00000E+00
         0.00000E+00
         0.00000E+00
         0.00000E+00
         0.00000E+00
         0.00000E+00
         0.00000E+00
         0.00000E+00
         0.00000E+00
         0.00000E+00
         0.00000E+00
         0.00000E+00
         0.00000E+00
         0.00000E+00
         0.00000E+00
         0.00000E+00
         0.00000E+00
         0.00000E+00
         0.00000E+00
         0.00000E+00
         0.00000E+00
         0.00000E+00
         0.00000E+00
         0.00000E+00
         0.00000E+00
         0.00000E+00
         0.00000E+00
         0.00000E+00
         0.00000E+00
         0.00000E+00
         0.00000E+00
         0.00000E+00
         0.00000E+00
         0.00000E+00
         0.00000E+00
         0.00000E+00
         0.00000E+00
         0.00000E+00
         0.00000E+00
         0.00000E+00
         0.00000E+00
         0.00000E+00
         0.00000E+00
         0.00000E+00
         0.00000E+00
         0.00000E+00
         0.00000E+00
         0.00000E+00
         0.00000E+00
         0.00000E+00
         0.00000E+00
         0.00000E+00
         0.00000E+00
         0.00000E+00
         0.00000E+00
         0.00000E+00
         0.00000E+00
         0.00000E+00
         0.00000E+00
         0.00000E+00
         0.00000E+00
         0.00000E+00
         0.00000E+00
         0.00000E+00
         0.00000E+00
         0.00000E+00
         0.00000E+00
         0.00000E+00
         0.00000E+00
         0.00000E+00
         0.00000E+00
         0.00000E+00
         0.00000E+00
         0.00000E+00
         0.00000E+00
         0.00000E+00
         0.00000E+00
         0.00000E+00
         0.00000E+00
         0.00000E+00
         0.00000E+00
         0.00000E+00
         0.00000E+00
         0.00000E+00
         0.00000E+00
         0.00000E+00
         0.00000E+00
         0.00000E+00
         0.00000E+00
         0.00000E+00
         0.00000E+00
         0.00000E+00
         0.00000E+00
         0.00000E+00
         0.00000E+00
         0.00000E+00
         0.00000E+00
         0.00000E+00
         0.00000E+00
         0.00000E+00
         0.00000E+00
         0.00000E+00
         0.00000E+00
         0.00000E+00
         0.00000E+00
         0.00000E+00
         0.00000E+00
         0.00000E+00
         0.00000E+00
         0.00000E+00
         0.00000E+00
         0.00000E+00
         0.00000E+00
         0.00000E+00
         0.00000E+00
         0.00000E+00
         0.00000E+00
         0.00000E+00
         0.00000E+00
         0.00000E+00
         0.00000E+00
         0.00000E+00
         0.00000E+00
         0.00000E+00
         0.00000E+00
         0.00000E+00
         0.00000E+00
         0.00000E+00
         0.00000E+00
         0.00000E+00
         0.00000E+00
         0.00000E+00
         0.00000E+00
         0.00000E+00
         0.00000E+00
         0.00000E+00
         0.00000E+00
         0.00000E+00
         0.00000E+00
         0.00000E+00
         0.00000E+00
         0.00000E+00
         0.00000E+00
         0.00000E+00
         0.00000E+00
         0.00000E+00
         0.00000E+00
         0.00000E+00
         0.00000E+00
         0.00000E+00
         0.00000E+00
         0.00000E+00
         0.00000E+00
         0.00000E+00
         0.00000E+00
         0.00000E+00
         0.00000E+00
         0.00000E+00
         0.00000E+00
         0.00000E+00
         0.00000E+00
         0.00000E+00
         0.00000E+00
         0.00000E+00
         0.00000E+00
         0.00000E+00
         0.00000E+00
         0.00000E+00
         0.00000E+00
         0.00000E+00
         0.00000E+00
         0.00000E+00
         0.00000E+00
         0.00000E+00
         0.00000E+00
         0.00000E+00
         0.00000E+00
         0.00000E+00
         0.00000E+00
         0.00000E+00
         0.00000E+00
         0.00000E+00
         0.00000E+00
         0.00000E+00
         0.00000E+00
         0.00000E+00
         0.00000E+00
         0.00000E+00
         0.00000E+00
         0.00000E+00
         0.00000E+00
         0.00000E+00
         0.00000E+00
         0.00000E+00
         0.00000E+00
         0.00000E+00
         0.00000E+00
         0.00000E+00
         0.00000E+00
         0.00000E+00
         0.00000E+00
         0.00000E+00
         0.00000E+00
         0.00000E+00
         0.00000E+00
         0.00000E+00
         0.00000E+00
         0.00000E+00
         0.00000E+00
         0.00000E+00
         0.00000E+00
         0.00000E+00
         0.00000E+00
         0.00000E+00
         0.00000E+00
         0.00000E+00
         0.00000E+00
         0.00000E+00
         0.00000E+00
         0.00000E+00
         0.00000E+00
         0.00000E+00
         0.00000E+00
         0.00000E+00
         0.00000E+00
         0.00000E+00
         0.00000E+00
         0.00000E+00
         0.00000E+00
         0.00000E+00
         0.00000E+00
         0.00000E+00
         0.00000E+00
         0.00000E+00
         0.00000E+00
         0.00000E+00
         0.00000E+00
         0.00000E+00
         0.00000E+00
         0.00000E+00
         0.00000E+00
         0.00000E+00
         0.00000E+00
         0.00000E+00
         0.00000E+00
         0.00000E+00
         0.00000E+00
         0.00000E+00
         0.00000E+00
         0.00000E+00
         0.00000E+00
         0.00000E+00
         0.00000E+00
         0.00000E+00
         0.00000E+00
         0.00000E+00
         0.00000E+00
         0.00000E+00
         0.00000E+00
         0.00000E+00
         0.00000E+00
         0.00000E+00
         0.00000E+00
         0.00000E+00
         0.00000E+00
         0.00000E+00
         0.00000E+00
         0.00000E+00
         0.00000E+00
         0.00000E+00
         0.00000E+00
         0.00000E+00
         0.00000E+00
         0.00000E+00
         0.00000E+00
         0.00000E+00
         0.00000E+00
         0.00000E+00
         0.00000E+00
         0.00000E+00
         0.00000E+00
         0.00000E+00
         0.00000E+00
         0.00000E+00
         0.00000E+00
         0.00000E+00
         0.00000E+00
         0.00000E+00
         0.00000E+00
         0.00000E+00
         0.00000E+00
         0.00000E+00
         0.00000E+00
         0.00000E+00
         0.00000E+00
         0.00000E+00
         0.00000E+00
         0.00000E+00
         0.00000E+00
         0.00000E+00
         0.00000E+00
         0.00000E+00
         0.00000E+00
         0.00000E+00
         0.00000E+00
         0.00000E+00
         0.00000E+00
         0.00000E+00
         0.00000E+00
         0.00000E+00
         0.00000E+00
         0.00000E+00
         0.00000E+00
         0.00000E+00
         0.00000E+00
         0.00000E+00
         0.00000E+00
         0.00000E+00
         0.00000E+00
         0.00000E+00
         0.00000E+00
         0.00000E+00
         0.00000E+00
         0.00000E+00
         0.00000E+00
         0.00000E+00
         0.00000E+00
         0.00000E+00
         0.00000E+00
         0.00000E+00
         0.00000E+00
         0.00000E+00
         0.00000E+00
         0.00000E+00
         0.00000E+00
         0.00000E+00
         0.00000E+00
         0.00000E+00
         0.00000E+00
         0.00000E+00
         0.00000E+00
         0.00000E+00
         0.00000E+00
         0.00000E+00
         0.00000E+00
         0.00000E+00
         0.00000E+00
         0.00000E+00
         0.00000E+00
         0.00000E+00
         0.00000E+00
         0.00000E+00
         0.00000E+00
         0.00000E+00
         0.00000E+00
         0.00000E+00
         0.00000E+00
         0.00000E+00
         0.00000E+00
         0.00000E+00
         0.00000E+00
         0.00000E+00
         0.00000E+00
         0.00000E+00
         0.00000E+00
         0.00000E+00
         0.00000E+00
         0.00000E+00
         0.00000E+00
         0.00000E+00
         0.00000E+00
         0.00000E+00
         0.00000E+00
         0.00000E+00
         0.00000E+00
         0.00000E+00
         0.00000E+00
         0.00000E+00
         0.00000E+00
         0.00000E+00
         0.00000E+00
         0.00000E+00
         0.00000E+00
         0.00000E+00
         0.00000E+00
         0.00000E+00
         0.00000E+00
         0.00000E+00
         0.00000E+00
         0.00000E+00
         0.00000E+00
         0.00000E+00
         0.00000E+00
         0.00000E+00
         0.00000E+00
         0.00000E+00
         0.00000E+00
         0.00000E+00
         0.00000E+00
         0.00000E+00
         0.00000E+00
         0.00000E+00
         0.00000E+00
         0.00000E+00
         0.00000E+00
         0.00000E+00
         0.00000E+00
         0.00000E+00
         0.00000E+00
         0.00000E+00
         0.00000E+00
         0.00000E+00
         0.00000E+00
         0.00000E+00
         0.00000E+00
         0.00000E+00
         0.00000E+00
         0.00000E+00
         0.00000E+00
         0.00000E+00
         0.00000E+00
         0.00000E+00
         0.00000E+00
         0.00000E+00
         0.00000E+00
         0.00000E+00
         0.00000E+00
         0.00000E+00
         0.00000E+00
         0.00000E+00
         0.00000E+00
         0.00000E+00
         0.00000E+00
         0.00000E+00
         0.00000E+00
         0.00000E+00
         0.00000E+00
         0.00000E+00
         0.00000E+00
         0.00000E+00
         0.00000E+00
         0.00000E+00
         0.00000E+00
         0.00000E+00
         0.00000E+00
         0.00000E+00
         0.00000E+00
         0.00000E+00
         0.00000E+00
         0.00000E+00
         0.00000E+00
         0.00000E+00
         0.00000E+00
         0.00000E+00
         0.00000E+00
         0.00000E+00
         0.00000E+00
         0.00000E+00
         0.00000E+00
         0.00000E+00
         0.00000E+00
         0.00000E+00
         0.00000E+00
         0.00000E+00
         0.00000E+00
         0.00000E+00
         0.00000E+00
         0.00000E+00
         0.00000E+00
         0.00000E+00
         0.00000E+00
         0.00000E+00
         0.00000E+00
         0.00000E+00
         0.00000E+00
         0.00000E+00
         0.00000E+00
         0.00000E+00
         0.00000E+00
         0.00000E+00
         0.00000E+00
         0.00000E+00
         0.00000E+00
         0.00000E+00
         0.00000E+00
         0.00000E+00
         0.00000E+00
         0.00000E+00
         0.00000E+00
         0.00000E+00
         0.00000E+00
         0.00000E+00
         0.00000E+00
         0.00000E+00
         0.00000E+00
         0.00000E+00
         0.00000E+00
         0.00000E+00
         0.00000E+00
         0.00000E+00
         0.00000E+00
         0.00000E+00
         0.00000E+00
         0.00000E+00
         0.00000E+00
         0.00000E+00
         0.00000E+00
         0.00000E+00
         0.00000E+00
         0.00000E+00
         0.00000E+00
         0.00000E+00
         0.00000E+00
         0.00000E+00
         0.00000E+00
         0.00000E+00
         0.00000E+00
         0.00000E+00
         0.00000E+00
         0.00000E+00
         0.00000E+00
         0.00000E+00
         0.00000E+00
         0.00000E+00
         0.00000E+00
         0.00000E+00
         0.00000E+00
         0.00000E+00
         0.00000E+00
         0.00000E+00
         0.00000E+00
         0.00000E+00
         0.00000E+00
         0.00000E+00
         0.00000E+00
         0.00000E+00
         0.00000E+00
         0.00000E+00
         0.00000E+00
         0.00000E+00
         0.00000E+00
         0.00000E+00
         0.00000E+00
         0.00000E+00
         0.00000E+00
         0.00000E+00
         0.00000E+00
         0.00000E+00
         0.00000E+00
         0.00000E+00
         0.00000E+00
         0.00000E+00
         0.00000E+00
         0.00000E+00
         0.00000E+00
         0.00000E+00
         0.00000E+00
         0.00000E+00
         0.00000E+00
         0.00000E+00
         0.00000E+00
         0.00000E+00
         0.00000E+00
         0.00000E+00
         0.00000E+00
         0.00000E+00
         0.00000E+00
         0.00000E+00
         0.00000E+00
         0.00000E+00
         0.00000E+00
         0.00000E+00
         0.00000E+00
         0.00000E+00
         0.00000E+00
         0.00000E+00
         0.00000E+00
         0.00000E+00
         0.00000E+00
         0.00000E+00
         0.00000E+00
         0.00000E+00
         0.00000E+00
         0.00000E+00
         0.00000E+00
         0.00000E+00
         0.00000E+00
         0.00000E+00
         0.00000E+00
         0.00000E+00
         0.00000E+00
         0.00000E+00
         0.00000E+00
         0.00000E+00
         0.00000E+00
         0.00000E+00
         0.00000E+00
         0.00000E+00
         0.00000E+00
         0.00000E+00
         0.00000E+00
         0.00000E+00
         0.00000E+00
         0.00000E+00
         0.00000E+00
         0.00000E+00
         0.00000E+00
         0.00000E+00
         0.00000E+00
         0.00000E+00
         0.00000E+00
         0.00000E+00
         0.00000E+00
         0.00000E+00
         0.00000E+00
         0.00000E+00
         0.00000E+00
         0.00000E+00
         0.00000E+00
         0.00000E+00
         0.00000E+00
         0.00000E+00
         0.00000E+00
         0.00000E+00
         0.00000E+00
         0.00000E+00
         0.00000E+00
         0.00000E+00
         0.00000E+00
         0.00000E+00
         0.00000E+00
         0.00000E+00
         0.00000E+00
         0.00000E+00
         0.00000E+00
         0.00000E+00
         0.00000E+00
         0.00000E+00
         0.00000E+00
         0.00000E+00
         0.00000E+00
         0.00000E+00
         0.00000E+00
         0.00000E+00
         0.00000E+00
         0.00000E+00
         0.00000E+00
         0.00000E+00
         0.00000E+00
         0.00000E+00
         0.00000E+00
         0.00000E+00
         0.00000E+00
         0.00000E+00
         0.00000E+00
         0.00000E+00
         0.00000E+00
         0.00000E+00
         0.00000E+00
         0.00000E+00
         0.00000E+00
         0.00000E+00
         0.00000E+00
         0.00000E+00
         0.00000E+00
         0.00000E+00
         0.00000E+00
         0.00000E+00
         0.00000E+00
         0.00000E+00
         0.00000E+00
         0.00000E+00
         0.00000E+00
         0.00000E+00
         0.00000E+00
         0.00000E+00
         0.00000E+00
         0.00000E+00
         0.00000E+00
         0.00000E+00
         0.00000E+00
         0.00000E+00
         0.00000E+00
         0.00000E+00
         0.00000E+00
         0.00000E+00
         0.00000E+00
         0.00000E+00
         0.00000E+00
         0.00000E+00
         0.00000E+00
         0.00000E+00
         0.00000E+00
         0.00000E+00
         0.00000E+00
         0.00000E+00
         0.00000E+00
         0.00000E+00
         0.00000E+00
         0.00000E+00
         0.00000E+00
         0.00000E+00
         0.00000E+00
         0.00000E+00
         0.00000E+00
         0.00000E+00
         0.00000E+00
         0.00000E+00
         0.00000E+00
         0.00000E+00
         0.00000E+00
         0.00000E+00
         0.00000E+00
         0.00000E+00
         0.00000E+00
         0.00000E+00
         0.00000E+00
         0.00000E+00
         0.00000E+00
         0.00000E+00
         0.00000E+00
         0.00000E+00
         0.00000E+00
         0.00000E+00
         0.00000E+00
         0.00000E+00
         0.00000E+00
         0.00000E+00
         0.00000E+00
         0.00000E+00
         0.00000E+00
         0.00000E+00
         0.00000E+00
         0.00000E+00
         0.00000E+00
         0.00000E+00
         0.00000E+00
         0.00000E+00
         0.00000E+00
         0.00000E+00
         0.00000E+00
         0.00000E+00
         0.00000E+00
         0.00000E+00
         0.00000E+00
         0.00000E+00
         0.00000E+00
         0.00000E+00
         0.00000E+00
         0.00000E+00
         0.00000E+00
         0.00000E+00
         0.00000E+00
         0.00000E+00
         0.00000E+00
         0.00000E+00
         0.00000E+00
         0.00000E+00
         0.00000E+00
         0.00000E+00
         0.00000E+00
         0.00000E+00
         0.00000E+00
         0.00000E+00
         0.00000E+00
         0.00000E+00
         0.00000E+00
         0.00000E+00
         0.00000E+00
         0.00000E+00
         0.00000E+00
         0.00000E+00
         0.00000E+00
         0.00000E+00
         0.00000E+00
         0.00000E+00
         0.00000E+00
         0.00000E+00
         0.00000E+00
         0.00000E+00
         0.00000E+00
         0.00000E+00
         0.00000E+00
         0.00000E+00
         0.00000E+00
         0.00000E+00
         0.00000E+00
         0.00000E+00
         0.00000E+00
         0.00000E+00
         0.00000E+00
         0.00000E+00
         0.00000E+00
         0.00000E+00
         0.00000E+00
         0.00000E+00
         0.00000E+00
         0.00000E+00
         0.00000E+00
         0.00000E+00
         0.00000E+00
         0.00000E+00
         0.00000E+00
         0.00000E+00
         0.00000E+00
         0.00000E+00
         0.00000E+00
         0.00000E+00
         0.00000E+00
         0.00000E+00
         0.00000E+00
         0.00000E+00
         0.00000E+00
         0.00000E+00
         0.00000E+00
         0.00000E+00
         0.00000E+00
         0.00000E+00
         0.00000E+00
         0.00000E+00
         0.00000E+00
         0.00000E+00
         0.00000E+00
         0.00000E+00
         0.00000E+00
         0.00000E+00
         0.00000E+00
         0.00000E+00
         0.00000E+00
         0.00000E+00
         0.00000E+00
         0.00000E+00
         0.00000E+00
         0.00000E+00
         0.00000E+00
         0.00000E+00
         0.00000E+00
         0.00000E+00
         0.00000E+00
         0.00000E+00
         0.00000E+00
         0.00000E+00
         0.00000E+00
         0.00000E+00
         0.00000E+00
         0.00000E+00
         0.00000E+00
         0.00000E+00
         0.00000E+00
         0.00000E+00
         0.00000E+00
         0.00000E+00
         0.00000E+00
         0.00000E+00
         0.00000E+00
         0.00000E+00
         0.00000E+00
         0.00000E+00
         0.00000E+00
         0.00000E+00
         0.00000E+00
         0.00000E+00
         0.00000E+00
         0.00000E+00
         0.00000E+00
         0.00000E+00
         0.00000E+00
         0.00000E+00
         0.00000E+00
         0.00000E+00
         0.00000E+00
         0.00000E+00
         0.00000E+00
         0.00000E+00
         0.00000E+00
         0.00000E+00
         0.00000E+00
         0.00000E+00
         0.00000E+00
         0.00000E+00
         0.00000E+00
         0.00000E+00
         0.00000E+00
         0.00000E+00
         0.00000E+00
         0.00000E+00
         0.00000E+00
         0.00000E+00
         0.00000E+00
         0.00000E+00
         0.00000E+00
         0.00000E+00
         0.00000E+00
         0.00000E+00
         0.00000E+00
         0.00000E+00
         0.00000E+00
         0.00000E+00
         0.00000E+00
         0.00000E+00
         0.00000E+00
         0.00000E+00
         0.00000E+00
         0.00000E+00
         0.00000E+00
         0.00000E+00
         0.00000E+00
         0.00000E+00
         0.00000E+00
         0.00000E+00
         0.00000E+00
         0.00000E+00
         0.00000E+00
         0.00000E+00
         0.00000E+00
         0.00000E+00
         0.00000E+00
         0.00000E+00
         0.00000E+00
         0.00000E+00
         0.00000E+00
         0.00000E+00
         0.00000E+00
         0.00000E+00
         0.00000E+00
         0.00000E+00
         0.00000E+00
         0.00000E+00
         0.00000E+00
         0.00000E+00
         0.00000E+00
         0.00000E+00
         0.00000E+00
         0.00000E+00
         0.00000E+00
         0.00000E+00
         0.00000E+00
         0.00000E+00
         0.00000E+00
         0.00000E+00
         0.00000E+00
         0.00000E+00
         0.00000E+00
         0.00000E+00
         0.00000E+00
         0.00000E+00
         0.00000E+00
         0.00000E+00
         0.00000E+00
         0.00000E+00
         0.00000E+00
         0.00000E+00
         0.00000E+00
         0.00000E+00
         0.00000E+00
         0.00000E+00
         0.00000E+00
         0.00000E+00
         0.00000E+00
         0.00000E+00
         0.00000E+00
         0.00000E+00
         0.00000E+00
         0.00000E+00
         0.00000E+00
         0.00000E+00
         0.00000E+00
         0.00000E+00
         0.00000E+00
         0.00000E+00
         0.00000E+00
         0.00000E+00
         0.00000E+00
         0.00000E+00
         0.00000E+00
         0.00000E+00
         0.00000E+00
         0.00000E+00
         0.00000E+00
         0.00000E+00
         0.00000E+00
         0.00000E+00
         0.00000E+00
         0.00000E+00
         0.00000E+00
         0.00000E+00
         0.00000E+00
         0.00000E+00
         0.00000E+00
         0.00000E+00
         0.00000E+00
         0.00000E+00
         0.00000E+00
         0.00000E+00
         0.00000E+00
         0.00000E+00
         0.00000E+00
         0.00000E+00
         0.00000E+00
         0.00000E+00
         0.00000E+00
         0.00000E+00
         0.00000E+00
         0.00000E+00
         0.00000E+00
         0.00000E+00
         0.00000E+00
         0.00000E+00
         0.00000E+00
         0.00000E+00
         0.00000E+00
         0.00000E+00
         0.00000E+00
         0.00000E+00
         0.00000E+00
         0.00000E+00
         0.00000E+00
         0.00000E+00
         0.00000E+00
         0.00000E+00
         0.00000E+00
         0.00000E+00
         0.00000E+00
         0.00000E+00
         0.00000E+00
         0.00000E+00
         0.00000E+00
         0.00000E+00
         0.00000E+00
         0.00000E+00
         0.00000E+00
         0.00000E+00
         0.00000E+00
         0.00000E+00
         0.00000E+00
         0.00000E+00
         0.00000E+00
         0.00000E+00
         0.00000E+00
         0.00000E+00
         0.00000E+00
         0.00000E+00
         0.00000E+00
         0.00000E+00
         0.00000E+00
         0.00000E+00
         0.00000E+00
         0.00000E+00
         0.00000E+00
         0.00000E+00
         0.00000E+00
         0.00000E+00
         0.00000E+00
         0.00000E+00
         0.00000E+00
         0.00000E+00
         0.00000E+00
         0.00000E+00
         0.00000E+00
         0.00000E+00
         0.00000E+00
         0.00000E+00
         0.00000E+00
         0.00000E+00
         0.00000E+00
         0.00000E+00
         0.00000E+00
         0.00000E+00
         0.00000E+00
         0.00000E+00
         0.00000E+00
         0.00000E+00
         0.00000E+00
         0.00000E+00
         0.00000E+00
         0.00000E+00
         0.00000E+00
         0.00000E+00
         0.00000E+00
         0.00000E+00
         0.00000E+00
         0.00000E+00
         0.00000E+00
         0.00000E+00
         0.00000E+00
         0.00000E+00
         0.00000E+00
         0.00000E+00
         0.00000E+00
         0.00000E+00
         0.00000E+00
         0.00000E+00
         0.00000E+00
         0.00000E+00
         0.00000E+00
         0.00000E+00
         0.00000E+00
         0.00000E+00
         0.00000E+00
         0.00000E+00
         0.00000E+00
         0.00000E+00
         0.00000E+00
         0.00000E+00
         0.00000E+00
         0.00000E+00
         0.00000E+00
         0.00000E+00
         0.00000E+00
         0.00000E+00
         0.00000E+00
         0.00000E+00
         0.00000E+00
         0.00000E+00
         0.00000E+00
         0.00000E+00
         0.00000E+00
         0.00000E+00
         0.00000E+00
         0.00000E+00
         0.00000E+00
         0.00000E+00
         0.00000E+00
         0.00000E+00
         0.00000E+00
         0.00000E+00
         0.00000E+00
         0.00000E+00
         0.00000E+00
         0.00000E+00
         0.00000E+00
         0.00000E+00
         0.00000E+00
         0.00000E+00
         0.00000E+00
         0.00000E+00
         0.00000E+00
         0.00000E+00
         0.00000E+00
         0.00000E+00
         0.00000E+00
         0.00000E+00
         0.00000E+00
         0.00000E+00
         0.00000E+00
         0.00000E+00
         0.00000E+00
         0.00000E+00
         0.00000E+00
         0.00000E+00
         0.00000E+00
         0.00000E+00
         0.00000E+00
         0.00000E+00
         0.00000E+00
         0.00000E+00
         0.00000E+00
         0.00000E+00
         0.00000E+00
         0.00000E+00
         0.00000E+00
         0.00000E+00
         0.00000E+00
         0.00000E+00
         0.00000E+00
         0.00000E+00
         0.00000E+00
         0.00000E+00
         0.00000E+00
         0.00000E+00
         0.00000E+00
         0.00000E+00
         0.00000E+00
         0.00000E+00
         0.00000E+00
         0.00000E+00
         0.00000E+00
         0.00000E+00
         0.00000E+00
         0.00000E+00
         0.00000E+00
         0.00000E+00
         0.00000E+00
         0.00000E+00
         0.00000E+00
         0.00000E+00
         0.00000E+00
         0.00000E+00
         0.00000E+00
         0.00000E+00
         0.00000E+00
         0.00000E+00
         0.00000E+00
         0.00000E+00
         0.00000E+00
         0.00000E+00
         0.00000E+00
         0.00000E+00
         0.00000E+00
         0.00000E+00
         0.00000E+00
         0.00000E+00
         0.00000E+00
         0.00000E+00
         0.00000E+00
         0.00000E+00
         0.00000E+00
         0.00000E+00
         0.00000E+00
         0.00000E+00
         0.00000E+00
         0.00000E+00
         0.00000E+00
         0.00000E+00
         0.00000E+00
         0.00000E+00
         0.00000E+00
         0.00000E+00
         0.00000E+00
         0.00000E+00
         0.00000E+00
         0.00000E+00
         0.00000E+00
         0.00000E+00
         0.00000E+00
         0.00000E+00
         0.00000E+00
         0.00000E+00
         0.00000E+00
         0.00000E+00
         0.00000E+00
         0.00000E+00
         0.00000E+00
         0.00000E+00
         0.00000E+00
         0.00000E+00
         0.00000E+00
         0.00000E+00
         0.00000E+00
         0.00000E+00
         0.00000E+00
         0.00000E+00
         0.00000E+00
         0.00000E+00
         0.00000E+00
         0.00000E+00
         0.00000E+00
         0.00000E+00
         0.00000E+00
         0.00000E+00
         0.00000E+00
         0.00000E+00
         0.00000E+00
         0.00000E+00
         0.00000E+00
         0.00000E+00
         0.00000E+00
         0.00000E+00
         0.00000E+00
         0.00000E+00
         0.00000E+00
         0.00000E+00
         0.00000E+00
         0.00000E+00
         0.00000E+00
         0.00000E+00
         0.00000E+00
         0.00000E+00
         0.00000E+00
         0.00000E+00
         0.00000E+00
         0.00000E+00
         0.00000E+00
         0.00000E+00
         0.00000E+00
         0.00000E+00
         0.00000E+00
         0.00000E+00
         0.00000E+00
         0.00000E+00
         0.00000E+00
         0.00000E+00
         0.00000E+00
         0.00000E+00
         0.00000E+00
         0.00000E+00
         0.00000E+00
         0.00000E+00
         0.00000E+00
         0.00000E+00
         0.00000E+00
         0.00000E+00
         0.00000E+00
         0.00000E+00
         0.00000E+00
         0.00000E+00
         0.00000E+00
         0.00000E+00
         0.00000E+00
         0.00000E+00
         0.00000E+00
         0.00000E+00
         0.00000E+00
         0.00000E+00
         0.00000E+00
         0.00000E+00
         0.00000E+00
         0.00000E+00
         0.00000E+00
         0.00000E+00
         0.00000E+00
         0.00000E+00
         0.00000E+00
         0.00000E+00
         0.00000E+00
         0.00000E+00
         0.00000E+00
         0.00000E+00
         0.00000E+00
         0.00000E+00
         0.00000E+00
         0.00000E+00
         0.00000E+00
         0.00000E+00
         0.00000E+00
         0.00000E+00
         0.00000E+00
         0.00000E+00
         0.00000E+00
         0.00000E+00
         0.00000E+00
         0.00000E+00
         0.00000E+00
         0.00000E+00
         0.00000E+00
         0.00000E+00
         0.00000E+00
         0.00000E+00
         0.00000E+00
         0.00000E+00
         0.00000E+00
         0.00000E+00
         0.00000E+00
         0.00000E+00
         0.00000E+00
         0.00000E+00
         0.00000E+00
         0.00000E+00
         0.00000E+00
         0.00000E+00
         0.00000E+00
         0.00000E+00
         0.00000E+00
         0.00000E+00
         0.00000E+00
         0.00000E+00
         0.00000E+00
         0.00000E+00
         0.00000E+00
         0.00000E+00
         0.00000E+00
         0.00000E+00
         0.00000E+00
         0.00000E+00
         0.00000E+00
         0.00000E+00
         0.00000E+00
         0.00000E+00
         0.00000E+00
         0.00000E+00
         0.00000E+00
         0.00000E+00
         0.00000E+00
         0.00000E+00
         0.00000E+00
         0.00000E+00
         0.00000E+00
         0.00000E+00
         0.00000E+00
         0.00000E+00
         0.00000E+00
         0.00000E+00
         0.00000E+00
         0.00000E+00
         0.00000E+00
         0.00000E+00
         0.00000E+00
         0.00000E+00
         0.00000E+00
         0.00000E+00
         0.00000E+00
         0.00000E+00
         0.00000E+00
         0.00000E+00
         0.00000E+00
         0.00000E+00
         0.00000E+00
         0.00000E+00
         0.00000E+00
         0.00000E+00
         0.00000E+00
         0.00000E+00
         0.00000E+00
         0.00000E+00
         0.00000E+00
         0.00000E+00
         0.00000E+00
         0.00000E+00
         0.00000E+00
         0.00000E+00
         0.00000E+00
         0.00000E+00
         0.00000E+00
         0.00000E+00
         0.00000E+00
         0.00000E+00
         0.00000E+00
         0.00000E+00
         0.00000E+00
         0.00000E+00
         0.00000E+00
         0.00000E+00
         0.00000E+00
         0.00000E+00
         0.00000E+00
         0.00000E+00
         0.00000E+00
         0.00000E+00
         0.00000E+00
         0.00000E+00
         0.00000E+00
         0.00000E+00
         0.00000E+00
         0.00000E+00
         0.00000E+00
         0.00000E+00
         0.00000E+00
         0.00000E+00
         0.00000E+00
         0.00000E+00
         0.00000E+00
         0.00000E+00
         0.00000E+00
         0.00000E+00
         0.00000E+00
         0.00000E+00
         0.00000E+00
         0.00000E+00
         0.00000E+00
         0.00000E+00
         0.00000E+00
         0.00000E+00
         0.00000E+00
         0.00000E+00
         0.00000E+00
         0.00000E+00
         0.00000E+00
         0.00000E+00
         0.00000E+00
         0.00000E+00
         0.00000E+00
         0.00000E+00
         0.00000E+00
         0.00000E+00
         0.00000E+00
         0.00000E+00
         0.00000E+00
         0.00000E+00
         0.00000E+00
         0.00000E+00
         0.00000E+00
         0.00000E+00
         0.00000E+00
         0.00000E+00
         0.00000E+00
         0.00000E+00
         0.00000E+00
         0.00000E+00
         0.00000E+00
         0.00000E+00
         0.00000E+00
         0.00000E+00
         0.00000E+00
         0.00000E+00
         0.00000E+00
         0.00000E+00
         0.00000E+00
         0.00000E+00
         0.00000E+00
         0.00000E+00
         0.00000E+00
         0.00000E+00
         0.00000E+00
         0.00000E+00
         0.00000E+00
         0.00000E+00
         0.00000E+00
         0.00000E+00
         0.00000E+00
         0.00000E+00
         0.00000E+00
         0.00000E+00
         0.00000E+00
         0.00000E+00
         0.00000E+00
         0.00000E+00
         0.00000E+00
         0.00000E+00
         0.00000E+00
         0.00000E+00
         0.00000E+00
         0.00000E+00
         0.00000E+00
         0.00000E+00
         0.00000E+00
         0.00000E+00
         0.00000E+00
         0.00000E+00
         0.00000E+00
         0.00000E+00
         0.00000E+00
         0.00000E+00
         0.00000E+00
         0.00000E+00
         0.00000E+00
         0.00000E+00
         0.00000E+00
         0.00000E+00
         0.00000E+00
         0.00000E+00
         0.00000E+00
         0.00000E+00
         0.00000E+00
         0.00000E+00
         0.00000E+00
         0.00000E+00
         0.00000E+00
         0.00000E+00
         0.00000E+00
         0.00000E+00
         0.00000E+00
         0.00000E+00
         0.00000E+00
         0.00000E+00
         0.00000E+00
         0.00000E+00
         0.00000E+00
         0.00000E+00
         0.00000E+00
         0.00000E+00
         0.00000E+00
         0.00000E+00
         0.00000E+00
         0.00000E+00
         0.00000E+00
         0.00000E+00
         0.00000E+00
         0.00000E+00
         0.00000E+00
         0.00000E+00
         0.00000E+00
         0.00000E+00
         0.00000E+00
         0.00000E+00
         0.00000E+00
         0.00000E+00
         0.00000E+00
         0.00000E+00
         0.00000E+00
         0.00000E+00
         0.00000E+00
         0.00000E+00
         0.00000E+00
         0.00000E+00
         0.00000E+00
         0.00000E+00
         0.00000E+00
         0.00000E+00
         0.00000E+00
         0.00000E+00
         0.00000E+00
         0.00000E+00
         0.00000E+00
         0.00000E+00
         0.00000E+00
         0.00000E+00
         0.00000E+00
         0.00000E+00
         0.00000E+00
         0.00000E+00
         0.00000E+00
         0.00000E+00
         0.00000E+00
         0.00000E+00
         0.00000E+00
         0.00000E+00
         0.00000E+00
         0.00000E+00
         0.00000E+00
         0.00000E+00
         0.00000E+00
         0.00000E+00
         0.00000E+00
         0.00000E+00
         0.00000E+00
         0.00000E+00
         0.00000E+00
         0.00000E+00
         0.00000E+00
         0.00000E+00
         0.00000E+00
         0.00000E+00
         0.00000E+00
         0.00000E+00
         0.00000E+00
         0.00000E+00
         0.00000E+00
         0.00000E+00
         0.00000E+00
         0.00000E+00
         0.00000E+00
         0.00000E+00
         0.00000E+00
         0.00000E+00
         0.00000E+00
         0.00000E+00
         0.00000E+00
         0.00000E+00
         0.00000E+00
         0.00000E+00
         0.00000E+00
         0.00000E+00
         0.00000E+00
         0.00000E+00
         0.00000E+00
         0.00000E+00
         0.00000E+00
         0.00000E+00
         0.00000E+00
         0.00000E+00
         0.00000E+00
         0.00000E+00
         0.00000E+00
         0.00000E+00
         0.00000E+00
         0.00000E+00
         0.00000E+00
         0.00000E+00
         0.00000E+00
         0.00000E+00
         0.00000E+00
         0.00000E+00
         0.00000E+00
         0.00000E+00
         0.00000E+00
         0.00000E+00
         0.00000E+00
         0.00000E+00
         0.00000E+00
         0.00000E+00
         0.00000E+00
         0.00000E+00
         0.00000E+00
         0.00000E+00
         0.00000E+00
         0.00000E+00
         0.00000E+00
         0.00000E+00
         0.00000E+00
         0.00000E+00
         0.00000E+00
         0.00000E+00
         0.00000E+00
         0.00000E+00
         0.00000E+00
         0.00000E+00
         0.00000E+00
         0.00000E+00
         0.00000E+00
         0.00000E+00
         0.00000E+00
         0.00000E+00
         0.00000E+00
         0.00000E+00
         0.00000E+00
         0.00000E+00
         0.00000E+00
         0.00000E+00
         0.00000E+00
         0.00000E+00
         0.00000E+00
         0.00000E+00
         0.00000E+00
         0.00000E+00
         0.00000E+00
         0.00000E+00
         0.00000E+00
         0.00000E+00
         0.00000E+00
         0.00000E+00
         0.00000E+00
         0.00000E+00
         0.00000E+00
         0.00000E+00
         0.00000E+00
         0.00000E+00
         0.00000E+00
         0.00000E+00
         0.00000E+00
         0.00000E+00
         0.00000E+00
         0.00000E+00
         0.00000E+00
         0.00000E+00
         0.00000E+00
         0.00000E+00
         0.00000E+00
         0.00000E+00
         0.00000E+00
         0.00000E+00
         0.00000E+00
         0.00000E+00
         0.00000E+00
         0.00000E+00
         0.00000E+00
         0.00000E+00
         0.00000E+00
         0.00000E+00
         0.00000E+00
         0.00000E+00
         0.00000E+00
         0.00000E+00
         0.00000E+00
         0.00000E+00
         0.00000E+00
         0.00000E+00
         0.00000E+00
         0.00000E+00
         0.00000E+00
         0.00000E+00
         0.00000E+00
         0.00000E+00
         0.00000E+00
         0.00000E+00
         0.00000E+00
         0.00000E+00
         0.00000E+00
         0.00000E+00
         0.00000E+00
         0.00000E+00
         0.00000E+00
         0.00000E+00
         0.00000E+00
         0.00000E+00
         0.00000E+00
         0.00000E+00
         0.00000E+00
         0.00000E+00
         0.00000E+00
         0.00000E+00
         0.00000E+00
         0.00000E+00
         0.00000E+00
         0.00000E+00
         0.00000E+00
         0.00000E+00
         0.00000E+00
         0.00000E+00
         0.00000E+00
         0.00000E+00
         0.00000E+00
         0.00000E+00
         0.00000E+00
         0.00000E+00
         0.00000E+00
         0.00000E+00
         0.00000E+00
         0.00000E+00
         0.00000E+00
         0.00000E+00
         0.00000E+00
         0.00000E+00
         0.00000E+00
         0.00000E+00
         0.00000E+00
         0.00000E+00
         0.00000E+00
         0.00000E+00
         0.00000E+00
         0.00000E+00
         0.00000E+00
         0.00000E+00
         0.00000E+00
         0.00000E+00
         0.00000E+00
         0.00000E+00
         0.00000E+00
         0.00000E+00
         0.00000E+00
         0.00000E+00
         0.00000E+00
         0.00000E+00
         0.00000E+00
         0.00000E+00
         0.00000E+00
         0.00000E+00
         0.00000E+00
         0.00000E+00
         0.00000E+00
         0.00000E+00
         0.00000E+00
         0.00000E+00
         0.00000E+00
         0.00000E+00
         0.00000E+00
         0.00000E+00
         0.00000E+00
         0.00000E+00
         0.00000E+00
         0.00000E+00
         0.00000E+00
         0.00000E+00
         0.00000E+00
         0.00000E+00
         0.00000E+00
         0.00000E+00
         0.00000E+00
         0.00000E+00
         0.00000E+00
         0.00000E+00
         0.00000E+00
         0.00000E+00
         0.00000E+00
         0.00000E+00
         0.00000E+00
         0.00000E+00
         0.00000E+00
         0.00000E+00
         0.00000E+00
         0.00000E+00
         0.00000E+00
         0.00000E+00
         0.00000E+00
         0.00000E+00
         0.00000E+00
         0.00000E+00
         0.00000E+00
         0.00000E+00
         0.00000E+00
         0.00000E+00
         0.00000E+00
         0.00000E+00
         0.00000E+00
         0.00000E+00
         0.00000E+00
         0.00000E+00
         0.00000E+00
         0.00000E+00
         0.00000E+00
         0.00000E+00
         0.00000E+00
         0.00000E+00
         0.00000E+00
         0.00000E+00
         0.00000E+00
         0.00000E+00
         0.00000E+00
         0.00000E+00
         0.00000E+00
         0.00000E+00
         0.00000E+00
         0.00000E+00
         0.00000E+00
         0.00000E+00
         0.00000E+00
         0.00000E+00
         0.00000E+00
         0.00000E+00
         0.00000E+00
         0.00000E+00
         0.00000E+00
         0.00000E+00
         0.00000E+00
         0.00000E+00
         0.00000E+00
         0.00000E+00
         0.00000E+00
         0.00000E+00
         0.00000E+00
         0.00000E+00
         0.00000E+00
         0.00000E+00
         0.00000E+00
         0.00000E+00
         0.00000E+00
         0.00000E+00
         0.00000E+00
         0.00000E+00
         0.00000E+00
         0.00000E+00
         0.00000E+00
         0.00000E+00
         0.00000E+00
         0.00000E+00
         0.00000E+00
         0.00000E+00
         0.00000E+00
         0.00000E+00
         0.00000E+00
         0.00000E+00
         0.00000E+00
         0.00000E+00
         0.00000E+00
         0.00000E+00
         0.00000E+00
         0.00000E+00
         0.00000E+00
         0.00000E+00
         0.00000E+00
         0.00000E+00
         0.00000E+00
         0.00000E+00
         0.00000E+00
         0.00000E+00
         0.00000E+00
         0.00000E+00
         0.00000E+00
         0.00000E+00
         0.00000E+00
         0.00000E+00
         0.00000E+00
         0.00000E+00
         0.00000E+00
  
SCALARS                     velocity_z  double 1
LOOKUP_TABLE default
        -0.37300E+03
        -0.37300E+03
        -0.37300E+03
        -0.37300E+03
         0.00000E+00
         0.00000E+00
         0.00000E+00
         0.00000E+00
        -0.37300E+03
        -0.37300E+03
         0.00000E+00
         0.00000E+00
        -0.37300E+03
        -0.37300E+03
         0.00000E+00
         0.00000E+00
        -0.37300E+03
        -0.37300E+03
         0.00000E+00
         0.00000E+00
        -0.37300E+03
        -0.37300E+03
        -0.37300E+03
         0.00000E+00
         0.00000E+00
         0.00000E+00
        -0.37300E+03
        -0.37300E+03
         0.00000E+00
         0.00000E+00
        -0.37300E+03
        -0.37300E+03
        -0.37300E+03
         0.00000E+00
         0.00000E+00
         0.00000E+00
        -0.37300E+03
        -0.37300E+03
         0.00000E+00
         0.00000E+00
        -0.37300E+03
        -0.37300E+03
         0.00000E+00
         0.00000E+00
        -0.37300E+03
        -0.37300E+03
         0.00000E+00
         0.00000E+00
        -0.37300E+03
         0.00000E+00
        -0.37300E+03
         0.00000E+00
        -0.37300E+03
         0.00000E+00
        -0.37300E+03
         0.00000E+00
        -0.37300E+03
        -0.37300E+03
         0.00000E+00
         0.00000E+00
        -0.37300E+03
        -0.37300E+03
         0.00000E+00
         0.00000E+00
        -0.37300E+03
         0.00000E+00
        -0.37300E+03
         0.00000E+00
        -0.37300E+03
        -0.37300E+03
         0.00000E+00
         0.00000E+00
        -0.37300E+03
         0.00000E+00
        -0.37300E+03
         0.00000E+00
        -0.37300E+03
         0.00000E+00
        -0.37300E+03
         0.00000E+00
        -0.37300E+03
        -0.37300E+03
         0.00000E+00
         0.00000E+00
        -0.37300E+03
         0.00000E+00
        -0.37300E+03
         0.00000E+00
        -0.37300E+03
         0.00000E+00
        -0.37300E+03
        -0.37300E+03
         0.00000E+00
         0.00000E+00
        -0.37300E+03
         0.00000E+00
        -0.37300E+03
         0.00000E+00
        -0.37300E+03
         0.00000E+00
        -0.37300E+03
        -0.37300E+03
         0.00000E+00
         0.00000E+00
        -0.37300E+03
        -0.37300E+03
         0.00000E+00
         0.00000E+00
        -0.37300E+03
         0.00000E+00
        -0.37300E+03
         0.00000E+00
        -0.37300E+03
         0.00000E+00
        -0.37300E+03
         0.00000E+00
        -0.37300E+03
         0.00000E+00
        -0.37300E+03
         0.00000E+00
        -0.37300E+03
         0.00000E+00
        -0.37300E+03
         0.00000E+00
        -0.37300E+03
         0.00000E+00
        -0.37300E+03
         0.00000E+00
        -0.37300E+03
         0.00000E+00
        -0.37300E+03
         0.00000E+00
        -0.37300E+03
         0.00000E+00
        -0.37300E+03
         0.00000E+00
        -0.37300E+03
         0.00000E+00
        -0.37300E+03
         0.00000E+00
        -0.37300E+03
         0.00000E+00
        -0.37300E+03
         0.00000E+00
        -0.37300E+03
         0.00000E+00
        -0.37300E+03
         0.00000E+00
        -0.37300E+03
         0.00000E+00
        -0.37300E+03
         0.00000E+00
        -0.37300E+03
         0.00000E+00
        -0.37300E+03
         0.00000E+00
        -0.37300E+03
        -0.37300E+03
        -0.37300E+03
        -0.37300E+03
        -0.37300E+03
        -0.37300E+03
        -0.37300E+03
        -0.37300E+03
        -0.37300E+03
        -0.37300E+03
        -0.37300E+03
        -0.37300E+03
        -0.37300E+03
        -0.37300E+03
        -0.37300E+03
        -0.37300E+03
        -0.37300E+03
        -0.37300E+03
        -0.37300E+03
        -0.37300E+03
        -0.37300E+03
        -0.37300E+03
        -0.37300E+03
        -0.37300E+03
        -0.37300E+03
        -0.37300E+03
        -0.37300E+03
        -0.37300E+03
        -0.37300E+03
        -0.37300E+03
        -0.37300E+03
        -0.37300E+03
        -0.37300E+03
        -0.37300E+03
        -0.37300E+03
        -0.37300E+03
        -0.37300E+03
        -0.37300E+03
        -0.37300E+03
        -0.37300E+03
        -0.37300E+03
        -0.37300E+03
        -0.37300E+03
        -0.37300E+03
        -0.37300E+03
        -0.37300E+03
        -0.37300E+03
        -0.37300E+03
        -0.37300E+03
        -0.37300E+03
        -0.37300E+03
        -0.37300E+03
        -0.37300E+03
        -0.37300E+03
        -0.37300E+03
        -0.37300E+03
        -0.37300E+03
        -0.37300E+03
        -0.37300E+03
        -0.37300E+03
        -0.37300E+03
        -0.37300E+03
        -0.37300E+03
        -0.37300E+03
        -0.37300E+03
        -0.37300E+03
        -0.37300E+03
        -0.37300E+03
        -0.37300E+03
        -0.37300E+03
        -0.37300E+03
        -0.37300E+03
        -0.37300E+03
        -0.37300E+03
        -0.37300E+03
        -0.37300E+03
        -0.37300E+03
        -0.37300E+03
        -0.37300E+03
        -0.37300E+03
        -0.37300E+03
        -0.37300E+03
        -0.37300E+03
        -0.37300E+03
        -0.37300E+03
        -0.37300E+03
        -0.37300E+03
        -0.37300E+03
        -0.37300E+03
        -0.37300E+03
        -0.37300E+03
        -0.37300E+03
        -0.37300E+03
        -0.37300E+03
        -0.37300E+03
        -0.37300E+03
        -0.37300E+03
        -0.37300E+03
        -0.37300E+03
        -0.37300E+03
        -0.37300E+03
        -0.37300E+03
        -0.37300E+03
        -0.37300E+03
        -0.37300E+03
        -0.37300E+03
        -0.37300E+03
        -0.37300E+03
        -0.37300E+03
        -0.37300E+03
        -0.37300E+03
        -0.37300E+03
        -0.37300E+03
        -0.37300E+03
        -0.37300E+03
        -0.37300E+03
        -0.37300E+03
        -0.37300E+03
        -0.37300E+03
        -0.37300E+03
        -0.37300E+03
        -0.37300E+03
        -0.37300E+03
        -0.37300E+03
        -0.37300E+03
        -0.37300E+03
        -0.37300E+03
        -0.37300E+03
        -0.37300E+03
        -0.37300E+03
        -0.37300E+03
        -0.37300E+03
        -0.37300E+03
        -0.37300E+03
        -0.37300E+03
        -0.37300E+03
        -0.37300E+03
        -0.37300E+03
        -0.37300E+03
        -0.37300E+03
        -0.37300E+03
        -0.37300E+03
        -0.37300E+03
        -0.37300E+03
        -0.37300E+03
        -0.37300E+03
        -0.37300E+03
        -0.37300E+03
        -0.37300E+03
        -0.37300E+03
        -0.37300E+03
        -0.37300E+03
        -0.37300E+03
        -0.37300E+03
        -0.37300E+03
        -0.37300E+03
        -0.37300E+03
        -0.37300E+03
        -0.37300E+03
        -0.37300E+03
        -0.37300E+03
        -0.37300E+03
        -0.37300E+03
        -0.37300E+03
        -0.37300E+03
        -0.37300E+03
        -0.37300E+03
        -0.37300E+03
        -0.37300E+03
        -0.37300E+03
        -0.37300E+03
        -0.37300E+03
        -0.37300E+03
        -0.37300E+03
        -0.37300E+03
        -0.37300E+03
        -0.37300E+03
        -0.37300E+03
        -0.37300E+03
        -0.37300E+03
        -0.37300E+03
        -0.37300E+03
        -0.37300E+03
        -0.37300E+03
        -0.37300E+03
        -0.37300E+03
        -0.37300E+03
        -0.37300E+03
        -0.37300E+03
        -0.37300E+03
        -0.37300E+03
        -0.37300E+03
        -0.37300E+03
        -0.37300E+03
        -0.37300E+03
        -0.37300E+03
        -0.37300E+03
        -0.37300E+03
        -0.37300E+03
        -0.37300E+03
        -0.37300E+03
        -0.37300E+03
        -0.37300E+03
        -0.37300E+03
        -0.37300E+03
        -0.37300E+03
        -0.37300E+03
        -0.37300E+03
        -0.37300E+03
        -0.37300E+03
        -0.37300E+03
        -0.37300E+03
        -0.37300E+03
        -0.37300E+03
        -0.37300E+03
        -0.37300E+03
        -0.37300E+03
        -0.37300E+03
        -0.37300E+03
        -0.37300E+03
        -0.37300E+03
        -0.37300E+03
        -0.37300E+03
        -0.37300E+03
        -0.37300E+03
        -0.37300E+03
        -0.37300E+03
        -0.37300E+03
        -0.37300E+03
        -0.37300E+03
        -0.37300E+03
        -0.37300E+03
        -0.37300E+03
        -0.37300E+03
        -0.37300E+03
        -0.37300E+03
        -0.37300E+03
        -0.37300E+03
        -0.37300E+03
        -0.37300E+03
        -0.37300E+03
        -0.37300E+03
        -0.37300E+03
        -0.37300E+03
        -0.37300E+03
        -0.37300E+03
        -0.37300E+03
        -0.37300E+03
        -0.37300E+03
        -0.37300E+03
        -0.37300E+03
        -0.37300E+03
        -0.37300E+03
        -0.37300E+03
        -0.37300E+03
        -0.37300E+03
        -0.37300E+03
        -0.37300E+03
        -0.37300E+03
        -0.37300E+03
        -0.37300E+03
        -0.37300E+03
        -0.37300E+03
        -0.37300E+03
        -0.37300E+03
        -0.37300E+03
        -0.37300E+03
        -0.37300E+03
        -0.37300E+03
        -0.37300E+03
        -0.37300E+03
        -0.37300E+03
        -0.37300E+03
        -0.37300E+03
        -0.37300E+03
        -0.37300E+03
        -0.37300E+03
        -0.37300E+03
        -0.37300E+03
        -0.37300E+03
        -0.37300E+03
        -0.37300E+03
        -0.37300E+03
        -0.37300E+03
        -0.37300E+03
        -0.37300E+03
        -0.37300E+03
        -0.37300E+03
        -0.37300E+03
        -0.37300E+03
        -0.37300E+03
        -0.37300E+03
        -0.37300E+03
        -0.37300E+03
        -0.37300E+03
        -0.37300E+03
        -0.37300E+03
        -0.37300E+03
        -0.37300E+03
        -0.37300E+03
        -0.37300E+03
        -0.37300E+03
        -0.37300E+03
        -0.37300E+03
        -0.37300E+03
        -0.37300E+03
        -0.37300E+03
        -0.37300E+03
        -0.37300E+03
        -0.37300E+03
        -0.37300E+03
        -0.37300E+03
        -0.37300E+03
        -0.37300E+03
        -0.37300E+03
        -0.37300E+03
        -0.37300E+03
        -0.37300E+03
        -0.37300E+03
        -0.37300E+03
        -0.37300E+03
        -0.37300E+03
        -0.37300E+03
        -0.37300E+03
        -0.37300E+03
        -0.37300E+03
        -0.37300E+03
        -0.37300E+03
        -0.37300E+03
        -0.37300E+03
        -0.37300E+03
        -0.37300E+03
        -0.37300E+03
        -0.37300E+03
        -0.37300E+03
        -0.37300E+03
        -0.37300E+03
        -0.37300E+03
        -0.37300E+03
        -0.37300E+03
        -0.37300E+03
        -0.37300E+03
        -0.37300E+03
        -0.37300E+03
        -0.37300E+03
        -0.37300E+03
        -0.37300E+03
        -0.37300E+03
        -0.37300E+03
        -0.37300E+03
        -0.37300E+03
        -0.37300E+03
        -0.37300E+03
        -0.37300E+03
        -0.37300E+03
        -0.37300E+03
        -0.37300E+03
        -0.37300E+03
        -0.37300E+03
        -0.37300E+03
        -0.37300E+03
        -0.37300E+03
        -0.37300E+03
        -0.37300E+03
        -0.37300E+03
        -0.37300E+03
        -0.37300E+03
        -0.37300E+03
        -0.37300E+03
        -0.37300E+03
        -0.37300E+03
        -0.37300E+03
        -0.37300E+03
        -0.37300E+03
        -0.37300E+03
        -0.37300E+03
        -0.37300E+03
        -0.37300E+03
        -0.37300E+03
        -0.37300E+03
        -0.37300E+03
        -0.37300E+03
        -0.37300E+03
        -0.37300E+03
        -0.37300E+03
        -0.37300E+03
        -0.37300E+03
        -0.37300E+03
        -0.37300E+03
        -0.37300E+03
        -0.37300E+03
        -0.37300E+03
        -0.37300E+03
        -0.37300E+03
        -0.37300E+03
        -0.37300E+03
        -0.37300E+03
        -0.37300E+03
        -0.37300E+03
        -0.37300E+03
        -0.37300E+03
        -0.37300E+03
        -0.37300E+03
        -0.37300E+03
        -0.37300E+03
        -0.37300E+03
        -0.37300E+03
        -0.37300E+03
        -0.37300E+03
        -0.37300E+03
        -0.37300E+03
        -0.37300E+03
        -0.37300E+03
        -0.37300E+03
        -0.37300E+03
        -0.37300E+03
        -0.37300E+03
        -0.37300E+03
        -0.37300E+03
        -0.37300E+03
        -0.37300E+03
        -0.37300E+03
        -0.37300E+03
        -0.37300E+03
        -0.37300E+03
        -0.37300E+03
        -0.37300E+03
        -0.37300E+03
        -0.37300E+03
        -0.37300E+03
        -0.37300E+03
        -0.37300E+03
        -0.37300E+03
        -0.37300E+03
        -0.37300E+03
        -0.37300E+03
        -0.37300E+03
        -0.37300E+03
        -0.37300E+03
        -0.37300E+03
        -0.37300E+03
        -0.37300E+03
        -0.37300E+03
        -0.37300E+03
        -0.37300E+03
        -0.37300E+03
        -0.37300E+03
        -0.37300E+03
        -0.37300E+03
        -0.37300E+03
        -0.37300E+03
        -0.37300E+03
        -0.37300E+03
        -0.37300E+03
        -0.37300E+03
        -0.37300E+03
        -0.37300E+03
        -0.37300E+03
        -0.37300E+03
        -0.37300E+03
        -0.37300E+03
        -0.37300E+03
        -0.37300E+03
        -0.37300E+03
        -0.37300E+03
        -0.37300E+03
        -0.37300E+03
        -0.37300E+03
        -0.37300E+03
        -0.37300E+03
        -0.37300E+03
        -0.37300E+03
        -0.37300E+03
        -0.37300E+03
        -0.37300E+03
        -0.37300E+03
        -0.37300E+03
        -0.37300E+03
        -0.37300E+03
        -0.37300E+03
        -0.37300E+03
        -0.37300E+03
        -0.37300E+03
        -0.37300E+03
        -0.37300E+03
        -0.37300E+03
        -0.37300E+03
        -0.37300E+03
        -0.37300E+03
        -0.37300E+03
        -0.37300E+03
        -0.37300E+03
        -0.37300E+03
        -0.37300E+03
        -0.37300E+03
        -0.37300E+03
        -0.37300E+03
        -0.37300E+03
        -0.37300E+03
        -0.37300E+03
        -0.37300E+03
        -0.37300E+03
        -0.37300E+03
        -0.37300E+03
        -0.37300E+03
        -0.37300E+03
        -0.37300E+03
        -0.37300E+03
        -0.37300E+03
        -0.37300E+03
        -0.37300E+03
        -0.37300E+03
        -0.37300E+03
        -0.37300E+03
        -0.37300E+03
        -0.37300E+03
        -0.37300E+03
        -0.37300E+03
        -0.37300E+03
        -0.37300E+03
        -0.37300E+03
        -0.37300E+03
        -0.37300E+03
        -0.37300E+03
        -0.37300E+03
        -0.37300E+03
        -0.37300E+03
        -0.37300E+03
        -0.37300E+03
        -0.37300E+03
        -0.37300E+03
        -0.37300E+03
        -0.37300E+03
        -0.37300E+03
        -0.37300E+03
        -0.37300E+03
        -0.37300E+03
        -0.37300E+03
        -0.37300E+03
        -0.37300E+03
        -0.37300E+03
        -0.37300E+03
        -0.37300E+03
        -0.37300E+03
        -0.37300E+03
        -0.37300E+03
        -0.37300E+03
        -0.37300E+03
        -0.37300E+03
        -0.37300E+03
        -0.37300E+03
        -0.37300E+03
        -0.37300E+03
        -0.37300E+03
        -0.37300E+03
        -0.37300E+03
        -0.37300E+03
        -0.37300E+03
        -0.37300E+03
        -0.37300E+03
        -0.37300E+03
        -0.37300E+03
        -0.37300E+03
        -0.37300E+03
        -0.37300E+03
        -0.37300E+03
        -0.37300E+03
        -0.37300E+03
        -0.37300E+03
        -0.37300E+03
        -0.37300E+03
        -0.37300E+03
        -0.37300E+03
        -0.37300E+03
        -0.37300E+03
        -0.37300E+03
        -0.37300E+03
        -0.37300E+03
        -0.37300E+03
        -0.37300E+03
        -0.37300E+03
        -0.37300E+03
        -0.37300E+03
        -0.37300E+03
        -0.37300E+03
        -0.37300E+03
        -0.37300E+03
        -0.37300E+03
        -0.37300E+03
        -0.37300E+03
        -0.37300E+03
        -0.37300E+03
        -0.37300E+03
        -0.37300E+03
        -0.37300E+03
        -0.37300E+03
        -0.37300E+03
        -0.37300E+03
        -0.37300E+03
        -0.37300E+03
        -0.37300E+03
        -0.37300E+03
        -0.37300E+03
        -0.37300E+03
        -0.37300E+03
        -0.37300E+03
        -0.37300E+03
        -0.37300E+03
        -0.37300E+03
        -0.37300E+03
        -0.37300E+03
        -0.37300E+03
        -0.37300E+03
        -0.37300E+03
        -0.37300E+03
        -0.37300E+03
        -0.37300E+03
        -0.37300E+03
        -0.37300E+03
        -0.37300E+03
        -0.37300E+03
        -0.37300E+03
        -0.37300E+03
        -0.37300E+03
        -0.37300E+03
        -0.37300E+03
        -0.37300E+03
        -0.37300E+03
        -0.37300E+03
        -0.37300E+03
        -0.37300E+03
        -0.37300E+03
        -0.37300E+03
        -0.37300E+03
        -0.37300E+03
        -0.37300E+03
        -0.37300E+03
        -0.37300E+03
        -0.37300E+03
        -0.37300E+03
        -0.37300E+03
        -0.37300E+03
        -0.37300E+03
        -0.37300E+03
        -0.37300E+03
        -0.37300E+03
        -0.37300E+03
        -0.37300E+03
        -0.37300E+03
        -0.37300E+03
        -0.37300E+03
        -0.37300E+03
        -0.37300E+03
        -0.37300E+03
        -0.37300E+03
        -0.37300E+03
        -0.37300E+03
        -0.37300E+03
        -0.37300E+03
        -0.37300E+03
        -0.37300E+03
        -0.37300E+03
        -0.37300E+03
        -0.37300E+03
        -0.37300E+03
        -0.37300E+03
        -0.37300E+03
        -0.37300E+03
        -0.37300E+03
        -0.37300E+03
        -0.37300E+03
        -0.37300E+03
        -0.37300E+03
        -0.37300E+03
        -0.37300E+03
        -0.37300E+03
        -0.37300E+03
        -0.37300E+03
        -0.37300E+03
        -0.37300E+03
        -0.37300E+03
        -0.37300E+03
        -0.37300E+03
        -0.37300E+03
        -0.37300E+03
        -0.37300E+03
        -0.37300E+03
        -0.37300E+03
        -0.37300E+03
        -0.37300E+03
        -0.37300E+03
        -0.37300E+03
        -0.37300E+03
        -0.37300E+03
        -0.37300E+03
        -0.37300E+03
        -0.37300E+03
        -0.37300E+03
        -0.37300E+03
        -0.37300E+03
        -0.37300E+03
        -0.37300E+03
        -0.37300E+03
        -0.37300E+03
        -0.37300E+03
        -0.37300E+03
        -0.37300E+03
        -0.37300E+03
        -0.37300E+03
        -0.37300E+03
        -0.37300E+03
        -0.37300E+03
        -0.37300E+03
        -0.37300E+03
        -0.37300E+03
        -0.37300E+03
        -0.37300E+03
        -0.37300E+03
        -0.37300E+03
        -0.37300E+03
        -0.37300E+03
        -0.37300E+03
        -0.37300E+03
        -0.37300E+03
        -0.37300E+03
        -0.37300E+03
        -0.37300E+03
        -0.37300E+03
        -0.37300E+03
        -0.37300E+03
        -0.37300E+03
        -0.37300E+03
        -0.37300E+03
        -0.37300E+03
        -0.37300E+03
        -0.37300E+03
        -0.37300E+03
        -0.37300E+03
        -0.37300E+03
        -0.37300E+03
        -0.37300E+03
        -0.37300E+03
        -0.37300E+03
        -0.37300E+03
        -0.37300E+03
        -0.37300E+03
        -0.37300E+03
        -0.37300E+03
        -0.37300E+03
        -0.37300E+03
        -0.37300E+03
        -0.37300E+03
        -0.37300E+03
        -0.37300E+03
        -0.37300E+03
        -0.37300E+03
        -0.37300E+03
        -0.37300E+03
        -0.37300E+03
        -0.37300E+03
        -0.37300E+03
        -0.37300E+03
        -0.37300E+03
        -0.37300E+03
        -0.37300E+03
        -0.37300E+03
        -0.37300E+03
        -0.37300E+03
        -0.37300E+03
        -0.37300E+03
        -0.37300E+03
        -0.37300E+03
        -0.37300E+03
        -0.37300E+03
        -0.37300E+03
        -0.37300E+03
        -0.37300E+03
        -0.37300E+03
        -0.37300E+03
        -0.37300E+03
        -0.37300E+03
        -0.37300E+03
        -0.37300E+03
        -0.37300E+03
        -0.37300E+03
        -0.37300E+03
        -0.37300E+03
        -0.37300E+03
        -0.37300E+03
        -0.37300E+03
        -0.37300E+03
        -0.37300E+03
        -0.37300E+03
        -0.37300E+03
        -0.37300E+03
        -0.37300E+03
        -0.37300E+03
        -0.37300E+03
        -0.37300E+03
        -0.37300E+03
        -0.37300E+03
        -0.37300E+03
        -0.37300E+03
        -0.37300E+03
        -0.37300E+03
        -0.37300E+03
        -0.37300E+03
        -0.37300E+03
        -0.37300E+03
        -0.37300E+03
        -0.37300E+03
        -0.37300E+03
        -0.37300E+03
        -0.37300E+03
        -0.37300E+03
        -0.37300E+03
        -0.37300E+03
        -0.37300E+03
        -0.37300E+03
        -0.37300E+03
        -0.37300E+03
        -0.37300E+03
        -0.37300E+03
        -0.37300E+03
        -0.37300E+03
        -0.37300E+03
        -0.37300E+03
        -0.37300E+03
        -0.37300E+03
        -0.37300E+03
        -0.37300E+03
        -0.37300E+03
        -0.37300E+03
        -0.37300E+03
        -0.37300E+03
        -0.37300E+03
        -0.37300E+03
        -0.37300E+03
        -0.37300E+03
        -0.37300E+03
        -0.37300E+03
        -0.37300E+03
        -0.37300E+03
        -0.37300E+03
        -0.37300E+03
        -0.37300E+03
        -0.37300E+03
        -0.37300E+03
        -0.37300E+03
        -0.37300E+03
        -0.37300E+03
        -0.37300E+03
        -0.37300E+03
        -0.37300E+03
        -0.37300E+03
        -0.37300E+03
        -0.37300E+03
        -0.37300E+03
        -0.37300E+03
        -0.37300E+03
        -0.37300E+03
        -0.37300E+03
        -0.37300E+03
        -0.37300E+03
        -0.37300E+03
        -0.37300E+03
        -0.37300E+03
        -0.37300E+03
        -0.37300E+03
        -0.37300E+03
        -0.37300E+03
        -0.37300E+03
        -0.37300E+03
        -0.37300E+03
        -0.37300E+03
        -0.37300E+03
        -0.37300E+03
        -0.37300E+03
        -0.37300E+03
        -0.37300E+03
        -0.37300E+03
        -0.37300E+03
        -0.37300E+03
        -0.37300E+03
        -0.37300E+03
        -0.37300E+03
        -0.37300E+03
        -0.37300E+03
        -0.37300E+03
        -0.37300E+03
        -0.37300E+03
        -0.37300E+03
        -0.37300E+03
        -0.37300E+03
        -0.37300E+03
        -0.37300E+03
        -0.37300E+03
        -0.37300E+03
        -0.37300E+03
        -0.37300E+03
        -0.37300E+03
        -0.37300E+03
        -0.37300E+03
        -0.37300E+03
        -0.37300E+03
        -0.37300E+03
        -0.37300E+03
        -0.37300E+03
        -0.37300E+03
        -0.37300E+03
        -0.37300E+03
        -0.37300E+03
        -0.37300E+03
        -0.37300E+03
        -0.37300E+03
        -0.37300E+03
        -0.37300E+03
        -0.37300E+03
        -0.37300E+03
        -0.37300E+03
        -0.37300E+03
        -0.37300E+03
        -0.37300E+03
        -0.37300E+03
        -0.37300E+03
        -0.37300E+03
        -0.37300E+03
        -0.37300E+03
        -0.37300E+03
        -0.37300E+03
        -0.37300E+03
        -0.37300E+03
        -0.37300E+03
        -0.37300E+03
        -0.37300E+03
        -0.37300E+03
        -0.37300E+03
        -0.37300E+03
        -0.37300E+03
        -0.37300E+03
        -0.37300E+03
        -0.37300E+03
        -0.37300E+03
        -0.37300E+03
        -0.37300E+03
        -0.37300E+03
        -0.37300E+03
        -0.37300E+03
        -0.37300E+03
        -0.37300E+03
        -0.37300E+03
        -0.37300E+03
        -0.37300E+03
        -0.37300E+03
        -0.37300E+03
        -0.37300E+03
        -0.37300E+03
        -0.37300E+03
        -0.37300E+03
        -0.37300E+03
        -0.37300E+03
        -0.37300E+03
        -0.37300E+03
        -0.37300E+03
        -0.37300E+03
        -0.37300E+03
        -0.37300E+03
        -0.37300E+03
        -0.37300E+03
        -0.37300E+03
        -0.37300E+03
        -0.37300E+03
        -0.37300E+03
        -0.37300E+03
        -0.37300E+03
        -0.37300E+03
        -0.37300E+03
        -0.37300E+03
        -0.37300E+03
        -0.37300E+03
        -0.37300E+03
        -0.37300E+03
        -0.37300E+03
        -0.37300E+03
        -0.37300E+03
        -0.37300E+03
        -0.37300E+03
        -0.37300E+03
        -0.37300E+03
        -0.37300E+03
        -0.37300E+03
        -0.37300E+03
        -0.37300E+03
        -0.37300E+03
        -0.37300E+03
        -0.37300E+03
        -0.37300E+03
        -0.37300E+03
        -0.37300E+03
        -0.37300E+03
        -0.37300E+03
        -0.37300E+03
        -0.37300E+03
        -0.37300E+03
        -0.37300E+03
        -0.37300E+03
        -0.37300E+03
        -0.37300E+03
        -0.37300E+03
        -0.37300E+03
        -0.37300E+03
        -0.37300E+03
        -0.37300E+03
        -0.37300E+03
        -0.37300E+03
        -0.37300E+03
        -0.37300E+03
        -0.37300E+03
        -0.37300E+03
        -0.37300E+03
        -0.37300E+03
        -0.37300E+03
        -0.37300E+03
        -0.37300E+03
        -0.37300E+03
        -0.37300E+03
        -0.37300E+03
        -0.37300E+03
        -0.37300E+03
        -0.37300E+03
        -0.37300E+03
        -0.37300E+03
        -0.37300E+03
        -0.37300E+03
        -0.37300E+03
        -0.37300E+03
        -0.37300E+03
        -0.37300E+03
        -0.37300E+03
        -0.37300E+03
        -0.37300E+03
        -0.37300E+03
        -0.37300E+03
        -0.37300E+03
        -0.37300E+03
        -0.37300E+03
        -0.37300E+03
        -0.37300E+03
        -0.37300E+03
        -0.37300E+03
        -0.37300E+03
        -0.37300E+03
        -0.37300E+03
        -0.37300E+03
        -0.37300E+03
        -0.37300E+03
        -0.37300E+03
        -0.37300E+03
        -0.37300E+03
        -0.37300E+03
        -0.37300E+03
        -0.37300E+03
        -0.37300E+03
        -0.37300E+03
        -0.37300E+03
        -0.37300E+03
        -0.37300E+03
        -0.37300E+03
        -0.37300E+03
        -0.37300E+03
        -0.37300E+03
        -0.37300E+03
        -0.37300E+03
        -0.37300E+03
        -0.37300E+03
        -0.37300E+03
        -0.37300E+03
        -0.37300E+03
        -0.37300E+03
        -0.37300E+03
        -0.37300E+03
        -0.37300E+03
        -0.37300E+03
        -0.37300E+03
        -0.37300E+03
        -0.37300E+03
        -0.37300E+03
        -0.37300E+03
        -0.37300E+03
        -0.37300E+03
        -0.37300E+03
        -0.37300E+03
        -0.37300E+03
        -0.37300E+03
        -0.37300E+03
        -0.37300E+03
        -0.37300E+03
        -0.37300E+03
        -0.37300E+03
        -0.37300E+03
        -0.37300E+03
        -0.37300E+03
        -0.37300E+03
        -0.37300E+03
        -0.37300E+03
        -0.37300E+03
        -0.37300E+03
        -0.37300E+03
        -0.37300E+03
        -0.37300E+03
        -0.37300E+03
        -0.37300E+03
        -0.37300E+03
        -0.37300E+03
        -0.37300E+03
        -0.37300E+03
        -0.37300E+03
        -0.37300E+03
        -0.37300E+03
        -0.37300E+03
        -0.37300E+03
        -0.37300E+03
        -0.37300E+03
        -0.37300E+03
        -0.37300E+03
        -0.37300E+03
        -0.37300E+03
        -0.37300E+03
        -0.37300E+03
        -0.37300E+03
        -0.37300E+03
        -0.37300E+03
        -0.37300E+03
        -0.37300E+03
        -0.37300E+03
        -0.37300E+03
        -0.37300E+03
        -0.37300E+03
        -0.37300E+03
        -0.37300E+03
        -0.37300E+03
        -0.37300E+03
        -0.37300E+03
        -0.37300E+03
        -0.37300E+03
        -0.37300E+03
        -0.37300E+03
        -0.37300E+03
        -0.37300E+03
        -0.37300E+03
        -0.37300E+03
        -0.37300E+03
        -0.37300E+03
        -0.37300E+03
        -0.37300E+03
        -0.37300E+03
        -0.37300E+03
        -0.37300E+03
        -0.37300E+03
        -0.37300E+03
        -0.37300E+03
        -0.37300E+03
        -0.37300E+03
        -0.37300E+03
        -0.37300E+03
        -0.37300E+03
        -0.37300E+03
        -0.37300E+03
        -0.37300E+03
        -0.37300E+03
        -0.37300E+03
        -0.37300E+03
        -0.37300E+03
        -0.37300E+03
        -0.37300E+03
        -0.37300E+03
        -0.37300E+03
        -0.37300E+03
        -0.37300E+03
        -0.37300E+03
        -0.37300E+03
        -0.37300E+03
        -0.37300E+03
        -0.37300E+03
        -0.37300E+03
        -0.37300E+03
        -0.37300E+03
        -0.37300E+03
        -0.37300E+03
        -0.37300E+03
        -0.37300E+03
        -0.37300E+03
        -0.37300E+03
        -0.37300E+03
        -0.37300E+03
        -0.37300E+03
        -0.37300E+03
        -0.37300E+03
        -0.37300E+03
        -0.37300E+03
        -0.37300E+03
        -0.37300E+03
        -0.37300E+03
        -0.37300E+03
        -0.37300E+03
        -0.37300E+03
        -0.37300E+03
        -0.37300E+03
        -0.37300E+03
        -0.37300E+03
        -0.37300E+03
        -0.37300E+03
        -0.37300E+03
        -0.37300E+03
        -0.37300E+03
        -0.37300E+03
        -0.37300E+03
        -0.37300E+03
        -0.37300E+03
        -0.37300E+03
        -0.37300E+03
        -0.37300E+03
        -0.37300E+03
        -0.37300E+03
        -0.37300E+03
        -0.37300E+03
        -0.37300E+03
        -0.37300E+03
        -0.37300E+03
        -0.37300E+03
        -0.37300E+03
        -0.37300E+03
        -0.37300E+03
        -0.37300E+03
        -0.37300E+03
        -0.37300E+03
        -0.37300E+03
        -0.37300E+03
        -0.37300E+03
        -0.37300E+03
        -0.37300E+03
        -0.37300E+03
        -0.37300E+03
        -0.37300E+03
        -0.37300E+03
        -0.37300E+03
        -0.37300E+03
        -0.37300E+03
        -0.37300E+03
        -0.37300E+03
        -0.37300E+03
        -0.37300E+03
        -0.37300E+03
        -0.37300E+03
        -0.37300E+03
        -0.37300E+03
        -0.37300E+03
        -0.37300E+03
        -0.37300E+03
        -0.37300E+03
        -0.37300E+03
        -0.37300E+03
        -0.37300E+03
        -0.37300E+03
        -0.37300E+03
        -0.37300E+03
        -0.37300E+03
        -0.37300E+03
        -0.37300E+03
        -0.37300E+03
        -0.37300E+03
        -0.37300E+03
        -0.37300E+03
        -0.37300E+03
        -0.37300E+03
        -0.37300E+03
        -0.37300E+03
        -0.37300E+03
        -0.37300E+03
        -0.37300E+03
        -0.37300E+03
        -0.37300E+03
        -0.37300E+03
        -0.37300E+03
        -0.37300E+03
        -0.37300E+03
        -0.37300E+03
        -0.37300E+03
        -0.37300E+03
        -0.37300E+03
        -0.37300E+03
        -0.37300E+03
        -0.37300E+03
        -0.37300E+03
        -0.37300E+03
        -0.37300E+03
        -0.37300E+03
        -0.37300E+03
        -0.37300E+03
        -0.37300E+03
        -0.37300E+03
        -0.37300E+03
        -0.37300E+03
        -0.37300E+03
        -0.37300E+03
        -0.37300E+03
        -0.37300E+03
        -0.37300E+03
        -0.37300E+03
        -0.37300E+03
        -0.37300E+03
        -0.37300E+03
        -0.37300E+03
        -0.37300E+03
        -0.37300E+03
        -0.37300E+03
        -0.37300E+03
        -0.37300E+03
        -0.37300E+03
        -0.37300E+03
        -0.37300E+03
        -0.37300E+03
        -0.37300E+03
        -0.37300E+03
        -0.37300E+03
        -0.37300E+03
        -0.37300E+03
        -0.37300E+03
        -0.37300E+03
        -0.37300E+03
        -0.37300E+03
        -0.37300E+03
        -0.37300E+03
        -0.37300E+03
        -0.37300E+03
        -0.37300E+03
        -0.37300E+03
        -0.37300E+03
        -0.37300E+03
        -0.37300E+03
        -0.37300E+03
        -0.37300E+03
        -0.37300E+03
        -0.37300E+03
        -0.37300E+03
        -0.37300E+03
        -0.37300E+03
        -0.37300E+03
        -0.37300E+03
        -0.37300E+03
        -0.37300E+03
        -0.37300E+03
        -0.37300E+03
        -0.37300E+03
        -0.37300E+03
        -0.37300E+03
        -0.37300E+03
        -0.37300E+03
        -0.37300E+03
        -0.37300E+03
        -0.37300E+03
        -0.37300E+03
        -0.37300E+03
        -0.37300E+03
        -0.37300E+03
        -0.37300E+03
        -0.37300E+03
        -0.37300E+03
        -0.37300E+03
        -0.37300E+03
        -0.37300E+03
        -0.37300E+03
        -0.37300E+03
        -0.37300E+03
        -0.37300E+03
        -0.37300E+03
        -0.37300E+03
        -0.37300E+03
        -0.37300E+03
        -0.37300E+03
        -0.37300E+03
        -0.37300E+03
        -0.37300E+03
        -0.37300E+03
        -0.37300E+03
        -0.37300E+03
        -0.37300E+03
        -0.37300E+03
        -0.37300E+03
        -0.37300E+03
        -0.37300E+03
        -0.37300E+03
        -0.37300E+03
        -0.37300E+03
        -0.37300E+03
        -0.37300E+03
        -0.37300E+03
        -0.37300E+03
        -0.37300E+03
        -0.37300E+03
        -0.37300E+03
        -0.37300E+03
        -0.37300E+03
        -0.37300E+03
        -0.37300E+03
        -0.37300E+03
        -0.37300E+03
        -0.37300E+03
        -0.37300E+03
        -0.37300E+03
        -0.37300E+03
        -0.37300E+03
        -0.37300E+03
        -0.37300E+03
        -0.37300E+03
        -0.37300E+03
        -0.37300E+03
        -0.37300E+03
        -0.37300E+03
        -0.37300E+03
        -0.37300E+03
        -0.37300E+03
        -0.37300E+03
        -0.37300E+03
        -0.37300E+03
        -0.37300E+03
        -0.37300E+03
        -0.37300E+03
        -0.37300E+03
        -0.37300E+03
        -0.37300E+03
        -0.37300E+03
        -0.37300E+03
        -0.37300E+03
        -0.37300E+03
        -0.37300E+03
        -0.37300E+03
        -0.37300E+03
        -0.37300E+03
        -0.37300E+03
        -0.37300E+03
        -0.37300E+03
        -0.37300E+03
        -0.37300E+03
        -0.37300E+03
        -0.37300E+03
        -0.37300E+03
        -0.37300E+03
        -0.37300E+03
        -0.37300E+03
        -0.37300E+03
        -0.37300E+03
        -0.37300E+03
        -0.37300E+03
        -0.37300E+03
        -0.37300E+03
        -0.37300E+03
        -0.37300E+03
        -0.37300E+03
        -0.37300E+03
        -0.37300E+03
        -0.37300E+03
        -0.37300E+03
        -0.37300E+03
        -0.37300E+03
        -0.37300E+03
        -0.37300E+03
        -0.37300E+03
        -0.37300E+03
        -0.37300E+03
        -0.37300E+03
        -0.37300E+03
        -0.37300E+03
        -0.37300E+03
        -0.37300E+03
        -0.37300E+03
        -0.37300E+03
        -0.37300E+03
        -0.37300E+03
        -0.37300E+03
        -0.37300E+03
        -0.37300E+03
        -0.37300E+03
        -0.37300E+03
        -0.37300E+03
        -0.37300E+03
        -0.37300E+03
        -0.37300E+03
        -0.37300E+03
        -0.37300E+03
        -0.37300E+03
        -0.37300E+03
        -0.37300E+03
        -0.37300E+03
        -0.37300E+03
        -0.37300E+03
        -0.37300E+03
        -0.37300E+03
        -0.37300E+03
        -0.37300E+03
        -0.37300E+03
        -0.37300E+03
        -0.37300E+03
        -0.37300E+03
        -0.37300E+03
        -0.37300E+03
        -0.37300E+03
        -0.37300E+03
        -0.37300E+03
        -0.37300E+03
        -0.37300E+03
        -0.37300E+03
        -0.37300E+03
        -0.37300E+03
        -0.37300E+03
        -0.37300E+03
        -0.37300E+03
        -0.37300E+03
        -0.37300E+03
        -0.37300E+03
        -0.37300E+03
        -0.37300E+03
        -0.37300E+03
        -0.37300E+03
        -0.37300E+03
        -0.37300E+03
        -0.37300E+03
        -0.37300E+03
        -0.37300E+03
        -0.37300E+03
        -0.37300E+03
        -0.37300E+03
        -0.37300E+03
        -0.37300E+03
        -0.37300E+03
        -0.37300E+03
        -0.37300E+03
        -0.37300E+03
        -0.37300E+03
        -0.37300E+03
        -0.37300E+03
        -0.37300E+03
        -0.37300E+03
        -0.37300E+03
        -0.37300E+03
        -0.37300E+03
        -0.37300E+03
        -0.37300E+03
        -0.37300E+03
        -0.37300E+03
        -0.37300E+03
        -0.37300E+03
        -0.37300E+03
        -0.37300E+03
        -0.37300E+03
        -0.37300E+03
        -0.37300E+03
        -0.37300E+03
        -0.37300E+03
        -0.37300E+03
        -0.37300E+03
        -0.37300E+03
        -0.37300E+03
        -0.37300E+03
        -0.37300E+03
        -0.37300E+03
        -0.37300E+03
        -0.37300E+03
        -0.37300E+03
        -0.37300E+03
        -0.37300E+03
        -0.37300E+03
        -0.37300E+03
        -0.37300E+03
        -0.37300E+03
        -0.37300E+03
        -0.37300E+03
        -0.37300E+03
        -0.37300E+03
        -0.37300E+03
        -0.37300E+03
        -0.37300E+03
        -0.37300E+03
        -0.37300E+03
        -0.37300E+03
        -0.37300E+03
        -0.37300E+03
        -0.37300E+03
        -0.37300E+03
        -0.37300E+03
        -0.37300E+03
        -0.37300E+03
        -0.37300E+03
        -0.37300E+03
        -0.37300E+03
        -0.37300E+03
        -0.37300E+03
        -0.37300E+03
        -0.37300E+03
        -0.37300E+03
        -0.37300E+03
        -0.37300E+03
        -0.37300E+03
        -0.37300E+03
        -0.37300E+03
        -0.37300E+03
        -0.37300E+03
        -0.37300E+03
        -0.37300E+03
        -0.37300E+03
        -0.37300E+03
        -0.37300E+03
        -0.37300E+03
        -0.37300E+03
        -0.37300E+03
        -0.37300E+03
        -0.37300E+03
        -0.37300E+03
        -0.37300E+03
        -0.37300E+03
        -0.37300E+03
        -0.37300E+03
        -0.37300E+03
        -0.37300E+03
        -0.37300E+03
        -0.37300E+03
        -0.37300E+03
        -0.37300E+03
        -0.37300E+03
        -0.37300E+03
        -0.37300E+03
        -0.37300E+03
        -0.37300E+03
        -0.37300E+03
        -0.37300E+03
        -0.37300E+03
        -0.37300E+03
        -0.37300E+03
        -0.37300E+03
        -0.37300E+03
        -0.37300E+03
        -0.37300E+03
        -0.37300E+03
        -0.37300E+03
        -0.37300E+03
        -0.37300E+03
        -0.37300E+03
        -0.37300E+03
        -0.37300E+03
        -0.37300E+03
        -0.37300E+03
        -0.37300E+03
        -0.37300E+03
        -0.37300E+03
        -0.37300E+03
        -0.37300E+03
        -0.37300E+03
        -0.37300E+03
        -0.37300E+03
        -0.37300E+03
        -0.37300E+03
        -0.37300E+03
        -0.37300E+03
        -0.37300E+03
        -0.37300E+03
        -0.37300E+03
        -0.37300E+03
        -0.37300E+03
        -0.37300E+03
        -0.37300E+03
        -0.37300E+03
        -0.37300E+03
        -0.37300E+03
        -0.37300E+03
        -0.37300E+03
        -0.37300E+03
        -0.37300E+03
        -0.37300E+03
        -0.37300E+03
        -0.37300E+03
        -0.37300E+03
        -0.37300E+03
        -0.37300E+03
        -0.37300E+03
        -0.37300E+03
        -0.37300E+03
        -0.37300E+03
        -0.37300E+03
        -0.37300E+03
        -0.37300E+03
        -0.37300E+03
        -0.37300E+03
        -0.37300E+03
        -0.37300E+03
        -0.37300E+03
        -0.37300E+03
        -0.37300E+03
        -0.37300E+03
        -0.37300E+03
        -0.37300E+03
        -0.37300E+03
        -0.37300E+03
        -0.37300E+03
        -0.37300E+03
        -0.37300E+03
        -0.37300E+03
        -0.37300E+03
        -0.37300E+03
        -0.37300E+03
        -0.37300E+03
        -0.37300E+03
        -0.37300E+03
        -0.37300E+03
        -0.37300E+03
        -0.37300E+03
        -0.37300E+03
        -0.37300E+03
        -0.37300E+03
        -0.37300E+03
        -0.37300E+03
        -0.37300E+03
        -0.37300E+03
        -0.37300E+03
        -0.37300E+03
        -0.37300E+03
        -0.37300E+03
        -0.37300E+03
        -0.37300E+03
        -0.37300E+03
        -0.37300E+03
        -0.37300E+03
        -0.37300E+03
        -0.37300E+03
        -0.37300E+03
        -0.37300E+03
        -0.37300E+03
        -0.37300E+03
        -0.37300E+03
        -0.37300E+03
        -0.37300E+03
        -0.37300E+03
        -0.37300E+03
        -0.37300E+03
        -0.37300E+03
        -0.37300E+03
        -0.37300E+03
        -0.37300E+03
        -0.37300E+03
        -0.37300E+03
        -0.37300E+03
        -0.37300E+03
        -0.37300E+03
        -0.37300E+03
        -0.37300E+03
        -0.37300E+03
        -0.37300E+03
        -0.37300E+03
        -0.37300E+03
        -0.37300E+03
        -0.37300E+03
        -0.37300E+03
        -0.37300E+03
        -0.37300E+03
        -0.37300E+03
        -0.37300E+03
        -0.37300E+03
        -0.37300E+03
        -0.37300E+03
        -0.37300E+03
        -0.37300E+03
        -0.37300E+03
        -0.37300E+03
        -0.37300E+03
        -0.37300E+03
        -0.37300E+03
        -0.37300E+03
        -0.37300E+03
        -0.37300E+03
        -0.37300E+03
        -0.37300E+03
        -0.37300E+03
        -0.37300E+03
        -0.37300E+03
        -0.37300E+03
        -0.37300E+03
        -0.37300E+03
        -0.37300E+03
        -0.37300E+03
        -0.37300E+03
        -0.37300E+03
        -0.37300E+03
        -0.37300E+03
        -0.37300E+03
        -0.37300E+03
  
SCALARS                 acceleration_x  double 1
LOOKUP_TABLE default
         0.00000E+00
         0.00000E+00
         0.00000E+00
         0.00000E+00
         0.00000E+00
         0.00000E+00
         0.00000E+00
         0.00000E+00
         0.00000E+00
         0.00000E+00
         0.00000E+00
         0.00000E+00
         0.00000E+00
         0.00000E+00
         0.00000E+00
         0.00000E+00
         0.00000E+00
         0.00000E+00
         0.00000E+00
         0.00000E+00
         0.00000E+00
         0.00000E+00
         0.00000E+00
         0.00000E+00
         0.00000E+00
         0.00000E+00
         0.00000E+00
         0.00000E+00
         0.00000E+00
         0.00000E+00
         0.00000E+00
         0.00000E+00
         0.00000E+00
         0.00000E+00
         0.00000E+00
         0.00000E+00
         0.00000E+00
         0.00000E+00
         0.00000E+00
         0.00000E+00
         0.00000E+00
         0.00000E+00
         0.00000E+00
         0.00000E+00
         0.00000E+00
         0.00000E+00
         0.00000E+00
         0.00000E+00
         0.00000E+00
         0.00000E+00
         0.00000E+00
         0.00000E+00
         0.00000E+00
         0.00000E+00
         0.00000E+00
         0.00000E+00
         0.00000E+00
         0.00000E+00
         0.00000E+00
         0.00000E+00
         0.00000E+00
         0.00000E+00
         0.00000E+00
         0.00000E+00
         0.00000E+00
         0.00000E+00
         0.00000E+00
         0.00000E+00
         0.00000E+00
         0.00000E+00
         0.00000E+00
         0.00000E+00
         0.00000E+00
         0.00000E+00
         0.00000E+00
         0.00000E+00
         0.00000E+00
         0.00000E+00
         0.00000E+00
         0.00000E+00
         0.00000E+00
         0.00000E+00
         0.00000E+00
         0.00000E+00
         0.00000E+00
         0.00000E+00
         0.00000E+00
         0.00000E+00
         0.00000E+00
         0.00000E+00
         0.00000E+00
         0.00000E+00
         0.00000E+00
         0.00000E+00
         0.00000E+00
         0.00000E+00
         0.00000E+00
         0.00000E+00
         0.00000E+00
         0.00000E+00
         0.00000E+00
         0.00000E+00
         0.00000E+00
         0.00000E+00
         0.00000E+00
         0.00000E+00
         0.00000E+00
         0.00000E+00
         0.00000E+00
         0.00000E+00
         0.00000E+00
         0.00000E+00
         0.00000E+00
         0.00000E+00
         0.00000E+00
         0.00000E+00
         0.00000E+00
         0.00000E+00
         0.00000E+00
         0.00000E+00
         0.00000E+00
         0.00000E+00
         0.00000E+00
         0.00000E+00
         0.00000E+00
         0.00000E+00
         0.00000E+00
         0.00000E+00
         0.00000E+00
         0.00000E+00
         0.00000E+00
         0.00000E+00
         0.00000E+00
         0.00000E+00
         0.00000E+00
         0.00000E+00
         0.00000E+00
         0.00000E+00
         0.00000E+00
         0.00000E+00
         0.00000E+00
         0.00000E+00
         0.00000E+00
         0.00000E+00
         0.00000E+00
         0.00000E+00
         0.00000E+00
         0.00000E+00
         0.00000E+00
         0.00000E+00
         0.00000E+00
         0.00000E+00
         0.00000E+00
         0.00000E+00
         0.00000E+00
         0.00000E+00
         0.00000E+00
         0.00000E+00
         0.00000E+00
         0.00000E+00
         0.00000E+00
         0.00000E+00
         0.00000E+00
         0.00000E+00
         0.00000E+00
         0.00000E+00
         0.00000E+00
         0.00000E+00
         0.00000E+00
         0.00000E+00
         0.00000E+00
         0.00000E+00
         0.00000E+00
         0.00000E+00
         0.00000E+00
         0.00000E+00
         0.00000E+00
         0.00000E+00
         0.00000E+00
         0.00000E+00
         0.00000E+00
         0.00000E+00
         0.00000E+00
         0.00000E+00
         0.00000E+00
         0.00000E+00
         0.00000E+00
         0.00000E+00
         0.00000E+00
         0.00000E+00
         0.00000E+00
         0.00000E+00
         0.00000E+00
         0.00000E+00
         0.00000E+00
         0.00000E+00
         0.00000E+00
         0.00000E+00
         0.00000E+00
         0.00000E+00
         0.00000E+00
         0.00000E+00
         0.00000E+00
         0.00000E+00
         0.00000E+00
         0.00000E+00
         0.00000E+00
         0.00000E+00
         0.00000E+00
         0.00000E+00
         0.00000E+00
         0.00000E+00
         0.00000E+00
         0.00000E+00
         0.00000E+00
         0.00000E+00
         0.00000E+00
         0.00000E+00
         0.00000E+00
         0.00000E+00
         0.00000E+00
         0.00000E+00
         0.00000E+00
         0.00000E+00
         0.00000E+00
         0.00000E+00
         0.00000E+00
         0.00000E+00
         0.00000E+00
         0.00000E+00
         0.00000E+00
         0.00000E+00
         0.00000E+00
         0.00000E+00
         0.00000E+00
         0.00000E+00
         0.00000E+00
         0.00000E+00
         0.00000E+00
         0.00000E+00
         0.00000E+00
         0.00000E+00
         0.00000E+00
         0.00000E+00
         0.00000E+00
         0.00000E+00
         0.00000E+00
         0.00000E+00
         0.00000E+00
         0.00000E+00
         0.00000E+00
         0.00000E+00
         0.00000E+00
         0.00000E+00
         0.00000E+00
         0.00000E+00
         0.00000E+00
         0.00000E+00
         0.00000E+00
         0.00000E+00
         0.00000E+00
         0.00000E+00
         0.00000E+00
         0.00000E+00
         0.00000E+00
         0.00000E+00
         0.00000E+00
         0.00000E+00
         0.00000E+00
         0.00000E+00
         0.00000E+00
         0.00000E+00
         0.00000E+00
         0.00000E+00
         0.00000E+00
         0.00000E+00
         0.00000E+00
         0.00000E+00
         0.00000E+00
         0.00000E+00
         0.00000E+00
         0.00000E+00
         0.00000E+00
         0.00000E+00
         0.00000E+00
         0.00000E+00
         0.00000E+00
         0.00000E+00
         0.00000E+00
         0.00000E+00
         0.00000E+00
         0.00000E+00
         0.00000E+00
         0.00000E+00
         0.00000E+00
         0.00000E+00
         0.00000E+00
         0.00000E+00
         0.00000E+00
         0.00000E+00
         0.00000E+00
         0.00000E+00
         0.00000E+00
         0.00000E+00
         0.00000E+00
         0.00000E+00
         0.00000E+00
         0.00000E+00
         0.00000E+00
         0.00000E+00
         0.00000E+00
         0.00000E+00
         0.00000E+00
         0.00000E+00
         0.00000E+00
         0.00000E+00
         0.00000E+00
         0.00000E+00
         0.00000E+00
         0.00000E+00
         0.00000E+00
         0.00000E+00
         0.00000E+00
         0.00000E+00
         0.00000E+00
         0.00000E+00
         0.00000E+00
         0.00000E+00
         0.00000E+00
         0.00000E+00
         0.00000E+00
         0.00000E+00
         0.00000E+00
         0.00000E+00
         0.00000E+00
         0.00000E+00
         0.00000E+00
         0.00000E+00
         0.00000E+00
         0.00000E+00
         0.00000E+00
         0.00000E+00
         0.00000E+00
         0.00000E+00
         0.00000E+00
         0.00000E+00
         0.00000E+00
         0.00000E+00
         0.00000E+00
         0.00000E+00
         0.00000E+00
         0.00000E+00
         0.00000E+00
         0.00000E+00
         0.00000E+00
         0.00000E+00
         0.00000E+00
         0.00000E+00
         0.00000E+00
         0.00000E+00
         0.00000E+00
         0.00000E+00
         0.00000E+00
         0.00000E+00
         0.00000E+00
         0.00000E+00
         0.00000E+00
         0.00000E+00
         0.00000E+00
         0.00000E+00
         0.00000E+00
         0.00000E+00
         0.00000E+00
         0.00000E+00
         0.00000E+00
         0.00000E+00
         0.00000E+00
         0.00000E+00
         0.00000E+00
         0.00000E+00
         0.00000E+00
         0.00000E+00
         0.00000E+00
         0.00000E+00
         0.00000E+00
         0.00000E+00
         0.00000E+00
         0.00000E+00
         0.00000E+00
         0.00000E+00
         0.00000E+00
         0.00000E+00
         0.00000E+00
         0.00000E+00
         0.00000E+00
         0.00000E+00
         0.00000E+00
         0.00000E+00
         0.00000E+00
         0.00000E+00
         0.00000E+00
         0.00000E+00
         0.00000E+00
         0.00000E+00
         0.00000E+00
         0.00000E+00
         0.00000E+00
         0.00000E+00
         0.00000E+00
         0.00000E+00
         0.00000E+00
         0.00000E+00
         0.00000E+00
         0.00000E+00
         0.00000E+00
         0.00000E+00
         0.00000E+00
         0.00000E+00
         0.00000E+00
         0.00000E+00
         0.00000E+00
         0.00000E+00
         0.00000E+00
         0.00000E+00
         0.00000E+00
         0.00000E+00
         0.00000E+00
         0.00000E+00
         0.00000E+00
         0.00000E+00
         0.00000E+00
         0.00000E+00
         0.00000E+00
         0.00000E+00
         0.00000E+00
         0.00000E+00
         0.00000E+00
         0.00000E+00
         0.00000E+00
         0.00000E+00
         0.00000E+00
         0.00000E+00
         0.00000E+00
         0.00000E+00
         0.00000E+00
         0.00000E+00
         0.00000E+00
         0.00000E+00
         0.00000E+00
         0.00000E+00
         0.00000E+00
         0.00000E+00
         0.00000E+00
         0.00000E+00
         0.00000E+00
         0.00000E+00
         0.00000E+00
         0.00000E+00
         0.00000E+00
         0.00000E+00
         0.00000E+00
         0.00000E+00
         0.00000E+00
         0.00000E+00
         0.00000E+00
         0.00000E+00
         0.00000E+00
         0.00000E+00
         0.00000E+00
         0.00000E+00
         0.00000E+00
         0.00000E+00
         0.00000E+00
         0.00000E+00
         0.00000E+00
         0.00000E+00
         0.00000E+00
         0.00000E+00
         0.00000E+00
         0.00000E+00
         0.00000E+00
         0.00000E+00
         0.00000E+00
         0.00000E+00
         0.00000E+00
         0.00000E+00
         0.00000E+00
         0.00000E+00
         0.00000E+00
         0.00000E+00
         0.00000E+00
         0.00000E+00
         0.00000E+00
         0.00000E+00
         0.00000E+00
         0.00000E+00
         0.00000E+00
         0.00000E+00
         0.00000E+00
         0.00000E+00
         0.00000E+00
         0.00000E+00
         0.00000E+00
         0.00000E+00
         0.00000E+00
         0.00000E+00
         0.00000E+00
         0.00000E+00
         0.00000E+00
         0.00000E+00
         0.00000E+00
         0.00000E+00
         0.00000E+00
         0.00000E+00
         0.00000E+00
         0.00000E+00
         0.00000E+00
         0.00000E+00
         0.00000E+00
         0.00000E+00
         0.00000E+00
         0.00000E+00
         0.00000E+00
         0.00000E+00
         0.00000E+00
         0.00000E+00
         0.00000E+00
         0.00000E+00
         0.00000E+00
         0.00000E+00
         0.00000E+00
         0.00000E+00
         0.00000E+00
         0.00000E+00
         0.00000E+00
         0.00000E+00
         0.00000E+00
         0.00000E+00
         0.00000E+00
         0.00000E+00
         0.00000E+00
         0.00000E+00
         0.00000E+00
         0.00000E+00
         0.00000E+00
         0.00000E+00
         0.00000E+00
         0.00000E+00
         0.00000E+00
         0.00000E+00
         0.00000E+00
         0.00000E+00
         0.00000E+00
         0.00000E+00
         0.00000E+00
         0.00000E+00
         0.00000E+00
         0.00000E+00
         0.00000E+00
         0.00000E+00
         0.00000E+00
         0.00000E+00
         0.00000E+00
         0.00000E+00
         0.00000E+00
         0.00000E+00
         0.00000E+00
         0.00000E+00
         0.00000E+00
         0.00000E+00
         0.00000E+00
         0.00000E+00
         0.00000E+00
         0.00000E+00
         0.00000E+00
         0.00000E+00
         0.00000E+00
         0.00000E+00
         0.00000E+00
         0.00000E+00
         0.00000E+00
         0.00000E+00
         0.00000E+00
         0.00000E+00
         0.00000E+00
         0.00000E+00
         0.00000E+00
         0.00000E+00
         0.00000E+00
         0.00000E+00
         0.00000E+00
         0.00000E+00
         0.00000E+00
         0.00000E+00
         0.00000E+00
         0.00000E+00
         0.00000E+00
         0.00000E+00
         0.00000E+00
         0.00000E+00
         0.00000E+00
         0.00000E+00
         0.00000E+00
         0.00000E+00
         0.00000E+00
         0.00000E+00
         0.00000E+00
         0.00000E+00
         0.00000E+00
         0.00000E+00
         0.00000E+00
         0.00000E+00
         0.00000E+00
         0.00000E+00
         0.00000E+00
         0.00000E+00
         0.00000E+00
         0.00000E+00
         0.00000E+00
         0.00000E+00
         0.00000E+00
         0.00000E+00
         0.00000E+00
         0.00000E+00
         0.00000E+00
         0.00000E+00
         0.00000E+00
         0.00000E+00
         0.00000E+00
         0.00000E+00
         0.00000E+00
         0.00000E+00
         0.00000E+00
         0.00000E+00
         0.00000E+00
         0.00000E+00
         0.00000E+00
         0.00000E+00
         0.00000E+00
         0.00000E+00
         0.00000E+00
         0.00000E+00
         0.00000E+00
         0.00000E+00
         0.00000E+00
         0.00000E+00
         0.00000E+00
         0.00000E+00
         0.00000E+00
         0.00000E+00
         0.00000E+00
         0.00000E+00
         0.00000E+00
         0.00000E+00
         0.00000E+00
         0.00000E+00
         0.00000E+00
         0.00000E+00
         0.00000E+00
         0.00000E+00
         0.00000E+00
         0.00000E+00
         0.00000E+00
         0.00000E+00
         0.00000E+00
         0.00000E+00
         0.00000E+00
         0.00000E+00
         0.00000E+00
         0.00000E+00
         0.00000E+00
         0.00000E+00
         0.00000E+00
         0.00000E+00
         0.00000E+00
         0.00000E+00
         0.00000E+00
         0.00000E+00
         0.00000E+00
         0.00000E+00
         0.00000E+00
         0.00000E+00
         0.00000E+00
         0.00000E+00
         0.00000E+00
         0.00000E+00
         0.00000E+00
         0.00000E+00
         0.00000E+00
         0.00000E+00
         0.00000E+00
         0.00000E+00
         0.00000E+00
         0.00000E+00
         0.00000E+00
         0.00000E+00
         0.00000E+00
         0.00000E+00
         0.00000E+00
         0.00000E+00
         0.00000E+00
         0.00000E+00
         0.00000E+00
         0.00000E+00
         0.00000E+00
         0.00000E+00
         0.00000E+00
         0.00000E+00
         0.00000E+00
         0.00000E+00
         0.00000E+00
         0.00000E+00
         0.00000E+00
         0.00000E+00
         0.00000E+00
         0.00000E+00
         0.00000E+00
         0.00000E+00
         0.00000E+00
         0.00000E+00
         0.00000E+00
         0.00000E+00
         0.00000E+00
         0.00000E+00
         0.00000E+00
         0.00000E+00
         0.00000E+00
         0.00000E+00
         0.00000E+00
         0.00000E+00
         0.00000E+00
         0.00000E+00
         0.00000E+00
         0.00000E+00
         0.00000E+00
         0.00000E+00
         0.00000E+00
         0.00000E+00
         0.00000E+00
         0.00000E+00
         0.00000E+00
         0.00000E+00
         0.00000E+00
         0.00000E+00
         0.00000E+00
         0.00000E+00
         0.00000E+00
         0.00000E+00
         0.00000E+00
         0.00000E+00
         0.00000E+00
         0.00000E+00
         0.00000E+00
         0.00000E+00
         0.00000E+00
         0.00000E+00
         0.00000E+00
         0.00000E+00
         0.00000E+00
         0.00000E+00
         0.00000E+00
         0.00000E+00
         0.00000E+00
         0.00000E+00
         0.00000E+00
         0.00000E+00
         0.00000E+00
         0.00000E+00
         0.00000E+00
         0.00000E+00
         0.00000E+00
         0.00000E+00
         0.00000E+00
         0.00000E+00
         0.00000E+00
         0.00000E+00
         0.00000E+00
         0.00000E+00
         0.00000E+00
         0.00000E+00
         0.00000E+00
         0.00000E+00
         0.00000E+00
         0.00000E+00
         0.00000E+00
         0.00000E+00
         0.00000E+00
         0.00000E+00
         0.00000E+00
         0.00000E+00
         0.00000E+00
         0.00000E+00
         0.00000E+00
         0.00000E+00
         0.00000E+00
         0.00000E+00
         0.00000E+00
         0.00000E+00
         0.00000E+00
         0.00000E+00
         0.00000E+00
         0.00000E+00
         0.00000E+00
         0.00000E+00
         0.00000E+00
         0.00000E+00
         0.00000E+00
         0.00000E+00
         0.00000E+00
         0.00000E+00
         0.00000E+00
         0.00000E+00
         0.00000E+00
         0.00000E+00
         0.00000E+00
         0.00000E+00
         0.00000E+00
         0.00000E+00
         0.00000E+00
         0.00000E+00
         0.00000E+00
         0.00000E+00
         0.00000E+00
         0.00000E+00
         0.00000E+00
         0.00000E+00
         0.00000E+00
         0.00000E+00
         0.00000E+00
         0.00000E+00
         0.00000E+00
         0.00000E+00
         0.00000E+00
         0.00000E+00
         0.00000E+00
         0.00000E+00
         0.00000E+00
         0.00000E+00
         0.00000E+00
         0.00000E+00
         0.00000E+00
         0.00000E+00
         0.00000E+00
         0.00000E+00
         0.00000E+00
         0.00000E+00
         0.00000E+00
         0.00000E+00
         0.00000E+00
         0.00000E+00
         0.00000E+00
         0.00000E+00
         0.00000E+00
         0.00000E+00
         0.00000E+00
         0.00000E+00
         0.00000E+00
         0.00000E+00
         0.00000E+00
         0.00000E+00
         0.00000E+00
         0.00000E+00
         0.00000E+00
         0.00000E+00
         0.00000E+00
         0.00000E+00
         0.00000E+00
         0.00000E+00
         0.00000E+00
         0.00000E+00
         0.00000E+00
         0.00000E+00
         0.00000E+00
         0.00000E+00
         0.00000E+00
         0.00000E+00
         0.00000E+00
         0.00000E+00
         0.00000E+00
         0.00000E+00
         0.00000E+00
         0.00000E+00
         0.00000E+00
         0.00000E+00
         0.00000E+00
         0.00000E+00
         0.00000E+00
         0.00000E+00
         0.00000E+00
         0.00000E+00
         0.00000E+00
         0.00000E+00
         0.00000E+00
         0.00000E+00
         0.00000E+00
         0.00000E+00
         0.00000E+00
         0.00000E+00
         0.00000E+00
         0.00000E+00
         0.00000E+00
         0.00000E+00
         0.00000E+00
         0.00000E+00
         0.00000E+00
         0.00000E+00
         0.00000E+00
         0.00000E+00
         0.00000E+00
         0.00000E+00
         0.00000E+00
         0.00000E+00
         0.00000E+00
         0.00000E+00
         0.00000E+00
         0.00000E+00
         0.00000E+00
         0.00000E+00
         0.00000E+00
         0.00000E+00
         0.00000E+00
         0.00000E+00
         0.00000E+00
         0.00000E+00
         0.00000E+00
         0.00000E+00
         0.00000E+00
         0.00000E+00
         0.00000E+00
         0.00000E+00
         0.00000E+00
         0.00000E+00
         0.00000E+00
         0.00000E+00
         0.00000E+00
         0.00000E+00
         0.00000E+00
         0.00000E+00
         0.00000E+00
         0.00000E+00
         0.00000E+00
         0.00000E+00
         0.00000E+00
         0.00000E+00
         0.00000E+00
         0.00000E+00
         0.00000E+00
         0.00000E+00
         0.00000E+00
         0.00000E+00
         0.00000E+00
         0.00000E+00
         0.00000E+00
         0.00000E+00
         0.00000E+00
         0.00000E+00
         0.00000E+00
         0.00000E+00
         0.00000E+00
         0.00000E+00
         0.00000E+00
         0.00000E+00
         0.00000E+00
         0.00000E+00
         0.00000E+00
         0.00000E+00
         0.00000E+00
         0.00000E+00
         0.00000E+00
         0.00000E+00
         0.00000E+00
         0.00000E+00
         0.00000E+00
         0.00000E+00
         0.00000E+00
         0.00000E+00
         0.00000E+00
         0.00000E+00
         0.00000E+00
         0.00000E+00
         0.00000E+00
         0.00000E+00
         0.00000E+00
         0.00000E+00
         0.00000E+00
         0.00000E+00
         0.00000E+00
         0.00000E+00
         0.00000E+00
         0.00000E+00
         0.00000E+00
         0.00000E+00
         0.00000E+00
         0.00000E+00
         0.00000E+00
         0.00000E+00
         0.00000E+00
         0.00000E+00
         0.00000E+00
         0.00000E+00
         0.00000E+00
         0.00000E+00
         0.00000E+00
         0.00000E+00
         0.00000E+00
         0.00000E+00
         0.00000E+00
         0.00000E+00
         0.00000E+00
         0.00000E+00
         0.00000E+00
         0.00000E+00
         0.00000E+00
         0.00000E+00
         0.00000E+00
         0.00000E+00
         0.00000E+00
         0.00000E+00
         0.00000E+00
         0.00000E+00
         0.00000E+00
         0.00000E+00
         0.00000E+00
         0.00000E+00
         0.00000E+00
         0.00000E+00
         0.00000E+00
         0.00000E+00
         0.00000E+00
         0.00000E+00
         0.00000E+00
         0.00000E+00
         0.00000E+00
         0.00000E+00
         0.00000E+00
         0.00000E+00
         0.00000E+00
         0.00000E+00
         0.00000E+00
         0.00000E+00
         0.00000E+00
         0.00000E+00
         0.00000E+00
         0.00000E+00
         0.00000E+00
         0.00000E+00
         0.00000E+00
         0.00000E+00
         0.00000E+00
         0.00000E+00
         0.00000E+00
         0.00000E+00
         0.00000E+00
         0.00000E+00
         0.00000E+00
         0.00000E+00
         0.00000E+00
         0.00000E+00
         0.00000E+00
         0.00000E+00
         0.00000E+00
         0.00000E+00
         0.00000E+00
         0.00000E+00
         0.00000E+00
         0.00000E+00
         0.00000E+00
         0.00000E+00
         0.00000E+00
         0.00000E+00
         0.00000E+00
         0.00000E+00
         0.00000E+00
         0.00000E+00
         0.00000E+00
         0.00000E+00
         0.00000E+00
         0.00000E+00
         0.00000E+00
         0.00000E+00
         0.00000E+00
         0.00000E+00
         0.00000E+00
         0.00000E+00
         0.00000E+00
         0.00000E+00
         0.00000E+00
         0.00000E+00
         0.00000E+00
         0.00000E+00
         0.00000E+00
         0.00000E+00
         0.00000E+00
         0.00000E+00
         0.00000E+00
         0.00000E+00
         0.00000E+00
         0.00000E+00
         0.00000E+00
         0.00000E+00
         0.00000E+00
         0.00000E+00
         0.00000E+00
         0.00000E+00
         0.00000E+00
         0.00000E+00
         0.00000E+00
         0.00000E+00
         0.00000E+00
         0.00000E+00
         0.00000E+00
         0.00000E+00
         0.00000E+00
         0.00000E+00
         0.00000E+00
         0.00000E+00
         0.00000E+00
         0.00000E+00
         0.00000E+00
         0.00000E+00
         0.00000E+00
         0.00000E+00
         0.00000E+00
         0.00000E+00
         0.00000E+00
         0.00000E+00
         0.00000E+00
         0.00000E+00
         0.00000E+00
         0.00000E+00
         0.00000E+00
         0.00000E+00
         0.00000E+00
         0.00000E+00
         0.00000E+00
         0.00000E+00
         0.00000E+00
         0.00000E+00
         0.00000E+00
         0.00000E+00
         0.00000E+00
         0.00000E+00
         0.00000E+00
         0.00000E+00
         0.00000E+00
         0.00000E+00
         0.00000E+00
         0.00000E+00
         0.00000E+00
         0.00000E+00
         0.00000E+00
         0.00000E+00
         0.00000E+00
         0.00000E+00
         0.00000E+00
         0.00000E+00
         0.00000E+00
         0.00000E+00
         0.00000E+00
         0.00000E+00
         0.00000E+00
         0.00000E+00
         0.00000E+00
         0.00000E+00
         0.00000E+00
         0.00000E+00
         0.00000E+00
         0.00000E+00
         0.00000E+00
         0.00000E+00
         0.00000E+00
         0.00000E+00
         0.00000E+00
         0.00000E+00
         0.00000E+00
         0.00000E+00
         0.00000E+00
         0.00000E+00
         0.00000E+00
         0.00000E+00
         0.00000E+00
         0.00000E+00
         0.00000E+00
         0.00000E+00
         0.00000E+00
         0.00000E+00
         0.00000E+00
         0.00000E+00
         0.00000E+00
         0.00000E+00
         0.00000E+00
         0.00000E+00
         0.00000E+00
         0.00000E+00
         0.00000E+00
         0.00000E+00
         0.00000E+00
         0.00000E+00
         0.00000E+00
         0.00000E+00
         0.00000E+00
         0.00000E+00
         0.00000E+00
         0.00000E+00
         0.00000E+00
         0.00000E+00
         0.00000E+00
         0.00000E+00
         0.00000E+00
         0.00000E+00
         0.00000E+00
         0.00000E+00
         0.00000E+00
         0.00000E+00
         0.00000E+00
         0.00000E+00
         0.00000E+00
         0.00000E+00
         0.00000E+00
         0.00000E+00
         0.00000E+00
         0.00000E+00
         0.00000E+00
         0.00000E+00
         0.00000E+00
         0.00000E+00
         0.00000E+00
         0.00000E+00
         0.00000E+00
         0.00000E+00
         0.00000E+00
         0.00000E+00
         0.00000E+00
         0.00000E+00
         0.00000E+00
         0.00000E+00
         0.00000E+00
         0.00000E+00
         0.00000E+00
         0.00000E+00
         0.00000E+00
         0.00000E+00
         0.00000E+00
         0.00000E+00
         0.00000E+00
         0.00000E+00
         0.00000E+00
         0.00000E+00
         0.00000E+00
         0.00000E+00
         0.00000E+00
         0.00000E+00
         0.00000E+00
         0.00000E+00
         0.00000E+00
         0.00000E+00
         0.00000E+00
         0.00000E+00
         0.00000E+00
         0.00000E+00
         0.00000E+00
         0.00000E+00
         0.00000E+00
         0.00000E+00
         0.00000E+00
         0.00000E+00
         0.00000E+00
         0.00000E+00
         0.00000E+00
         0.00000E+00
         0.00000E+00
         0.00000E+00
         0.00000E+00
         0.00000E+00
         0.00000E+00
         0.00000E+00
         0.00000E+00
         0.00000E+00
         0.00000E+00
         0.00000E+00
         0.00000E+00
         0.00000E+00
         0.00000E+00
         0.00000E+00
         0.00000E+00
         0.00000E+00
         0.00000E+00
         0.00000E+00
         0.00000E+00
         0.00000E+00
         0.00000E+00
         0.00000E+00
         0.00000E+00
         0.00000E+00
         0.00000E+00
         0.00000E+00
         0.00000E+00
         0.00000E+00
         0.00000E+00
         0.00000E+00
         0.00000E+00
         0.00000E+00
         0.00000E+00
         0.00000E+00
         0.00000E+00
         0.00000E+00
         0.00000E+00
         0.00000E+00
         0.00000E+00
         0.00000E+00
         0.00000E+00
         0.00000E+00
         0.00000E+00
         0.00000E+00
         0.00000E+00
         0.00000E+00
         0.00000E+00
         0.00000E+00
         0.00000E+00
         0.00000E+00
         0.00000E+00
         0.00000E+00
         0.00000E+00
         0.00000E+00
         0.00000E+00
         0.00000E+00
         0.00000E+00
         0.00000E+00
         0.00000E+00
         0.00000E+00
         0.00000E+00
         0.00000E+00
         0.00000E+00
         0.00000E+00
         0.00000E+00
         0.00000E+00
         0.00000E+00
         0.00000E+00
         0.00000E+00
         0.00000E+00
         0.00000E+00
         0.00000E+00
         0.00000E+00
         0.00000E+00
         0.00000E+00
         0.00000E+00
         0.00000E+00
         0.00000E+00
         0.00000E+00
         0.00000E+00
         0.00000E+00
         0.00000E+00
         0.00000E+00
         0.00000E+00
         0.00000E+00
         0.00000E+00
         0.00000E+00
         0.00000E+00
         0.00000E+00
         0.00000E+00
         0.00000E+00
         0.00000E+00
         0.00000E+00
         0.00000E+00
         0.00000E+00
         0.00000E+00
         0.00000E+00
         0.00000E+00
         0.00000E+00
         0.00000E+00
         0.00000E+00
         0.00000E+00
         0.00000E+00
         0.00000E+00
         0.00000E+00
         0.00000E+00
         0.00000E+00
         0.00000E+00
         0.00000E+00
         0.00000E+00
         0.00000E+00
         0.00000E+00
         0.00000E+00
         0.00000E+00
         0.00000E+00
         0.00000E+00
         0.00000E+00
         0.00000E+00
         0.00000E+00
         0.00000E+00
         0.00000E+00
         0.00000E+00
         0.00000E+00
         0.00000E+00
         0.00000E+00
         0.00000E+00
         0.00000E+00
         0.00000E+00
         0.00000E+00
         0.00000E+00
         0.00000E+00
         0.00000E+00
         0.00000E+00
         0.00000E+00
         0.00000E+00
         0.00000E+00
         0.00000E+00
         0.00000E+00
         0.00000E+00
         0.00000E+00
         0.00000E+00
         0.00000E+00
         0.00000E+00
         0.00000E+00
         0.00000E+00
         0.00000E+00
         0.00000E+00
         0.00000E+00
         0.00000E+00
         0.00000E+00
         0.00000E+00
         0.00000E+00
         0.00000E+00
         0.00000E+00
         0.00000E+00
         0.00000E+00
         0.00000E+00
         0.00000E+00
         0.00000E+00
         0.00000E+00
         0.00000E+00
         0.00000E+00
         0.00000E+00
         0.00000E+00
         0.00000E+00
         0.00000E+00
         0.00000E+00
         0.00000E+00
         0.00000E+00
         0.00000E+00
         0.00000E+00
         0.00000E+00
         0.00000E+00
         0.00000E+00
         0.00000E+00
         0.00000E+00
         0.00000E+00
         0.00000E+00
         0.00000E+00
         0.00000E+00
         0.00000E+00
         0.00000E+00
         0.00000E+00
         0.00000E+00
         0.00000E+00
         0.00000E+00
         0.00000E+00
         0.00000E+00
         0.00000E+00
         0.00000E+00
         0.00000E+00
         0.00000E+00
         0.00000E+00
         0.00000E+00
         0.00000E+00
         0.00000E+00
         0.00000E+00
         0.00000E+00
         0.00000E+00
         0.00000E+00
         0.00000E+00
         0.00000E+00
         0.00000E+00
         0.00000E+00
         0.00000E+00
         0.00000E+00
         0.00000E+00
         0.00000E+00
         0.00000E+00
         0.00000E+00
         0.00000E+00
         0.00000E+00
         0.00000E+00
         0.00000E+00
         0.00000E+00
         0.00000E+00
         0.00000E+00
         0.00000E+00
         0.00000E+00
         0.00000E+00
         0.00000E+00
         0.00000E+00
         0.00000E+00
         0.00000E+00
         0.00000E+00
         0.00000E+00
         0.00000E+00
         0.00000E+00
         0.00000E+00
         0.00000E+00
         0.00000E+00
         0.00000E+00
         0.00000E+00
         0.00000E+00
         0.00000E+00
         0.00000E+00
         0.00000E+00
         0.00000E+00
         0.00000E+00
         0.00000E+00
         0.00000E+00
         0.00000E+00
         0.00000E+00
         0.00000E+00
         0.00000E+00
         0.00000E+00
         0.00000E+00
         0.00000E+00
         0.00000E+00
         0.00000E+00
         0.00000E+00
         0.00000E+00
         0.00000E+00
         0.00000E+00
         0.00000E+00
         0.00000E+00
         0.00000E+00
         0.00000E+00
         0.00000E+00
         0.00000E+00
         0.00000E+00
         0.00000E+00
         0.00000E+00
         0.00000E+00
         0.00000E+00
         0.00000E+00
         0.00000E+00
         0.00000E+00
         0.00000E+00
         0.00000E+00
         0.00000E+00
         0.00000E+00
         0.00000E+00
         0.00000E+00
         0.00000E+00
         0.00000E+00
         0.00000E+00
         0.00000E+00
         0.00000E+00
         0.00000E+00
         0.00000E+00
         0.00000E+00
         0.00000E+00
         0.00000E+00
         0.00000E+00
         0.00000E+00
         0.00000E+00
         0.00000E+00
         0.00000E+00
         0.00000E+00
         0.00000E+00
         0.00000E+00
         0.00000E+00
         0.00000E+00
         0.00000E+00
         0.00000E+00
         0.00000E+00
         0.00000E+00
         0.00000E+00
         0.00000E+00
         0.00000E+00
         0.00000E+00
         0.00000E+00
         0.00000E+00
         0.00000E+00
         0.00000E+00
         0.00000E+00
         0.00000E+00
         0.00000E+00
         0.00000E+00
         0.00000E+00
         0.00000E+00
         0.00000E+00
         0.00000E+00
         0.00000E+00
         0.00000E+00
         0.00000E+00
         0.00000E+00
         0.00000E+00
         0.00000E+00
         0.00000E+00
         0.00000E+00
         0.00000E+00
         0.00000E+00
         0.00000E+00
         0.00000E+00
         0.00000E+00
         0.00000E+00
         0.00000E+00
         0.00000E+00
         0.00000E+00
         0.00000E+00
         0.00000E+00
         0.00000E+00
         0.00000E+00
         0.00000E+00
         0.00000E+00
         0.00000E+00
         0.00000E+00
         0.00000E+00
         0.00000E+00
         0.00000E+00
         0.00000E+00
         0.00000E+00
         0.00000E+00
         0.00000E+00
         0.00000E+00
         0.00000E+00
         0.00000E+00
         0.00000E+00
         0.00000E+00
         0.00000E+00
         0.00000E+00
         0.00000E+00
         0.00000E+00
         0.00000E+00
         0.00000E+00
         0.00000E+00
         0.00000E+00
         0.00000E+00
         0.00000E+00
         0.00000E+00
         0.00000E+00
         0.00000E+00
         0.00000E+00
         0.00000E+00
         0.00000E+00
         0.00000E+00
         0.00000E+00
         0.00000E+00
         0.00000E+00
         0.00000E+00
         0.00000E+00
         0.00000E+00
         0.00000E+00
         0.00000E+00
         0.00000E+00
         0.00000E+00
         0.00000E+00
         0.00000E+00
         0.00000E+00
         0.00000E+00
         0.00000E+00
         0.00000E+00
         0.00000E+00
         0.00000E+00
         0.00000E+00
         0.00000E+00
         0.00000E+00
         0.00000E+00
         0.00000E+00
         0.00000E+00
         0.00000E+00
         0.00000E+00
         0.00000E+00
         0.00000E+00
         0.00000E+00
         0.00000E+00
         0.00000E+00
         0.00000E+00
         0.00000E+00
         0.00000E+00
         0.00000E+00
         0.00000E+00
         0.00000E+00
         0.00000E+00
         0.00000E+00
         0.00000E+00
         0.00000E+00
         0.00000E+00
         0.00000E+00
         0.00000E+00
         0.00000E+00
         0.00000E+00
         0.00000E+00
         0.00000E+00
         0.00000E+00
         0.00000E+00
         0.00000E+00
         0.00000E+00
         0.00000E+00
         0.00000E+00
         0.00000E+00
         0.00000E+00
         0.00000E+00
         0.00000E+00
         0.00000E+00
         0.00000E+00
         0.00000E+00
         0.00000E+00
         0.00000E+00
         0.00000E+00
         0.00000E+00
         0.00000E+00
         0.00000E+00
         0.00000E+00
         0.00000E+00
         0.00000E+00
         0.00000E+00
         0.00000E+00
         0.00000E+00
         0.00000E+00
         0.00000E+00
         0.00000E+00
         0.00000E+00
         0.00000E+00
         0.00000E+00
         0.00000E+00
         0.00000E+00
         0.00000E+00
         0.00000E+00
         0.00000E+00
         0.00000E+00
         0.00000E+00
         0.00000E+00
         0.00000E+00
         0.00000E+00
         0.00000E+00
         0.00000E+00
         0.00000E+00
         0.00000E+00
         0.00000E+00
         0.00000E+00
         0.00000E+00
         0.00000E+00
         0.00000E+00
         0.00000E+00
         0.00000E+00
         0.00000E+00
         0.00000E+00
         0.00000E+00
         0.00000E+00
         0.00000E+00
         0.00000E+00
         0.00000E+00
         0.00000E+00
         0.00000E+00
         0.00000E+00
         0.00000E+00
         0.00000E+00
         0.00000E+00
         0.00000E+00
         0.00000E+00
         0.00000E+00
         0.00000E+00
         0.00000E+00
         0.00000E+00
         0.00000E+00
         0.00000E+00
         0.00000E+00
         0.00000E+00
         0.00000E+00
         0.00000E+00
         0.00000E+00
         0.00000E+00
         0.00000E+00
         0.00000E+00
         0.00000E+00
         0.00000E+00
         0.00000E+00
         0.00000E+00
         0.00000E+00
         0.00000E+00
         0.00000E+00
         0.00000E+00
         0.00000E+00
         0.00000E+00
         0.00000E+00
         0.00000E+00
         0.00000E+00
         0.00000E+00
         0.00000E+00
         0.00000E+00
         0.00000E+00
         0.00000E+00
         0.00000E+00
         0.00000E+00
         0.00000E+00
         0.00000E+00
         0.00000E+00
         0.00000E+00
         0.00000E+00
         0.00000E+00
         0.00000E+00
         0.00000E+00
         0.00000E+00
         0.00000E+00
         0.00000E+00
         0.00000E+00
         0.00000E+00
         0.00000E+00
         0.00000E+00
         0.00000E+00
         0.00000E+00
         0.00000E+00
         0.00000E+00
         0.00000E+00
         0.00000E+00
         0.00000E+00
         0.00000E+00
         0.00000E+00
         0.00000E+00
         0.00000E+00
         0.00000E+00
         0.00000E+00
         0.00000E+00
         0.00000E+00
         0.00000E+00
         0.00000E+00
         0.00000E+00
         0.00000E+00
         0.00000E+00
         0.00000E+00
         0.00000E+00
         0.00000E+00
         0.00000E+00
         0.00000E+00
         0.00000E+00
         0.00000E+00
         0.00000E+00
         0.00000E+00
         0.00000E+00
         0.00000E+00
         0.00000E+00
         0.00000E+00
         0.00000E+00
         0.00000E+00
         0.00000E+00
         0.00000E+00
         0.00000E+00
         0.00000E+00
         0.00000E+00
         0.00000E+00
         0.00000E+00
         0.00000E+00
         0.00000E+00
         0.00000E+00
         0.00000E+00
         0.00000E+00
         0.00000E+00
         0.00000E+00
         0.00000E+00
         0.00000E+00
         0.00000E+00
         0.00000E+00
         0.00000E+00
         0.00000E+00
         0.00000E+00
         0.00000E+00
         0.00000E+00
         0.00000E+00
         0.00000E+00
         0.00000E+00
         0.00000E+00
         0.00000E+00
         0.00000E+00
         0.00000E+00
         0.00000E+00
         0.00000E+00
         0.00000E+00
         0.00000E+00
         0.00000E+00
         0.00000E+00
         0.00000E+00
         0.00000E+00
         0.00000E+00
         0.00000E+00
         0.00000E+00
         0.00000E+00
         0.00000E+00
         0.00000E+00
         0.00000E+00
         0.00000E+00
         0.00000E+00
         0.00000E+00
         0.00000E+00
         0.00000E+00
         0.00000E+00
         0.00000E+00
         0.00000E+00
         0.00000E+00
         0.00000E+00
         0.00000E+00
         0.00000E+00
         0.00000E+00
         0.00000E+00
         0.00000E+00
         0.00000E+00
         0.00000E+00
         0.00000E+00
         0.00000E+00
         0.00000E+00
         0.00000E+00
         0.00000E+00
         0.00000E+00
         0.00000E+00
         0.00000E+00
         0.00000E+00
         0.00000E+00
         0.00000E+00
         0.00000E+00
         0.00000E+00
         0.00000E+00
         0.00000E+00
         0.00000E+00
         0.00000E+00
         0.00000E+00
         0.00000E+00
         0.00000E+00
         0.00000E+00
         0.00000E+00
         0.00000E+00
         0.00000E+00
         0.00000E+00
         0.00000E+00
         0.00000E+00
         0.00000E+00
         0.00000E+00
         0.00000E+00
         0.00000E+00
         0.00000E+00
         0.00000E+00
         0.00000E+00
         0.00000E+00
         0.00000E+00
         0.00000E+00
         0.00000E+00
         0.00000E+00
         0.00000E+00
         0.00000E+00
         0.00000E+00
         0.00000E+00
         0.00000E+00
         0.00000E+00
         0.00000E+00
         0.00000E+00
         0.00000E+00
         0.00000E+00
         0.00000E+00
         0.00000E+00
  
SCALARS                 acceleration_y  double 1
LOOKUP_TABLE default
         0.00000E+00
         0.00000E+00
         0.00000E+00
         0.00000E+00
         0.00000E+00
         0.00000E+00
         0.00000E+00
         0.00000E+00
         0.00000E+00
         0.00000E+00
         0.00000E+00
         0.00000E+00
         0.00000E+00
         0.00000E+00
         0.00000E+00
         0.00000E+00
         0.00000E+00
         0.00000E+00
         0.00000E+00
         0.00000E+00
         0.00000E+00
         0.00000E+00
         0.00000E+00
         0.00000E+00
         0.00000E+00
         0.00000E+00
         0.00000E+00
         0.00000E+00
         0.00000E+00
         0.00000E+00
         0.00000E+00
         0.00000E+00
         0.00000E+00
         0.00000E+00
         0.00000E+00
         0.00000E+00
         0.00000E+00
         0.00000E+00
         0.00000E+00
         0.00000E+00
         0.00000E+00
         0.00000E+00
         0.00000E+00
         0.00000E+00
         0.00000E+00
         0.00000E+00
         0.00000E+00
         0.00000E+00
         0.00000E+00
         0.00000E+00
         0.00000E+00
         0.00000E+00
         0.00000E+00
         0.00000E+00
         0.00000E+00
         0.00000E+00
         0.00000E+00
         0.00000E+00
         0.00000E+00
         0.00000E+00
         0.00000E+00
         0.00000E+00
         0.00000E+00
         0.00000E+00
         0.00000E+00
         0.00000E+00
         0.00000E+00
         0.00000E+00
         0.00000E+00
         0.00000E+00
         0.00000E+00
         0.00000E+00
         0.00000E+00
         0.00000E+00
         0.00000E+00
         0.00000E+00
         0.00000E+00
         0.00000E+00
         0.00000E+00
         0.00000E+00
         0.00000E+00
         0.00000E+00
         0.00000E+00
         0.00000E+00
         0.00000E+00
         0.00000E+00
         0.00000E+00
         0.00000E+00
         0.00000E+00
         0.00000E+00
         0.00000E+00
         0.00000E+00
         0.00000E+00
         0.00000E+00
         0.00000E+00
         0.00000E+00
         0.00000E+00
         0.00000E+00
         0.00000E+00
         0.00000E+00
         0.00000E+00
         0.00000E+00
         0.00000E+00
         0.00000E+00
         0.00000E+00
         0.00000E+00
         0.00000E+00
         0.00000E+00
         0.00000E+00
         0.00000E+00
         0.00000E+00
         0.00000E+00
         0.00000E+00
         0.00000E+00
         0.00000E+00
         0.00000E+00
         0.00000E+00
         0.00000E+00
         0.00000E+00
         0.00000E+00
         0.00000E+00
         0.00000E+00
         0.00000E+00
         0.00000E+00
         0.00000E+00
         0.00000E+00
         0.00000E+00
         0.00000E+00
         0.00000E+00
         0.00000E+00
         0.00000E+00
         0.00000E+00
         0.00000E+00
         0.00000E+00
         0.00000E+00
         0.00000E+00
         0.00000E+00
         0.00000E+00
         0.00000E+00
         0.00000E+00
         0.00000E+00
         0.00000E+00
         0.00000E+00
         0.00000E+00
         0.00000E+00
         0.00000E+00
         0.00000E+00
         0.00000E+00
         0.00000E+00
         0.00000E+00
         0.00000E+00
         0.00000E+00
         0.00000E+00
         0.00000E+00
         0.00000E+00
         0.00000E+00
         0.00000E+00
         0.00000E+00
         0.00000E+00
         0.00000E+00
         0.00000E+00
         0.00000E+00
         0.00000E+00
         0.00000E+00
         0.00000E+00
         0.00000E+00
         0.00000E+00
         0.00000E+00
         0.00000E+00
         0.00000E+00
         0.00000E+00
         0.00000E+00
         0.00000E+00
         0.00000E+00
         0.00000E+00
         0.00000E+00
         0.00000E+00
         0.00000E+00
         0.00000E+00
         0.00000E+00
         0.00000E+00
         0.00000E+00
         0.00000E+00
         0.00000E+00
         0.00000E+00
         0.00000E+00
         0.00000E+00
         0.00000E+00
         0.00000E+00
         0.00000E+00
         0.00000E+00
         0.00000E+00
         0.00000E+00
         0.00000E+00
         0.00000E+00
         0.00000E+00
         0.00000E+00
         0.00000E+00
         0.00000E+00
         0.00000E+00
         0.00000E+00
         0.00000E+00
         0.00000E+00
         0.00000E+00
         0.00000E+00
         0.00000E+00
         0.00000E+00
         0.00000E+00
         0.00000E+00
         0.00000E+00
         0.00000E+00
         0.00000E+00
         0.00000E+00
         0.00000E+00
         0.00000E+00
         0.00000E+00
         0.00000E+00
         0.00000E+00
         0.00000E+00
         0.00000E+00
         0.00000E+00
         0.00000E+00
         0.00000E+00
         0.00000E+00
         0.00000E+00
         0.00000E+00
         0.00000E+00
         0.00000E+00
         0.00000E+00
         0.00000E+00
         0.00000E+00
         0.00000E+00
         0.00000E+00
         0.00000E+00
         0.00000E+00
         0.00000E+00
         0.00000E+00
         0.00000E+00
         0.00000E+00
         0.00000E+00
         0.00000E+00
         0.00000E+00
         0.00000E+00
         0.00000E+00
         0.00000E+00
         0.00000E+00
         0.00000E+00
         0.00000E+00
         0.00000E+00
         0.00000E+00
         0.00000E+00
         0.00000E+00
         0.00000E+00
         0.00000E+00
         0.00000E+00
         0.00000E+00
         0.00000E+00
         0.00000E+00
         0.00000E+00
         0.00000E+00
         0.00000E+00
         0.00000E+00
         0.00000E+00
         0.00000E+00
         0.00000E+00
         0.00000E+00
         0.00000E+00
         0.00000E+00
         0.00000E+00
         0.00000E+00
         0.00000E+00
         0.00000E+00
         0.00000E+00
         0.00000E+00
         0.00000E+00
         0.00000E+00
         0.00000E+00
         0.00000E+00
         0.00000E+00
         0.00000E+00
         0.00000E+00
         0.00000E+00
         0.00000E+00
         0.00000E+00
         0.00000E+00
         0.00000E+00
         0.00000E+00
         0.00000E+00
         0.00000E+00
         0.00000E+00
         0.00000E+00
         0.00000E+00
         0.00000E+00
         0.00000E+00
         0.00000E+00
         0.00000E+00
         0.00000E+00
         0.00000E+00
         0.00000E+00
         0.00000E+00
         0.00000E+00
         0.00000E+00
         0.00000E+00
         0.00000E+00
         0.00000E+00
         0.00000E+00
         0.00000E+00
         0.00000E+00
         0.00000E+00
         0.00000E+00
         0.00000E+00
         0.00000E+00
         0.00000E+00
         0.00000E+00
         0.00000E+00
         0.00000E+00
         0.00000E+00
         0.00000E+00
         0.00000E+00
         0.00000E+00
         0.00000E+00
         0.00000E+00
         0.00000E+00
         0.00000E+00
         0.00000E+00
         0.00000E+00
         0.00000E+00
         0.00000E+00
         0.00000E+00
         0.00000E+00
         0.00000E+00
         0.00000E+00
         0.00000E+00
         0.00000E+00
         0.00000E+00
         0.00000E+00
         0.00000E+00
         0.00000E+00
         0.00000E+00
         0.00000E+00
         0.00000E+00
         0.00000E+00
         0.00000E+00
         0.00000E+00
         0.00000E+00
         0.00000E+00
         0.00000E+00
         0.00000E+00
         0.00000E+00
         0.00000E+00
         0.00000E+00
         0.00000E+00
         0.00000E+00
         0.00000E+00
         0.00000E+00
         0.00000E+00
         0.00000E+00
         0.00000E+00
         0.00000E+00
         0.00000E+00
         0.00000E+00
         0.00000E+00
         0.00000E+00
         0.00000E+00
         0.00000E+00
         0.00000E+00
         0.00000E+00
         0.00000E+00
         0.00000E+00
         0.00000E+00
         0.00000E+00
         0.00000E+00
         0.00000E+00
         0.00000E+00
         0.00000E+00
         0.00000E+00
         0.00000E+00
         0.00000E+00
         0.00000E+00
         0.00000E+00
         0.00000E+00
         0.00000E+00
         0.00000E+00
         0.00000E+00
         0.00000E+00
         0.00000E+00
         0.00000E+00
         0.00000E+00
         0.00000E+00
         0.00000E+00
         0.00000E+00
         0.00000E+00
         0.00000E+00
         0.00000E+00
         0.00000E+00
         0.00000E+00
         0.00000E+00
         0.00000E+00
         0.00000E+00
         0.00000E+00
         0.00000E+00
         0.00000E+00
         0.00000E+00
         0.00000E+00
         0.00000E+00
         0.00000E+00
         0.00000E+00
         0.00000E+00
         0.00000E+00
         0.00000E+00
         0.00000E+00
         0.00000E+00
         0.00000E+00
         0.00000E+00
         0.00000E+00
         0.00000E+00
         0.00000E+00
         0.00000E+00
         0.00000E+00
         0.00000E+00
         0.00000E+00
         0.00000E+00
         0.00000E+00
         0.00000E+00
         0.00000E+00
         0.00000E+00
         0.00000E+00
         0.00000E+00
         0.00000E+00
         0.00000E+00
         0.00000E+00
         0.00000E+00
         0.00000E+00
         0.00000E+00
         0.00000E+00
         0.00000E+00
         0.00000E+00
         0.00000E+00
         0.00000E+00
         0.00000E+00
         0.00000E+00
         0.00000E+00
         0.00000E+00
         0.00000E+00
         0.00000E+00
         0.00000E+00
         0.00000E+00
         0.00000E+00
         0.00000E+00
         0.00000E+00
         0.00000E+00
         0.00000E+00
         0.00000E+00
         0.00000E+00
         0.00000E+00
         0.00000E+00
         0.00000E+00
         0.00000E+00
         0.00000E+00
         0.00000E+00
         0.00000E+00
         0.00000E+00
         0.00000E+00
         0.00000E+00
         0.00000E+00
         0.00000E+00
         0.00000E+00
         0.00000E+00
         0.00000E+00
         0.00000E+00
         0.00000E+00
         0.00000E+00
         0.00000E+00
         0.00000E+00
         0.00000E+00
         0.00000E+00
         0.00000E+00
         0.00000E+00
         0.00000E+00
         0.00000E+00
         0.00000E+00
         0.00000E+00
         0.00000E+00
         0.00000E+00
         0.00000E+00
         0.00000E+00
         0.00000E+00
         0.00000E+00
         0.00000E+00
         0.00000E+00
         0.00000E+00
         0.00000E+00
         0.00000E+00
         0.00000E+00
         0.00000E+00
         0.00000E+00
         0.00000E+00
         0.00000E+00
         0.00000E+00
         0.00000E+00
         0.00000E+00
         0.00000E+00
         0.00000E+00
         0.00000E+00
         0.00000E+00
         0.00000E+00
         0.00000E+00
         0.00000E+00
         0.00000E+00
         0.00000E+00
         0.00000E+00
         0.00000E+00
         0.00000E+00
         0.00000E+00
         0.00000E+00
         0.00000E+00
         0.00000E+00
         0.00000E+00
         0.00000E+00
         0.00000E+00
         0.00000E+00
         0.00000E+00
         0.00000E+00
         0.00000E+00
         0.00000E+00
         0.00000E+00
         0.00000E+00
         0.00000E+00
         0.00000E+00
         0.00000E+00
         0.00000E+00
         0.00000E+00
         0.00000E+00
         0.00000E+00
         0.00000E+00
         0.00000E+00
         0.00000E+00
         0.00000E+00
         0.00000E+00
         0.00000E+00
         0.00000E+00
         0.00000E+00
         0.00000E+00
         0.00000E+00
         0.00000E+00
         0.00000E+00
         0.00000E+00
         0.00000E+00
         0.00000E+00
         0.00000E+00
         0.00000E+00
         0.00000E+00
         0.00000E+00
         0.00000E+00
         0.00000E+00
         0.00000E+00
         0.00000E+00
         0.00000E+00
         0.00000E+00
         0.00000E+00
         0.00000E+00
         0.00000E+00
         0.00000E+00
         0.00000E+00
         0.00000E+00
         0.00000E+00
         0.00000E+00
         0.00000E+00
         0.00000E+00
         0.00000E+00
         0.00000E+00
         0.00000E+00
         0.00000E+00
         0.00000E+00
         0.00000E+00
         0.00000E+00
         0.00000E+00
         0.00000E+00
         0.00000E+00
         0.00000E+00
         0.00000E+00
         0.00000E+00
         0.00000E+00
         0.00000E+00
         0.00000E+00
         0.00000E+00
         0.00000E+00
         0.00000E+00
         0.00000E+00
         0.00000E+00
         0.00000E+00
         0.00000E+00
         0.00000E+00
         0.00000E+00
         0.00000E+00
         0.00000E+00
         0.00000E+00
         0.00000E+00
         0.00000E+00
         0.00000E+00
         0.00000E+00
         0.00000E+00
         0.00000E+00
         0.00000E+00
         0.00000E+00
         0.00000E+00
         0.00000E+00
         0.00000E+00
         0.00000E+00
         0.00000E+00
         0.00000E+00
         0.00000E+00
         0.00000E+00
         0.00000E+00
         0.00000E+00
         0.00000E+00
         0.00000E+00
         0.00000E+00
         0.00000E+00
         0.00000E+00
         0.00000E+00
         0.00000E+00
         0.00000E+00
         0.00000E+00
         0.00000E+00
         0.00000E+00
         0.00000E+00
         0.00000E+00
         0.00000E+00
         0.00000E+00
         0.00000E+00
         0.00000E+00
         0.00000E+00
         0.00000E+00
         0.00000E+00
         0.00000E+00
         0.00000E+00
         0.00000E+00
         0.00000E+00
         0.00000E+00
         0.00000E+00
         0.00000E+00
         0.00000E+00
         0.00000E+00
         0.00000E+00
         0.00000E+00
         0.00000E+00
         0.00000E+00
         0.00000E+00
         0.00000E+00
         0.00000E+00
         0.00000E+00
         0.00000E+00
         0.00000E+00
         0.00000E+00
         0.00000E+00
         0.00000E+00
         0.00000E+00
         0.00000E+00
         0.00000E+00
         0.00000E+00
         0.00000E+00
         0.00000E+00
         0.00000E+00
         0.00000E+00
         0.00000E+00
         0.00000E+00
         0.00000E+00
         0.00000E+00
         0.00000E+00
         0.00000E+00
         0.00000E+00
         0.00000E+00
         0.00000E+00
         0.00000E+00
         0.00000E+00
         0.00000E+00
         0.00000E+00
         0.00000E+00
         0.00000E+00
         0.00000E+00
         0.00000E+00
         0.00000E+00
         0.00000E+00
         0.00000E+00
         0.00000E+00
         0.00000E+00
         0.00000E+00
         0.00000E+00
         0.00000E+00
         0.00000E+00
         0.00000E+00
         0.00000E+00
         0.00000E+00
         0.00000E+00
         0.00000E+00
         0.00000E+00
         0.00000E+00
         0.00000E+00
         0.00000E+00
         0.00000E+00
         0.00000E+00
         0.00000E+00
         0.00000E+00
         0.00000E+00
         0.00000E+00
         0.00000E+00
         0.00000E+00
         0.00000E+00
         0.00000E+00
         0.00000E+00
         0.00000E+00
         0.00000E+00
         0.00000E+00
         0.00000E+00
         0.00000E+00
         0.00000E+00
         0.00000E+00
         0.00000E+00
         0.00000E+00
         0.00000E+00
         0.00000E+00
         0.00000E+00
         0.00000E+00
         0.00000E+00
         0.00000E+00
         0.00000E+00
         0.00000E+00
         0.00000E+00
         0.00000E+00
         0.00000E+00
         0.00000E+00
         0.00000E+00
         0.00000E+00
         0.00000E+00
         0.00000E+00
         0.00000E+00
         0.00000E+00
         0.00000E+00
         0.00000E+00
         0.00000E+00
         0.00000E+00
         0.00000E+00
         0.00000E+00
         0.00000E+00
         0.00000E+00
         0.00000E+00
         0.00000E+00
         0.00000E+00
         0.00000E+00
         0.00000E+00
         0.00000E+00
         0.00000E+00
         0.00000E+00
         0.00000E+00
         0.00000E+00
         0.00000E+00
         0.00000E+00
         0.00000E+00
         0.00000E+00
         0.00000E+00
         0.00000E+00
         0.00000E+00
         0.00000E+00
         0.00000E+00
         0.00000E+00
         0.00000E+00
         0.00000E+00
         0.00000E+00
         0.00000E+00
         0.00000E+00
         0.00000E+00
         0.00000E+00
         0.00000E+00
         0.00000E+00
         0.00000E+00
         0.00000E+00
         0.00000E+00
         0.00000E+00
         0.00000E+00
         0.00000E+00
         0.00000E+00
         0.00000E+00
         0.00000E+00
         0.00000E+00
         0.00000E+00
         0.00000E+00
         0.00000E+00
         0.00000E+00
         0.00000E+00
         0.00000E+00
         0.00000E+00
         0.00000E+00
         0.00000E+00
         0.00000E+00
         0.00000E+00
         0.00000E+00
         0.00000E+00
         0.00000E+00
         0.00000E+00
         0.00000E+00
         0.00000E+00
         0.00000E+00
         0.00000E+00
         0.00000E+00
         0.00000E+00
         0.00000E+00
         0.00000E+00
         0.00000E+00
         0.00000E+00
         0.00000E+00
         0.00000E+00
         0.00000E+00
         0.00000E+00
         0.00000E+00
         0.00000E+00
         0.00000E+00
         0.00000E+00
         0.00000E+00
         0.00000E+00
         0.00000E+00
         0.00000E+00
         0.00000E+00
         0.00000E+00
         0.00000E+00
         0.00000E+00
         0.00000E+00
         0.00000E+00
         0.00000E+00
         0.00000E+00
         0.00000E+00
         0.00000E+00
         0.00000E+00
         0.00000E+00
         0.00000E+00
         0.00000E+00
         0.00000E+00
         0.00000E+00
         0.00000E+00
         0.00000E+00
         0.00000E+00
         0.00000E+00
         0.00000E+00
         0.00000E+00
         0.00000E+00
         0.00000E+00
         0.00000E+00
         0.00000E+00
         0.00000E+00
         0.00000E+00
         0.00000E+00
         0.00000E+00
         0.00000E+00
         0.00000E+00
         0.00000E+00
         0.00000E+00
         0.00000E+00
         0.00000E+00
         0.00000E+00
         0.00000E+00
         0.00000E+00
         0.00000E+00
         0.00000E+00
         0.00000E+00
         0.00000E+00
         0.00000E+00
         0.00000E+00
         0.00000E+00
         0.00000E+00
         0.00000E+00
         0.00000E+00
         0.00000E+00
         0.00000E+00
         0.00000E+00
         0.00000E+00
         0.00000E+00
         0.00000E+00
         0.00000E+00
         0.00000E+00
         0.00000E+00
         0.00000E+00
         0.00000E+00
         0.00000E+00
         0.00000E+00
         0.00000E+00
         0.00000E+00
         0.00000E+00
         0.00000E+00
         0.00000E+00
         0.00000E+00
         0.00000E+00
         0.00000E+00
         0.00000E+00
         0.00000E+00
         0.00000E+00
         0.00000E+00
         0.00000E+00
         0.00000E+00
         0.00000E+00
         0.00000E+00
         0.00000E+00
         0.00000E+00
         0.00000E+00
         0.00000E+00
         0.00000E+00
         0.00000E+00
         0.00000E+00
         0.00000E+00
         0.00000E+00
         0.00000E+00
         0.00000E+00
         0.00000E+00
         0.00000E+00
         0.00000E+00
         0.00000E+00
         0.00000E+00
         0.00000E+00
         0.00000E+00
         0.00000E+00
         0.00000E+00
         0.00000E+00
         0.00000E+00
         0.00000E+00
         0.00000E+00
         0.00000E+00
         0.00000E+00
         0.00000E+00
         0.00000E+00
         0.00000E+00
         0.00000E+00
         0.00000E+00
         0.00000E+00
         0.00000E+00
         0.00000E+00
         0.00000E+00
         0.00000E+00
         0.00000E+00
         0.00000E+00
         0.00000E+00
         0.00000E+00
         0.00000E+00
         0.00000E+00
         0.00000E+00
         0.00000E+00
         0.00000E+00
         0.00000E+00
         0.00000E+00
         0.00000E+00
         0.00000E+00
         0.00000E+00
         0.00000E+00
         0.00000E+00
         0.00000E+00
         0.00000E+00
         0.00000E+00
         0.00000E+00
         0.00000E+00
         0.00000E+00
         0.00000E+00
         0.00000E+00
         0.00000E+00
         0.00000E+00
         0.00000E+00
         0.00000E+00
         0.00000E+00
         0.00000E+00
         0.00000E+00
         0.00000E+00
         0.00000E+00
         0.00000E+00
         0.00000E+00
         0.00000E+00
         0.00000E+00
         0.00000E+00
         0.00000E+00
         0.00000E+00
         0.00000E+00
         0.00000E+00
         0.00000E+00
         0.00000E+00
         0.00000E+00
         0.00000E+00
         0.00000E+00
         0.00000E+00
         0.00000E+00
         0.00000E+00
         0.00000E+00
         0.00000E+00
         0.00000E+00
         0.00000E+00
         0.00000E+00
         0.00000E+00
         0.00000E+00
         0.00000E+00
         0.00000E+00
         0.00000E+00
         0.00000E+00
         0.00000E+00
         0.00000E+00
         0.00000E+00
         0.00000E+00
         0.00000E+00
         0.00000E+00
         0.00000E+00
         0.00000E+00
         0.00000E+00
         0.00000E+00
         0.00000E+00
         0.00000E+00
         0.00000E+00
         0.00000E+00
         0.00000E+00
         0.00000E+00
         0.00000E+00
         0.00000E+00
         0.00000E+00
         0.00000E+00
         0.00000E+00
         0.00000E+00
         0.00000E+00
         0.00000E+00
         0.00000E+00
         0.00000E+00
         0.00000E+00
         0.00000E+00
         0.00000E+00
         0.00000E+00
         0.00000E+00
         0.00000E+00
         0.00000E+00
         0.00000E+00
         0.00000E+00
         0.00000E+00
         0.00000E+00
         0.00000E+00
         0.00000E+00
         0.00000E+00
         0.00000E+00
         0.00000E+00
         0.00000E+00
         0.00000E+00
         0.00000E+00
         0.00000E+00
         0.00000E+00
         0.00000E+00
         0.00000E+00
         0.00000E+00
         0.00000E+00
         0.00000E+00
         0.00000E+00
         0.00000E+00
         0.00000E+00
         0.00000E+00
         0.00000E+00
         0.00000E+00
         0.00000E+00
         0.00000E+00
         0.00000E+00
         0.00000E+00
         0.00000E+00
         0.00000E+00
         0.00000E+00
         0.00000E+00
         0.00000E+00
         0.00000E+00
         0.00000E+00
         0.00000E+00
         0.00000E+00
         0.00000E+00
         0.00000E+00
         0.00000E+00
         0.00000E+00
         0.00000E+00
         0.00000E+00
         0.00000E+00
         0.00000E+00
         0.00000E+00
         0.00000E+00
         0.00000E+00
         0.00000E+00
         0.00000E+00
         0.00000E+00
         0.00000E+00
         0.00000E+00
         0.00000E+00
         0.00000E+00
         0.00000E+00
         0.00000E+00
         0.00000E+00
         0.00000E+00
         0.00000E+00
         0.00000E+00
         0.00000E+00
         0.00000E+00
         0.00000E+00
         0.00000E+00
         0.00000E+00
         0.00000E+00
         0.00000E+00
         0.00000E+00
         0.00000E+00
         0.00000E+00
         0.00000E+00
         0.00000E+00
         0.00000E+00
         0.00000E+00
         0.00000E+00
         0.00000E+00
         0.00000E+00
         0.00000E+00
         0.00000E+00
         0.00000E+00
         0.00000E+00
         0.00000E+00
         0.00000E+00
         0.00000E+00
         0.00000E+00
         0.00000E+00
         0.00000E+00
         0.00000E+00
         0.00000E+00
         0.00000E+00
         0.00000E+00
         0.00000E+00
         0.00000E+00
         0.00000E+00
         0.00000E+00
         0.00000E+00
         0.00000E+00
         0.00000E+00
         0.00000E+00
         0.00000E+00
         0.00000E+00
         0.00000E+00
         0.00000E+00
         0.00000E+00
         0.00000E+00
         0.00000E+00
         0.00000E+00
         0.00000E+00
         0.00000E+00
         0.00000E+00
         0.00000E+00
         0.00000E+00
         0.00000E+00
         0.00000E+00
         0.00000E+00
         0.00000E+00
         0.00000E+00
         0.00000E+00
         0.00000E+00
         0.00000E+00
         0.00000E+00
         0.00000E+00
         0.00000E+00
         0.00000E+00
         0.00000E+00
         0.00000E+00
         0.00000E+00
         0.00000E+00
         0.00000E+00
         0.00000E+00
         0.00000E+00
         0.00000E+00
         0.00000E+00
         0.00000E+00
         0.00000E+00
         0.00000E+00
         0.00000E+00
         0.00000E+00
         0.00000E+00
         0.00000E+00
         0.00000E+00
         0.00000E+00
         0.00000E+00
         0.00000E+00
         0.00000E+00
         0.00000E+00
         0.00000E+00
         0.00000E+00
         0.00000E+00
         0.00000E+00
         0.00000E+00
         0.00000E+00
         0.00000E+00
         0.00000E+00
         0.00000E+00
         0.00000E+00
         0.00000E+00
         0.00000E+00
         0.00000E+00
         0.00000E+00
         0.00000E+00
         0.00000E+00
         0.00000E+00
         0.00000E+00
         0.00000E+00
         0.00000E+00
         0.00000E+00
         0.00000E+00
         0.00000E+00
         0.00000E+00
         0.00000E+00
         0.00000E+00
         0.00000E+00
         0.00000E+00
         0.00000E+00
         0.00000E+00
         0.00000E+00
         0.00000E+00
         0.00000E+00
         0.00000E+00
         0.00000E+00
         0.00000E+00
         0.00000E+00
         0.00000E+00
         0.00000E+00
         0.00000E+00
         0.00000E+00
         0.00000E+00
         0.00000E+00
         0.00000E+00
         0.00000E+00
         0.00000E+00
         0.00000E+00
         0.00000E+00
         0.00000E+00
         0.00000E+00
         0.00000E+00
         0.00000E+00
         0.00000E+00
         0.00000E+00
         0.00000E+00
         0.00000E+00
         0.00000E+00
         0.00000E+00
         0.00000E+00
         0.00000E+00
         0.00000E+00
         0.00000E+00
         0.00000E+00
         0.00000E+00
         0.00000E+00
         0.00000E+00
         0.00000E+00
         0.00000E+00
         0.00000E+00
         0.00000E+00
         0.00000E+00
         0.00000E+00
         0.00000E+00
         0.00000E+00
         0.00000E+00
         0.00000E+00
         0.00000E+00
         0.00000E+00
         0.00000E+00
         0.00000E+00
         0.00000E+00
         0.00000E+00
         0.00000E+00
         0.00000E+00
         0.00000E+00
         0.00000E+00
         0.00000E+00
         0.00000E+00
         0.00000E+00
         0.00000E+00
         0.00000E+00
         0.00000E+00
         0.00000E+00
         0.00000E+00
         0.00000E+00
         0.00000E+00
         0.00000E+00
         0.00000E+00
         0.00000E+00
         0.00000E+00
         0.00000E+00
         0.00000E+00
         0.00000E+00
         0.00000E+00
         0.00000E+00
         0.00000E+00
         0.00000E+00
         0.00000E+00
         0.00000E+00
         0.00000E+00
         0.00000E+00
         0.00000E+00
         0.00000E+00
         0.00000E+00
         0.00000E+00
         0.00000E+00
         0.00000E+00
         0.00000E+00
         0.00000E+00
         0.00000E+00
         0.00000E+00
         0.00000E+00
         0.00000E+00
         0.00000E+00
         0.00000E+00
         0.00000E+00
         0.00000E+00
         0.00000E+00
         0.00000E+00
         0.00000E+00
         0.00000E+00
         0.00000E+00
         0.00000E+00
         0.00000E+00
         0.00000E+00
         0.00000E+00
         0.00000E+00
         0.00000E+00
         0.00000E+00
         0.00000E+00
         0.00000E+00
         0.00000E+00
         0.00000E+00
         0.00000E+00
         0.00000E+00
         0.00000E+00
         0.00000E+00
         0.00000E+00
         0.00000E+00
         0.00000E+00
         0.00000E+00
         0.00000E+00
         0.00000E+00
         0.00000E+00
         0.00000E+00
         0.00000E+00
         0.00000E+00
         0.00000E+00
         0.00000E+00
         0.00000E+00
         0.00000E+00
         0.00000E+00
         0.00000E+00
         0.00000E+00
         0.00000E+00
         0.00000E+00
         0.00000E+00
         0.00000E+00
         0.00000E+00
         0.00000E+00
         0.00000E+00
         0.00000E+00
         0.00000E+00
         0.00000E+00
         0.00000E+00
         0.00000E+00
         0.00000E+00
         0.00000E+00
         0.00000E+00
         0.00000E+00
         0.00000E+00
         0.00000E+00
         0.00000E+00
         0.00000E+00
         0.00000E+00
         0.00000E+00
         0.00000E+00
         0.00000E+00
         0.00000E+00
         0.00000E+00
         0.00000E+00
         0.00000E+00
         0.00000E+00
         0.00000E+00
         0.00000E+00
         0.00000E+00
         0.00000E+00
         0.00000E+00
         0.00000E+00
         0.00000E+00
         0.00000E+00
         0.00000E+00
         0.00000E+00
         0.00000E+00
         0.00000E+00
         0.00000E+00
         0.00000E+00
         0.00000E+00
         0.00000E+00
         0.00000E+00
         0.00000E+00
         0.00000E+00
         0.00000E+00
         0.00000E+00
         0.00000E+00
         0.00000E+00
         0.00000E+00
         0.00000E+00
         0.00000E+00
         0.00000E+00
         0.00000E+00
         0.00000E+00
         0.00000E+00
         0.00000E+00
         0.00000E+00
         0.00000E+00
         0.00000E+00
         0.00000E+00
         0.00000E+00
         0.00000E+00
         0.00000E+00
         0.00000E+00
         0.00000E+00
         0.00000E+00
         0.00000E+00
         0.00000E+00
         0.00000E+00
         0.00000E+00
         0.00000E+00
         0.00000E+00
         0.00000E+00
         0.00000E+00
         0.00000E+00
         0.00000E+00
         0.00000E+00
         0.00000E+00
         0.00000E+00
         0.00000E+00
         0.00000E+00
         0.00000E+00
         0.00000E+00
         0.00000E+00
         0.00000E+00
         0.00000E+00
         0.00000E+00
         0.00000E+00
         0.00000E+00
         0.00000E+00
         0.00000E+00
         0.00000E+00
         0.00000E+00
         0.00000E+00
         0.00000E+00
         0.00000E+00
         0.00000E+00
         0.00000E+00
         0.00000E+00
         0.00000E+00
         0.00000E+00
         0.00000E+00
         0.00000E+00
         0.00000E+00
         0.00000E+00
         0.00000E+00
         0.00000E+00
         0.00000E+00
         0.00000E+00
         0.00000E+00
         0.00000E+00
         0.00000E+00
         0.00000E+00
         0.00000E+00
         0.00000E+00
         0.00000E+00
         0.00000E+00
         0.00000E+00
         0.00000E+00
         0.00000E+00
         0.00000E+00
         0.00000E+00
         0.00000E+00
         0.00000E+00
         0.00000E+00
         0.00000E+00
         0.00000E+00
         0.00000E+00
         0.00000E+00
         0.00000E+00
         0.00000E+00
         0.00000E+00
         0.00000E+00
         0.00000E+00
         0.00000E+00
         0.00000E+00
         0.00000E+00
         0.00000E+00
         0.00000E+00
         0.00000E+00
         0.00000E+00
         0.00000E+00
         0.00000E+00
         0.00000E+00
         0.00000E+00
         0.00000E+00
         0.00000E+00
         0.00000E+00
         0.00000E+00
         0.00000E+00
         0.00000E+00
         0.00000E+00
         0.00000E+00
         0.00000E+00
         0.00000E+00
         0.00000E+00
         0.00000E+00
         0.00000E+00
         0.00000E+00
         0.00000E+00
         0.00000E+00
         0.00000E+00
         0.00000E+00
         0.00000E+00
         0.00000E+00
         0.00000E+00
         0.00000E+00
         0.00000E+00
         0.00000E+00
         0.00000E+00
         0.00000E+00
         0.00000E+00
         0.00000E+00
         0.00000E+00
         0.00000E+00
         0.00000E+00
         0.00000E+00
         0.00000E+00
         0.00000E+00
         0.00000E+00
         0.00000E+00
         0.00000E+00
         0.00000E+00
         0.00000E+00
         0.00000E+00
         0.00000E+00
         0.00000E+00
         0.00000E+00
         0.00000E+00
         0.00000E+00
         0.00000E+00
         0.00000E+00
         0.00000E+00
         0.00000E+00
         0.00000E+00
         0.00000E+00
         0.00000E+00
         0.00000E+00
         0.00000E+00
         0.00000E+00
         0.00000E+00
         0.00000E+00
         0.00000E+00
         0.00000E+00
         0.00000E+00
         0.00000E+00
         0.00000E+00
         0.00000E+00
         0.00000E+00
         0.00000E+00
         0.00000E+00
         0.00000E+00
         0.00000E+00
         0.00000E+00
         0.00000E+00
         0.00000E+00
         0.00000E+00
         0.00000E+00
         0.00000E+00
         0.00000E+00
         0.00000E+00
         0.00000E+00
         0.00000E+00
         0.00000E+00
         0.00000E+00
         0.00000E+00
         0.00000E+00
         0.00000E+00
         0.00000E+00
         0.00000E+00
         0.00000E+00
         0.00000E+00
         0.00000E+00
         0.00000E+00
         0.00000E+00
         0.00000E+00
         0.00000E+00
         0.00000E+00
         0.00000E+00
         0.00000E+00
         0.00000E+00
         0.00000E+00
         0.00000E+00
         0.00000E+00
         0.00000E+00
         0.00000E+00
         0.00000E+00
         0.00000E+00
         0.00000E+00
         0.00000E+00
         0.00000E+00
         0.00000E+00
         0.00000E+00
         0.00000E+00
         0.00000E+00
         0.00000E+00
         0.00000E+00
         0.00000E+00
         0.00000E+00
         0.00000E+00
         0.00000E+00
         0.00000E+00
         0.00000E+00
         0.00000E+00
         0.00000E+00
         0.00000E+00
         0.00000E+00
         0.00000E+00
         0.00000E+00
         0.00000E+00
         0.00000E+00
         0.00000E+00
         0.00000E+00
         0.00000E+00
         0.00000E+00
         0.00000E+00
         0.00000E+00
         0.00000E+00
         0.00000E+00
         0.00000E+00
         0.00000E+00
         0.00000E+00
         0.00000E+00
         0.00000E+00
         0.00000E+00
         0.00000E+00
         0.00000E+00
         0.00000E+00
         0.00000E+00
         0.00000E+00
         0.00000E+00
         0.00000E+00
         0.00000E+00
         0.00000E+00
         0.00000E+00
         0.00000E+00
         0.00000E+00
         0.00000E+00
         0.00000E+00
         0.00000E+00
         0.00000E+00
         0.00000E+00
         0.00000E+00
         0.00000E+00
         0.00000E+00
         0.00000E+00
         0.00000E+00
         0.00000E+00
         0.00000E+00
         0.00000E+00
         0.00000E+00
         0.00000E+00
         0.00000E+00
         0.00000E+00
         0.00000E+00
         0.00000E+00
         0.00000E+00
         0.00000E+00
         0.00000E+00
         0.00000E+00
         0.00000E+00
         0.00000E+00
         0.00000E+00
         0.00000E+00
         0.00000E+00
         0.00000E+00
         0.00000E+00
         0.00000E+00
         0.00000E+00
         0.00000E+00
         0.00000E+00
         0.00000E+00
         0.00000E+00
         0.00000E+00
         0.00000E+00
         0.00000E+00
         0.00000E+00
         0.00000E+00
         0.00000E+00
         0.00000E+00
         0.00000E+00
         0.00000E+00
         0.00000E+00
         0.00000E+00
         0.00000E+00
         0.00000E+00
         0.00000E+00
         0.00000E+00
         0.00000E+00
         0.00000E+00
         0.00000E+00
         0.00000E+00
         0.00000E+00
         0.00000E+00
         0.00000E+00
         0.00000E+00
         0.00000E+00
         0.00000E+00
         0.00000E+00
         0.00000E+00
         0.00000E+00
         0.00000E+00
         0.00000E+00
         0.00000E+00
         0.00000E+00
         0.00000E+00
         0.00000E+00
         0.00000E+00
         0.00000E+00
         0.00000E+00
         0.00000E+00
         0.00000E+00
         0.00000E+00
         0.00000E+00
         0.00000E+00
         0.00000E+00
         0.00000E+00
         0.00000E+00
         0.00000E+00
         0.00000E+00
         0.00000E+00
         0.00000E+00
         0.00000E+00
         0.00000E+00
         0.00000E+00
         0.00000E+00
         0.00000E+00
         0.00000E+00
         0.00000E+00
         0.00000E+00
         0.00000E+00
         0.00000E+00
         0.00000E+00
         0.00000E+00
         0.00000E+00
         0.00000E+00
         0.00000E+00
         0.00000E+00
         0.00000E+00
         0.00000E+00
         0.00000E+00
         0.00000E+00
         0.00000E+00
         0.00000E+00
         0.00000E+00
         0.00000E+00
         0.00000E+00
         0.00000E+00
         0.00000E+00
         0.00000E+00
         0.00000E+00
         0.00000E+00
         0.00000E+00
         0.00000E+00
         0.00000E+00
         0.00000E+00
         0.00000E+00
         0.00000E+00
         0.00000E+00
         0.00000E+00
         0.00000E+00
         0.00000E+00
         0.00000E+00
         0.00000E+00
         0.00000E+00
         0.00000E+00
         0.00000E+00
         0.00000E+00
         0.00000E+00
         0.00000E+00
         0.00000E+00
         0.00000E+00
         0.00000E+00
         0.00000E+00
         0.00000E+00
         0.00000E+00
         0.00000E+00
         0.00000E+00
         0.00000E+00
         0.00000E+00
         0.00000E+00
         0.00000E+00
         0.00000E+00
         0.00000E+00
         0.00000E+00
         0.00000E+00
         0.00000E+00
         0.00000E+00
         0.00000E+00
         0.00000E+00
         0.00000E+00
         0.00000E+00
         0.00000E+00
         0.00000E+00
         0.00000E+00
         0.00000E+00
         0.00000E+00
         0.00000E+00
         0.00000E+00
         0.00000E+00
         0.00000E+00
         0.00000E+00
         0.00000E+00
         0.00000E+00
         0.00000E+00
         0.00000E+00
         0.00000E+00
         0.00000E+00
         0.00000E+00
         0.00000E+00
         0.00000E+00
         0.00000E+00
         0.00000E+00
         0.00000E+00
         0.00000E+00
         0.00000E+00
         0.00000E+00
         0.00000E+00
         0.00000E+00
         0.00000E+00
         0.00000E+00
         0.00000E+00
         0.00000E+00
         0.00000E+00
         0.00000E+00
         0.00000E+00
         0.00000E+00
         0.00000E+00
         0.00000E+00
         0.00000E+00
         0.00000E+00
         0.00000E+00
         0.00000E+00
         0.00000E+00
         0.00000E+00
         0.00000E+00
         0.00000E+00
         0.00000E+00
         0.00000E+00
         0.00000E+00
         0.00000E+00
         0.00000E+00
         0.00000E+00
         0.00000E+00
         0.00000E+00
         0.00000E+00
         0.00000E+00
         0.00000E+00
         0.00000E+00
         0.00000E+00
         0.00000E+00
         0.00000E+00
         0.00000E+00
         0.00000E+00
         0.00000E+00
         0.00000E+00
         0.00000E+00
         0.00000E+00
         0.00000E+00
         0.00000E+00
         0.00000E+00
         0.00000E+00
         0.00000E+00
         0.00000E+00
         0.00000E+00
         0.00000E+00
         0.00000E+00
         0.00000E+00
         0.00000E+00
         0.00000E+00
         0.00000E+00
         0.00000E+00
         0.00000E+00
         0.00000E+00
         0.00000E+00
         0.00000E+00
         0.00000E+00
         0.00000E+00
         0.00000E+00
         0.00000E+00
         0.00000E+00
         0.00000E+00
         0.00000E+00
         0.00000E+00
         0.00000E+00
         0.00000E+00
         0.00000E+00
         0.00000E+00
         0.00000E+00
         0.00000E+00
         0.00000E+00
         0.00000E+00
         0.00000E+00
         0.00000E+00
         0.00000E+00
         0.00000E+00
         0.00000E+00
         0.00000E+00
         0.00000E+00
         0.00000E+00
         0.00000E+00
         0.00000E+00
         0.00000E+00
         0.00000E+00
         0.00000E+00
         0.00000E+00
         0.00000E+00
         0.00000E+00
         0.00000E+00
         0.00000E+00
         0.00000E+00
         0.00000E+00
         0.00000E+00
         0.00000E+00
         0.00000E+00
         0.00000E+00
         0.00000E+00
         0.00000E+00
         0.00000E+00
         0.00000E+00
         0.00000E+00
         0.00000E+00
         0.00000E+00
         0.00000E+00
         0.00000E+00
         0.00000E+00
         0.00000E+00
         0.00000E+00
         0.00000E+00
         0.00000E+00
         0.00000E+00
         0.00000E+00
         0.00000E+00
         0.00000E+00
         0.00000E+00
         0.00000E+00
         0.00000E+00
         0.00000E+00
         0.00000E+00
         0.00000E+00
         0.00000E+00
         0.00000E+00
         0.00000E+00
         0.00000E+00
  
SCALARS                 acceleration_z  double 1
LOOKUP_TABLE default
         0.00000E+00
         0.00000E+00
         0.00000E+00
         0.00000E+00
         0.00000E+00
         0.00000E+00
         0.00000E+00
         0.00000E+00
         0.00000E+00
         0.00000E+00
         0.00000E+00
         0.00000E+00
         0.00000E+00
         0.00000E+00
         0.00000E+00
         0.00000E+00
         0.00000E+00
         0.00000E+00
         0.00000E+00
         0.00000E+00
         0.00000E+00
         0.00000E+00
         0.00000E+00
         0.00000E+00
         0.00000E+00
         0.00000E+00
         0.00000E+00
         0.00000E+00
         0.00000E+00
         0.00000E+00
         0.00000E+00
         0.00000E+00
         0.00000E+00
         0.00000E+00
         0.00000E+00
         0.00000E+00
         0.00000E+00
         0.00000E+00
         0.00000E+00
         0.00000E+00
         0.00000E+00
         0.00000E+00
         0.00000E+00
         0.00000E+00
         0.00000E+00
         0.00000E+00
         0.00000E+00
         0.00000E+00
         0.00000E+00
         0.00000E+00
         0.00000E+00
         0.00000E+00
         0.00000E+00
         0.00000E+00
         0.00000E+00
         0.00000E+00
         0.00000E+00
         0.00000E+00
         0.00000E+00
         0.00000E+00
         0.00000E+00
         0.00000E+00
         0.00000E+00
         0.00000E+00
         0.00000E+00
         0.00000E+00
         0.00000E+00
         0.00000E+00
         0.00000E+00
         0.00000E+00
         0.00000E+00
         0.00000E+00
         0.00000E+00
         0.00000E+00
         0.00000E+00
         0.00000E+00
         0.00000E+00
         0.00000E+00
         0.00000E+00
         0.00000E+00
         0.00000E+00
         0.00000E+00
         0.00000E+00
         0.00000E+00
         0.00000E+00
         0.00000E+00
         0.00000E+00
         0.00000E+00
         0.00000E+00
         0.00000E+00
         0.00000E+00
         0.00000E+00
         0.00000E+00
         0.00000E+00
         0.00000E+00
         0.00000E+00
         0.00000E+00
         0.00000E+00
         0.00000E+00
         0.00000E+00
         0.00000E+00
         0.00000E+00
         0.00000E+00
         0.00000E+00
         0.00000E+00
         0.00000E+00
         0.00000E+00
         0.00000E+00
         0.00000E+00
         0.00000E+00
         0.00000E+00
         0.00000E+00
         0.00000E+00
         0.00000E+00
         0.00000E+00
         0.00000E+00
         0.00000E+00
         0.00000E+00
         0.00000E+00
         0.00000E+00
         0.00000E+00
         0.00000E+00
         0.00000E+00
         0.00000E+00
         0.00000E+00
         0.00000E+00
         0.00000E+00
         0.00000E+00
         0.00000E+00
         0.00000E+00
         0.00000E+00
         0.00000E+00
         0.00000E+00
         0.00000E+00
         0.00000E+00
         0.00000E+00
         0.00000E+00
         0.00000E+00
         0.00000E+00
         0.00000E+00
         0.00000E+00
         0.00000E+00
         0.00000E+00
         0.00000E+00
         0.00000E+00
         0.00000E+00
         0.00000E+00
         0.00000E+00
         0.00000E+00
         0.00000E+00
         0.00000E+00
         0.00000E+00
         0.00000E+00
         0.00000E+00
         0.00000E+00
         0.00000E+00
         0.00000E+00
         0.00000E+00
         0.00000E+00
         0.00000E+00
         0.00000E+00
         0.00000E+00
         0.00000E+00
         0.00000E+00
         0.00000E+00
         0.00000E+00
         0.00000E+00
         0.00000E+00
         0.00000E+00
         0.00000E+00
         0.00000E+00
         0.00000E+00
         0.00000E+00
         0.00000E+00
         0.00000E+00
         0.00000E+00
         0.00000E+00
         0.00000E+00
         0.00000E+00
         0.00000E+00
         0.00000E+00
         0.00000E+00
         0.00000E+00
         0.00000E+00
         0.00000E+00
         0.00000E+00
         0.00000E+00
         0.00000E+00
         0.00000E+00
         0.00000E+00
         0.00000E+00
         0.00000E+00
         0.00000E+00
         0.00000E+00
         0.00000E+00
         0.00000E+00
         0.00000E+00
         0.00000E+00
         0.00000E+00
         0.00000E+00
         0.00000E+00
         0.00000E+00
         0.00000E+00
         0.00000E+00
         0.00000E+00
         0.00000E+00
         0.00000E+00
         0.00000E+00
         0.00000E+00
         0.00000E+00
         0.00000E+00
         0.00000E+00
         0.00000E+00
         0.00000E+00
         0.00000E+00
         0.00000E+00
         0.00000E+00
         0.00000E+00
         0.00000E+00
         0.00000E+00
         0.00000E+00
         0.00000E+00
         0.00000E+00
         0.00000E+00
         0.00000E+00
         0.00000E+00
         0.00000E+00
         0.00000E+00
         0.00000E+00
         0.00000E+00
         0.00000E+00
         0.00000E+00
         0.00000E+00
         0.00000E+00
         0.00000E+00
         0.00000E+00
         0.00000E+00
         0.00000E+00
         0.00000E+00
         0.00000E+00
         0.00000E+00
         0.00000E+00
         0.00000E+00
         0.00000E+00
         0.00000E+00
         0.00000E+00
         0.00000E+00
         0.00000E+00
         0.00000E+00
         0.00000E+00
         0.00000E+00
         0.00000E+00
         0.00000E+00
         0.00000E+00
         0.00000E+00
         0.00000E+00
         0.00000E+00
         0.00000E+00
         0.00000E+00
         0.00000E+00
         0.00000E+00
         0.00000E+00
         0.00000E+00
         0.00000E+00
         0.00000E+00
         0.00000E+00
         0.00000E+00
         0.00000E+00
         0.00000E+00
         0.00000E+00
         0.00000E+00
         0.00000E+00
         0.00000E+00
         0.00000E+00
         0.00000E+00
         0.00000E+00
         0.00000E+00
         0.00000E+00
         0.00000E+00
         0.00000E+00
         0.00000E+00
         0.00000E+00
         0.00000E+00
         0.00000E+00
         0.00000E+00
         0.00000E+00
         0.00000E+00
         0.00000E+00
         0.00000E+00
         0.00000E+00
         0.00000E+00
         0.00000E+00
         0.00000E+00
         0.00000E+00
         0.00000E+00
         0.00000E+00
         0.00000E+00
         0.00000E+00
         0.00000E+00
         0.00000E+00
         0.00000E+00
         0.00000E+00
         0.00000E+00
         0.00000E+00
         0.00000E+00
         0.00000E+00
         0.00000E+00
         0.00000E+00
         0.00000E+00
         0.00000E+00
         0.00000E+00
         0.00000E+00
         0.00000E+00
         0.00000E+00
         0.00000E+00
         0.00000E+00
         0.00000E+00
         0.00000E+00
         0.00000E+00
         0.00000E+00
         0.00000E+00
         0.00000E+00
         0.00000E+00
         0.00000E+00
         0.00000E+00
         0.00000E+00
         0.00000E+00
         0.00000E+00
         0.00000E+00
         0.00000E+00
         0.00000E+00
         0.00000E+00
         0.00000E+00
         0.00000E+00
         0.00000E+00
         0.00000E+00
         0.00000E+00
         0.00000E+00
         0.00000E+00
         0.00000E+00
         0.00000E+00
         0.00000E+00
         0.00000E+00
         0.00000E+00
         0.00000E+00
         0.00000E+00
         0.00000E+00
         0.00000E+00
         0.00000E+00
         0.00000E+00
         0.00000E+00
         0.00000E+00
         0.00000E+00
         0.00000E+00
         0.00000E+00
         0.00000E+00
         0.00000E+00
         0.00000E+00
         0.00000E+00
         0.00000E+00
         0.00000E+00
         0.00000E+00
         0.00000E+00
         0.00000E+00
         0.00000E+00
         0.00000E+00
         0.00000E+00
         0.00000E+00
         0.00000E+00
         0.00000E+00
         0.00000E+00
         0.00000E+00
         0.00000E+00
         0.00000E+00
         0.00000E+00
         0.00000E+00
         0.00000E+00
         0.00000E+00
         0.00000E+00
         0.00000E+00
         0.00000E+00
         0.00000E+00
         0.00000E+00
         0.00000E+00
         0.00000E+00
         0.00000E+00
         0.00000E+00
         0.00000E+00
         0.00000E+00
         0.00000E+00
         0.00000E+00
         0.00000E+00
         0.00000E+00
         0.00000E+00
         0.00000E+00
         0.00000E+00
         0.00000E+00
         0.00000E+00
         0.00000E+00
         0.00000E+00
         0.00000E+00
         0.00000E+00
         0.00000E+00
         0.00000E+00
         0.00000E+00
         0.00000E+00
         0.00000E+00
         0.00000E+00
         0.00000E+00
         0.00000E+00
         0.00000E+00
         0.00000E+00
         0.00000E+00
         0.00000E+00
         0.00000E+00
         0.00000E+00
         0.00000E+00
         0.00000E+00
         0.00000E+00
         0.00000E+00
         0.00000E+00
         0.00000E+00
         0.00000E+00
         0.00000E+00
         0.00000E+00
         0.00000E+00
         0.00000E+00
         0.00000E+00
         0.00000E+00
         0.00000E+00
         0.00000E+00
         0.00000E+00
         0.00000E+00
         0.00000E+00
         0.00000E+00
         0.00000E+00
         0.00000E+00
         0.00000E+00
         0.00000E+00
         0.00000E+00
         0.00000E+00
         0.00000E+00
         0.00000E+00
         0.00000E+00
         0.00000E+00
         0.00000E+00
         0.00000E+00
         0.00000E+00
         0.00000E+00
         0.00000E+00
         0.00000E+00
         0.00000E+00
         0.00000E+00
         0.00000E+00
         0.00000E+00
         0.00000E+00
         0.00000E+00
         0.00000E+00
         0.00000E+00
         0.00000E+00
         0.00000E+00
         0.00000E+00
         0.00000E+00
         0.00000E+00
         0.00000E+00
         0.00000E+00
         0.00000E+00
         0.00000E+00
         0.00000E+00
         0.00000E+00
         0.00000E+00
         0.00000E+00
         0.00000E+00
         0.00000E+00
         0.00000E+00
         0.00000E+00
         0.00000E+00
         0.00000E+00
         0.00000E+00
         0.00000E+00
         0.00000E+00
         0.00000E+00
         0.00000E+00
         0.00000E+00
         0.00000E+00
         0.00000E+00
         0.00000E+00
         0.00000E+00
         0.00000E+00
         0.00000E+00
         0.00000E+00
         0.00000E+00
         0.00000E+00
         0.00000E+00
         0.00000E+00
         0.00000E+00
         0.00000E+00
         0.00000E+00
         0.00000E+00
         0.00000E+00
         0.00000E+00
         0.00000E+00
         0.00000E+00
         0.00000E+00
         0.00000E+00
         0.00000E+00
         0.00000E+00
         0.00000E+00
         0.00000E+00
         0.00000E+00
         0.00000E+00
         0.00000E+00
         0.00000E+00
         0.00000E+00
         0.00000E+00
         0.00000E+00
         0.00000E+00
         0.00000E+00
         0.00000E+00
         0.00000E+00
         0.00000E+00
         0.00000E+00
         0.00000E+00
         0.00000E+00
         0.00000E+00
         0.00000E+00
         0.00000E+00
         0.00000E+00
         0.00000E+00
         0.00000E+00
         0.00000E+00
         0.00000E+00
         0.00000E+00
         0.00000E+00
         0.00000E+00
         0.00000E+00
         0.00000E+00
         0.00000E+00
         0.00000E+00
         0.00000E+00
         0.00000E+00
         0.00000E+00
         0.00000E+00
         0.00000E+00
         0.00000E+00
         0.00000E+00
         0.00000E+00
         0.00000E+00
         0.00000E+00
         0.00000E+00
         0.00000E+00
         0.00000E+00
         0.00000E+00
         0.00000E+00
         0.00000E+00
         0.00000E+00
         0.00000E+00
         0.00000E+00
         0.00000E+00
         0.00000E+00
         0.00000E+00
         0.00000E+00
         0.00000E+00
         0.00000E+00
         0.00000E+00
         0.00000E+00
         0.00000E+00
         0.00000E+00
         0.00000E+00
         0.00000E+00
         0.00000E+00
         0.00000E+00
         0.00000E+00
         0.00000E+00
         0.00000E+00
         0.00000E+00
         0.00000E+00
         0.00000E+00
         0.00000E+00
         0.00000E+00
         0.00000E+00
         0.00000E+00
         0.00000E+00
         0.00000E+00
         0.00000E+00
         0.00000E+00
         0.00000E+00
         0.00000E+00
         0.00000E+00
         0.00000E+00
         0.00000E+00
         0.00000E+00
         0.00000E+00
         0.00000E+00
         0.00000E+00
         0.00000E+00
         0.00000E+00
         0.00000E+00
         0.00000E+00
         0.00000E+00
         0.00000E+00
         0.00000E+00
         0.00000E+00
         0.00000E+00
         0.00000E+00
         0.00000E+00
         0.00000E+00
         0.00000E+00
         0.00000E+00
         0.00000E+00
         0.00000E+00
         0.00000E+00
         0.00000E+00
         0.00000E+00
         0.00000E+00
         0.00000E+00
         0.00000E+00
         0.00000E+00
         0.00000E+00
         0.00000E+00
         0.00000E+00
         0.00000E+00
         0.00000E+00
         0.00000E+00
         0.00000E+00
         0.00000E+00
         0.00000E+00
         0.00000E+00
         0.00000E+00
         0.00000E+00
         0.00000E+00
         0.00000E+00
         0.00000E+00
         0.00000E+00
         0.00000E+00
         0.00000E+00
         0.00000E+00
         0.00000E+00
         0.00000E+00
         0.00000E+00
         0.00000E+00
         0.00000E+00
         0.00000E+00
         0.00000E+00
         0.00000E+00
         0.00000E+00
         0.00000E+00
         0.00000E+00
         0.00000E+00
         0.00000E+00
         0.00000E+00
         0.00000E+00
         0.00000E+00
         0.00000E+00
         0.00000E+00
         0.00000E+00
         0.00000E+00
         0.00000E+00
         0.00000E+00
         0.00000E+00
         0.00000E+00
         0.00000E+00
         0.00000E+00
         0.00000E+00
         0.00000E+00
         0.00000E+00
         0.00000E+00
         0.00000E+00
         0.00000E+00
         0.00000E+00
         0.00000E+00
         0.00000E+00
         0.00000E+00
         0.00000E+00
         0.00000E+00
         0.00000E+00
         0.00000E+00
         0.00000E+00
         0.00000E+00
         0.00000E+00
         0.00000E+00
         0.00000E+00
         0.00000E+00
         0.00000E+00
         0.00000E+00
         0.00000E+00
         0.00000E+00
         0.00000E+00
         0.00000E+00
         0.00000E+00
         0.00000E+00
         0.00000E+00
         0.00000E+00
         0.00000E+00
         0.00000E+00
         0.00000E+00
         0.00000E+00
         0.00000E+00
         0.00000E+00
         0.00000E+00
         0.00000E+00
         0.00000E+00
         0.00000E+00
         0.00000E+00
         0.00000E+00
         0.00000E+00
         0.00000E+00
         0.00000E+00
         0.00000E+00
         0.00000E+00
         0.00000E+00
         0.00000E+00
         0.00000E+00
         0.00000E+00
         0.00000E+00
         0.00000E+00
         0.00000E+00
         0.00000E+00
         0.00000E+00
         0.00000E+00
         0.00000E+00
         0.00000E+00
         0.00000E+00
         0.00000E+00
         0.00000E+00
         0.00000E+00
         0.00000E+00
         0.00000E+00
         0.00000E+00
         0.00000E+00
         0.00000E+00
         0.00000E+00
         0.00000E+00
         0.00000E+00
         0.00000E+00
         0.00000E+00
         0.00000E+00
         0.00000E+00
         0.00000E+00
         0.00000E+00
         0.00000E+00
         0.00000E+00
         0.00000E+00
         0.00000E+00
         0.00000E+00
         0.00000E+00
         0.00000E+00
         0.00000E+00
         0.00000E+00
         0.00000E+00
         0.00000E+00
         0.00000E+00
         0.00000E+00
         0.00000E+00
         0.00000E+00
         0.00000E+00
         0.00000E+00
         0.00000E+00
         0.00000E+00
         0.00000E+00
         0.00000E+00
         0.00000E+00
         0.00000E+00
         0.00000E+00
         0.00000E+00
         0.00000E+00
         0.00000E+00
         0.00000E+00
         0.00000E+00
         0.00000E+00
         0.00000E+00
         0.00000E+00
         0.00000E+00
         0.00000E+00
         0.00000E+00
         0.00000E+00
         0.00000E+00
         0.00000E+00
         0.00000E+00
         0.00000E+00
         0.00000E+00
         0.00000E+00
         0.00000E+00
         0.00000E+00
         0.00000E+00
         0.00000E+00
         0.00000E+00
         0.00000E+00
         0.00000E+00
         0.00000E+00
         0.00000E+00
         0.00000E+00
         0.00000E+00
         0.00000E+00
         0.00000E+00
         0.00000E+00
         0.00000E+00
         0.00000E+00
         0.00000E+00
         0.00000E+00
         0.00000E+00
         0.00000E+00
         0.00000E+00
         0.00000E+00
         0.00000E+00
         0.00000E+00
         0.00000E+00
         0.00000E+00
         0.00000E+00
         0.00000E+00
         0.00000E+00
         0.00000E+00
         0.00000E+00
         0.00000E+00
         0.00000E+00
         0.00000E+00
         0.00000E+00
         0.00000E+00
         0.00000E+00
         0.00000E+00
         0.00000E+00
         0.00000E+00
         0.00000E+00
         0.00000E+00
         0.00000E+00
         0.00000E+00
         0.00000E+00
         0.00000E+00
         0.00000E+00
         0.00000E+00
         0.00000E+00
         0.00000E+00
         0.00000E+00
         0.00000E+00
         0.00000E+00
         0.00000E+00
         0.00000E+00
         0.00000E+00
         0.00000E+00
         0.00000E+00
         0.00000E+00
         0.00000E+00
         0.00000E+00
         0.00000E+00
         0.00000E+00
         0.00000E+00
         0.00000E+00
         0.00000E+00
         0.00000E+00
         0.00000E+00
         0.00000E+00
         0.00000E+00
         0.00000E+00
         0.00000E+00
         0.00000E+00
         0.00000E+00
         0.00000E+00
         0.00000E+00
         0.00000E+00
         0.00000E+00
         0.00000E+00
         0.00000E+00
         0.00000E+00
         0.00000E+00
         0.00000E+00
         0.00000E+00
         0.00000E+00
         0.00000E+00
         0.00000E+00
         0.00000E+00
         0.00000E+00
         0.00000E+00
         0.00000E+00
         0.00000E+00
         0.00000E+00
         0.00000E+00
         0.00000E+00
         0.00000E+00
         0.00000E+00
         0.00000E+00
         0.00000E+00
         0.00000E+00
         0.00000E+00
         0.00000E+00
         0.00000E+00
         0.00000E+00
         0.00000E+00
         0.00000E+00
         0.00000E+00
         0.00000E+00
         0.00000E+00
         0.00000E+00
         0.00000E+00
         0.00000E+00
         0.00000E+00
         0.00000E+00
         0.00000E+00
         0.00000E+00
         0.00000E+00
         0.00000E+00
         0.00000E+00
         0.00000E+00
         0.00000E+00
         0.00000E+00
         0.00000E+00
         0.00000E+00
         0.00000E+00
         0.00000E+00
         0.00000E+00
         0.00000E+00
         0.00000E+00
         0.00000E+00
         0.00000E+00
         0.00000E+00
         0.00000E+00
         0.00000E+00
         0.00000E+00
         0.00000E+00
         0.00000E+00
         0.00000E+00
         0.00000E+00
         0.00000E+00
         0.00000E+00
         0.00000E+00
         0.00000E+00
         0.00000E+00
         0.00000E+00
         0.00000E+00
         0.00000E+00
         0.00000E+00
         0.00000E+00
         0.00000E+00
         0.00000E+00
         0.00000E+00
         0.00000E+00
         0.00000E+00
         0.00000E+00
         0.00000E+00
         0.00000E+00
         0.00000E+00
         0.00000E+00
         0.00000E+00
         0.00000E+00
         0.00000E+00
         0.00000E+00
         0.00000E+00
         0.00000E+00
         0.00000E+00
         0.00000E+00
         0.00000E+00
         0.00000E+00
         0.00000E+00
         0.00000E+00
         0.00000E+00
         0.00000E+00
         0.00000E+00
         0.00000E+00
         0.00000E+00
         0.00000E+00
         0.00000E+00
         0.00000E+00
         0.00000E+00
         0.00000E+00
         0.00000E+00
         0.00000E+00
         0.00000E+00
         0.00000E+00
         0.00000E+00
         0.00000E+00
         0.00000E+00
         0.00000E+00
         0.00000E+00
         0.00000E+00
         0.00000E+00
         0.00000E+00
         0.00000E+00
         0.00000E+00
         0.00000E+00
         0.00000E+00
         0.00000E+00
         0.00000E+00
         0.00000E+00
         0.00000E+00
         0.00000E+00
         0.00000E+00
         0.00000E+00
         0.00000E+00
         0.00000E+00
         0.00000E+00
         0.00000E+00
         0.00000E+00
         0.00000E+00
         0.00000E+00
         0.00000E+00
         0.00000E+00
         0.00000E+00
         0.00000E+00
         0.00000E+00
         0.00000E+00
         0.00000E+00
         0.00000E+00
         0.00000E+00
         0.00000E+00
         0.00000E+00
         0.00000E+00
         0.00000E+00
         0.00000E+00
         0.00000E+00
         0.00000E+00
         0.00000E+00
         0.00000E+00
         0.00000E+00
         0.00000E+00
         0.00000E+00
         0.00000E+00
         0.00000E+00
         0.00000E+00
         0.00000E+00
         0.00000E+00
         0.00000E+00
         0.00000E+00
         0.00000E+00
         0.00000E+00
         0.00000E+00
         0.00000E+00
         0.00000E+00
         0.00000E+00
         0.00000E+00
         0.00000E+00
         0.00000E+00
         0.00000E+00
         0.00000E+00
         0.00000E+00
         0.00000E+00
         0.00000E+00
         0.00000E+00
         0.00000E+00
         0.00000E+00
         0.00000E+00
         0.00000E+00
         0.00000E+00
         0.00000E+00
         0.00000E+00
         0.00000E+00
         0.00000E+00
         0.00000E+00
         0.00000E+00
         0.00000E+00
         0.00000E+00
         0.00000E+00
         0.00000E+00
         0.00000E+00
         0.00000E+00
         0.00000E+00
         0.00000E+00
         0.00000E+00
         0.00000E+00
         0.00000E+00
         0.00000E+00
         0.00000E+00
         0.00000E+00
         0.00000E+00
         0.00000E+00
         0.00000E+00
         0.00000E+00
         0.00000E+00
         0.00000E+00
         0.00000E+00
         0.00000E+00
         0.00000E+00
         0.00000E+00
         0.00000E+00
         0.00000E+00
         0.00000E+00
         0.00000E+00
         0.00000E+00
         0.00000E+00
         0.00000E+00
         0.00000E+00
         0.00000E+00
         0.00000E+00
         0.00000E+00
         0.00000E+00
         0.00000E+00
         0.00000E+00
         0.00000E+00
         0.00000E+00
         0.00000E+00
         0.00000E+00
         0.00000E+00
         0.00000E+00
         0.00000E+00
         0.00000E+00
         0.00000E+00
         0.00000E+00
         0.00000E+00
         0.00000E+00
         0.00000E+00
         0.00000E+00
         0.00000E+00
         0.00000E+00
         0.00000E+00
         0.00000E+00
         0.00000E+00
         0.00000E+00
         0.00000E+00
         0.00000E+00
         0.00000E+00
         0.00000E+00
         0.00000E+00
         0.00000E+00
         0.00000E+00
         0.00000E+00
         0.00000E+00
         0.00000E+00
         0.00000E+00
         0.00000E+00
         0.00000E+00
         0.00000E+00
         0.00000E+00
         0.00000E+00
         0.00000E+00
         0.00000E+00
         0.00000E+00
         0.00000E+00
         0.00000E+00
         0.00000E+00
         0.00000E+00
         0.00000E+00
         0.00000E+00
         0.00000E+00
         0.00000E+00
         0.00000E+00
         0.00000E+00
         0.00000E+00
         0.00000E+00
         0.00000E+00
         0.00000E+00
         0.00000E+00
         0.00000E+00
         0.00000E+00
         0.00000E+00
         0.00000E+00
         0.00000E+00
         0.00000E+00
         0.00000E+00
         0.00000E+00
         0.00000E+00
         0.00000E+00
         0.00000E+00
         0.00000E+00
         0.00000E+00
         0.00000E+00
         0.00000E+00
         0.00000E+00
         0.00000E+00
         0.00000E+00
         0.00000E+00
         0.00000E+00
         0.00000E+00
         0.00000E+00
         0.00000E+00
         0.00000E+00
         0.00000E+00
         0.00000E+00
         0.00000E+00
         0.00000E+00
         0.00000E+00
         0.00000E+00
         0.00000E+00
         0.00000E+00
         0.00000E+00
         0.00000E+00
         0.00000E+00
         0.00000E+00
         0.00000E+00
         0.00000E+00
         0.00000E+00
         0.00000E+00
         0.00000E+00
         0.00000E+00
         0.00000E+00
         0.00000E+00
         0.00000E+00
         0.00000E+00
         0.00000E+00
         0.00000E+00
         0.00000E+00
         0.00000E+00
         0.00000E+00
         0.00000E+00
         0.00000E+00
         0.00000E+00
         0.00000E+00
         0.00000E+00
         0.00000E+00
         0.00000E+00
         0.00000E+00
         0.00000E+00
         0.00000E+00
         0.00000E+00
         0.00000E+00
         0.00000E+00
         0.00000E+00
         0.00000E+00
         0.00000E+00
         0.00000E+00
         0.00000E+00
         0.00000E+00
         0.00000E+00
         0.00000E+00
         0.00000E+00
         0.00000E+00
         0.00000E+00
         0.00000E+00
         0.00000E+00
         0.00000E+00
         0.00000E+00
         0.00000E+00
         0.00000E+00
         0.00000E+00
         0.00000E+00
         0.00000E+00
         0.00000E+00
         0.00000E+00
         0.00000E+00
         0.00000E+00
         0.00000E+00
         0.00000E+00
         0.00000E+00
         0.00000E+00
         0.00000E+00
         0.00000E+00
         0.00000E+00
         0.00000E+00
         0.00000E+00
         0.00000E+00
         0.00000E+00
         0.00000E+00
         0.00000E+00
         0.00000E+00
         0.00000E+00
         0.00000E+00
         0.00000E+00
         0.00000E+00
         0.00000E+00
         0.00000E+00
         0.00000E+00
         0.00000E+00
         0.00000E+00
         0.00000E+00
         0.00000E+00
         0.00000E+00
         0.00000E+00
         0.00000E+00
         0.00000E+00
         0.00000E+00
         0.00000E+00
         0.00000E+00
         0.00000E+00
         0.00000E+00
         0.00000E+00
         0.00000E+00
         0.00000E+00
         0.00000E+00
         0.00000E+00
         0.00000E+00
         0.00000E+00
         0.00000E+00
         0.00000E+00
         0.00000E+00
         0.00000E+00
         0.00000E+00
         0.00000E+00
         0.00000E+00
         0.00000E+00
         0.00000E+00
         0.00000E+00
         0.00000E+00
         0.00000E+00
         0.00000E+00
         0.00000E+00
         0.00000E+00
         0.00000E+00
         0.00000E+00
         0.00000E+00
         0.00000E+00
         0.00000E+00
         0.00000E+00
         0.00000E+00
         0.00000E+00
         0.00000E+00
         0.00000E+00
         0.00000E+00
         0.00000E+00
         0.00000E+00
         0.00000E+00
         0.00000E+00
         0.00000E+00
         0.00000E+00
         0.00000E+00
         0.00000E+00
         0.00000E+00
         0.00000E+00
         0.00000E+00
         0.00000E+00
         0.00000E+00
         0.00000E+00
         0.00000E+00
         0.00000E+00
         0.00000E+00
         0.00000E+00
         0.00000E+00
         0.00000E+00
         0.00000E+00
         0.00000E+00
         0.00000E+00
         0.00000E+00
         0.00000E+00
         0.00000E+00
         0.00000E+00
         0.00000E+00
         0.00000E+00
         0.00000E+00
         0.00000E+00
         0.00000E+00
         0.00000E+00
         0.00000E+00
         0.00000E+00
         0.00000E+00
         0.00000E+00
         0.00000E+00
         0.00000E+00
         0.00000E+00
         0.00000E+00
         0.00000E+00
         0.00000E+00
         0.00000E+00
         0.00000E+00
         0.00000E+00
         0.00000E+00
         0.00000E+00
         0.00000E+00
         0.00000E+00
         0.00000E+00
         0.00000E+00
         0.00000E+00
         0.00000E+00
         0.00000E+00
         0.00000E+00
         0.00000E+00
         0.00000E+00
         0.00000E+00
         0.00000E+00
         0.00000E+00
         0.00000E+00
         0.00000E+00
         0.00000E+00
         0.00000E+00
         0.00000E+00
         0.00000E+00
         0.00000E+00
         0.00000E+00
         0.00000E+00
         0.00000E+00
         0.00000E+00
         0.00000E+00
         0.00000E+00
         0.00000E+00
         0.00000E+00
         0.00000E+00
         0.00000E+00
         0.00000E+00
         0.00000E+00
         0.00000E+00
         0.00000E+00
         0.00000E+00
         0.00000E+00
         0.00000E+00
         0.00000E+00
         0.00000E+00
         0.00000E+00
         0.00000E+00
         0.00000E+00
         0.00000E+00
         0.00000E+00
         0.00000E+00
         0.00000E+00
         0.00000E+00
         0.00000E+00
         0.00000E+00
         0.00000E+00
         0.00000E+00
         0.00000E+00
         0.00000E+00
         0.00000E+00
         0.00000E+00
         0.00000E+00
         0.00000E+00
         0.00000E+00
         0.00000E+00
         0.00000E+00
         0.00000E+00
         0.00000E+00
         0.00000E+00
         0.00000E+00
         0.00000E+00
         0.00000E+00
         0.00000E+00
         0.00000E+00
         0.00000E+00
         0.00000E+00
         0.00000E+00
         0.00000E+00
         0.00000E+00
         0.00000E+00
         0.00000E+00
         0.00000E+00
         0.00000E+00
         0.00000E+00
         0.00000E+00
         0.00000E+00
         0.00000E+00
         0.00000E+00
         0.00000E+00
         0.00000E+00
         0.00000E+00
         0.00000E+00
         0.00000E+00
         0.00000E+00
         0.00000E+00
         0.00000E+00
         0.00000E+00
         0.00000E+00
         0.00000E+00
         0.00000E+00
         0.00000E+00
         0.00000E+00
         0.00000E+00
         0.00000E+00
         0.00000E+00
         0.00000E+00
         0.00000E+00
         0.00000E+00
         0.00000E+00
         0.00000E+00
         0.00000E+00
         0.00000E+00
         0.00000E+00
         0.00000E+00
         0.00000E+00
         0.00000E+00
         0.00000E+00
         0.00000E+00
         0.00000E+00
         0.00000E+00
         0.00000E+00
         0.00000E+00
         0.00000E+00
         0.00000E+00
         0.00000E+00
         0.00000E+00
         0.00000E+00
         0.00000E+00
         0.00000E+00
         0.00000E+00
         0.00000E+00
         0.00000E+00
         0.00000E+00
         0.00000E+00
         0.00000E+00
         0.00000E+00
         0.00000E+00
         0.00000E+00
         0.00000E+00
         0.00000E+00
         0.00000E+00
         0.00000E+00
         0.00000E+00
         0.00000E+00
         0.00000E+00
         0.00000E+00
         0.00000E+00
         0.00000E+00
         0.00000E+00
         0.00000E+00
         0.00000E+00
         0.00000E+00
         0.00000E+00
         0.00000E+00
         0.00000E+00
         0.00000E+00
         0.00000E+00
         0.00000E+00
         0.00000E+00
         0.00000E+00
         0.00000E+00
         0.00000E+00
         0.00000E+00
         0.00000E+00
         0.00000E+00
         0.00000E+00
         0.00000E+00
         0.00000E+00
         0.00000E+00
         0.00000E+00
         0.00000E+00
         0.00000E+00
         0.00000E+00
         0.00000E+00
         0.00000E+00
         0.00000E+00
         0.00000E+00
         0.00000E+00
         0.00000E+00
         0.00000E+00
         0.00000E+00
         0.00000E+00
         0.00000E+00
         0.00000E+00
         0.00000E+00
         0.00000E+00
         0.00000E+00
         0.00000E+00
         0.00000E+00
         0.00000E+00
         0.00000E+00
         0.00000E+00
         0.00000E+00
         0.00000E+00
         0.00000E+00
         0.00000E+00
         0.00000E+00
         0.00000E+00
         0.00000E+00
         0.00000E+00
         0.00000E+00
         0.00000E+00
         0.00000E+00
         0.00000E+00
         0.00000E+00
         0.00000E+00
         0.00000E+00
         0.00000E+00
         0.00000E+00
         0.00000E+00
         0.00000E+00
         0.00000E+00
         0.00000E+00
         0.00000E+00
         0.00000E+00
         0.00000E+00
         0.00000E+00
         0.00000E+00
         0.00000E+00
         0.00000E+00
         0.00000E+00
         0.00000E+00
         0.00000E+00
         0.00000E+00
         0.00000E+00
         0.00000E+00
         0.00000E+00
         0.00000E+00
         0.00000E+00
         0.00000E+00
         0.00000E+00
         0.00000E+00
         0.00000E+00
         0.00000E+00
         0.00000E+00
         0.00000E+00
         0.00000E+00
         0.00000E+00
         0.00000E+00
         0.00000E+00
         0.00000E+00
         0.00000E+00
         0.00000E+00
         0.00000E+00
         0.00000E+00
         0.00000E+00
         0.00000E+00
         0.00000E+00
         0.00000E+00
         0.00000E+00
         0.00000E+00
         0.00000E+00
         0.00000E+00
         0.00000E+00
         0.00000E+00
         0.00000E+00
         0.00000E+00
         0.00000E+00
         0.00000E+00
         0.00000E+00
         0.00000E+00
         0.00000E+00
         0.00000E+00
         0.00000E+00
         0.00000E+00
         0.00000E+00
         0.00000E+00
         0.00000E+00
         0.00000E+00
         0.00000E+00
         0.00000E+00
         0.00000E+00
         0.00000E+00
         0.00000E+00
         0.00000E+00
         0.00000E+00
         0.00000E+00
         0.00000E+00
         0.00000E+00
         0.00000E+00
         0.00000E+00
         0.00000E+00
         0.00000E+00
         0.00000E+00
         0.00000E+00
         0.00000E+00
         0.00000E+00
         0.00000E+00
         0.00000E+00
         0.00000E+00
         0.00000E+00
         0.00000E+00
         0.00000E+00
         0.00000E+00
         0.00000E+00
         0.00000E+00
         0.00000E+00
         0.00000E+00
         0.00000E+00
         0.00000E+00
         0.00000E+00
         0.00000E+00
         0.00000E+00
         0.00000E+00
         0.00000E+00
         0.00000E+00
         0.00000E+00
         0.00000E+00
         0.00000E+00
         0.00000E+00
         0.00000E+00
         0.00000E+00
         0.00000E+00
         0.00000E+00
         0.00000E+00
         0.00000E+00
         0.00000E+00
         0.00000E+00
         0.00000E+00
         0.00000E+00
         0.00000E+00
         0.00000E+00
         0.00000E+00
         0.00000E+00
         0.00000E+00
         0.00000E+00
         0.00000E+00
         0.00000E+00
         0.00000E+00
         0.00000E+00
         0.00000E+00
         0.00000E+00
         0.00000E+00
         0.00000E+00
         0.00000E+00
         0.00000E+00
         0.00000E+00
         0.00000E+00
         0.00000E+00
         0.00000E+00
         0.00000E+00
         0.00000E+00
         0.00000E+00
         0.00000E+00
         0.00000E+00
         0.00000E+00
         0.00000E+00
         0.00000E+00
         0.00000E+00
         0.00000E+00
         0.00000E+00
         0.00000E+00
         0.00000E+00
         0.00000E+00
         0.00000E+00
         0.00000E+00
         0.00000E+00
         0.00000E+00
         0.00000E+00
         0.00000E+00
         0.00000E+00
         0.00000E+00
         0.00000E+00
         0.00000E+00
         0.00000E+00
         0.00000E+00
         0.00000E+00
         0.00000E+00
         0.00000E+00
         0.00000E+00
         0.00000E+00
         0.00000E+00
         0.00000E+00
         0.00000E+00
         0.00000E+00
         0.00000E+00
         0.00000E+00
         0.00000E+00
         0.00000E+00
         0.00000E+00
         0.00000E+00
         0.00000E+00
         0.00000E+00
         0.00000E+00
         0.00000E+00
         0.00000E+00
         0.00000E+00
         0.00000E+00
         0.00000E+00
         0.00000E+00
         0.00000E+00
         0.00000E+00
         0.00000E+00
         0.00000E+00
         0.00000E+00
         0.00000E+00
         0.00000E+00
         0.00000E+00
         0.00000E+00
         0.00000E+00
         0.00000E+00
         0.00000E+00
         0.00000E+00
         0.00000E+00
         0.00000E+00
         0.00000E+00
         0.00000E+00
         0.00000E+00
         0.00000E+00
         0.00000E+00
         0.00000E+00
         0.00000E+00
         0.00000E+00
         0.00000E+00
         0.00000E+00
         0.00000E+00
         0.00000E+00
         0.00000E+00
         0.00000E+00
         0.00000E+00
         0.00000E+00
         0.00000E+00
         0.00000E+00
         0.00000E+00
         0.00000E+00
         0.00000E+00
         0.00000E+00
         0.00000E+00
         0.00000E+00
         0.00000E+00
         0.00000E+00
         0.00000E+00
         0.00000E+00
         0.00000E+00
         0.00000E+00
         0.00000E+00
         0.00000E+00
         0.00000E+00
         0.00000E+00
         0.00000E+00
         0.00000E+00
         0.00000E+00
         0.00000E+00
         0.00000E+00
         0.00000E+00
         0.00000E+00
         0.00000E+00
         0.00000E+00
         0.00000E+00
         0.00000E+00
         0.00000E+00
         0.00000E+00
         0.00000E+00
         0.00000E+00
         0.00000E+00
         0.00000E+00
         0.00000E+00
         0.00000E+00
         0.00000E+00
         0.00000E+00
         0.00000E+00
         0.00000E+00
         0.00000E+00
         0.00000E+00
         0.00000E+00
         0.00000E+00
         0.00000E+00
         0.00000E+00
         0.00000E+00
         0.00000E+00
         0.00000E+00
         0.00000E+00
         0.00000E+00
         0.00000E+00
         0.00000E+00
         0.00000E+00
         0.00000E+00
         0.00000E+00
         0.00000E+00
         0.00000E+00
         0.00000E+00
         0.00000E+00
         0.00000E+00
         0.00000E+00
         0.00000E+00
         0.00000E+00
         0.00000E+00
         0.00000E+00
         0.00000E+00
         0.00000E+00
         0.00000E+00
         0.00000E+00
         0.00000E+00
         0.00000E+00
         0.00000E+00
         0.00000E+00
         0.00000E+00
         0.00000E+00
         0.00000E+00
         0.00000E+00
         0.00000E+00
         0.00000E+00
         0.00000E+00
         0.00000E+00
         0.00000E+00
         0.00000E+00
         0.00000E+00
         0.00000E+00
         0.00000E+00
         0.00000E+00
         0.00000E+00
         0.00000E+00
         0.00000E+00
         0.00000E+00
         0.00000E+00
         0.00000E+00
         0.00000E+00
         0.00000E+00
         0.00000E+00
         0.00000E+00
         0.00000E+00
         0.00000E+00
         0.00000E+00
         0.00000E+00
         0.00000E+00
         0.00000E+00
         0.00000E+00
         0.00000E+00
         0.00000E+00
         0.00000E+00
         0.00000E+00
         0.00000E+00
         0.00000E+00
         0.00000E+00
         0.00000E+00
         0.00000E+00
         0.00000E+00
         0.00000E+00
         0.00000E+00
         0.00000E+00
         0.00000E+00
         0.00000E+00
         0.00000E+00
         0.00000E+00
         0.00000E+00
         0.00000E+00
         0.00000E+00
         0.00000E+00
         0.00000E+00
         0.00000E+00
         0.00000E+00
         0.00000E+00
         0.00000E+00
         0.00000E+00
         0.00000E+00
         0.00000E+00
         0.00000E+00
         0.00000E+00
         0.00000E+00
         0.00000E+00
         0.00000E+00
         0.00000E+00
         0.00000E+00
         0.00000E+00
         0.00000E+00
         0.00000E+00
         0.00000E+00
         0.00000E+00
         0.00000E+00
         0.00000E+00
         0.00000E+00
         0.00000E+00
         0.00000E+00
         0.00000E+00
         0.00000E+00
         0.00000E+00
         0.00000E+00
         0.00000E+00
         0.00000E+00
         0.00000E+00
         0.00000E+00
         0.00000E+00
         0.00000E+00
         0.00000E+00
         0.00000E+00
         0.00000E+00
         0.00000E+00
         0.00000E+00
         0.00000E+00
         0.00000E+00
         0.00000E+00
         0.00000E+00
         0.00000E+00
         0.00000E+00
         0.00000E+00
         0.00000E+00
         0.00000E+00
         0.00000E+00
         0.00000E+00
         0.00000E+00
         0.00000E+00
         0.00000E+00
         0.00000E+00
         0.00000E+00
         0.00000E+00
         0.00000E+00
         0.00000E+00
         0.00000E+00
         0.00000E+00
         0.00000E+00
         0.00000E+00
         0.00000E+00
         0.00000E+00
         0.00000E+00
  
SCALARS                         fint_x  double 1
LOOKUP_TABLE default
         0.00000E+00
         0.00000E+00
         0.00000E+00
         0.00000E+00
         0.00000E+00
         0.00000E+00
         0.00000E+00
         0.00000E+00
         0.00000E+00
         0.00000E+00
         0.00000E+00
         0.00000E+00
         0.00000E+00
         0.00000E+00
         0.00000E+00
         0.00000E+00
         0.00000E+00
         0.00000E+00
         0.00000E+00
         0.00000E+00
         0.00000E+00
         0.00000E+00
         0.00000E+00
         0.00000E+00
         0.00000E+00
         0.00000E+00
         0.00000E+00
         0.00000E+00
         0.00000E+00
         0.00000E+00
         0.00000E+00
         0.00000E+00
         0.00000E+00
         0.00000E+00
         0.00000E+00
         0.00000E+00
         0.00000E+00
         0.00000E+00
         0.00000E+00
         0.00000E+00
         0.00000E+00
         0.00000E+00
         0.00000E+00
         0.00000E+00
         0.00000E+00
         0.00000E+00
         0.00000E+00
         0.00000E+00
         0.00000E+00
         0.00000E+00
         0.00000E+00
         0.00000E+00
         0.00000E+00
         0.00000E+00
         0.00000E+00
         0.00000E+00
         0.00000E+00
         0.00000E+00
         0.00000E+00
         0.00000E+00
         0.00000E+00
         0.00000E+00
         0.00000E+00
         0.00000E+00
         0.00000E+00
         0.00000E+00
         0.00000E+00
         0.00000E+00
         0.00000E+00
         0.00000E+00
         0.00000E+00
         0.00000E+00
         0.00000E+00
         0.00000E+00
         0.00000E+00
         0.00000E+00
         0.00000E+00
         0.00000E+00
         0.00000E+00
         0.00000E+00
         0.00000E+00
         0.00000E+00
         0.00000E+00
         0.00000E+00
         0.00000E+00
         0.00000E+00
         0.00000E+00
         0.00000E+00
         0.00000E+00
         0.00000E+00
         0.00000E+00
         0.00000E+00
         0.00000E+00
         0.00000E+00
         0.00000E+00
         0.00000E+00
         0.00000E+00
         0.00000E+00
         0.00000E+00
         0.00000E+00
         0.00000E+00
         0.00000E+00
         0.00000E+00
         0.00000E+00
         0.00000E+00
         0.00000E+00
         0.00000E+00
         0.00000E+00
         0.00000E+00
         0.00000E+00
         0.00000E+00
         0.00000E+00
         0.00000E+00
         0.00000E+00
         0.00000E+00
         0.00000E+00
         0.00000E+00
         0.00000E+00
         0.00000E+00
         0.00000E+00
         0.00000E+00
         0.00000E+00
         0.00000E+00
         0.00000E+00
         0.00000E+00
         0.00000E+00
         0.00000E+00
         0.00000E+00
         0.00000E+00
         0.00000E+00
         0.00000E+00
         0.00000E+00
         0.00000E+00
         0.00000E+00
         0.00000E+00
         0.00000E+00
         0.00000E+00
         0.00000E+00
         0.00000E+00
         0.00000E+00
         0.00000E+00
         0.00000E+00
         0.00000E+00
         0.00000E+00
         0.00000E+00
         0.00000E+00
         0.00000E+00
         0.00000E+00
         0.00000E+00
         0.00000E+00
         0.00000E+00
         0.00000E+00
         0.00000E+00
         0.00000E+00
         0.00000E+00
         0.00000E+00
         0.00000E+00
         0.00000E+00
         0.00000E+00
         0.00000E+00
         0.00000E+00
         0.00000E+00
         0.00000E+00
         0.00000E+00
         0.00000E+00
         0.00000E+00
         0.00000E+00
         0.00000E+00
         0.00000E+00
         0.00000E+00
         0.00000E+00
         0.00000E+00
         0.00000E+00
         0.00000E+00
         0.00000E+00
         0.00000E+00
         0.00000E+00
         0.00000E+00
         0.00000E+00
         0.00000E+00
         0.00000E+00
         0.00000E+00
         0.00000E+00
         0.00000E+00
         0.00000E+00
         0.00000E+00
         0.00000E+00
         0.00000E+00
         0.00000E+00
         0.00000E+00
         0.00000E+00
         0.00000E+00
         0.00000E+00
         0.00000E+00
         0.00000E+00
         0.00000E+00
         0.00000E+00
         0.00000E+00
         0.00000E+00
         0.00000E+00
         0.00000E+00
         0.00000E+00
         0.00000E+00
         0.00000E+00
         0.00000E+00
         0.00000E+00
         0.00000E+00
         0.00000E+00
         0.00000E+00
         0.00000E+00
         0.00000E+00
         0.00000E+00
         0.00000E+00
         0.00000E+00
         0.00000E+00
         0.00000E+00
         0.00000E+00
         0.00000E+00
         0.00000E+00
         0.00000E+00
         0.00000E+00
         0.00000E+00
         0.00000E+00
         0.00000E+00
         0.00000E+00
         0.00000E+00
         0.00000E+00
         0.00000E+00
         0.00000E+00
         0.00000E+00
         0.00000E+00
         0.00000E+00
         0.00000E+00
         0.00000E+00
         0.00000E+00
         0.00000E+00
         0.00000E+00
         0.00000E+00
         0.00000E+00
         0.00000E+00
         0.00000E+00
         0.00000E+00
         0.00000E+00
         0.00000E+00
         0.00000E+00
         0.00000E+00
         0.00000E+00
         0.00000E+00
         0.00000E+00
         0.00000E+00
         0.00000E+00
         0.00000E+00
         0.00000E+00
         0.00000E+00
         0.00000E+00
         0.00000E+00
         0.00000E+00
         0.00000E+00
         0.00000E+00
         0.00000E+00
         0.00000E+00
         0.00000E+00
         0.00000E+00
         0.00000E+00
         0.00000E+00
         0.00000E+00
         0.00000E+00
         0.00000E+00
         0.00000E+00
         0.00000E+00
         0.00000E+00
         0.00000E+00
         0.00000E+00
         0.00000E+00
         0.00000E+00
         0.00000E+00
         0.00000E+00
         0.00000E+00
         0.00000E+00
         0.00000E+00
         0.00000E+00
         0.00000E+00
         0.00000E+00
         0.00000E+00
         0.00000E+00
         0.00000E+00
         0.00000E+00
         0.00000E+00
         0.00000E+00
         0.00000E+00
         0.00000E+00
         0.00000E+00
         0.00000E+00
         0.00000E+00
         0.00000E+00
         0.00000E+00
         0.00000E+00
         0.00000E+00
         0.00000E+00
         0.00000E+00
         0.00000E+00
         0.00000E+00
         0.00000E+00
         0.00000E+00
         0.00000E+00
         0.00000E+00
         0.00000E+00
         0.00000E+00
         0.00000E+00
         0.00000E+00
         0.00000E+00
         0.00000E+00
         0.00000E+00
         0.00000E+00
         0.00000E+00
         0.00000E+00
         0.00000E+00
         0.00000E+00
         0.00000E+00
         0.00000E+00
         0.00000E+00
         0.00000E+00
         0.00000E+00
         0.00000E+00
         0.00000E+00
         0.00000E+00
         0.00000E+00
         0.00000E+00
         0.00000E+00
         0.00000E+00
         0.00000E+00
         0.00000E+00
         0.00000E+00
         0.00000E+00
         0.00000E+00
         0.00000E+00
         0.00000E+00
         0.00000E+00
         0.00000E+00
         0.00000E+00
         0.00000E+00
         0.00000E+00
         0.00000E+00
         0.00000E+00
         0.00000E+00
         0.00000E+00
         0.00000E+00
         0.00000E+00
         0.00000E+00
         0.00000E+00
         0.00000E+00
         0.00000E+00
         0.00000E+00
         0.00000E+00
         0.00000E+00
         0.00000E+00
         0.00000E+00
         0.00000E+00
         0.00000E+00
         0.00000E+00
         0.00000E+00
         0.00000E+00
         0.00000E+00
         0.00000E+00
         0.00000E+00
         0.00000E+00
         0.00000E+00
         0.00000E+00
         0.00000E+00
         0.00000E+00
         0.00000E+00
         0.00000E+00
         0.00000E+00
         0.00000E+00
         0.00000E+00
         0.00000E+00
         0.00000E+00
         0.00000E+00
         0.00000E+00
         0.00000E+00
         0.00000E+00
         0.00000E+00
         0.00000E+00
         0.00000E+00
         0.00000E+00
         0.00000E+00
         0.00000E+00
         0.00000E+00
         0.00000E+00
         0.00000E+00
         0.00000E+00
         0.00000E+00
         0.00000E+00
         0.00000E+00
         0.00000E+00
         0.00000E+00
         0.00000E+00
         0.00000E+00
         0.00000E+00
         0.00000E+00
         0.00000E+00
         0.00000E+00
         0.00000E+00
         0.00000E+00
         0.00000E+00
         0.00000E+00
         0.00000E+00
         0.00000E+00
         0.00000E+00
         0.00000E+00
         0.00000E+00
         0.00000E+00
         0.00000E+00
         0.00000E+00
         0.00000E+00
         0.00000E+00
         0.00000E+00
         0.00000E+00
         0.00000E+00
         0.00000E+00
         0.00000E+00
         0.00000E+00
         0.00000E+00
         0.00000E+00
         0.00000E+00
         0.00000E+00
         0.00000E+00
         0.00000E+00
         0.00000E+00
         0.00000E+00
         0.00000E+00
         0.00000E+00
         0.00000E+00
         0.00000E+00
         0.00000E+00
         0.00000E+00
         0.00000E+00
         0.00000E+00
         0.00000E+00
         0.00000E+00
         0.00000E+00
         0.00000E+00
         0.00000E+00
         0.00000E+00
         0.00000E+00
         0.00000E+00
         0.00000E+00
         0.00000E+00
         0.00000E+00
         0.00000E+00
         0.00000E+00
         0.00000E+00
         0.00000E+00
         0.00000E+00
         0.00000E+00
         0.00000E+00
         0.00000E+00
         0.00000E+00
         0.00000E+00
         0.00000E+00
         0.00000E+00
         0.00000E+00
         0.00000E+00
         0.00000E+00
         0.00000E+00
         0.00000E+00
         0.00000E+00
         0.00000E+00
         0.00000E+00
         0.00000E+00
         0.00000E+00
         0.00000E+00
         0.00000E+00
         0.00000E+00
         0.00000E+00
         0.00000E+00
         0.00000E+00
         0.00000E+00
         0.00000E+00
         0.00000E+00
         0.00000E+00
         0.00000E+00
         0.00000E+00
         0.00000E+00
         0.00000E+00
         0.00000E+00
         0.00000E+00
         0.00000E+00
         0.00000E+00
         0.00000E+00
         0.00000E+00
         0.00000E+00
         0.00000E+00
         0.00000E+00
         0.00000E+00
         0.00000E+00
         0.00000E+00
         0.00000E+00
         0.00000E+00
         0.00000E+00
         0.00000E+00
         0.00000E+00
         0.00000E+00
         0.00000E+00
         0.00000E+00
         0.00000E+00
         0.00000E+00
         0.00000E+00
         0.00000E+00
         0.00000E+00
         0.00000E+00
         0.00000E+00
         0.00000E+00
         0.00000E+00
         0.00000E+00
         0.00000E+00
         0.00000E+00
         0.00000E+00
         0.00000E+00
         0.00000E+00
         0.00000E+00
         0.00000E+00
         0.00000E+00
         0.00000E+00
         0.00000E+00
         0.00000E+00
         0.00000E+00
         0.00000E+00
         0.00000E+00
         0.00000E+00
         0.00000E+00
         0.00000E+00
         0.00000E+00
         0.00000E+00
         0.00000E+00
         0.00000E+00
         0.00000E+00
         0.00000E+00
         0.00000E+00
         0.00000E+00
         0.00000E+00
         0.00000E+00
         0.00000E+00
         0.00000E+00
         0.00000E+00
         0.00000E+00
         0.00000E+00
         0.00000E+00
         0.00000E+00
         0.00000E+00
         0.00000E+00
         0.00000E+00
         0.00000E+00
         0.00000E+00
         0.00000E+00
         0.00000E+00
         0.00000E+00
         0.00000E+00
         0.00000E+00
         0.00000E+00
         0.00000E+00
         0.00000E+00
         0.00000E+00
         0.00000E+00
         0.00000E+00
         0.00000E+00
         0.00000E+00
         0.00000E+00
         0.00000E+00
         0.00000E+00
         0.00000E+00
         0.00000E+00
         0.00000E+00
         0.00000E+00
         0.00000E+00
         0.00000E+00
         0.00000E+00
         0.00000E+00
         0.00000E+00
         0.00000E+00
         0.00000E+00
         0.00000E+00
         0.00000E+00
         0.00000E+00
         0.00000E+00
         0.00000E+00
         0.00000E+00
         0.00000E+00
         0.00000E+00
         0.00000E+00
         0.00000E+00
         0.00000E+00
         0.00000E+00
         0.00000E+00
         0.00000E+00
         0.00000E+00
         0.00000E+00
         0.00000E+00
         0.00000E+00
         0.00000E+00
         0.00000E+00
         0.00000E+00
         0.00000E+00
         0.00000E+00
         0.00000E+00
         0.00000E+00
         0.00000E+00
         0.00000E+00
         0.00000E+00
         0.00000E+00
         0.00000E+00
         0.00000E+00
         0.00000E+00
         0.00000E+00
         0.00000E+00
         0.00000E+00
         0.00000E+00
         0.00000E+00
         0.00000E+00
         0.00000E+00
         0.00000E+00
         0.00000E+00
         0.00000E+00
         0.00000E+00
         0.00000E+00
         0.00000E+00
         0.00000E+00
         0.00000E+00
         0.00000E+00
         0.00000E+00
         0.00000E+00
         0.00000E+00
         0.00000E+00
         0.00000E+00
         0.00000E+00
         0.00000E+00
         0.00000E+00
         0.00000E+00
         0.00000E+00
         0.00000E+00
         0.00000E+00
         0.00000E+00
         0.00000E+00
         0.00000E+00
         0.00000E+00
         0.00000E+00
         0.00000E+00
         0.00000E+00
         0.00000E+00
         0.00000E+00
         0.00000E+00
         0.00000E+00
         0.00000E+00
         0.00000E+00
         0.00000E+00
         0.00000E+00
         0.00000E+00
         0.00000E+00
         0.00000E+00
         0.00000E+00
         0.00000E+00
         0.00000E+00
         0.00000E+00
         0.00000E+00
         0.00000E+00
         0.00000E+00
         0.00000E+00
         0.00000E+00
         0.00000E+00
         0.00000E+00
         0.00000E+00
         0.00000E+00
         0.00000E+00
         0.00000E+00
         0.00000E+00
         0.00000E+00
         0.00000E+00
         0.00000E+00
         0.00000E+00
         0.00000E+00
         0.00000E+00
         0.00000E+00
         0.00000E+00
         0.00000E+00
         0.00000E+00
         0.00000E+00
         0.00000E+00
         0.00000E+00
         0.00000E+00
         0.00000E+00
         0.00000E+00
         0.00000E+00
         0.00000E+00
         0.00000E+00
         0.00000E+00
         0.00000E+00
         0.00000E+00
         0.00000E+00
         0.00000E+00
         0.00000E+00
         0.00000E+00
         0.00000E+00
         0.00000E+00
         0.00000E+00
         0.00000E+00
         0.00000E+00
         0.00000E+00
         0.00000E+00
         0.00000E+00
         0.00000E+00
         0.00000E+00
         0.00000E+00
         0.00000E+00
         0.00000E+00
         0.00000E+00
         0.00000E+00
         0.00000E+00
         0.00000E+00
         0.00000E+00
         0.00000E+00
         0.00000E+00
         0.00000E+00
         0.00000E+00
         0.00000E+00
         0.00000E+00
         0.00000E+00
         0.00000E+00
         0.00000E+00
         0.00000E+00
         0.00000E+00
         0.00000E+00
         0.00000E+00
         0.00000E+00
         0.00000E+00
         0.00000E+00
         0.00000E+00
         0.00000E+00
         0.00000E+00
         0.00000E+00
         0.00000E+00
         0.00000E+00
         0.00000E+00
         0.00000E+00
         0.00000E+00
         0.00000E+00
         0.00000E+00
         0.00000E+00
         0.00000E+00
         0.00000E+00
         0.00000E+00
         0.00000E+00
         0.00000E+00
         0.00000E+00
         0.00000E+00
         0.00000E+00
         0.00000E+00
         0.00000E+00
         0.00000E+00
         0.00000E+00
         0.00000E+00
         0.00000E+00
         0.00000E+00
         0.00000E+00
         0.00000E+00
         0.00000E+00
         0.00000E+00
         0.00000E+00
         0.00000E+00
         0.00000E+00
         0.00000E+00
         0.00000E+00
         0.00000E+00
         0.00000E+00
         0.00000E+00
         0.00000E+00
         0.00000E+00
         0.00000E+00
         0.00000E+00
         0.00000E+00
         0.00000E+00
         0.00000E+00
         0.00000E+00
         0.00000E+00
         0.00000E+00
         0.00000E+00
         0.00000E+00
         0.00000E+00
         0.00000E+00
         0.00000E+00
         0.00000E+00
         0.00000E+00
         0.00000E+00
         0.00000E+00
         0.00000E+00
         0.00000E+00
         0.00000E+00
         0.00000E+00
         0.00000E+00
         0.00000E+00
         0.00000E+00
         0.00000E+00
         0.00000E+00
         0.00000E+00
         0.00000E+00
         0.00000E+00
         0.00000E+00
         0.00000E+00
         0.00000E+00
         0.00000E+00
         0.00000E+00
         0.00000E+00
         0.00000E+00
         0.00000E+00
         0.00000E+00
         0.00000E+00
         0.00000E+00
         0.00000E+00
         0.00000E+00
         0.00000E+00
         0.00000E+00
         0.00000E+00
         0.00000E+00
         0.00000E+00
         0.00000E+00
         0.00000E+00
         0.00000E+00
         0.00000E+00
         0.00000E+00
         0.00000E+00
         0.00000E+00
         0.00000E+00
         0.00000E+00
         0.00000E+00
         0.00000E+00
         0.00000E+00
         0.00000E+00
         0.00000E+00
         0.00000E+00
         0.00000E+00
         0.00000E+00
         0.00000E+00
         0.00000E+00
         0.00000E+00
         0.00000E+00
         0.00000E+00
         0.00000E+00
         0.00000E+00
         0.00000E+00
         0.00000E+00
         0.00000E+00
         0.00000E+00
         0.00000E+00
         0.00000E+00
         0.00000E+00
         0.00000E+00
         0.00000E+00
         0.00000E+00
         0.00000E+00
         0.00000E+00
         0.00000E+00
         0.00000E+00
         0.00000E+00
         0.00000E+00
         0.00000E+00
         0.00000E+00
         0.00000E+00
         0.00000E+00
         0.00000E+00
         0.00000E+00
         0.00000E+00
         0.00000E+00
         0.00000E+00
         0.00000E+00
         0.00000E+00
         0.00000E+00
         0.00000E+00
         0.00000E+00
         0.00000E+00
         0.00000E+00
         0.00000E+00
         0.00000E+00
         0.00000E+00
         0.00000E+00
         0.00000E+00
         0.00000E+00
         0.00000E+00
         0.00000E+00
         0.00000E+00
         0.00000E+00
         0.00000E+00
         0.00000E+00
         0.00000E+00
         0.00000E+00
         0.00000E+00
         0.00000E+00
         0.00000E+00
         0.00000E+00
         0.00000E+00
         0.00000E+00
         0.00000E+00
         0.00000E+00
         0.00000E+00
         0.00000E+00
         0.00000E+00
         0.00000E+00
         0.00000E+00
         0.00000E+00
         0.00000E+00
         0.00000E+00
         0.00000E+00
         0.00000E+00
         0.00000E+00
         0.00000E+00
         0.00000E+00
         0.00000E+00
         0.00000E+00
         0.00000E+00
         0.00000E+00
         0.00000E+00
         0.00000E+00
         0.00000E+00
         0.00000E+00
         0.00000E+00
         0.00000E+00
         0.00000E+00
         0.00000E+00
         0.00000E+00
         0.00000E+00
         0.00000E+00
         0.00000E+00
         0.00000E+00
         0.00000E+00
         0.00000E+00
         0.00000E+00
         0.00000E+00
         0.00000E+00
         0.00000E+00
         0.00000E+00
         0.00000E+00
         0.00000E+00
         0.00000E+00
         0.00000E+00
         0.00000E+00
         0.00000E+00
         0.00000E+00
         0.00000E+00
         0.00000E+00
         0.00000E+00
         0.00000E+00
         0.00000E+00
         0.00000E+00
         0.00000E+00
         0.00000E+00
         0.00000E+00
         0.00000E+00
         0.00000E+00
         0.00000E+00
         0.00000E+00
         0.00000E+00
         0.00000E+00
         0.00000E+00
         0.00000E+00
         0.00000E+00
         0.00000E+00
         0.00000E+00
         0.00000E+00
         0.00000E+00
         0.00000E+00
         0.00000E+00
         0.00000E+00
         0.00000E+00
         0.00000E+00
         0.00000E+00
         0.00000E+00
         0.00000E+00
         0.00000E+00
         0.00000E+00
         0.00000E+00
         0.00000E+00
         0.00000E+00
         0.00000E+00
         0.00000E+00
         0.00000E+00
         0.00000E+00
         0.00000E+00
         0.00000E+00
         0.00000E+00
         0.00000E+00
         0.00000E+00
         0.00000E+00
         0.00000E+00
         0.00000E+00
         0.00000E+00
         0.00000E+00
         0.00000E+00
         0.00000E+00
         0.00000E+00
         0.00000E+00
         0.00000E+00
         0.00000E+00
         0.00000E+00
         0.00000E+00
         0.00000E+00
         0.00000E+00
         0.00000E+00
         0.00000E+00
         0.00000E+00
         0.00000E+00
         0.00000E+00
         0.00000E+00
         0.00000E+00
         0.00000E+00
         0.00000E+00
         0.00000E+00
         0.00000E+00
         0.00000E+00
         0.00000E+00
         0.00000E+00
         0.00000E+00
         0.00000E+00
         0.00000E+00
         0.00000E+00
         0.00000E+00
         0.00000E+00
         0.00000E+00
         0.00000E+00
         0.00000E+00
         0.00000E+00
         0.00000E+00
         0.00000E+00
         0.00000E+00
         0.00000E+00
         0.00000E+00
         0.00000E+00
         0.00000E+00
         0.00000E+00
         0.00000E+00
         0.00000E+00
         0.00000E+00
         0.00000E+00
         0.00000E+00
         0.00000E+00
         0.00000E+00
         0.00000E+00
         0.00000E+00
         0.00000E+00
         0.00000E+00
         0.00000E+00
         0.00000E+00
         0.00000E+00
         0.00000E+00
         0.00000E+00
         0.00000E+00
         0.00000E+00
         0.00000E+00
         0.00000E+00
         0.00000E+00
         0.00000E+00
         0.00000E+00
         0.00000E+00
         0.00000E+00
         0.00000E+00
         0.00000E+00
         0.00000E+00
         0.00000E+00
         0.00000E+00
         0.00000E+00
         0.00000E+00
         0.00000E+00
         0.00000E+00
         0.00000E+00
         0.00000E+00
         0.00000E+00
         0.00000E+00
         0.00000E+00
         0.00000E+00
         0.00000E+00
         0.00000E+00
         0.00000E+00
         0.00000E+00
         0.00000E+00
         0.00000E+00
         0.00000E+00
         0.00000E+00
         0.00000E+00
         0.00000E+00
         0.00000E+00
         0.00000E+00
         0.00000E+00
         0.00000E+00
         0.00000E+00
         0.00000E+00
         0.00000E+00
         0.00000E+00
         0.00000E+00
         0.00000E+00
         0.00000E+00
         0.00000E+00
         0.00000E+00
         0.00000E+00
         0.00000E+00
         0.00000E+00
         0.00000E+00
         0.00000E+00
         0.00000E+00
         0.00000E+00
         0.00000E+00
         0.00000E+00
         0.00000E+00
         0.00000E+00
         0.00000E+00
         0.00000E+00
         0.00000E+00
         0.00000E+00
         0.00000E+00
         0.00000E+00
         0.00000E+00
         0.00000E+00
         0.00000E+00
         0.00000E+00
         0.00000E+00
         0.00000E+00
         0.00000E+00
         0.00000E+00
         0.00000E+00
         0.00000E+00
         0.00000E+00
         0.00000E+00
         0.00000E+00
         0.00000E+00
         0.00000E+00
         0.00000E+00
         0.00000E+00
         0.00000E+00
         0.00000E+00
         0.00000E+00
         0.00000E+00
         0.00000E+00
         0.00000E+00
         0.00000E+00
         0.00000E+00
         0.00000E+00
         0.00000E+00
         0.00000E+00
         0.00000E+00
         0.00000E+00
         0.00000E+00
         0.00000E+00
         0.00000E+00
         0.00000E+00
         0.00000E+00
         0.00000E+00
         0.00000E+00
         0.00000E+00
         0.00000E+00
         0.00000E+00
         0.00000E+00
         0.00000E+00
         0.00000E+00
         0.00000E+00
         0.00000E+00
         0.00000E+00
         0.00000E+00
         0.00000E+00
         0.00000E+00
         0.00000E+00
         0.00000E+00
         0.00000E+00
         0.00000E+00
         0.00000E+00
         0.00000E+00
         0.00000E+00
         0.00000E+00
         0.00000E+00
         0.00000E+00
         0.00000E+00
         0.00000E+00
         0.00000E+00
         0.00000E+00
         0.00000E+00
         0.00000E+00
         0.00000E+00
         0.00000E+00
         0.00000E+00
         0.00000E+00
         0.00000E+00
         0.00000E+00
         0.00000E+00
         0.00000E+00
         0.00000E+00
         0.00000E+00
         0.00000E+00
         0.00000E+00
         0.00000E+00
         0.00000E+00
         0.00000E+00
         0.00000E+00
         0.00000E+00
         0.00000E+00
         0.00000E+00
         0.00000E+00
         0.00000E+00
         0.00000E+00
         0.00000E+00
         0.00000E+00
         0.00000E+00
         0.00000E+00
         0.00000E+00
         0.00000E+00
         0.00000E+00
         0.00000E+00
         0.00000E+00
         0.00000E+00
         0.00000E+00
         0.00000E+00
         0.00000E+00
         0.00000E+00
         0.00000E+00
         0.00000E+00
         0.00000E+00
         0.00000E+00
         0.00000E+00
         0.00000E+00
         0.00000E+00
         0.00000E+00
         0.00000E+00
         0.00000E+00
         0.00000E+00
         0.00000E+00
         0.00000E+00
         0.00000E+00
         0.00000E+00
         0.00000E+00
         0.00000E+00
         0.00000E+00
         0.00000E+00
         0.00000E+00
         0.00000E+00
         0.00000E+00
         0.00000E+00
         0.00000E+00
         0.00000E+00
         0.00000E+00
         0.00000E+00
         0.00000E+00
         0.00000E+00
         0.00000E+00
         0.00000E+00
         0.00000E+00
         0.00000E+00
         0.00000E+00
         0.00000E+00
         0.00000E+00
         0.00000E+00
         0.00000E+00
         0.00000E+00
         0.00000E+00
         0.00000E+00
         0.00000E+00
         0.00000E+00
         0.00000E+00
         0.00000E+00
         0.00000E+00
         0.00000E+00
         0.00000E+00
         0.00000E+00
         0.00000E+00
         0.00000E+00
         0.00000E+00
         0.00000E+00
         0.00000E+00
         0.00000E+00
         0.00000E+00
         0.00000E+00
         0.00000E+00
         0.00000E+00
         0.00000E+00
         0.00000E+00
         0.00000E+00
         0.00000E+00
         0.00000E+00
         0.00000E+00
         0.00000E+00
         0.00000E+00
         0.00000E+00
         0.00000E+00
         0.00000E+00
         0.00000E+00
         0.00000E+00
         0.00000E+00
         0.00000E+00
         0.00000E+00
         0.00000E+00
         0.00000E+00
         0.00000E+00
         0.00000E+00
         0.00000E+00
         0.00000E+00
         0.00000E+00
         0.00000E+00
         0.00000E+00
         0.00000E+00
         0.00000E+00
         0.00000E+00
         0.00000E+00
         0.00000E+00
         0.00000E+00
         0.00000E+00
         0.00000E+00
         0.00000E+00
         0.00000E+00
         0.00000E+00
         0.00000E+00
         0.00000E+00
         0.00000E+00
         0.00000E+00
         0.00000E+00
         0.00000E+00
         0.00000E+00
         0.00000E+00
         0.00000E+00
         0.00000E+00
         0.00000E+00
         0.00000E+00
         0.00000E+00
         0.00000E+00
         0.00000E+00
         0.00000E+00
         0.00000E+00
         0.00000E+00
         0.00000E+00
         0.00000E+00
         0.00000E+00
         0.00000E+00
         0.00000E+00
         0.00000E+00
         0.00000E+00
         0.00000E+00
         0.00000E+00
         0.00000E+00
         0.00000E+00
         0.00000E+00
         0.00000E+00
         0.00000E+00
         0.00000E+00
         0.00000E+00
         0.00000E+00
         0.00000E+00
         0.00000E+00
         0.00000E+00
         0.00000E+00
         0.00000E+00
         0.00000E+00
         0.00000E+00
         0.00000E+00
         0.00000E+00
         0.00000E+00
         0.00000E+00
         0.00000E+00
         0.00000E+00
         0.00000E+00
         0.00000E+00
         0.00000E+00
         0.00000E+00
         0.00000E+00
         0.00000E+00
         0.00000E+00
         0.00000E+00
         0.00000E+00
         0.00000E+00
         0.00000E+00
         0.00000E+00
         0.00000E+00
         0.00000E+00
         0.00000E+00
         0.00000E+00
         0.00000E+00
         0.00000E+00
         0.00000E+00
         0.00000E+00
         0.00000E+00
         0.00000E+00
         0.00000E+00
         0.00000E+00
         0.00000E+00
         0.00000E+00
         0.00000E+00
         0.00000E+00
         0.00000E+00
         0.00000E+00
         0.00000E+00
         0.00000E+00
         0.00000E+00
         0.00000E+00
         0.00000E+00
         0.00000E+00
         0.00000E+00
         0.00000E+00
         0.00000E+00
         0.00000E+00
         0.00000E+00
         0.00000E+00
         0.00000E+00
         0.00000E+00
         0.00000E+00
         0.00000E+00
         0.00000E+00
         0.00000E+00
         0.00000E+00
         0.00000E+00
         0.00000E+00
         0.00000E+00
         0.00000E+00
         0.00000E+00
         0.00000E+00
         0.00000E+00
         0.00000E+00
         0.00000E+00
         0.00000E+00
         0.00000E+00
         0.00000E+00
         0.00000E+00
         0.00000E+00
         0.00000E+00
         0.00000E+00
         0.00000E+00
         0.00000E+00
         0.00000E+00
         0.00000E+00
         0.00000E+00
         0.00000E+00
         0.00000E+00
         0.00000E+00
         0.00000E+00
         0.00000E+00
         0.00000E+00
         0.00000E+00
         0.00000E+00
         0.00000E+00
         0.00000E+00
         0.00000E+00
         0.00000E+00
         0.00000E+00
         0.00000E+00
         0.00000E+00
         0.00000E+00
         0.00000E+00
         0.00000E+00
         0.00000E+00
         0.00000E+00
         0.00000E+00
         0.00000E+00
         0.00000E+00
         0.00000E+00
         0.00000E+00
         0.00000E+00
         0.00000E+00
         0.00000E+00
         0.00000E+00
         0.00000E+00
         0.00000E+00
         0.00000E+00
         0.00000E+00
         0.00000E+00
         0.00000E+00
         0.00000E+00
         0.00000E+00
         0.00000E+00
         0.00000E+00
         0.00000E+00
         0.00000E+00
         0.00000E+00
         0.00000E+00
         0.00000E+00
         0.00000E+00
         0.00000E+00
         0.00000E+00
         0.00000E+00
         0.00000E+00
         0.00000E+00
         0.00000E+00
         0.00000E+00
         0.00000E+00
         0.00000E+00
         0.00000E+00
         0.00000E+00
         0.00000E+00
         0.00000E+00
         0.00000E+00
         0.00000E+00
         0.00000E+00
         0.00000E+00
         0.00000E+00
         0.00000E+00
         0.00000E+00
         0.00000E+00
         0.00000E+00
         0.00000E+00
         0.00000E+00
         0.00000E+00
         0.00000E+00
         0.00000E+00
         0.00000E+00
         0.00000E+00
         0.00000E+00
         0.00000E+00
         0.00000E+00
         0.00000E+00
         0.00000E+00
         0.00000E+00
         0.00000E+00
         0.00000E+00
         0.00000E+00
         0.00000E+00
         0.00000E+00
         0.00000E+00
         0.00000E+00
         0.00000E+00
         0.00000E+00
         0.00000E+00
         0.00000E+00
         0.00000E+00
         0.00000E+00
         0.00000E+00
         0.00000E+00
         0.00000E+00
         0.00000E+00
         0.00000E+00
         0.00000E+00
         0.00000E+00
         0.00000E+00
         0.00000E+00
         0.00000E+00
         0.00000E+00
         0.00000E+00
         0.00000E+00
         0.00000E+00
         0.00000E+00
         0.00000E+00
         0.00000E+00
         0.00000E+00
         0.00000E+00
         0.00000E+00
         0.00000E+00
         0.00000E+00
         0.00000E+00
         0.00000E+00
         0.00000E+00
         0.00000E+00
         0.00000E+00
         0.00000E+00
         0.00000E+00
         0.00000E+00
         0.00000E+00
         0.00000E+00
         0.00000E+00
         0.00000E+00
         0.00000E+00
         0.00000E+00
         0.00000E+00
         0.00000E+00
         0.00000E+00
         0.00000E+00
         0.00000E+00
         0.00000E+00
         0.00000E+00
         0.00000E+00
         0.00000E+00
         0.00000E+00
         0.00000E+00
         0.00000E+00
         0.00000E+00
         0.00000E+00
         0.00000E+00
         0.00000E+00
         0.00000E+00
         0.00000E+00
         0.00000E+00
         0.00000E+00
         0.00000E+00
         0.00000E+00
         0.00000E+00
         0.00000E+00
         0.00000E+00
         0.00000E+00
         0.00000E+00
         0.00000E+00
         0.00000E+00
         0.00000E+00
         0.00000E+00
         0.00000E+00
         0.00000E+00
         0.00000E+00
         0.00000E+00
         0.00000E+00
         0.00000E+00
         0.00000E+00
         0.00000E+00
         0.00000E+00
         0.00000E+00
         0.00000E+00
         0.00000E+00
         0.00000E+00
         0.00000E+00
         0.00000E+00
         0.00000E+00
         0.00000E+00
         0.00000E+00
         0.00000E+00
         0.00000E+00
         0.00000E+00
         0.00000E+00
         0.00000E+00
         0.00000E+00
         0.00000E+00
         0.00000E+00
         0.00000E+00
         0.00000E+00
         0.00000E+00
         0.00000E+00
         0.00000E+00
         0.00000E+00
         0.00000E+00
         0.00000E+00
         0.00000E+00
         0.00000E+00
         0.00000E+00
         0.00000E+00
         0.00000E+00
         0.00000E+00
         0.00000E+00
         0.00000E+00
         0.00000E+00
         0.00000E+00
         0.00000E+00
         0.00000E+00
         0.00000E+00
         0.00000E+00
         0.00000E+00
         0.00000E+00
         0.00000E+00
         0.00000E+00
         0.00000E+00
         0.00000E+00
         0.00000E+00
         0.00000E+00
         0.00000E+00
         0.00000E+00
         0.00000E+00
         0.00000E+00
         0.00000E+00
         0.00000E+00
         0.00000E+00
         0.00000E+00
         0.00000E+00
         0.00000E+00
         0.00000E+00
         0.00000E+00
         0.00000E+00
         0.00000E+00
         0.00000E+00
         0.00000E+00
         0.00000E+00
         0.00000E+00
         0.00000E+00
         0.00000E+00
         0.00000E+00
         0.00000E+00
         0.00000E+00
         0.00000E+00
         0.00000E+00
         0.00000E+00
         0.00000E+00
         0.00000E+00
         0.00000E+00
         0.00000E+00
         0.00000E+00
         0.00000E+00
         0.00000E+00
         0.00000E+00
         0.00000E+00
         0.00000E+00
         0.00000E+00
         0.00000E+00
         0.00000E+00
         0.00000E+00
         0.00000E+00
         0.00000E+00
         0.00000E+00
         0.00000E+00
         0.00000E+00
         0.00000E+00
         0.00000E+00
         0.00000E+00
         0.00000E+00
         0.00000E+00
         0.00000E+00
         0.00000E+00
         0.00000E+00
         0.00000E+00
         0.00000E+00
         0.00000E+00
         0.00000E+00
         0.00000E+00
         0.00000E+00
         0.00000E+00
         0.00000E+00
         0.00000E+00
         0.00000E+00
         0.00000E+00
         0.00000E+00
         0.00000E+00
         0.00000E+00
         0.00000E+00
         0.00000E+00
         0.00000E+00
         0.00000E+00
         0.00000E+00
         0.00000E+00
         0.00000E+00
         0.00000E+00
         0.00000E+00
         0.00000E+00
         0.00000E+00
         0.00000E+00
         0.00000E+00
         0.00000E+00
         0.00000E+00
         0.00000E+00
         0.00000E+00
         0.00000E+00
         0.00000E+00
         0.00000E+00
         0.00000E+00
         0.00000E+00
         0.00000E+00
         0.00000E+00
         0.00000E+00
         0.00000E+00
         0.00000E+00
         0.00000E+00
         0.00000E+00
         0.00000E+00
         0.00000E+00
         0.00000E+00
         0.00000E+00
         0.00000E+00
         0.00000E+00
         0.00000E+00
         0.00000E+00
         0.00000E+00
         0.00000E+00
         0.00000E+00
         0.00000E+00
         0.00000E+00
         0.00000E+00
         0.00000E+00
         0.00000E+00
         0.00000E+00
         0.00000E+00
         0.00000E+00
         0.00000E+00
         0.00000E+00
         0.00000E+00
         0.00000E+00
         0.00000E+00
         0.00000E+00
         0.00000E+00
         0.00000E+00
         0.00000E+00
         0.00000E+00
         0.00000E+00
         0.00000E+00
         0.00000E+00
         0.00000E+00
         0.00000E+00
         0.00000E+00
         0.00000E+00
         0.00000E+00
         0.00000E+00
         0.00000E+00
         0.00000E+00
         0.00000E+00
         0.00000E+00
         0.00000E+00
         0.00000E+00
         0.00000E+00
         0.00000E+00
         0.00000E+00
         0.00000E+00
         0.00000E+00
         0.00000E+00
         0.00000E+00
         0.00000E+00
         0.00000E+00
         0.00000E+00
         0.00000E+00
         0.00000E+00
         0.00000E+00
         0.00000E+00
         0.00000E+00
         0.00000E+00
         0.00000E+00
         0.00000E+00
         0.00000E+00
         0.00000E+00
         0.00000E+00
         0.00000E+00
         0.00000E+00
         0.00000E+00
         0.00000E+00
         0.00000E+00
         0.00000E+00
         0.00000E+00
         0.00000E+00
         0.00000E+00
         0.00000E+00
         0.00000E+00
         0.00000E+00
         0.00000E+00
         0.00000E+00
         0.00000E+00
         0.00000E+00
         0.00000E+00
         0.00000E+00
         0.00000E+00
         0.00000E+00
         0.00000E+00
         0.00000E+00
         0.00000E+00
         0.00000E+00
         0.00000E+00
         0.00000E+00
         0.00000E+00
         0.00000E+00
         0.00000E+00
         0.00000E+00
         0.00000E+00
         0.00000E+00
         0.00000E+00
         0.00000E+00
         0.00000E+00
         0.00000E+00
         0.00000E+00
         0.00000E+00
         0.00000E+00
         0.00000E+00
         0.00000E+00
         0.00000E+00
         0.00000E+00
         0.00000E+00
         0.00000E+00
         0.00000E+00
         0.00000E+00
         0.00000E+00
         0.00000E+00
         0.00000E+00
         0.00000E+00
         0.00000E+00
         0.00000E+00
         0.00000E+00
         0.00000E+00
         0.00000E+00
         0.00000E+00
         0.00000E+00
         0.00000E+00
         0.00000E+00
         0.00000E+00
         0.00000E+00
         0.00000E+00
         0.00000E+00
         0.00000E+00
         0.00000E+00
         0.00000E+00
         0.00000E+00
         0.00000E+00
         0.00000E+00
         0.00000E+00
         0.00000E+00
         0.00000E+00
         0.00000E+00
         0.00000E+00
         0.00000E+00
         0.00000E+00
         0.00000E+00
         0.00000E+00
         0.00000E+00
         0.00000E+00
         0.00000E+00
         0.00000E+00
         0.00000E+00
         0.00000E+00
         0.00000E+00
         0.00000E+00
         0.00000E+00
         0.00000E+00
         0.00000E+00
         0.00000E+00
         0.00000E+00
         0.00000E+00
         0.00000E+00
         0.00000E+00
         0.00000E+00
         0.00000E+00
         0.00000E+00
         0.00000E+00
         0.00000E+00
         0.00000E+00
         0.00000E+00
         0.00000E+00
         0.00000E+00
         0.00000E+00
         0.00000E+00
         0.00000E+00
         0.00000E+00
         0.00000E+00
         0.00000E+00
         0.00000E+00
         0.00000E+00
         0.00000E+00
         0.00000E+00
         0.00000E+00
         0.00000E+00
         0.00000E+00
         0.00000E+00
         0.00000E+00
         0.00000E+00
         0.00000E+00
         0.00000E+00
         0.00000E+00
         0.00000E+00
         0.00000E+00
         0.00000E+00
         0.00000E+00
         0.00000E+00
         0.00000E+00
         0.00000E+00
         0.00000E+00
         0.00000E+00
         0.00000E+00
         0.00000E+00
         0.00000E+00
         0.00000E+00
         0.00000E+00
         0.00000E+00
         0.00000E+00
         0.00000E+00
         0.00000E+00
         0.00000E+00
         0.00000E+00
  
SCALARS                         fint_y  double 1
LOOKUP_TABLE default
         0.00000E+00
         0.00000E+00
         0.00000E+00
         0.00000E+00
         0.00000E+00
         0.00000E+00
         0.00000E+00
         0.00000E+00
         0.00000E+00
         0.00000E+00
         0.00000E+00
         0.00000E+00
         0.00000E+00
         0.00000E+00
         0.00000E+00
         0.00000E+00
         0.00000E+00
         0.00000E+00
         0.00000E+00
         0.00000E+00
         0.00000E+00
         0.00000E+00
         0.00000E+00
         0.00000E+00
         0.00000E+00
         0.00000E+00
         0.00000E+00
         0.00000E+00
         0.00000E+00
         0.00000E+00
         0.00000E+00
         0.00000E+00
         0.00000E+00
         0.00000E+00
         0.00000E+00
         0.00000E+00
         0.00000E+00
         0.00000E+00
         0.00000E+00
         0.00000E+00
         0.00000E+00
         0.00000E+00
         0.00000E+00
         0.00000E+00
         0.00000E+00
         0.00000E+00
         0.00000E+00
         0.00000E+00
         0.00000E+00
         0.00000E+00
         0.00000E+00
         0.00000E+00
         0.00000E+00
         0.00000E+00
         0.00000E+00
         0.00000E+00
         0.00000E+00
         0.00000E+00
         0.00000E+00
         0.00000E+00
         0.00000E+00
         0.00000E+00
         0.00000E+00
         0.00000E+00
         0.00000E+00
         0.00000E+00
         0.00000E+00
         0.00000E+00
         0.00000E+00
         0.00000E+00
         0.00000E+00
         0.00000E+00
         0.00000E+00
         0.00000E+00
         0.00000E+00
         0.00000E+00
         0.00000E+00
         0.00000E+00
         0.00000E+00
         0.00000E+00
         0.00000E+00
         0.00000E+00
         0.00000E+00
         0.00000E+00
         0.00000E+00
         0.00000E+00
         0.00000E+00
         0.00000E+00
         0.00000E+00
         0.00000E+00
         0.00000E+00
         0.00000E+00
         0.00000E+00
         0.00000E+00
         0.00000E+00
         0.00000E+00
         0.00000E+00
         0.00000E+00
         0.00000E+00
         0.00000E+00
         0.00000E+00
         0.00000E+00
         0.00000E+00
         0.00000E+00
         0.00000E+00
         0.00000E+00
         0.00000E+00
         0.00000E+00
         0.00000E+00
         0.00000E+00
         0.00000E+00
         0.00000E+00
         0.00000E+00
         0.00000E+00
         0.00000E+00
         0.00000E+00
         0.00000E+00
         0.00000E+00
         0.00000E+00
         0.00000E+00
         0.00000E+00
         0.00000E+00
         0.00000E+00
         0.00000E+00
         0.00000E+00
         0.00000E+00
         0.00000E+00
         0.00000E+00
         0.00000E+00
         0.00000E+00
         0.00000E+00
         0.00000E+00
         0.00000E+00
         0.00000E+00
         0.00000E+00
         0.00000E+00
         0.00000E+00
         0.00000E+00
         0.00000E+00
         0.00000E+00
         0.00000E+00
         0.00000E+00
         0.00000E+00
         0.00000E+00
         0.00000E+00
         0.00000E+00
         0.00000E+00
         0.00000E+00
         0.00000E+00
         0.00000E+00
         0.00000E+00
         0.00000E+00
         0.00000E+00
         0.00000E+00
         0.00000E+00
         0.00000E+00
         0.00000E+00
         0.00000E+00
         0.00000E+00
         0.00000E+00
         0.00000E+00
         0.00000E+00
         0.00000E+00
         0.00000E+00
         0.00000E+00
         0.00000E+00
         0.00000E+00
         0.00000E+00
         0.00000E+00
         0.00000E+00
         0.00000E+00
         0.00000E+00
         0.00000E+00
         0.00000E+00
         0.00000E+00
         0.00000E+00
         0.00000E+00
         0.00000E+00
         0.00000E+00
         0.00000E+00
         0.00000E+00
         0.00000E+00
         0.00000E+00
         0.00000E+00
         0.00000E+00
         0.00000E+00
         0.00000E+00
         0.00000E+00
         0.00000E+00
         0.00000E+00
         0.00000E+00
         0.00000E+00
         0.00000E+00
         0.00000E+00
         0.00000E+00
         0.00000E+00
         0.00000E+00
         0.00000E+00
         0.00000E+00
         0.00000E+00
         0.00000E+00
         0.00000E+00
         0.00000E+00
         0.00000E+00
         0.00000E+00
         0.00000E+00
         0.00000E+00
         0.00000E+00
         0.00000E+00
         0.00000E+00
         0.00000E+00
         0.00000E+00
         0.00000E+00
         0.00000E+00
         0.00000E+00
         0.00000E+00
         0.00000E+00
         0.00000E+00
         0.00000E+00
         0.00000E+00
         0.00000E+00
         0.00000E+00
         0.00000E+00
         0.00000E+00
         0.00000E+00
         0.00000E+00
         0.00000E+00
         0.00000E+00
         0.00000E+00
         0.00000E+00
         0.00000E+00
         0.00000E+00
         0.00000E+00
         0.00000E+00
         0.00000E+00
         0.00000E+00
         0.00000E+00
         0.00000E+00
         0.00000E+00
         0.00000E+00
         0.00000E+00
         0.00000E+00
         0.00000E+00
         0.00000E+00
         0.00000E+00
         0.00000E+00
         0.00000E+00
         0.00000E+00
         0.00000E+00
         0.00000E+00
         0.00000E+00
         0.00000E+00
         0.00000E+00
         0.00000E+00
         0.00000E+00
         0.00000E+00
         0.00000E+00
         0.00000E+00
         0.00000E+00
         0.00000E+00
         0.00000E+00
         0.00000E+00
         0.00000E+00
         0.00000E+00
         0.00000E+00
         0.00000E+00
         0.00000E+00
         0.00000E+00
         0.00000E+00
         0.00000E+00
         0.00000E+00
         0.00000E+00
         0.00000E+00
         0.00000E+00
         0.00000E+00
         0.00000E+00
         0.00000E+00
         0.00000E+00
         0.00000E+00
         0.00000E+00
         0.00000E+00
         0.00000E+00
         0.00000E+00
         0.00000E+00
         0.00000E+00
         0.00000E+00
         0.00000E+00
         0.00000E+00
         0.00000E+00
         0.00000E+00
         0.00000E+00
         0.00000E+00
         0.00000E+00
         0.00000E+00
         0.00000E+00
         0.00000E+00
         0.00000E+00
         0.00000E+00
         0.00000E+00
         0.00000E+00
         0.00000E+00
         0.00000E+00
         0.00000E+00
         0.00000E+00
         0.00000E+00
         0.00000E+00
         0.00000E+00
         0.00000E+00
         0.00000E+00
         0.00000E+00
         0.00000E+00
         0.00000E+00
         0.00000E+00
         0.00000E+00
         0.00000E+00
         0.00000E+00
         0.00000E+00
         0.00000E+00
         0.00000E+00
         0.00000E+00
         0.00000E+00
         0.00000E+00
         0.00000E+00
         0.00000E+00
         0.00000E+00
         0.00000E+00
         0.00000E+00
         0.00000E+00
         0.00000E+00
         0.00000E+00
         0.00000E+00
         0.00000E+00
         0.00000E+00
         0.00000E+00
         0.00000E+00
         0.00000E+00
         0.00000E+00
         0.00000E+00
         0.00000E+00
         0.00000E+00
         0.00000E+00
         0.00000E+00
         0.00000E+00
         0.00000E+00
         0.00000E+00
         0.00000E+00
         0.00000E+00
         0.00000E+00
         0.00000E+00
         0.00000E+00
         0.00000E+00
         0.00000E+00
         0.00000E+00
         0.00000E+00
         0.00000E+00
         0.00000E+00
         0.00000E+00
         0.00000E+00
         0.00000E+00
         0.00000E+00
         0.00000E+00
         0.00000E+00
         0.00000E+00
         0.00000E+00
         0.00000E+00
         0.00000E+00
         0.00000E+00
         0.00000E+00
         0.00000E+00
         0.00000E+00
         0.00000E+00
         0.00000E+00
         0.00000E+00
         0.00000E+00
         0.00000E+00
         0.00000E+00
         0.00000E+00
         0.00000E+00
         0.00000E+00
         0.00000E+00
         0.00000E+00
         0.00000E+00
         0.00000E+00
         0.00000E+00
         0.00000E+00
         0.00000E+00
         0.00000E+00
         0.00000E+00
         0.00000E+00
         0.00000E+00
         0.00000E+00
         0.00000E+00
         0.00000E+00
         0.00000E+00
         0.00000E+00
         0.00000E+00
         0.00000E+00
         0.00000E+00
         0.00000E+00
         0.00000E+00
         0.00000E+00
         0.00000E+00
         0.00000E+00
         0.00000E+00
         0.00000E+00
         0.00000E+00
         0.00000E+00
         0.00000E+00
         0.00000E+00
         0.00000E+00
         0.00000E+00
         0.00000E+00
         0.00000E+00
         0.00000E+00
         0.00000E+00
         0.00000E+00
         0.00000E+00
         0.00000E+00
         0.00000E+00
         0.00000E+00
         0.00000E+00
         0.00000E+00
         0.00000E+00
         0.00000E+00
         0.00000E+00
         0.00000E+00
         0.00000E+00
         0.00000E+00
         0.00000E+00
         0.00000E+00
         0.00000E+00
         0.00000E+00
         0.00000E+00
         0.00000E+00
         0.00000E+00
         0.00000E+00
         0.00000E+00
         0.00000E+00
         0.00000E+00
         0.00000E+00
         0.00000E+00
         0.00000E+00
         0.00000E+00
         0.00000E+00
         0.00000E+00
         0.00000E+00
         0.00000E+00
         0.00000E+00
         0.00000E+00
         0.00000E+00
         0.00000E+00
         0.00000E+00
         0.00000E+00
         0.00000E+00
         0.00000E+00
         0.00000E+00
         0.00000E+00
         0.00000E+00
         0.00000E+00
         0.00000E+00
         0.00000E+00
         0.00000E+00
         0.00000E+00
         0.00000E+00
         0.00000E+00
         0.00000E+00
         0.00000E+00
         0.00000E+00
         0.00000E+00
         0.00000E+00
         0.00000E+00
         0.00000E+00
         0.00000E+00
         0.00000E+00
         0.00000E+00
         0.00000E+00
         0.00000E+00
         0.00000E+00
         0.00000E+00
         0.00000E+00
         0.00000E+00
         0.00000E+00
         0.00000E+00
         0.00000E+00
         0.00000E+00
         0.00000E+00
         0.00000E+00
         0.00000E+00
         0.00000E+00
         0.00000E+00
         0.00000E+00
         0.00000E+00
         0.00000E+00
         0.00000E+00
         0.00000E+00
         0.00000E+00
         0.00000E+00
         0.00000E+00
         0.00000E+00
         0.00000E+00
         0.00000E+00
         0.00000E+00
         0.00000E+00
         0.00000E+00
         0.00000E+00
         0.00000E+00
         0.00000E+00
         0.00000E+00
         0.00000E+00
         0.00000E+00
         0.00000E+00
         0.00000E+00
         0.00000E+00
         0.00000E+00
         0.00000E+00
         0.00000E+00
         0.00000E+00
         0.00000E+00
         0.00000E+00
         0.00000E+00
         0.00000E+00
         0.00000E+00
         0.00000E+00
         0.00000E+00
         0.00000E+00
         0.00000E+00
         0.00000E+00
         0.00000E+00
         0.00000E+00
         0.00000E+00
         0.00000E+00
         0.00000E+00
         0.00000E+00
         0.00000E+00
         0.00000E+00
         0.00000E+00
         0.00000E+00
         0.00000E+00
         0.00000E+00
         0.00000E+00
         0.00000E+00
         0.00000E+00
         0.00000E+00
         0.00000E+00
         0.00000E+00
         0.00000E+00
         0.00000E+00
         0.00000E+00
         0.00000E+00
         0.00000E+00
         0.00000E+00
         0.00000E+00
         0.00000E+00
         0.00000E+00
         0.00000E+00
         0.00000E+00
         0.00000E+00
         0.00000E+00
         0.00000E+00
         0.00000E+00
         0.00000E+00
         0.00000E+00
         0.00000E+00
         0.00000E+00
         0.00000E+00
         0.00000E+00
         0.00000E+00
         0.00000E+00
         0.00000E+00
         0.00000E+00
         0.00000E+00
         0.00000E+00
         0.00000E+00
         0.00000E+00
         0.00000E+00
         0.00000E+00
         0.00000E+00
         0.00000E+00
         0.00000E+00
         0.00000E+00
         0.00000E+00
         0.00000E+00
         0.00000E+00
         0.00000E+00
         0.00000E+00
         0.00000E+00
         0.00000E+00
         0.00000E+00
         0.00000E+00
         0.00000E+00
         0.00000E+00
         0.00000E+00
         0.00000E+00
         0.00000E+00
         0.00000E+00
         0.00000E+00
         0.00000E+00
         0.00000E+00
         0.00000E+00
         0.00000E+00
         0.00000E+00
         0.00000E+00
         0.00000E+00
         0.00000E+00
         0.00000E+00
         0.00000E+00
         0.00000E+00
         0.00000E+00
         0.00000E+00
         0.00000E+00
         0.00000E+00
         0.00000E+00
         0.00000E+00
         0.00000E+00
         0.00000E+00
         0.00000E+00
         0.00000E+00
         0.00000E+00
         0.00000E+00
         0.00000E+00
         0.00000E+00
         0.00000E+00
         0.00000E+00
         0.00000E+00
         0.00000E+00
         0.00000E+00
         0.00000E+00
         0.00000E+00
         0.00000E+00
         0.00000E+00
         0.00000E+00
         0.00000E+00
         0.00000E+00
         0.00000E+00
         0.00000E+00
         0.00000E+00
         0.00000E+00
         0.00000E+00
         0.00000E+00
         0.00000E+00
         0.00000E+00
         0.00000E+00
         0.00000E+00
         0.00000E+00
         0.00000E+00
         0.00000E+00
         0.00000E+00
         0.00000E+00
         0.00000E+00
         0.00000E+00
         0.00000E+00
         0.00000E+00
         0.00000E+00
         0.00000E+00
         0.00000E+00
         0.00000E+00
         0.00000E+00
         0.00000E+00
         0.00000E+00
         0.00000E+00
         0.00000E+00
         0.00000E+00
         0.00000E+00
         0.00000E+00
         0.00000E+00
         0.00000E+00
         0.00000E+00
         0.00000E+00
         0.00000E+00
         0.00000E+00
         0.00000E+00
         0.00000E+00
         0.00000E+00
         0.00000E+00
         0.00000E+00
         0.00000E+00
         0.00000E+00
         0.00000E+00
         0.00000E+00
         0.00000E+00
         0.00000E+00
         0.00000E+00
         0.00000E+00
         0.00000E+00
         0.00000E+00
         0.00000E+00
         0.00000E+00
         0.00000E+00
         0.00000E+00
         0.00000E+00
         0.00000E+00
         0.00000E+00
         0.00000E+00
         0.00000E+00
         0.00000E+00
         0.00000E+00
         0.00000E+00
         0.00000E+00
         0.00000E+00
         0.00000E+00
         0.00000E+00
         0.00000E+00
         0.00000E+00
         0.00000E+00
         0.00000E+00
         0.00000E+00
         0.00000E+00
         0.00000E+00
         0.00000E+00
         0.00000E+00
         0.00000E+00
         0.00000E+00
         0.00000E+00
         0.00000E+00
         0.00000E+00
         0.00000E+00
         0.00000E+00
         0.00000E+00
         0.00000E+00
         0.00000E+00
         0.00000E+00
         0.00000E+00
         0.00000E+00
         0.00000E+00
         0.00000E+00
         0.00000E+00
         0.00000E+00
         0.00000E+00
         0.00000E+00
         0.00000E+00
         0.00000E+00
         0.00000E+00
         0.00000E+00
         0.00000E+00
         0.00000E+00
         0.00000E+00
         0.00000E+00
         0.00000E+00
         0.00000E+00
         0.00000E+00
         0.00000E+00
         0.00000E+00
         0.00000E+00
         0.00000E+00
         0.00000E+00
         0.00000E+00
         0.00000E+00
         0.00000E+00
         0.00000E+00
         0.00000E+00
         0.00000E+00
         0.00000E+00
         0.00000E+00
         0.00000E+00
         0.00000E+00
         0.00000E+00
         0.00000E+00
         0.00000E+00
         0.00000E+00
         0.00000E+00
         0.00000E+00
         0.00000E+00
         0.00000E+00
         0.00000E+00
         0.00000E+00
         0.00000E+00
         0.00000E+00
         0.00000E+00
         0.00000E+00
         0.00000E+00
         0.00000E+00
         0.00000E+00
         0.00000E+00
         0.00000E+00
         0.00000E+00
         0.00000E+00
         0.00000E+00
         0.00000E+00
         0.00000E+00
         0.00000E+00
         0.00000E+00
         0.00000E+00
         0.00000E+00
         0.00000E+00
         0.00000E+00
         0.00000E+00
         0.00000E+00
         0.00000E+00
         0.00000E+00
         0.00000E+00
         0.00000E+00
         0.00000E+00
         0.00000E+00
         0.00000E+00
         0.00000E+00
         0.00000E+00
         0.00000E+00
         0.00000E+00
         0.00000E+00
         0.00000E+00
         0.00000E+00
         0.00000E+00
         0.00000E+00
         0.00000E+00
         0.00000E+00
         0.00000E+00
         0.00000E+00
         0.00000E+00
         0.00000E+00
         0.00000E+00
         0.00000E+00
         0.00000E+00
         0.00000E+00
         0.00000E+00
         0.00000E+00
         0.00000E+00
         0.00000E+00
         0.00000E+00
         0.00000E+00
         0.00000E+00
         0.00000E+00
         0.00000E+00
         0.00000E+00
         0.00000E+00
         0.00000E+00
         0.00000E+00
         0.00000E+00
         0.00000E+00
         0.00000E+00
         0.00000E+00
         0.00000E+00
         0.00000E+00
         0.00000E+00
         0.00000E+00
         0.00000E+00
         0.00000E+00
         0.00000E+00
         0.00000E+00
         0.00000E+00
         0.00000E+00
         0.00000E+00
         0.00000E+00
         0.00000E+00
         0.00000E+00
         0.00000E+00
         0.00000E+00
         0.00000E+00
         0.00000E+00
         0.00000E+00
         0.00000E+00
         0.00000E+00
         0.00000E+00
         0.00000E+00
         0.00000E+00
         0.00000E+00
         0.00000E+00
         0.00000E+00
         0.00000E+00
         0.00000E+00
         0.00000E+00
         0.00000E+00
         0.00000E+00
         0.00000E+00
         0.00000E+00
         0.00000E+00
         0.00000E+00
         0.00000E+00
         0.00000E+00
         0.00000E+00
         0.00000E+00
         0.00000E+00
         0.00000E+00
         0.00000E+00
         0.00000E+00
         0.00000E+00
         0.00000E+00
         0.00000E+00
         0.00000E+00
         0.00000E+00
         0.00000E+00
         0.00000E+00
         0.00000E+00
         0.00000E+00
         0.00000E+00
         0.00000E+00
         0.00000E+00
         0.00000E+00
         0.00000E+00
         0.00000E+00
         0.00000E+00
         0.00000E+00
         0.00000E+00
         0.00000E+00
         0.00000E+00
         0.00000E+00
         0.00000E+00
         0.00000E+00
         0.00000E+00
         0.00000E+00
         0.00000E+00
         0.00000E+00
         0.00000E+00
         0.00000E+00
         0.00000E+00
         0.00000E+00
         0.00000E+00
         0.00000E+00
         0.00000E+00
         0.00000E+00
         0.00000E+00
         0.00000E+00
         0.00000E+00
         0.00000E+00
         0.00000E+00
         0.00000E+00
         0.00000E+00
         0.00000E+00
         0.00000E+00
         0.00000E+00
         0.00000E+00
         0.00000E+00
         0.00000E+00
         0.00000E+00
         0.00000E+00
         0.00000E+00
         0.00000E+00
         0.00000E+00
         0.00000E+00
         0.00000E+00
         0.00000E+00
         0.00000E+00
         0.00000E+00
         0.00000E+00
         0.00000E+00
         0.00000E+00
         0.00000E+00
         0.00000E+00
         0.00000E+00
         0.00000E+00
         0.00000E+00
         0.00000E+00
         0.00000E+00
         0.00000E+00
         0.00000E+00
         0.00000E+00
         0.00000E+00
         0.00000E+00
         0.00000E+00
         0.00000E+00
         0.00000E+00
         0.00000E+00
         0.00000E+00
         0.00000E+00
         0.00000E+00
         0.00000E+00
         0.00000E+00
         0.00000E+00
         0.00000E+00
         0.00000E+00
         0.00000E+00
         0.00000E+00
         0.00000E+00
         0.00000E+00
         0.00000E+00
         0.00000E+00
         0.00000E+00
         0.00000E+00
         0.00000E+00
         0.00000E+00
         0.00000E+00
         0.00000E+00
         0.00000E+00
         0.00000E+00
         0.00000E+00
         0.00000E+00
         0.00000E+00
         0.00000E+00
         0.00000E+00
         0.00000E+00
         0.00000E+00
         0.00000E+00
         0.00000E+00
         0.00000E+00
         0.00000E+00
         0.00000E+00
         0.00000E+00
         0.00000E+00
         0.00000E+00
         0.00000E+00
         0.00000E+00
         0.00000E+00
         0.00000E+00
         0.00000E+00
         0.00000E+00
         0.00000E+00
         0.00000E+00
         0.00000E+00
         0.00000E+00
         0.00000E+00
         0.00000E+00
         0.00000E+00
         0.00000E+00
         0.00000E+00
         0.00000E+00
         0.00000E+00
         0.00000E+00
         0.00000E+00
         0.00000E+00
         0.00000E+00
         0.00000E+00
         0.00000E+00
         0.00000E+00
         0.00000E+00
         0.00000E+00
         0.00000E+00
         0.00000E+00
         0.00000E+00
         0.00000E+00
         0.00000E+00
         0.00000E+00
         0.00000E+00
         0.00000E+00
         0.00000E+00
         0.00000E+00
         0.00000E+00
         0.00000E+00
         0.00000E+00
         0.00000E+00
         0.00000E+00
         0.00000E+00
         0.00000E+00
         0.00000E+00
         0.00000E+00
         0.00000E+00
         0.00000E+00
         0.00000E+00
         0.00000E+00
         0.00000E+00
         0.00000E+00
         0.00000E+00
         0.00000E+00
         0.00000E+00
         0.00000E+00
         0.00000E+00
         0.00000E+00
         0.00000E+00
         0.00000E+00
         0.00000E+00
         0.00000E+00
         0.00000E+00
         0.00000E+00
         0.00000E+00
         0.00000E+00
         0.00000E+00
         0.00000E+00
         0.00000E+00
         0.00000E+00
         0.00000E+00
         0.00000E+00
         0.00000E+00
         0.00000E+00
         0.00000E+00
         0.00000E+00
         0.00000E+00
         0.00000E+00
         0.00000E+00
         0.00000E+00
         0.00000E+00
         0.00000E+00
         0.00000E+00
         0.00000E+00
         0.00000E+00
         0.00000E+00
         0.00000E+00
         0.00000E+00
         0.00000E+00
         0.00000E+00
         0.00000E+00
         0.00000E+00
         0.00000E+00
         0.00000E+00
         0.00000E+00
         0.00000E+00
         0.00000E+00
         0.00000E+00
         0.00000E+00
         0.00000E+00
         0.00000E+00
         0.00000E+00
         0.00000E+00
         0.00000E+00
         0.00000E+00
         0.00000E+00
         0.00000E+00
         0.00000E+00
         0.00000E+00
         0.00000E+00
         0.00000E+00
         0.00000E+00
         0.00000E+00
         0.00000E+00
         0.00000E+00
         0.00000E+00
         0.00000E+00
         0.00000E+00
         0.00000E+00
         0.00000E+00
         0.00000E+00
         0.00000E+00
         0.00000E+00
         0.00000E+00
         0.00000E+00
         0.00000E+00
         0.00000E+00
         0.00000E+00
         0.00000E+00
         0.00000E+00
         0.00000E+00
         0.00000E+00
         0.00000E+00
         0.00000E+00
         0.00000E+00
         0.00000E+00
         0.00000E+00
         0.00000E+00
         0.00000E+00
         0.00000E+00
         0.00000E+00
         0.00000E+00
         0.00000E+00
         0.00000E+00
         0.00000E+00
         0.00000E+00
         0.00000E+00
         0.00000E+00
         0.00000E+00
         0.00000E+00
         0.00000E+00
         0.00000E+00
         0.00000E+00
         0.00000E+00
         0.00000E+00
         0.00000E+00
         0.00000E+00
         0.00000E+00
         0.00000E+00
         0.00000E+00
         0.00000E+00
         0.00000E+00
         0.00000E+00
         0.00000E+00
         0.00000E+00
         0.00000E+00
         0.00000E+00
         0.00000E+00
         0.00000E+00
         0.00000E+00
         0.00000E+00
         0.00000E+00
         0.00000E+00
         0.00000E+00
         0.00000E+00
         0.00000E+00
         0.00000E+00
         0.00000E+00
         0.00000E+00
         0.00000E+00
         0.00000E+00
         0.00000E+00
         0.00000E+00
         0.00000E+00
         0.00000E+00
         0.00000E+00
         0.00000E+00
         0.00000E+00
         0.00000E+00
         0.00000E+00
         0.00000E+00
         0.00000E+00
         0.00000E+00
         0.00000E+00
         0.00000E+00
         0.00000E+00
         0.00000E+00
         0.00000E+00
         0.00000E+00
         0.00000E+00
         0.00000E+00
         0.00000E+00
         0.00000E+00
         0.00000E+00
         0.00000E+00
         0.00000E+00
         0.00000E+00
         0.00000E+00
         0.00000E+00
         0.00000E+00
         0.00000E+00
         0.00000E+00
         0.00000E+00
         0.00000E+00
         0.00000E+00
         0.00000E+00
         0.00000E+00
         0.00000E+00
         0.00000E+00
         0.00000E+00
         0.00000E+00
         0.00000E+00
         0.00000E+00
         0.00000E+00
         0.00000E+00
         0.00000E+00
         0.00000E+00
         0.00000E+00
         0.00000E+00
         0.00000E+00
         0.00000E+00
         0.00000E+00
         0.00000E+00
         0.00000E+00
         0.00000E+00
         0.00000E+00
         0.00000E+00
         0.00000E+00
         0.00000E+00
         0.00000E+00
         0.00000E+00
         0.00000E+00
         0.00000E+00
         0.00000E+00
         0.00000E+00
         0.00000E+00
         0.00000E+00
         0.00000E+00
         0.00000E+00
         0.00000E+00
         0.00000E+00
         0.00000E+00
         0.00000E+00
         0.00000E+00
         0.00000E+00
         0.00000E+00
         0.00000E+00
         0.00000E+00
         0.00000E+00
         0.00000E+00
         0.00000E+00
         0.00000E+00
         0.00000E+00
         0.00000E+00
         0.00000E+00
         0.00000E+00
         0.00000E+00
         0.00000E+00
         0.00000E+00
         0.00000E+00
         0.00000E+00
         0.00000E+00
         0.00000E+00
         0.00000E+00
         0.00000E+00
         0.00000E+00
         0.00000E+00
         0.00000E+00
         0.00000E+00
         0.00000E+00
         0.00000E+00
         0.00000E+00
         0.00000E+00
         0.00000E+00
         0.00000E+00
         0.00000E+00
         0.00000E+00
         0.00000E+00
         0.00000E+00
         0.00000E+00
         0.00000E+00
         0.00000E+00
         0.00000E+00
         0.00000E+00
         0.00000E+00
         0.00000E+00
         0.00000E+00
         0.00000E+00
         0.00000E+00
         0.00000E+00
         0.00000E+00
         0.00000E+00
         0.00000E+00
         0.00000E+00
         0.00000E+00
         0.00000E+00
         0.00000E+00
         0.00000E+00
         0.00000E+00
         0.00000E+00
         0.00000E+00
         0.00000E+00
         0.00000E+00
         0.00000E+00
         0.00000E+00
         0.00000E+00
         0.00000E+00
         0.00000E+00
         0.00000E+00
         0.00000E+00
         0.00000E+00
         0.00000E+00
         0.00000E+00
         0.00000E+00
         0.00000E+00
         0.00000E+00
         0.00000E+00
         0.00000E+00
         0.00000E+00
         0.00000E+00
         0.00000E+00
         0.00000E+00
         0.00000E+00
         0.00000E+00
         0.00000E+00
         0.00000E+00
         0.00000E+00
         0.00000E+00
         0.00000E+00
         0.00000E+00
         0.00000E+00
         0.00000E+00
         0.00000E+00
         0.00000E+00
         0.00000E+00
         0.00000E+00
         0.00000E+00
         0.00000E+00
         0.00000E+00
         0.00000E+00
         0.00000E+00
         0.00000E+00
         0.00000E+00
         0.00000E+00
         0.00000E+00
         0.00000E+00
         0.00000E+00
         0.00000E+00
         0.00000E+00
         0.00000E+00
         0.00000E+00
         0.00000E+00
         0.00000E+00
         0.00000E+00
         0.00000E+00
         0.00000E+00
         0.00000E+00
         0.00000E+00
         0.00000E+00
         0.00000E+00
         0.00000E+00
         0.00000E+00
         0.00000E+00
         0.00000E+00
         0.00000E+00
         0.00000E+00
         0.00000E+00
         0.00000E+00
         0.00000E+00
         0.00000E+00
         0.00000E+00
         0.00000E+00
         0.00000E+00
         0.00000E+00
         0.00000E+00
         0.00000E+00
         0.00000E+00
         0.00000E+00
         0.00000E+00
         0.00000E+00
         0.00000E+00
         0.00000E+00
         0.00000E+00
         0.00000E+00
         0.00000E+00
         0.00000E+00
         0.00000E+00
         0.00000E+00
         0.00000E+00
         0.00000E+00
         0.00000E+00
         0.00000E+00
         0.00000E+00
         0.00000E+00
         0.00000E+00
         0.00000E+00
         0.00000E+00
         0.00000E+00
         0.00000E+00
         0.00000E+00
         0.00000E+00
         0.00000E+00
         0.00000E+00
         0.00000E+00
         0.00000E+00
         0.00000E+00
         0.00000E+00
         0.00000E+00
         0.00000E+00
         0.00000E+00
         0.00000E+00
         0.00000E+00
         0.00000E+00
         0.00000E+00
         0.00000E+00
         0.00000E+00
         0.00000E+00
         0.00000E+00
         0.00000E+00
         0.00000E+00
         0.00000E+00
         0.00000E+00
         0.00000E+00
         0.00000E+00
         0.00000E+00
         0.00000E+00
         0.00000E+00
         0.00000E+00
         0.00000E+00
         0.00000E+00
         0.00000E+00
         0.00000E+00
         0.00000E+00
         0.00000E+00
         0.00000E+00
         0.00000E+00
         0.00000E+00
         0.00000E+00
         0.00000E+00
         0.00000E+00
         0.00000E+00
         0.00000E+00
         0.00000E+00
         0.00000E+00
         0.00000E+00
         0.00000E+00
         0.00000E+00
         0.00000E+00
         0.00000E+00
         0.00000E+00
         0.00000E+00
         0.00000E+00
         0.00000E+00
         0.00000E+00
         0.00000E+00
         0.00000E+00
         0.00000E+00
         0.00000E+00
         0.00000E+00
         0.00000E+00
         0.00000E+00
         0.00000E+00
         0.00000E+00
         0.00000E+00
         0.00000E+00
         0.00000E+00
         0.00000E+00
         0.00000E+00
         0.00000E+00
         0.00000E+00
         0.00000E+00
         0.00000E+00
         0.00000E+00
         0.00000E+00
         0.00000E+00
         0.00000E+00
         0.00000E+00
         0.00000E+00
         0.00000E+00
         0.00000E+00
         0.00000E+00
         0.00000E+00
         0.00000E+00
         0.00000E+00
         0.00000E+00
         0.00000E+00
         0.00000E+00
         0.00000E+00
         0.00000E+00
         0.00000E+00
         0.00000E+00
         0.00000E+00
         0.00000E+00
         0.00000E+00
         0.00000E+00
         0.00000E+00
         0.00000E+00
         0.00000E+00
         0.00000E+00
         0.00000E+00
         0.00000E+00
         0.00000E+00
         0.00000E+00
         0.00000E+00
         0.00000E+00
         0.00000E+00
         0.00000E+00
         0.00000E+00
         0.00000E+00
         0.00000E+00
         0.00000E+00
         0.00000E+00
         0.00000E+00
         0.00000E+00
         0.00000E+00
         0.00000E+00
         0.00000E+00
         0.00000E+00
         0.00000E+00
         0.00000E+00
         0.00000E+00
         0.00000E+00
         0.00000E+00
         0.00000E+00
         0.00000E+00
         0.00000E+00
         0.00000E+00
         0.00000E+00
         0.00000E+00
         0.00000E+00
         0.00000E+00
         0.00000E+00
         0.00000E+00
         0.00000E+00
         0.00000E+00
         0.00000E+00
         0.00000E+00
         0.00000E+00
         0.00000E+00
         0.00000E+00
         0.00000E+00
         0.00000E+00
         0.00000E+00
         0.00000E+00
         0.00000E+00
         0.00000E+00
         0.00000E+00
         0.00000E+00
         0.00000E+00
         0.00000E+00
         0.00000E+00
         0.00000E+00
         0.00000E+00
         0.00000E+00
         0.00000E+00
         0.00000E+00
         0.00000E+00
         0.00000E+00
         0.00000E+00
         0.00000E+00
         0.00000E+00
         0.00000E+00
         0.00000E+00
         0.00000E+00
         0.00000E+00
         0.00000E+00
         0.00000E+00
         0.00000E+00
         0.00000E+00
         0.00000E+00
         0.00000E+00
         0.00000E+00
         0.00000E+00
         0.00000E+00
         0.00000E+00
         0.00000E+00
         0.00000E+00
         0.00000E+00
         0.00000E+00
         0.00000E+00
         0.00000E+00
         0.00000E+00
         0.00000E+00
         0.00000E+00
         0.00000E+00
         0.00000E+00
         0.00000E+00
         0.00000E+00
         0.00000E+00
         0.00000E+00
         0.00000E+00
         0.00000E+00
         0.00000E+00
         0.00000E+00
         0.00000E+00
         0.00000E+00
         0.00000E+00
         0.00000E+00
         0.00000E+00
         0.00000E+00
         0.00000E+00
         0.00000E+00
         0.00000E+00
         0.00000E+00
         0.00000E+00
         0.00000E+00
         0.00000E+00
         0.00000E+00
         0.00000E+00
         0.00000E+00
         0.00000E+00
         0.00000E+00
         0.00000E+00
         0.00000E+00
         0.00000E+00
         0.00000E+00
         0.00000E+00
         0.00000E+00
         0.00000E+00
         0.00000E+00
         0.00000E+00
         0.00000E+00
         0.00000E+00
         0.00000E+00
         0.00000E+00
         0.00000E+00
         0.00000E+00
         0.00000E+00
         0.00000E+00
         0.00000E+00
         0.00000E+00
         0.00000E+00
         0.00000E+00
         0.00000E+00
         0.00000E+00
         0.00000E+00
         0.00000E+00
         0.00000E+00
         0.00000E+00
         0.00000E+00
         0.00000E+00
         0.00000E+00
         0.00000E+00
         0.00000E+00
         0.00000E+00
         0.00000E+00
         0.00000E+00
         0.00000E+00
         0.00000E+00
         0.00000E+00
         0.00000E+00
         0.00000E+00
         0.00000E+00
         0.00000E+00
         0.00000E+00
         0.00000E+00
         0.00000E+00
         0.00000E+00
         0.00000E+00
         0.00000E+00
         0.00000E+00
         0.00000E+00
         0.00000E+00
         0.00000E+00
         0.00000E+00
         0.00000E+00
         0.00000E+00
         0.00000E+00
         0.00000E+00
         0.00000E+00
         0.00000E+00
         0.00000E+00
         0.00000E+00
         0.00000E+00
         0.00000E+00
         0.00000E+00
         0.00000E+00
         0.00000E+00
         0.00000E+00
         0.00000E+00
         0.00000E+00
         0.00000E+00
         0.00000E+00
         0.00000E+00
         0.00000E+00
         0.00000E+00
         0.00000E+00
         0.00000E+00
         0.00000E+00
         0.00000E+00
         0.00000E+00
         0.00000E+00
         0.00000E+00
         0.00000E+00
         0.00000E+00
         0.00000E+00
         0.00000E+00
         0.00000E+00
         0.00000E+00
         0.00000E+00
         0.00000E+00
         0.00000E+00
         0.00000E+00
         0.00000E+00
         0.00000E+00
         0.00000E+00
         0.00000E+00
         0.00000E+00
         0.00000E+00
         0.00000E+00
         0.00000E+00
         0.00000E+00
         0.00000E+00
         0.00000E+00
         0.00000E+00
         0.00000E+00
         0.00000E+00
         0.00000E+00
         0.00000E+00
         0.00000E+00
         0.00000E+00
         0.00000E+00
         0.00000E+00
         0.00000E+00
         0.00000E+00
         0.00000E+00
         0.00000E+00
         0.00000E+00
         0.00000E+00
         0.00000E+00
         0.00000E+00
         0.00000E+00
         0.00000E+00
         0.00000E+00
         0.00000E+00
         0.00000E+00
         0.00000E+00
         0.00000E+00
         0.00000E+00
         0.00000E+00
         0.00000E+00
         0.00000E+00
         0.00000E+00
         0.00000E+00
         0.00000E+00
         0.00000E+00
         0.00000E+00
         0.00000E+00
         0.00000E+00
         0.00000E+00
         0.00000E+00
         0.00000E+00
         0.00000E+00
         0.00000E+00
         0.00000E+00
         0.00000E+00
         0.00000E+00
         0.00000E+00
         0.00000E+00
         0.00000E+00
         0.00000E+00
         0.00000E+00
         0.00000E+00
         0.00000E+00
         0.00000E+00
         0.00000E+00
         0.00000E+00
         0.00000E+00
         0.00000E+00
         0.00000E+00
         0.00000E+00
         0.00000E+00
         0.00000E+00
         0.00000E+00
         0.00000E+00
         0.00000E+00
         0.00000E+00
         0.00000E+00
         0.00000E+00
         0.00000E+00
         0.00000E+00
         0.00000E+00
         0.00000E+00
         0.00000E+00
         0.00000E+00
         0.00000E+00
         0.00000E+00
         0.00000E+00
         0.00000E+00
         0.00000E+00
         0.00000E+00
         0.00000E+00
         0.00000E+00
         0.00000E+00
         0.00000E+00
         0.00000E+00
         0.00000E+00
         0.00000E+00
         0.00000E+00
         0.00000E+00
         0.00000E+00
         0.00000E+00
         0.00000E+00
         0.00000E+00
         0.00000E+00
         0.00000E+00
         0.00000E+00
         0.00000E+00
         0.00000E+00
         0.00000E+00
         0.00000E+00
         0.00000E+00
         0.00000E+00
         0.00000E+00
         0.00000E+00
         0.00000E+00
         0.00000E+00
         0.00000E+00
         0.00000E+00
         0.00000E+00
         0.00000E+00
         0.00000E+00
         0.00000E+00
         0.00000E+00
         0.00000E+00
         0.00000E+00
         0.00000E+00
         0.00000E+00
         0.00000E+00
         0.00000E+00
         0.00000E+00
         0.00000E+00
         0.00000E+00
         0.00000E+00
         0.00000E+00
         0.00000E+00
         0.00000E+00
         0.00000E+00
         0.00000E+00
         0.00000E+00
         0.00000E+00
         0.00000E+00
         0.00000E+00
         0.00000E+00
         0.00000E+00
         0.00000E+00
         0.00000E+00
         0.00000E+00
         0.00000E+00
         0.00000E+00
         0.00000E+00
         0.00000E+00
         0.00000E+00
         0.00000E+00
         0.00000E+00
         0.00000E+00
         0.00000E+00
         0.00000E+00
         0.00000E+00
         0.00000E+00
         0.00000E+00
         0.00000E+00
         0.00000E+00
         0.00000E+00
         0.00000E+00
         0.00000E+00
         0.00000E+00
         0.00000E+00
         0.00000E+00
         0.00000E+00
         0.00000E+00
         0.00000E+00
         0.00000E+00
         0.00000E+00
         0.00000E+00
         0.00000E+00
         0.00000E+00
         0.00000E+00
         0.00000E+00
         0.00000E+00
         0.00000E+00
         0.00000E+00
         0.00000E+00
         0.00000E+00
         0.00000E+00
         0.00000E+00
         0.00000E+00
         0.00000E+00
         0.00000E+00
         0.00000E+00
         0.00000E+00
         0.00000E+00
         0.00000E+00
         0.00000E+00
         0.00000E+00
         0.00000E+00
         0.00000E+00
         0.00000E+00
         0.00000E+00
         0.00000E+00
         0.00000E+00
         0.00000E+00
         0.00000E+00
         0.00000E+00
         0.00000E+00
         0.00000E+00
         0.00000E+00
         0.00000E+00
         0.00000E+00
         0.00000E+00
         0.00000E+00
         0.00000E+00
         0.00000E+00
         0.00000E+00
         0.00000E+00
         0.00000E+00
         0.00000E+00
         0.00000E+00
         0.00000E+00
         0.00000E+00
         0.00000E+00
         0.00000E+00
         0.00000E+00
         0.00000E+00
         0.00000E+00
         0.00000E+00
         0.00000E+00
         0.00000E+00
         0.00000E+00
         0.00000E+00
         0.00000E+00
         0.00000E+00
         0.00000E+00
         0.00000E+00
         0.00000E+00
         0.00000E+00
         0.00000E+00
         0.00000E+00
         0.00000E+00
         0.00000E+00
         0.00000E+00
         0.00000E+00
         0.00000E+00
         0.00000E+00
         0.00000E+00
         0.00000E+00
         0.00000E+00
         0.00000E+00
         0.00000E+00
         0.00000E+00
         0.00000E+00
         0.00000E+00
         0.00000E+00
  
SCALARS                         fint_z  double 1
LOOKUP_TABLE default
         0.00000E+00
         0.00000E+00
         0.00000E+00
         0.00000E+00
         0.00000E+00
         0.00000E+00
         0.00000E+00
         0.00000E+00
         0.00000E+00
         0.00000E+00
         0.00000E+00
         0.00000E+00
         0.00000E+00
         0.00000E+00
         0.00000E+00
         0.00000E+00
         0.00000E+00
         0.00000E+00
         0.00000E+00
         0.00000E+00
         0.00000E+00
         0.00000E+00
         0.00000E+00
         0.00000E+00
         0.00000E+00
         0.00000E+00
         0.00000E+00
         0.00000E+00
         0.00000E+00
         0.00000E+00
         0.00000E+00
         0.00000E+00
         0.00000E+00
         0.00000E+00
         0.00000E+00
         0.00000E+00
         0.00000E+00
         0.00000E+00
         0.00000E+00
         0.00000E+00
         0.00000E+00
         0.00000E+00
         0.00000E+00
         0.00000E+00
         0.00000E+00
         0.00000E+00
         0.00000E+00
         0.00000E+00
         0.00000E+00
         0.00000E+00
         0.00000E+00
         0.00000E+00
         0.00000E+00
         0.00000E+00
         0.00000E+00
         0.00000E+00
         0.00000E+00
         0.00000E+00
         0.00000E+00
         0.00000E+00
         0.00000E+00
         0.00000E+00
         0.00000E+00
         0.00000E+00
         0.00000E+00
         0.00000E+00
         0.00000E+00
         0.00000E+00
         0.00000E+00
         0.00000E+00
         0.00000E+00
         0.00000E+00
         0.00000E+00
         0.00000E+00
         0.00000E+00
         0.00000E+00
         0.00000E+00
         0.00000E+00
         0.00000E+00
         0.00000E+00
         0.00000E+00
         0.00000E+00
         0.00000E+00
         0.00000E+00
         0.00000E+00
         0.00000E+00
         0.00000E+00
         0.00000E+00
         0.00000E+00
         0.00000E+00
         0.00000E+00
         0.00000E+00
         0.00000E+00
         0.00000E+00
         0.00000E+00
         0.00000E+00
         0.00000E+00
         0.00000E+00
         0.00000E+00
         0.00000E+00
         0.00000E+00
         0.00000E+00
         0.00000E+00
         0.00000E+00
         0.00000E+00
         0.00000E+00
         0.00000E+00
         0.00000E+00
         0.00000E+00
         0.00000E+00
         0.00000E+00
         0.00000E+00
         0.00000E+00
         0.00000E+00
         0.00000E+00
         0.00000E+00
         0.00000E+00
         0.00000E+00
         0.00000E+00
         0.00000E+00
         0.00000E+00
         0.00000E+00
         0.00000E+00
         0.00000E+00
         0.00000E+00
         0.00000E+00
         0.00000E+00
         0.00000E+00
         0.00000E+00
         0.00000E+00
         0.00000E+00
         0.00000E+00
         0.00000E+00
         0.00000E+00
         0.00000E+00
         0.00000E+00
         0.00000E+00
         0.00000E+00
         0.00000E+00
         0.00000E+00
         0.00000E+00
         0.00000E+00
         0.00000E+00
         0.00000E+00
         0.00000E+00
         0.00000E+00
         0.00000E+00
         0.00000E+00
         0.00000E+00
         0.00000E+00
         0.00000E+00
         0.00000E+00
         0.00000E+00
         0.00000E+00
         0.00000E+00
         0.00000E+00
         0.00000E+00
         0.00000E+00
         0.00000E+00
         0.00000E+00
         0.00000E+00
         0.00000E+00
         0.00000E+00
         0.00000E+00
         0.00000E+00
         0.00000E+00
         0.00000E+00
         0.00000E+00
         0.00000E+00
         0.00000E+00
         0.00000E+00
         0.00000E+00
         0.00000E+00
         0.00000E+00
         0.00000E+00
         0.00000E+00
         0.00000E+00
         0.00000E+00
         0.00000E+00
         0.00000E+00
         0.00000E+00
         0.00000E+00
         0.00000E+00
         0.00000E+00
         0.00000E+00
         0.00000E+00
         0.00000E+00
         0.00000E+00
         0.00000E+00
         0.00000E+00
         0.00000E+00
         0.00000E+00
         0.00000E+00
         0.00000E+00
         0.00000E+00
         0.00000E+00
         0.00000E+00
         0.00000E+00
         0.00000E+00
         0.00000E+00
         0.00000E+00
         0.00000E+00
         0.00000E+00
         0.00000E+00
         0.00000E+00
         0.00000E+00
         0.00000E+00
         0.00000E+00
         0.00000E+00
         0.00000E+00
         0.00000E+00
         0.00000E+00
         0.00000E+00
         0.00000E+00
         0.00000E+00
         0.00000E+00
         0.00000E+00
         0.00000E+00
         0.00000E+00
         0.00000E+00
         0.00000E+00
         0.00000E+00
         0.00000E+00
         0.00000E+00
         0.00000E+00
         0.00000E+00
         0.00000E+00
         0.00000E+00
         0.00000E+00
         0.00000E+00
         0.00000E+00
         0.00000E+00
         0.00000E+00
         0.00000E+00
         0.00000E+00
         0.00000E+00
         0.00000E+00
         0.00000E+00
         0.00000E+00
         0.00000E+00
         0.00000E+00
         0.00000E+00
         0.00000E+00
         0.00000E+00
         0.00000E+00
         0.00000E+00
         0.00000E+00
         0.00000E+00
         0.00000E+00
         0.00000E+00
         0.00000E+00
         0.00000E+00
         0.00000E+00
         0.00000E+00
         0.00000E+00
         0.00000E+00
         0.00000E+00
         0.00000E+00
         0.00000E+00
         0.00000E+00
         0.00000E+00
         0.00000E+00
         0.00000E+00
         0.00000E+00
         0.00000E+00
         0.00000E+00
         0.00000E+00
         0.00000E+00
         0.00000E+00
         0.00000E+00
         0.00000E+00
         0.00000E+00
         0.00000E+00
         0.00000E+00
         0.00000E+00
         0.00000E+00
         0.00000E+00
         0.00000E+00
         0.00000E+00
         0.00000E+00
         0.00000E+00
         0.00000E+00
         0.00000E+00
         0.00000E+00
         0.00000E+00
         0.00000E+00
         0.00000E+00
         0.00000E+00
         0.00000E+00
         0.00000E+00
         0.00000E+00
         0.00000E+00
         0.00000E+00
         0.00000E+00
         0.00000E+00
         0.00000E+00
         0.00000E+00
         0.00000E+00
         0.00000E+00
         0.00000E+00
         0.00000E+00
         0.00000E+00
         0.00000E+00
         0.00000E+00
         0.00000E+00
         0.00000E+00
         0.00000E+00
         0.00000E+00
         0.00000E+00
         0.00000E+00
         0.00000E+00
         0.00000E+00
         0.00000E+00
         0.00000E+00
         0.00000E+00
         0.00000E+00
         0.00000E+00
         0.00000E+00
         0.00000E+00
         0.00000E+00
         0.00000E+00
         0.00000E+00
         0.00000E+00
         0.00000E+00
         0.00000E+00
         0.00000E+00
         0.00000E+00
         0.00000E+00
         0.00000E+00
         0.00000E+00
         0.00000E+00
         0.00000E+00
         0.00000E+00
         0.00000E+00
         0.00000E+00
         0.00000E+00
         0.00000E+00
         0.00000E+00
         0.00000E+00
         0.00000E+00
         0.00000E+00
         0.00000E+00
         0.00000E+00
         0.00000E+00
         0.00000E+00
         0.00000E+00
         0.00000E+00
         0.00000E+00
         0.00000E+00
         0.00000E+00
         0.00000E+00
         0.00000E+00
         0.00000E+00
         0.00000E+00
         0.00000E+00
         0.00000E+00
         0.00000E+00
         0.00000E+00
         0.00000E+00
         0.00000E+00
         0.00000E+00
         0.00000E+00
         0.00000E+00
         0.00000E+00
         0.00000E+00
         0.00000E+00
         0.00000E+00
         0.00000E+00
         0.00000E+00
         0.00000E+00
         0.00000E+00
         0.00000E+00
         0.00000E+00
         0.00000E+00
         0.00000E+00
         0.00000E+00
         0.00000E+00
         0.00000E+00
         0.00000E+00
         0.00000E+00
         0.00000E+00
         0.00000E+00
         0.00000E+00
         0.00000E+00
         0.00000E+00
         0.00000E+00
         0.00000E+00
         0.00000E+00
         0.00000E+00
         0.00000E+00
         0.00000E+00
         0.00000E+00
         0.00000E+00
         0.00000E+00
         0.00000E+00
         0.00000E+00
         0.00000E+00
         0.00000E+00
         0.00000E+00
         0.00000E+00
         0.00000E+00
         0.00000E+00
         0.00000E+00
         0.00000E+00
         0.00000E+00
         0.00000E+00
         0.00000E+00
         0.00000E+00
         0.00000E+00
         0.00000E+00
         0.00000E+00
         0.00000E+00
         0.00000E+00
         0.00000E+00
         0.00000E+00
         0.00000E+00
         0.00000E+00
         0.00000E+00
         0.00000E+00
         0.00000E+00
         0.00000E+00
         0.00000E+00
         0.00000E+00
         0.00000E+00
         0.00000E+00
         0.00000E+00
         0.00000E+00
         0.00000E+00
         0.00000E+00
         0.00000E+00
         0.00000E+00
         0.00000E+00
         0.00000E+00
         0.00000E+00
         0.00000E+00
         0.00000E+00
         0.00000E+00
         0.00000E+00
         0.00000E+00
         0.00000E+00
         0.00000E+00
         0.00000E+00
         0.00000E+00
         0.00000E+00
         0.00000E+00
         0.00000E+00
         0.00000E+00
         0.00000E+00
         0.00000E+00
         0.00000E+00
         0.00000E+00
         0.00000E+00
         0.00000E+00
         0.00000E+00
         0.00000E+00
         0.00000E+00
         0.00000E+00
         0.00000E+00
         0.00000E+00
         0.00000E+00
         0.00000E+00
         0.00000E+00
         0.00000E+00
         0.00000E+00
         0.00000E+00
         0.00000E+00
         0.00000E+00
         0.00000E+00
         0.00000E+00
         0.00000E+00
         0.00000E+00
         0.00000E+00
         0.00000E+00
         0.00000E+00
         0.00000E+00
         0.00000E+00
         0.00000E+00
         0.00000E+00
         0.00000E+00
         0.00000E+00
         0.00000E+00
         0.00000E+00
         0.00000E+00
         0.00000E+00
         0.00000E+00
         0.00000E+00
         0.00000E+00
         0.00000E+00
         0.00000E+00
         0.00000E+00
         0.00000E+00
         0.00000E+00
         0.00000E+00
         0.00000E+00
         0.00000E+00
         0.00000E+00
         0.00000E+00
         0.00000E+00
         0.00000E+00
         0.00000E+00
         0.00000E+00
         0.00000E+00
         0.00000E+00
         0.00000E+00
         0.00000E+00
         0.00000E+00
         0.00000E+00
         0.00000E+00
         0.00000E+00
         0.00000E+00
         0.00000E+00
         0.00000E+00
         0.00000E+00
         0.00000E+00
         0.00000E+00
         0.00000E+00
         0.00000E+00
         0.00000E+00
         0.00000E+00
         0.00000E+00
         0.00000E+00
         0.00000E+00
         0.00000E+00
         0.00000E+00
         0.00000E+00
         0.00000E+00
         0.00000E+00
         0.00000E+00
         0.00000E+00
         0.00000E+00
         0.00000E+00
         0.00000E+00
         0.00000E+00
         0.00000E+00
         0.00000E+00
         0.00000E+00
         0.00000E+00
         0.00000E+00
         0.00000E+00
         0.00000E+00
         0.00000E+00
         0.00000E+00
         0.00000E+00
         0.00000E+00
         0.00000E+00
         0.00000E+00
         0.00000E+00
         0.00000E+00
         0.00000E+00
         0.00000E+00
         0.00000E+00
         0.00000E+00
         0.00000E+00
         0.00000E+00
         0.00000E+00
         0.00000E+00
         0.00000E+00
         0.00000E+00
         0.00000E+00
         0.00000E+00
         0.00000E+00
         0.00000E+00
         0.00000E+00
         0.00000E+00
         0.00000E+00
         0.00000E+00
         0.00000E+00
         0.00000E+00
         0.00000E+00
         0.00000E+00
         0.00000E+00
         0.00000E+00
         0.00000E+00
         0.00000E+00
         0.00000E+00
         0.00000E+00
         0.00000E+00
         0.00000E+00
         0.00000E+00
         0.00000E+00
         0.00000E+00
         0.00000E+00
         0.00000E+00
         0.00000E+00
         0.00000E+00
         0.00000E+00
         0.00000E+00
         0.00000E+00
         0.00000E+00
         0.00000E+00
         0.00000E+00
         0.00000E+00
         0.00000E+00
         0.00000E+00
         0.00000E+00
         0.00000E+00
         0.00000E+00
         0.00000E+00
         0.00000E+00
         0.00000E+00
         0.00000E+00
         0.00000E+00
         0.00000E+00
         0.00000E+00
         0.00000E+00
         0.00000E+00
         0.00000E+00
         0.00000E+00
         0.00000E+00
         0.00000E+00
         0.00000E+00
         0.00000E+00
         0.00000E+00
         0.00000E+00
         0.00000E+00
         0.00000E+00
         0.00000E+00
         0.00000E+00
         0.00000E+00
         0.00000E+00
         0.00000E+00
         0.00000E+00
         0.00000E+00
         0.00000E+00
         0.00000E+00
         0.00000E+00
         0.00000E+00
         0.00000E+00
         0.00000E+00
         0.00000E+00
         0.00000E+00
         0.00000E+00
         0.00000E+00
         0.00000E+00
         0.00000E+00
         0.00000E+00
         0.00000E+00
         0.00000E+00
         0.00000E+00
         0.00000E+00
         0.00000E+00
         0.00000E+00
         0.00000E+00
         0.00000E+00
         0.00000E+00
         0.00000E+00
         0.00000E+00
         0.00000E+00
         0.00000E+00
         0.00000E+00
         0.00000E+00
         0.00000E+00
         0.00000E+00
         0.00000E+00
         0.00000E+00
         0.00000E+00
         0.00000E+00
         0.00000E+00
         0.00000E+00
         0.00000E+00
         0.00000E+00
         0.00000E+00
         0.00000E+00
         0.00000E+00
         0.00000E+00
         0.00000E+00
         0.00000E+00
         0.00000E+00
         0.00000E+00
         0.00000E+00
         0.00000E+00
         0.00000E+00
         0.00000E+00
         0.00000E+00
         0.00000E+00
         0.00000E+00
         0.00000E+00
         0.00000E+00
         0.00000E+00
         0.00000E+00
         0.00000E+00
         0.00000E+00
         0.00000E+00
         0.00000E+00
         0.00000E+00
         0.00000E+00
         0.00000E+00
         0.00000E+00
         0.00000E+00
         0.00000E+00
         0.00000E+00
         0.00000E+00
         0.00000E+00
         0.00000E+00
         0.00000E+00
         0.00000E+00
         0.00000E+00
         0.00000E+00
         0.00000E+00
         0.00000E+00
         0.00000E+00
         0.00000E+00
         0.00000E+00
         0.00000E+00
         0.00000E+00
         0.00000E+00
         0.00000E+00
         0.00000E+00
         0.00000E+00
         0.00000E+00
         0.00000E+00
         0.00000E+00
         0.00000E+00
         0.00000E+00
         0.00000E+00
         0.00000E+00
         0.00000E+00
         0.00000E+00
         0.00000E+00
         0.00000E+00
         0.00000E+00
         0.00000E+00
         0.00000E+00
         0.00000E+00
         0.00000E+00
         0.00000E+00
         0.00000E+00
         0.00000E+00
         0.00000E+00
         0.00000E+00
         0.00000E+00
         0.00000E+00
         0.00000E+00
         0.00000E+00
         0.00000E+00
         0.00000E+00
         0.00000E+00
         0.00000E+00
         0.00000E+00
         0.00000E+00
         0.00000E+00
         0.00000E+00
         0.00000E+00
         0.00000E+00
         0.00000E+00
         0.00000E+00
         0.00000E+00
         0.00000E+00
         0.00000E+00
         0.00000E+00
         0.00000E+00
         0.00000E+00
         0.00000E+00
         0.00000E+00
         0.00000E+00
         0.00000E+00
         0.00000E+00
         0.00000E+00
         0.00000E+00
         0.00000E+00
         0.00000E+00
         0.00000E+00
         0.00000E+00
         0.00000E+00
         0.00000E+00
         0.00000E+00
         0.00000E+00
         0.00000E+00
         0.00000E+00
         0.00000E+00
         0.00000E+00
         0.00000E+00
         0.00000E+00
         0.00000E+00
         0.00000E+00
         0.00000E+00
         0.00000E+00
         0.00000E+00
         0.00000E+00
         0.00000E+00
         0.00000E+00
         0.00000E+00
         0.00000E+00
         0.00000E+00
         0.00000E+00
         0.00000E+00
         0.00000E+00
         0.00000E+00
         0.00000E+00
         0.00000E+00
         0.00000E+00
         0.00000E+00
         0.00000E+00
         0.00000E+00
         0.00000E+00
         0.00000E+00
         0.00000E+00
         0.00000E+00
         0.00000E+00
         0.00000E+00
         0.00000E+00
         0.00000E+00
         0.00000E+00
         0.00000E+00
         0.00000E+00
         0.00000E+00
         0.00000E+00
         0.00000E+00
         0.00000E+00
         0.00000E+00
         0.00000E+00
         0.00000E+00
         0.00000E+00
         0.00000E+00
         0.00000E+00
         0.00000E+00
         0.00000E+00
         0.00000E+00
         0.00000E+00
         0.00000E+00
         0.00000E+00
         0.00000E+00
         0.00000E+00
         0.00000E+00
         0.00000E+00
         0.00000E+00
         0.00000E+00
         0.00000E+00
         0.00000E+00
         0.00000E+00
         0.00000E+00
         0.00000E+00
         0.00000E+00
         0.00000E+00
         0.00000E+00
         0.00000E+00
         0.00000E+00
         0.00000E+00
         0.00000E+00
         0.00000E+00
         0.00000E+00
         0.00000E+00
         0.00000E+00
         0.00000E+00
         0.00000E+00
         0.00000E+00
         0.00000E+00
         0.00000E+00
         0.00000E+00
         0.00000E+00
         0.00000E+00
         0.00000E+00
         0.00000E+00
         0.00000E+00
         0.00000E+00
         0.00000E+00
         0.00000E+00
         0.00000E+00
         0.00000E+00
         0.00000E+00
         0.00000E+00
         0.00000E+00
         0.00000E+00
         0.00000E+00
         0.00000E+00
         0.00000E+00
         0.00000E+00
         0.00000E+00
         0.00000E+00
         0.00000E+00
         0.00000E+00
         0.00000E+00
         0.00000E+00
         0.00000E+00
         0.00000E+00
         0.00000E+00
         0.00000E+00
         0.00000E+00
         0.00000E+00
         0.00000E+00
         0.00000E+00
         0.00000E+00
         0.00000E+00
         0.00000E+00
         0.00000E+00
         0.00000E+00
         0.00000E+00
         0.00000E+00
         0.00000E+00
         0.00000E+00
         0.00000E+00
         0.00000E+00
         0.00000E+00
         0.00000E+00
         0.00000E+00
         0.00000E+00
         0.00000E+00
         0.00000E+00
         0.00000E+00
         0.00000E+00
         0.00000E+00
         0.00000E+00
         0.00000E+00
         0.00000E+00
         0.00000E+00
         0.00000E+00
         0.00000E+00
         0.00000E+00
         0.00000E+00
         0.00000E+00
         0.00000E+00
         0.00000E+00
         0.00000E+00
         0.00000E+00
         0.00000E+00
         0.00000E+00
         0.00000E+00
         0.00000E+00
         0.00000E+00
         0.00000E+00
         0.00000E+00
         0.00000E+00
         0.00000E+00
         0.00000E+00
         0.00000E+00
         0.00000E+00
         0.00000E+00
         0.00000E+00
         0.00000E+00
         0.00000E+00
         0.00000E+00
         0.00000E+00
         0.00000E+00
         0.00000E+00
         0.00000E+00
         0.00000E+00
         0.00000E+00
         0.00000E+00
         0.00000E+00
         0.00000E+00
         0.00000E+00
         0.00000E+00
         0.00000E+00
         0.00000E+00
         0.00000E+00
         0.00000E+00
         0.00000E+00
         0.00000E+00
         0.00000E+00
         0.00000E+00
         0.00000E+00
         0.00000E+00
         0.00000E+00
         0.00000E+00
         0.00000E+00
         0.00000E+00
         0.00000E+00
         0.00000E+00
         0.00000E+00
         0.00000E+00
         0.00000E+00
         0.00000E+00
         0.00000E+00
         0.00000E+00
         0.00000E+00
         0.00000E+00
         0.00000E+00
         0.00000E+00
         0.00000E+00
         0.00000E+00
         0.00000E+00
         0.00000E+00
         0.00000E+00
         0.00000E+00
         0.00000E+00
         0.00000E+00
         0.00000E+00
         0.00000E+00
         0.00000E+00
         0.00000E+00
         0.00000E+00
         0.00000E+00
         0.00000E+00
         0.00000E+00
         0.00000E+00
         0.00000E+00
         0.00000E+00
         0.00000E+00
         0.00000E+00
         0.00000E+00
         0.00000E+00
         0.00000E+00
         0.00000E+00
         0.00000E+00
         0.00000E+00
         0.00000E+00
         0.00000E+00
         0.00000E+00
         0.00000E+00
         0.00000E+00
         0.00000E+00
         0.00000E+00
         0.00000E+00
         0.00000E+00
         0.00000E+00
         0.00000E+00
         0.00000E+00
         0.00000E+00
         0.00000E+00
         0.00000E+00
         0.00000E+00
         0.00000E+00
         0.00000E+00
         0.00000E+00
         0.00000E+00
         0.00000E+00
         0.00000E+00
         0.00000E+00
         0.00000E+00
         0.00000E+00
         0.00000E+00
         0.00000E+00
         0.00000E+00
         0.00000E+00
         0.00000E+00
         0.00000E+00
         0.00000E+00
         0.00000E+00
         0.00000E+00
         0.00000E+00
         0.00000E+00
         0.00000E+00
         0.00000E+00
         0.00000E+00
         0.00000E+00
         0.00000E+00
         0.00000E+00
         0.00000E+00
         0.00000E+00
         0.00000E+00
         0.00000E+00
         0.00000E+00
         0.00000E+00
         0.00000E+00
         0.00000E+00
         0.00000E+00
         0.00000E+00
         0.00000E+00
         0.00000E+00
         0.00000E+00
         0.00000E+00
         0.00000E+00
         0.00000E+00
         0.00000E+00
         0.00000E+00
         0.00000E+00
         0.00000E+00
         0.00000E+00
         0.00000E+00
         0.00000E+00
         0.00000E+00
         0.00000E+00
         0.00000E+00
         0.00000E+00
         0.00000E+00
         0.00000E+00
         0.00000E+00
         0.00000E+00
         0.00000E+00
         0.00000E+00
         0.00000E+00
         0.00000E+00
         0.00000E+00
         0.00000E+00
         0.00000E+00
         0.00000E+00
         0.00000E+00
         0.00000E+00
         0.00000E+00
         0.00000E+00
         0.00000E+00
         0.00000E+00
         0.00000E+00
         0.00000E+00
         0.00000E+00
         0.00000E+00
         0.00000E+00
         0.00000E+00
         0.00000E+00
         0.00000E+00
         0.00000E+00
         0.00000E+00
         0.00000E+00
         0.00000E+00
         0.00000E+00
         0.00000E+00
         0.00000E+00
         0.00000E+00
         0.00000E+00
         0.00000E+00
         0.00000E+00
         0.00000E+00
         0.00000E+00
         0.00000E+00
         0.00000E+00
         0.00000E+00
         0.00000E+00
         0.00000E+00
         0.00000E+00
         0.00000E+00
         0.00000E+00
         0.00000E+00
         0.00000E+00
         0.00000E+00
         0.00000E+00
         0.00000E+00
         0.00000E+00
         0.00000E+00
         0.00000E+00
         0.00000E+00
         0.00000E+00
         0.00000E+00
         0.00000E+00
         0.00000E+00
         0.00000E+00
         0.00000E+00
         0.00000E+00
         0.00000E+00
         0.00000E+00
         0.00000E+00
         0.00000E+00
         0.00000E+00
         0.00000E+00
         0.00000E+00
         0.00000E+00
         0.00000E+00
         0.00000E+00
         0.00000E+00
         0.00000E+00
         0.00000E+00
         0.00000E+00
         0.00000E+00
         0.00000E+00
         0.00000E+00
         0.00000E+00
         0.00000E+00
         0.00000E+00
         0.00000E+00
         0.00000E+00
         0.00000E+00
         0.00000E+00
         0.00000E+00
         0.00000E+00
         0.00000E+00
         0.00000E+00
         0.00000E+00
         0.00000E+00
         0.00000E+00
         0.00000E+00
         0.00000E+00
         0.00000E+00
         0.00000E+00
         0.00000E+00
         0.00000E+00
         0.00000E+00
         0.00000E+00
         0.00000E+00
         0.00000E+00
         0.00000E+00
         0.00000E+00
         0.00000E+00
         0.00000E+00
         0.00000E+00
         0.00000E+00
         0.00000E+00
         0.00000E+00
         0.00000E+00
         0.00000E+00
         0.00000E+00
         0.00000E+00
         0.00000E+00
         0.00000E+00
         0.00000E+00
         0.00000E+00
         0.00000E+00
         0.00000E+00
         0.00000E+00
         0.00000E+00
         0.00000E+00
         0.00000E+00
         0.00000E+00
         0.00000E+00
         0.00000E+00
         0.00000E+00
         0.00000E+00
         0.00000E+00
         0.00000E+00
         0.00000E+00
         0.00000E+00
         0.00000E+00
         0.00000E+00
         0.00000E+00
         0.00000E+00
         0.00000E+00
         0.00000E+00
         0.00000E+00
         0.00000E+00
         0.00000E+00
         0.00000E+00
         0.00000E+00
         0.00000E+00
         0.00000E+00
         0.00000E+00
         0.00000E+00
         0.00000E+00
         0.00000E+00
         0.00000E+00
         0.00000E+00
         0.00000E+00
         0.00000E+00
         0.00000E+00
         0.00000E+00
         0.00000E+00
         0.00000E+00
         0.00000E+00
         0.00000E+00
         0.00000E+00
         0.00000E+00
         0.00000E+00
         0.00000E+00
         0.00000E+00
         0.00000E+00
         0.00000E+00
         0.00000E+00
         0.00000E+00
         0.00000E+00
         0.00000E+00
         0.00000E+00
         0.00000E+00
         0.00000E+00
         0.00000E+00
         0.00000E+00
         0.00000E+00
         0.00000E+00
         0.00000E+00
         0.00000E+00
         0.00000E+00
         0.00000E+00
         0.00000E+00
         0.00000E+00
         0.00000E+00
         0.00000E+00
         0.00000E+00
         0.00000E+00
         0.00000E+00
         0.00000E+00
         0.00000E+00
         0.00000E+00
         0.00000E+00
         0.00000E+00
         0.00000E+00
         0.00000E+00
         0.00000E+00
         0.00000E+00
         0.00000E+00
         0.00000E+00
         0.00000E+00
         0.00000E+00
         0.00000E+00
         0.00000E+00
         0.00000E+00
         0.00000E+00
         0.00000E+00
         0.00000E+00
         0.00000E+00
         0.00000E+00
         0.00000E+00
         0.00000E+00
         0.00000E+00
         0.00000E+00
         0.00000E+00
         0.00000E+00
         0.00000E+00
         0.00000E+00
         0.00000E+00
         0.00000E+00
         0.00000E+00
         0.00000E+00
         0.00000E+00
         0.00000E+00
         0.00000E+00
         0.00000E+00
         0.00000E+00
         0.00000E+00
         0.00000E+00
         0.00000E+00
         0.00000E+00
         0.00000E+00
         0.00000E+00
         0.00000E+00
         0.00000E+00
         0.00000E+00
         0.00000E+00
         0.00000E+00
         0.00000E+00
         0.00000E+00
         0.00000E+00
         0.00000E+00
         0.00000E+00
         0.00000E+00
         0.00000E+00
         0.00000E+00
         0.00000E+00
         0.00000E+00
         0.00000E+00
         0.00000E+00
         0.00000E+00
         0.00000E+00
         0.00000E+00
         0.00000E+00
         0.00000E+00
         0.00000E+00
         0.00000E+00
         0.00000E+00
         0.00000E+00
         0.00000E+00
         0.00000E+00
         0.00000E+00
         0.00000E+00
         0.00000E+00
         0.00000E+00
         0.00000E+00
         0.00000E+00
         0.00000E+00
         0.00000E+00
         0.00000E+00
         0.00000E+00
         0.00000E+00
         0.00000E+00
         0.00000E+00
         0.00000E+00
         0.00000E+00
         0.00000E+00
         0.00000E+00
         0.00000E+00
         0.00000E+00
         0.00000E+00
         0.00000E+00
         0.00000E+00
         0.00000E+00
         0.00000E+00
         0.00000E+00
         0.00000E+00
         0.00000E+00
         0.00000E+00
         0.00000E+00
         0.00000E+00
         0.00000E+00
         0.00000E+00
         0.00000E+00
         0.00000E+00
         0.00000E+00
         0.00000E+00
         0.00000E+00
         0.00000E+00
         0.00000E+00
         0.00000E+00
         0.00000E+00
         0.00000E+00
         0.00000E+00
         0.00000E+00
         0.00000E+00
         0.00000E+00
         0.00000E+00
         0.00000E+00
         0.00000E+00
         0.00000E+00
         0.00000E+00
         0.00000E+00
         0.00000E+00
         0.00000E+00
         0.00000E+00
         0.00000E+00
         0.00000E+00
         0.00000E+00
         0.00000E+00
         0.00000E+00
         0.00000E+00
         0.00000E+00
         0.00000E+00
         0.00000E+00
         0.00000E+00
         0.00000E+00
         0.00000E+00
         0.00000E+00
         0.00000E+00
         0.00000E+00
         0.00000E+00
         0.00000E+00
         0.00000E+00
         0.00000E+00
         0.00000E+00
         0.00000E+00
         0.00000E+00
         0.00000E+00
         0.00000E+00
         0.00000E+00
         0.00000E+00
         0.00000E+00
         0.00000E+00
         0.00000E+00
         0.00000E+00
         0.00000E+00
         0.00000E+00
         0.00000E+00
         0.00000E+00
         0.00000E+00
         0.00000E+00
         0.00000E+00
         0.00000E+00
         0.00000E+00
         0.00000E+00
         0.00000E+00
         0.00000E+00
         0.00000E+00
         0.00000E+00
         0.00000E+00
         0.00000E+00
         0.00000E+00
         0.00000E+00
         0.00000E+00
         0.00000E+00
         0.00000E+00
         0.00000E+00
         0.00000E+00
         0.00000E+00
         0.00000E+00
         0.00000E+00
         0.00000E+00
         0.00000E+00
         0.00000E+00
         0.00000E+00
         0.00000E+00
         0.00000E+00
         0.00000E+00
         0.00000E+00
         0.00000E+00
         0.00000E+00
         0.00000E+00
         0.00000E+00
         0.00000E+00
         0.00000E+00
         0.00000E+00
         0.00000E+00
         0.00000E+00
         0.00000E+00
         0.00000E+00
         0.00000E+00
         0.00000E+00
         0.00000E+00
         0.00000E+00
         0.00000E+00
         0.00000E+00
         0.00000E+00
         0.00000E+00
         0.00000E+00
         0.00000E+00
         0.00000E+00
         0.00000E+00
         0.00000E+00
         0.00000E+00
         0.00000E+00
         0.00000E+00
         0.00000E+00
         0.00000E+00
         0.00000E+00
         0.00000E+00
         0.00000E+00
         0.00000E+00
         0.00000E+00
         0.00000E+00
         0.00000E+00
         0.00000E+00
         0.00000E+00
         0.00000E+00
         0.00000E+00
         0.00000E+00
         0.00000E+00
         0.00000E+00
         0.00000E+00
         0.00000E+00
         0.00000E+00
         0.00000E+00
         0.00000E+00
         0.00000E+00
         0.00000E+00
         0.00000E+00
         0.00000E+00
         0.00000E+00
         0.00000E+00
         0.00000E+00
         0.00000E+00
         0.00000E+00
         0.00000E+00
         0.00000E+00
         0.00000E+00
         0.00000E+00
         0.00000E+00
         0.00000E+00
         0.00000E+00
         0.00000E+00
         0.00000E+00
         0.00000E+00
         0.00000E+00
         0.00000E+00
         0.00000E+00
         0.00000E+00
         0.00000E+00
         0.00000E+00
         0.00000E+00
         0.00000E+00
         0.00000E+00
         0.00000E+00
         0.00000E+00
         0.00000E+00
         0.00000E+00
         0.00000E+00
         0.00000E+00
         0.00000E+00
         0.00000E+00
         0.00000E+00
         0.00000E+00
         0.00000E+00
         0.00000E+00
         0.00000E+00
         0.00000E+00
         0.00000E+00
         0.00000E+00
         0.00000E+00
         0.00000E+00
         0.00000E+00
         0.00000E+00
         0.00000E+00
         0.00000E+00
         0.00000E+00
         0.00000E+00
         0.00000E+00
         0.00000E+00
         0.00000E+00
         0.00000E+00
         0.00000E+00
         0.00000E+00
         0.00000E+00
         0.00000E+00
         0.00000E+00
         0.00000E+00
         0.00000E+00
         0.00000E+00
         0.00000E+00
         0.00000E+00
         0.00000E+00
         0.00000E+00
         0.00000E+00
         0.00000E+00
         0.00000E+00
         0.00000E+00
         0.00000E+00
         0.00000E+00
         0.00000E+00
         0.00000E+00
         0.00000E+00
         0.00000E+00
         0.00000E+00
         0.00000E+00
         0.00000E+00
         0.00000E+00
         0.00000E+00
         0.00000E+00
         0.00000E+00
         0.00000E+00
         0.00000E+00
         0.00000E+00
         0.00000E+00
         0.00000E+00
         0.00000E+00
         0.00000E+00
         0.00000E+00
         0.00000E+00
         0.00000E+00
         0.00000E+00
         0.00000E+00
         0.00000E+00
         0.00000E+00
         0.00000E+00
         0.00000E+00
         0.00000E+00
         0.00000E+00
         0.00000E+00
         0.00000E+00
         0.00000E+00
         0.00000E+00
         0.00000E+00
         0.00000E+00
         0.00000E+00
         0.00000E+00
         0.00000E+00
         0.00000E+00
         0.00000E+00
         0.00000E+00
         0.00000E+00
         0.00000E+00
         0.00000E+00
         0.00000E+00
         0.00000E+00
         0.00000E+00
         0.00000E+00
         0.00000E+00
         0.00000E+00
         0.00000E+00
         0.00000E+00
         0.00000E+00
         0.00000E+00
         0.00000E+00
         0.00000E+00
         0.00000E+00
         0.00000E+00
         0.00000E+00
         0.00000E+00
         0.00000E+00
         0.00000E+00
         0.00000E+00
         0.00000E+00
         0.00000E+00
         0.00000E+00
         0.00000E+00
         0.00000E+00
         0.00000E+00
         0.00000E+00
         0.00000E+00
         0.00000E+00
         0.00000E+00
         0.00000E+00
         0.00000E+00
         0.00000E+00
         0.00000E+00
         0.00000E+00
         0.00000E+00
         0.00000E+00
         0.00000E+00
         0.00000E+00
         0.00000E+00
         0.00000E+00
         0.00000E+00
         0.00000E+00
         0.00000E+00
         0.00000E+00
         0.00000E+00
         0.00000E+00
         0.00000E+00
         0.00000E+00
         0.00000E+00
         0.00000E+00
         0.00000E+00
         0.00000E+00
         0.00000E+00
         0.00000E+00
         0.00000E+00
         0.00000E+00
         0.00000E+00
         0.00000E+00
         0.00000E+00
         0.00000E+00
         0.00000E+00
         0.00000E+00
         0.00000E+00
         0.00000E+00
         0.00000E+00
         0.00000E+00
         0.00000E+00
         0.00000E+00
         0.00000E+00
         0.00000E+00
         0.00000E+00
         0.00000E+00
         0.00000E+00
         0.00000E+00
         0.00000E+00
         0.00000E+00
         0.00000E+00
         0.00000E+00
         0.00000E+00
         0.00000E+00
         0.00000E+00
         0.00000E+00
         0.00000E+00
         0.00000E+00
         0.00000E+00
         0.00000E+00
         0.00000E+00
         0.00000E+00
         0.00000E+00
         0.00000E+00
         0.00000E+00
         0.00000E+00
         0.00000E+00
         0.00000E+00
         0.00000E+00
         0.00000E+00
         0.00000E+00
         0.00000E+00
         0.00000E+00
         0.00000E+00
         0.00000E+00
         0.00000E+00
         0.00000E+00
         0.00000E+00
         0.00000E+00
         0.00000E+00
         0.00000E+00
         0.00000E+00
         0.00000E+00
         0.00000E+00
         0.00000E+00
         0.00000E+00
         0.00000E+00
         0.00000E+00
         0.00000E+00
         0.00000E+00
         0.00000E+00
         0.00000E+00
         0.00000E+00
         0.00000E+00
         0.00000E+00
         0.00000E+00
         0.00000E+00
         0.00000E+00
         0.00000E+00
         0.00000E+00
         0.00000E+00
         0.00000E+00
         0.00000E+00
         0.00000E+00
         0.00000E+00
         0.00000E+00
         0.00000E+00
         0.00000E+00
         0.00000E+00
         0.00000E+00
         0.00000E+00
         0.00000E+00
         0.00000E+00
         0.00000E+00
         0.00000E+00
         0.00000E+00
         0.00000E+00
         0.00000E+00
         0.00000E+00
         0.00000E+00
         0.00000E+00
         0.00000E+00
         0.00000E+00
         0.00000E+00
         0.00000E+00
         0.00000E+00
         0.00000E+00
         0.00000E+00
         0.00000E+00
         0.00000E+00
         0.00000E+00
         0.00000E+00
         0.00000E+00
         0.00000E+00
         0.00000E+00
         0.00000E+00
         0.00000E+00
         0.00000E+00
         0.00000E+00
         0.00000E+00
         0.00000E+00
         0.00000E+00
         0.00000E+00
         0.00000E+00
         0.00000E+00
         0.00000E+00
         0.00000E+00
         0.00000E+00
         0.00000E+00
         0.00000E+00
         0.00000E+00
         0.00000E+00
         0.00000E+00
         0.00000E+00
         0.00000E+00
         0.00000E+00
         0.00000E+00
         0.00000E+00
         0.00000E+00
         0.00000E+00
         0.00000E+00
         0.00000E+00
         0.00000E+00
         0.00000E+00
         0.00000E+00
         0.00000E+00
         0.00000E+00
         0.00000E+00
         0.00000E+00
         0.00000E+00
         0.00000E+00
         0.00000E+00
         0.00000E+00
         0.00000E+00
         0.00000E+00
         0.00000E+00
         0.00000E+00
         0.00000E+00
         0.00000E+00
         0.00000E+00
         0.00000E+00
         0.00000E+00
         0.00000E+00
         0.00000E+00
         0.00000E+00
         0.00000E+00
         0.00000E+00
         0.00000E+00
         0.00000E+00
         0.00000E+00
         0.00000E+00
         0.00000E+00
         0.00000E+00
         0.00000E+00
         0.00000E+00
         0.00000E+00
         0.00000E+00
         0.00000E+00
         0.00000E+00
         0.00000E+00
         0.00000E+00
         0.00000E+00
         0.00000E+00
         0.00000E+00
         0.00000E+00
         0.00000E+00
         0.00000E+00
         0.00000E+00
         0.00000E+00
         0.00000E+00
         0.00000E+00
         0.00000E+00
         0.00000E+00
         0.00000E+00
         0.00000E+00
         0.00000E+00
         0.00000E+00
         0.00000E+00
         0.00000E+00
         0.00000E+00
         0.00000E+00
         0.00000E+00
         0.00000E+00
         0.00000E+00
         0.00000E+00
         0.00000E+00
         0.00000E+00
         0.00000E+00
         0.00000E+00
         0.00000E+00
         0.00000E+00
         0.00000E+00
         0.00000E+00
         0.00000E+00
         0.00000E+00
         0.00000E+00
         0.00000E+00
         0.00000E+00
         0.00000E+00
         0.00000E+00
         0.00000E+00
         0.00000E+00
         0.00000E+00
         0.00000E+00
         0.00000E+00
         0.00000E+00
         0.00000E+00
         0.00000E+00
         0.00000E+00
         0.00000E+00
         0.00000E+00
         0.00000E+00
         0.00000E+00
         0.00000E+00
         0.00000E+00
         0.00000E+00
         0.00000E+00
         0.00000E+00
         0.00000E+00
         0.00000E+00
         0.00000E+00
         0.00000E+00
         0.00000E+00
         0.00000E+00
         0.00000E+00
         0.00000E+00
         0.00000E+00
         0.00000E+00
         0.00000E+00
         0.00000E+00
         0.00000E+00
         0.00000E+00
         0.00000E+00
         0.00000E+00
         0.00000E+00
         0.00000E+00
         0.00000E+00
         0.00000E+00
         0.00000E+00
         0.00000E+00
         0.00000E+00
         0.00000E+00
         0.00000E+00
         0.00000E+00
         0.00000E+00
         0.00000E+00
         0.00000E+00
         0.00000E+00
         0.00000E+00
         0.00000E+00
         0.00000E+00
         0.00000E+00
         0.00000E+00
         0.00000E+00
         0.00000E+00
         0.00000E+00
         0.00000E+00
         0.00000E+00
         0.00000E+00
         0.00000E+00
         0.00000E+00
         0.00000E+00
         0.00000E+00
         0.00000E+00
         0.00000E+00
         0.00000E+00
         0.00000E+00
         0.00000E+00
         0.00000E+00
         0.00000E+00
         0.00000E+00
         0.00000E+00
  
SCALARS        characteristic_distance  double 1
LOOKUP_TABLE default
         0.00000E+00
         0.00000E+00
         0.00000E+00
         0.00000E+00
         0.00000E+00
         0.00000E+00
         0.00000E+00
         0.00000E+00
         0.00000E+00
         0.00000E+00
         0.00000E+00
         0.00000E+00
         0.00000E+00
         0.00000E+00
         0.00000E+00
         0.00000E+00
         0.00000E+00
         0.00000E+00
         0.00000E+00
         0.00000E+00
         0.00000E+00
         0.00000E+00
         0.00000E+00
         0.00000E+00
         0.00000E+00
         0.00000E+00
         0.00000E+00
         0.00000E+00
         0.00000E+00
         0.00000E+00
         0.00000E+00
         0.00000E+00
         0.00000E+00
         0.00000E+00
         0.00000E+00
         0.00000E+00
         0.00000E+00
         0.00000E+00
         0.00000E+00
         0.00000E+00
         0.00000E+00
         0.00000E+00
         0.00000E+00
         0.00000E+00
         0.00000E+00
         0.00000E+00
         0.00000E+00
         0.00000E+00
         0.00000E+00
         0.00000E+00
         0.00000E+00
         0.00000E+00
         0.00000E+00
         0.00000E+00
         0.00000E+00
         0.00000E+00
         0.00000E+00
         0.00000E+00
         0.00000E+00
         0.00000E+00
         0.00000E+00
         0.00000E+00
         0.00000E+00
         0.00000E+00
         0.00000E+00
         0.00000E+00
         0.00000E+00
         0.00000E+00
         0.00000E+00
         0.00000E+00
         0.00000E+00
         0.00000E+00
         0.00000E+00
         0.00000E+00
         0.00000E+00
         0.00000E+00
         0.00000E+00
         0.00000E+00
         0.00000E+00
         0.00000E+00
         0.00000E+00
         0.00000E+00
         0.00000E+00
         0.00000E+00
         0.00000E+00
         0.00000E+00
         0.00000E+00
         0.00000E+00
         0.00000E+00
         0.00000E+00
         0.00000E+00
         0.00000E+00
         0.00000E+00
         0.00000E+00
         0.00000E+00
         0.00000E+00
         0.00000E+00
         0.00000E+00
         0.00000E+00
         0.00000E+00
         0.00000E+00
         0.00000E+00
         0.00000E+00
         0.00000E+00
         0.00000E+00
         0.00000E+00
         0.00000E+00
         0.00000E+00
         0.00000E+00
         0.00000E+00
         0.00000E+00
         0.00000E+00
         0.00000E+00
         0.00000E+00
         0.00000E+00
         0.00000E+00
         0.00000E+00
         0.00000E+00
         0.00000E+00
         0.00000E+00
         0.00000E+00
         0.00000E+00
         0.00000E+00
         0.00000E+00
         0.00000E+00
         0.00000E+00
         0.00000E+00
         0.00000E+00
         0.00000E+00
         0.00000E+00
         0.00000E+00
         0.00000E+00
         0.00000E+00
         0.00000E+00
         0.00000E+00
         0.00000E+00
         0.00000E+00
         0.00000E+00
         0.00000E+00
         0.00000E+00
         0.00000E+00
         0.00000E+00
         0.00000E+00
         0.00000E+00
         0.00000E+00
         0.00000E+00
         0.00000E+00
         0.00000E+00
         0.00000E+00
         0.00000E+00
         0.00000E+00
         0.00000E+00
         0.00000E+00
         0.00000E+00
         0.00000E+00
         0.00000E+00
         0.00000E+00
         0.00000E+00
         0.00000E+00
         0.00000E+00
         0.00000E+00
         0.00000E+00
         0.00000E+00
         0.00000E+00
         0.00000E+00
         0.00000E+00
         0.00000E+00
         0.00000E+00
         0.00000E+00
         0.00000E+00
         0.00000E+00
         0.00000E+00
         0.00000E+00
         0.00000E+00
         0.00000E+00
         0.00000E+00
         0.00000E+00
         0.00000E+00
         0.00000E+00
         0.00000E+00
         0.00000E+00
         0.00000E+00
         0.00000E+00
         0.00000E+00
         0.00000E+00
         0.00000E+00
         0.00000E+00
         0.00000E+00
         0.00000E+00
         0.00000E+00
         0.00000E+00
         0.00000E+00
         0.00000E+00
         0.00000E+00
         0.00000E+00
         0.00000E+00
         0.00000E+00
         0.00000E+00
         0.00000E+00
         0.00000E+00
         0.00000E+00
         0.00000E+00
         0.00000E+00
         0.00000E+00
         0.00000E+00
         0.00000E+00
         0.00000E+00
         0.00000E+00
         0.00000E+00
         0.00000E+00
         0.00000E+00
         0.00000E+00
         0.00000E+00
         0.00000E+00
         0.00000E+00
         0.00000E+00
         0.00000E+00
         0.00000E+00
         0.00000E+00
         0.00000E+00
         0.00000E+00
         0.00000E+00
         0.00000E+00
         0.00000E+00
         0.00000E+00
         0.00000E+00
         0.00000E+00
         0.00000E+00
         0.00000E+00
         0.00000E+00
         0.00000E+00
         0.00000E+00
         0.00000E+00
         0.00000E+00
         0.00000E+00
         0.00000E+00
         0.00000E+00
         0.00000E+00
         0.00000E+00
         0.00000E+00
         0.00000E+00
         0.00000E+00
         0.00000E+00
         0.00000E+00
         0.00000E+00
         0.00000E+00
         0.00000E+00
         0.00000E+00
         0.00000E+00
         0.00000E+00
         0.00000E+00
         0.00000E+00
         0.00000E+00
         0.00000E+00
         0.00000E+00
         0.00000E+00
         0.00000E+00
         0.00000E+00
         0.00000E+00
         0.00000E+00
         0.00000E+00
         0.00000E+00
         0.00000E+00
         0.00000E+00
         0.00000E+00
         0.00000E+00
         0.00000E+00
         0.00000E+00
         0.00000E+00
         0.00000E+00
         0.00000E+00
         0.00000E+00
         0.00000E+00
         0.00000E+00
         0.00000E+00
         0.00000E+00
         0.00000E+00
         0.00000E+00
         0.00000E+00
         0.00000E+00
         0.00000E+00
         0.00000E+00
         0.00000E+00
         0.00000E+00
         0.00000E+00
         0.00000E+00
         0.00000E+00
         0.00000E+00
         0.00000E+00
         0.00000E+00
         0.00000E+00
         0.00000E+00
         0.00000E+00
         0.00000E+00
         0.00000E+00
         0.00000E+00
         0.00000E+00
         0.00000E+00
         0.00000E+00
         0.00000E+00
         0.00000E+00
         0.00000E+00
         0.00000E+00
         0.00000E+00
         0.00000E+00
         0.00000E+00
         0.00000E+00
         0.00000E+00
         0.00000E+00
         0.00000E+00
         0.00000E+00
         0.00000E+00
         0.00000E+00
         0.00000E+00
         0.00000E+00
         0.00000E+00
         0.00000E+00
         0.00000E+00
         0.00000E+00
         0.00000E+00
         0.00000E+00
         0.00000E+00
         0.00000E+00
         0.00000E+00
         0.00000E+00
         0.00000E+00
         0.00000E+00
         0.00000E+00
         0.00000E+00
         0.00000E+00
         0.00000E+00
         0.00000E+00
         0.00000E+00
         0.00000E+00
         0.00000E+00
         0.00000E+00
         0.00000E+00
         0.00000E+00
         0.00000E+00
         0.00000E+00
         0.00000E+00
         0.00000E+00
         0.00000E+00
         0.00000E+00
         0.00000E+00
         0.00000E+00
         0.00000E+00
         0.00000E+00
         0.00000E+00
         0.00000E+00
         0.00000E+00
         0.00000E+00
         0.00000E+00
         0.00000E+00
         0.00000E+00
         0.00000E+00
         0.00000E+00
         0.00000E+00
         0.00000E+00
         0.00000E+00
         0.00000E+00
         0.00000E+00
         0.00000E+00
         0.00000E+00
         0.00000E+00
         0.00000E+00
         0.00000E+00
         0.00000E+00
         0.00000E+00
         0.00000E+00
         0.00000E+00
         0.00000E+00
         0.00000E+00
         0.00000E+00
         0.00000E+00
         0.00000E+00
         0.00000E+00
         0.00000E+00
         0.00000E+00
         0.00000E+00
         0.00000E+00
         0.00000E+00
         0.00000E+00
         0.00000E+00
         0.00000E+00
         0.00000E+00
         0.00000E+00
         0.00000E+00
         0.00000E+00
         0.00000E+00
         0.00000E+00
         0.00000E+00
         0.00000E+00
         0.00000E+00
         0.00000E+00
         0.00000E+00
         0.00000E+00
         0.00000E+00
         0.00000E+00
         0.00000E+00
         0.00000E+00
         0.00000E+00
         0.00000E+00
         0.00000E+00
         0.00000E+00
         0.00000E+00
         0.00000E+00
         0.00000E+00
         0.00000E+00
         0.00000E+00
         0.00000E+00
         0.00000E+00
         0.00000E+00
         0.00000E+00
         0.00000E+00
         0.00000E+00
         0.00000E+00
         0.00000E+00
         0.00000E+00
         0.00000E+00
         0.00000E+00
         0.00000E+00
         0.00000E+00
         0.00000E+00
         0.00000E+00
         0.00000E+00
         0.00000E+00
         0.00000E+00
         0.00000E+00
         0.00000E+00
         0.00000E+00
         0.00000E+00
         0.00000E+00
         0.00000E+00
         0.00000E+00
         0.00000E+00
         0.00000E+00
         0.00000E+00
         0.00000E+00
         0.00000E+00
         0.00000E+00
         0.00000E+00
         0.00000E+00
         0.00000E+00
         0.00000E+00
         0.00000E+00
         0.00000E+00
         0.00000E+00
         0.00000E+00
         0.00000E+00
         0.00000E+00
         0.00000E+00
         0.00000E+00
         0.00000E+00
         0.00000E+00
         0.00000E+00
         0.00000E+00
         0.00000E+00
         0.00000E+00
         0.00000E+00
         0.00000E+00
         0.00000E+00
         0.00000E+00
         0.00000E+00
         0.00000E+00
         0.00000E+00
         0.00000E+00
         0.00000E+00
         0.00000E+00
         0.00000E+00
         0.00000E+00
         0.00000E+00
         0.00000E+00
         0.00000E+00
         0.00000E+00
         0.00000E+00
         0.00000E+00
         0.00000E+00
         0.00000E+00
         0.00000E+00
         0.00000E+00
         0.00000E+00
         0.00000E+00
         0.00000E+00
         0.00000E+00
         0.00000E+00
         0.00000E+00
         0.00000E+00
         0.00000E+00
         0.00000E+00
         0.00000E+00
         0.00000E+00
         0.00000E+00
         0.00000E+00
         0.00000E+00
         0.00000E+00
         0.00000E+00
         0.00000E+00
         0.00000E+00
         0.00000E+00
         0.00000E+00
         0.00000E+00
         0.00000E+00
         0.00000E+00
         0.00000E+00
         0.00000E+00
         0.00000E+00
         0.00000E+00
         0.00000E+00
         0.00000E+00
         0.00000E+00
         0.00000E+00
         0.00000E+00
         0.00000E+00
         0.00000E+00
         0.00000E+00
         0.00000E+00
         0.00000E+00
         0.00000E+00
         0.00000E+00
         0.00000E+00
         0.00000E+00
         0.00000E+00
         0.00000E+00
         0.00000E+00
         0.00000E+00
         0.00000E+00
         0.00000E+00
         0.00000E+00
         0.00000E+00
         0.00000E+00
         0.00000E+00
         0.00000E+00
         0.00000E+00
         0.00000E+00
         0.00000E+00
         0.00000E+00
         0.00000E+00
         0.00000E+00
         0.00000E+00
         0.00000E+00
         0.00000E+00
         0.00000E+00
         0.00000E+00
         0.00000E+00
         0.00000E+00
         0.00000E+00
         0.00000E+00
         0.00000E+00
         0.00000E+00
         0.00000E+00
         0.00000E+00
         0.00000E+00
         0.00000E+00
         0.00000E+00
         0.00000E+00
         0.00000E+00
         0.00000E+00
         0.00000E+00
         0.00000E+00
         0.00000E+00
         0.00000E+00
         0.00000E+00
         0.00000E+00
         0.00000E+00
         0.00000E+00
         0.00000E+00
         0.00000E+00
         0.00000E+00
         0.00000E+00
         0.00000E+00
         0.00000E+00
         0.00000E+00
         0.00000E+00
         0.00000E+00
         0.00000E+00
         0.00000E+00
         0.00000E+00
         0.00000E+00
         0.00000E+00
         0.00000E+00
         0.00000E+00
         0.00000E+00
         0.00000E+00
         0.00000E+00
         0.00000E+00
         0.00000E+00
         0.00000E+00
         0.00000E+00
         0.00000E+00
         0.00000E+00
         0.00000E+00
         0.00000E+00
         0.00000E+00
         0.00000E+00
         0.00000E+00
         0.00000E+00
         0.00000E+00
         0.00000E+00
         0.00000E+00
         0.00000E+00
         0.00000E+00
         0.00000E+00
         0.00000E+00
         0.00000E+00
         0.00000E+00
         0.00000E+00
         0.00000E+00
         0.00000E+00
         0.00000E+00
         0.00000E+00
         0.00000E+00
         0.00000E+00
         0.00000E+00
         0.00000E+00
         0.00000E+00
         0.00000E+00
         0.00000E+00
         0.00000E+00
         0.00000E+00
         0.00000E+00
         0.00000E+00
         0.00000E+00
         0.00000E+00
         0.00000E+00
         0.00000E+00
         0.00000E+00
         0.00000E+00
         0.00000E+00
         0.00000E+00
         0.00000E+00
         0.00000E+00
         0.00000E+00
         0.00000E+00
         0.00000E+00
         0.00000E+00
         0.00000E+00
         0.00000E+00
         0.00000E+00
         0.00000E+00
         0.00000E+00
         0.00000E+00
         0.00000E+00
         0.00000E+00
         0.00000E+00
         0.00000E+00
         0.00000E+00
         0.00000E+00
         0.00000E+00
         0.00000E+00
         0.00000E+00
         0.00000E+00
         0.00000E+00
         0.00000E+00
         0.00000E+00
         0.00000E+00
         0.00000E+00
         0.00000E+00
         0.00000E+00
         0.00000E+00
         0.00000E+00
         0.00000E+00
         0.00000E+00
         0.00000E+00
         0.00000E+00
         0.00000E+00
         0.00000E+00
         0.00000E+00
         0.00000E+00
         0.00000E+00
         0.00000E+00
         0.00000E+00
         0.00000E+00
         0.00000E+00
         0.00000E+00
         0.00000E+00
         0.00000E+00
         0.00000E+00
         0.00000E+00
         0.00000E+00
         0.00000E+00
         0.00000E+00
         0.00000E+00
         0.00000E+00
         0.00000E+00
         0.00000E+00
         0.00000E+00
         0.00000E+00
         0.00000E+00
         0.00000E+00
         0.00000E+00
         0.00000E+00
         0.00000E+00
         0.00000E+00
         0.00000E+00
         0.00000E+00
         0.00000E+00
         0.00000E+00
         0.00000E+00
         0.00000E+00
         0.00000E+00
         0.00000E+00
         0.00000E+00
         0.00000E+00
         0.00000E+00
         0.00000E+00
         0.00000E+00
         0.00000E+00
         0.00000E+00
         0.00000E+00
         0.00000E+00
         0.00000E+00
         0.00000E+00
         0.00000E+00
         0.00000E+00
         0.00000E+00
         0.00000E+00
         0.00000E+00
         0.00000E+00
         0.00000E+00
         0.00000E+00
         0.00000E+00
         0.00000E+00
         0.00000E+00
         0.00000E+00
         0.00000E+00
         0.00000E+00
         0.00000E+00
         0.00000E+00
         0.00000E+00
         0.00000E+00
         0.00000E+00
         0.00000E+00
         0.00000E+00
         0.00000E+00
         0.00000E+00
         0.00000E+00
         0.00000E+00
         0.00000E+00
         0.00000E+00
         0.00000E+00
         0.00000E+00
         0.00000E+00
         0.00000E+00
         0.00000E+00
         0.00000E+00
         0.00000E+00
         0.00000E+00
         0.00000E+00
         0.00000E+00
         0.00000E+00
         0.00000E+00
         0.00000E+00
         0.00000E+00
         0.00000E+00
         0.00000E+00
         0.00000E+00
         0.00000E+00
         0.00000E+00
         0.00000E+00
         0.00000E+00
         0.00000E+00
         0.00000E+00
         0.00000E+00
         0.00000E+00
         0.00000E+00
         0.00000E+00
         0.00000E+00
         0.00000E+00
         0.00000E+00
         0.00000E+00
         0.00000E+00
         0.00000E+00
         0.00000E+00
         0.00000E+00
         0.00000E+00
         0.00000E+00
         0.00000E+00
         0.00000E+00
         0.00000E+00
         0.00000E+00
         0.00000E+00
         0.00000E+00
         0.00000E+00
         0.00000E+00
         0.00000E+00
         0.00000E+00
         0.00000E+00
         0.00000E+00
         0.00000E+00
         0.00000E+00
         0.00000E+00
         0.00000E+00
         0.00000E+00
         0.00000E+00
         0.00000E+00
         0.00000E+00
         0.00000E+00
         0.00000E+00
         0.00000E+00
         0.00000E+00
         0.00000E+00
         0.00000E+00
         0.00000E+00
         0.00000E+00
         0.00000E+00
         0.00000E+00
         0.00000E+00
         0.00000E+00
         0.00000E+00
         0.00000E+00
         0.00000E+00
         0.00000E+00
         0.00000E+00
         0.00000E+00
         0.00000E+00
         0.00000E+00
         0.00000E+00
         0.00000E+00
         0.00000E+00
         0.00000E+00
         0.00000E+00
         0.00000E+00
         0.00000E+00
         0.00000E+00
         0.00000E+00
         0.00000E+00
         0.00000E+00
         0.00000E+00
         0.00000E+00
         0.00000E+00
         0.00000E+00
         0.00000E+00
         0.00000E+00
         0.00000E+00
         0.00000E+00
         0.00000E+00
         0.00000E+00
         0.00000E+00
         0.00000E+00
         0.00000E+00
         0.00000E+00
         0.00000E+00
         0.00000E+00
         0.00000E+00
         0.00000E+00
         0.00000E+00
         0.00000E+00
         0.00000E+00
         0.00000E+00
         0.00000E+00
         0.00000E+00
         0.00000E+00
         0.00000E+00
         0.00000E+00
         0.00000E+00
         0.00000E+00
         0.00000E+00
         0.00000E+00
         0.00000E+00
         0.00000E+00
         0.00000E+00
         0.00000E+00
         0.00000E+00
         0.00000E+00
         0.00000E+00
         0.00000E+00
         0.00000E+00
         0.00000E+00
         0.00000E+00
         0.00000E+00
         0.00000E+00
         0.00000E+00
         0.00000E+00
         0.00000E+00
         0.00000E+00
         0.00000E+00
         0.00000E+00
         0.00000E+00
         0.00000E+00
         0.00000E+00
         0.00000E+00
         0.00000E+00
         0.00000E+00
         0.00000E+00
         0.00000E+00
         0.00000E+00
         0.00000E+00
         0.00000E+00
         0.00000E+00
         0.00000E+00
         0.00000E+00
         0.00000E+00
         0.00000E+00
         0.00000E+00
         0.00000E+00
         0.00000E+00
         0.00000E+00
         0.00000E+00
         0.00000E+00
         0.00000E+00
         0.00000E+00
         0.00000E+00
         0.00000E+00
         0.00000E+00
         0.00000E+00
         0.00000E+00
         0.00000E+00
         0.00000E+00
         0.00000E+00
         0.00000E+00
         0.00000E+00
         0.00000E+00
         0.00000E+00
         0.00000E+00
         0.00000E+00
         0.00000E+00
         0.00000E+00
         0.00000E+00
         0.00000E+00
         0.00000E+00
         0.00000E+00
         0.00000E+00
         0.00000E+00
         0.00000E+00
         0.00000E+00
         0.00000E+00
         0.00000E+00
         0.00000E+00
         0.00000E+00
         0.00000E+00
         0.00000E+00
         0.00000E+00
         0.00000E+00
         0.00000E+00
         0.00000E+00
         0.00000E+00
         0.00000E+00
         0.00000E+00
         0.00000E+00
         0.00000E+00
         0.00000E+00
         0.00000E+00
         0.00000E+00
         0.00000E+00
         0.00000E+00
         0.00000E+00
         0.00000E+00
         0.00000E+00
         0.00000E+00
         0.00000E+00
         0.00000E+00
         0.00000E+00
         0.00000E+00
         0.00000E+00
         0.00000E+00
         0.00000E+00
         0.00000E+00
         0.00000E+00
         0.00000E+00
         0.00000E+00
         0.00000E+00
         0.00000E+00
         0.00000E+00
         0.00000E+00
         0.00000E+00
         0.00000E+00
         0.00000E+00
         0.00000E+00
         0.00000E+00
         0.00000E+00
         0.00000E+00
         0.00000E+00
         0.00000E+00
         0.00000E+00
         0.00000E+00
         0.00000E+00
         0.00000E+00
         0.00000E+00
         0.00000E+00
         0.00000E+00
         0.00000E+00
         0.00000E+00
         0.00000E+00
         0.00000E+00
         0.00000E+00
         0.00000E+00
         0.00000E+00
         0.00000E+00
         0.00000E+00
         0.00000E+00
         0.00000E+00
         0.00000E+00
         0.00000E+00
         0.00000E+00
         0.00000E+00
         0.00000E+00
         0.00000E+00
         0.00000E+00
         0.00000E+00
         0.00000E+00
         0.00000E+00
         0.00000E+00
         0.00000E+00
         0.00000E+00
         0.00000E+00
         0.00000E+00
         0.00000E+00
         0.00000E+00
         0.00000E+00
         0.00000E+00
         0.00000E+00
         0.00000E+00
         0.00000E+00
         0.00000E+00
         0.00000E+00
         0.00000E+00
         0.00000E+00
         0.00000E+00
         0.00000E+00
         0.00000E+00
         0.00000E+00
         0.00000E+00
         0.00000E+00
         0.00000E+00
         0.00000E+00
         0.00000E+00
         0.00000E+00
         0.00000E+00
         0.00000E+00
         0.00000E+00
         0.00000E+00
         0.00000E+00
         0.00000E+00
         0.00000E+00
         0.00000E+00
         0.00000E+00
         0.00000E+00
         0.00000E+00
         0.00000E+00
         0.00000E+00
         0.00000E+00
         0.00000E+00
         0.00000E+00
         0.00000E+00
         0.00000E+00
         0.00000E+00
         0.00000E+00
         0.00000E+00
         0.00000E+00
         0.00000E+00
         0.00000E+00
         0.00000E+00
         0.00000E+00
         0.00000E+00
         0.00000E+00
         0.00000E+00
         0.00000E+00
         0.00000E+00
         0.00000E+00
         0.00000E+00
         0.00000E+00
         0.00000E+00
         0.00000E+00
         0.00000E+00
         0.00000E+00
         0.00000E+00
         0.00000E+00
         0.00000E+00
         0.00000E+00
         0.00000E+00
         0.00000E+00
         0.00000E+00
         0.00000E+00
         0.00000E+00
         0.00000E+00
         0.00000E+00
         0.00000E+00
         0.00000E+00
         0.00000E+00
         0.00000E+00
         0.00000E+00
         0.00000E+00
         0.00000E+00
         0.00000E+00
         0.00000E+00
         0.00000E+00
         0.00000E+00
         0.00000E+00
         0.00000E+00
         0.00000E+00
         0.00000E+00
         0.00000E+00
         0.00000E+00
         0.00000E+00
         0.00000E+00
         0.00000E+00
         0.00000E+00
         0.00000E+00
         0.00000E+00
         0.00000E+00
         0.00000E+00
         0.00000E+00
         0.00000E+00
         0.00000E+00
         0.00000E+00
         0.00000E+00
         0.00000E+00
         0.00000E+00
         0.00000E+00
         0.00000E+00
         0.00000E+00
         0.00000E+00
         0.00000E+00
         0.00000E+00
         0.00000E+00
         0.00000E+00
         0.00000E+00
         0.00000E+00
         0.00000E+00
         0.00000E+00
         0.00000E+00
         0.00000E+00
         0.00000E+00
         0.00000E+00
         0.00000E+00
         0.00000E+00
         0.00000E+00
         0.00000E+00
         0.00000E+00
         0.00000E+00
         0.00000E+00
         0.00000E+00
         0.00000E+00
         0.00000E+00
         0.00000E+00
         0.00000E+00
         0.00000E+00
         0.00000E+00
         0.00000E+00
         0.00000E+00
         0.00000E+00
         0.00000E+00
         0.00000E+00
         0.00000E+00
         0.00000E+00
         0.00000E+00
         0.00000E+00
         0.00000E+00
         0.00000E+00
         0.00000E+00
         0.00000E+00
         0.00000E+00
         0.00000E+00
         0.00000E+00
         0.00000E+00
         0.00000E+00
         0.00000E+00
         0.00000E+00
         0.00000E+00
         0.00000E+00
         0.00000E+00
         0.00000E+00
         0.00000E+00
         0.00000E+00
         0.00000E+00
         0.00000E+00
         0.00000E+00
         0.00000E+00
         0.00000E+00
         0.00000E+00
         0.00000E+00
         0.00000E+00
         0.00000E+00
         0.00000E+00
         0.00000E+00
         0.00000E+00
         0.00000E+00
         0.00000E+00
         0.00000E+00
         0.00000E+00
         0.00000E+00
         0.00000E+00
         0.00000E+00
         0.00000E+00
         0.00000E+00
         0.00000E+00
         0.00000E+00
         0.00000E+00
         0.00000E+00
         0.00000E+00
         0.00000E+00
         0.00000E+00
         0.00000E+00
         0.00000E+00
         0.00000E+00
         0.00000E+00
         0.00000E+00
         0.00000E+00
         0.00000E+00
         0.00000E+00
         0.00000E+00
         0.00000E+00
         0.00000E+00
         0.00000E+00
         0.00000E+00
         0.00000E+00
         0.00000E+00
         0.00000E+00
         0.00000E+00
         0.00000E+00
         0.00000E+00
         0.00000E+00
         0.00000E+00
         0.00000E+00
         0.00000E+00
         0.00000E+00
         0.00000E+00
         0.00000E+00
         0.00000E+00
         0.00000E+00
         0.00000E+00
         0.00000E+00
         0.00000E+00
         0.00000E+00
         0.00000E+00
         0.00000E+00
         0.00000E+00
         0.00000E+00
         0.00000E+00
         0.00000E+00
         0.00000E+00
         0.00000E+00
         0.00000E+00
         0.00000E+00
         0.00000E+00
         0.00000E+00
         0.00000E+00
         0.00000E+00
         0.00000E+00
         0.00000E+00
         0.00000E+00
         0.00000E+00
         0.00000E+00
         0.00000E+00
         0.00000E+00
         0.00000E+00
         0.00000E+00
         0.00000E+00
         0.00000E+00
         0.00000E+00
         0.00000E+00
         0.00000E+00
         0.00000E+00
         0.00000E+00
         0.00000E+00
         0.00000E+00
         0.00000E+00
         0.00000E+00
         0.00000E+00
         0.00000E+00
         0.00000E+00
         0.00000E+00
         0.00000E+00
         0.00000E+00
         0.00000E+00
         0.00000E+00
         0.00000E+00
         0.00000E+00
         0.00000E+00
         0.00000E+00
         0.00000E+00
         0.00000E+00
         0.00000E+00
         0.00000E+00
         0.00000E+00
         0.00000E+00
         0.00000E+00
         0.00000E+00
         0.00000E+00
         0.00000E+00
         0.00000E+00
         0.00000E+00
         0.00000E+00
         0.00000E+00
         0.00000E+00
         0.00000E+00
         0.00000E+00
         0.00000E+00
         0.00000E+00
         0.00000E+00
         0.00000E+00
         0.00000E+00
         0.00000E+00
         0.00000E+00
         0.00000E+00
         0.00000E+00
         0.00000E+00
         0.00000E+00
         0.00000E+00
         0.00000E+00
         0.00000E+00
         0.00000E+00
         0.00000E+00
         0.00000E+00
         0.00000E+00
         0.00000E+00
         0.00000E+00
         0.00000E+00
         0.00000E+00
         0.00000E+00
         0.00000E+00
         0.00000E+00
         0.00000E+00
         0.00000E+00
         0.00000E+00
         0.00000E+00
         0.00000E+00
         0.00000E+00
         0.00000E+00
         0.00000E+00
         0.00000E+00
         0.00000E+00
         0.00000E+00
         0.00000E+00
         0.00000E+00
         0.00000E+00
         0.00000E+00
         0.00000E+00
         0.00000E+00
         0.00000E+00
         0.00000E+00
         0.00000E+00
         0.00000E+00
         0.00000E+00
         0.00000E+00
         0.00000E+00
         0.00000E+00
         0.00000E+00
         0.00000E+00
         0.00000E+00
         0.00000E+00
         0.00000E+00
         0.00000E+00
         0.00000E+00
         0.00000E+00
         0.00000E+00
         0.00000E+00
         0.00000E+00
         0.00000E+00
         0.00000E+00
         0.00000E+00
         0.00000E+00
         0.00000E+00
         0.00000E+00
         0.00000E+00
         0.00000E+00
         0.00000E+00
         0.00000E+00
         0.00000E+00
         0.00000E+00
         0.00000E+00
         0.00000E+00
         0.00000E+00
         0.00000E+00
         0.00000E+00
         0.00000E+00
         0.00000E+00
         0.00000E+00
         0.00000E+00
         0.00000E+00
         0.00000E+00
         0.00000E+00
         0.00000E+00
         0.00000E+00
         0.00000E+00
         0.00000E+00
         0.00000E+00
         0.00000E+00
         0.00000E+00
         0.00000E+00
         0.00000E+00
         0.00000E+00
         0.00000E+00
         0.00000E+00
         0.00000E+00
         0.00000E+00
         0.00000E+00
         0.00000E+00
         0.00000E+00
         0.00000E+00
         0.00000E+00
         0.00000E+00
         0.00000E+00
         0.00000E+00
         0.00000E+00
         0.00000E+00
         0.00000E+00
         0.00000E+00
         0.00000E+00
         0.00000E+00
         0.00000E+00
         0.00000E+00
         0.00000E+00
         0.00000E+00
         0.00000E+00
         0.00000E+00
         0.00000E+00
         0.00000E+00
         0.00000E+00
         0.00000E+00
         0.00000E+00
         0.00000E+00
         0.00000E+00
         0.00000E+00
         0.00000E+00
         0.00000E+00
         0.00000E+00
         0.00000E+00
         0.00000E+00
         0.00000E+00
         0.00000E+00
         0.00000E+00
         0.00000E+00
         0.00000E+00
         0.00000E+00
         0.00000E+00
         0.00000E+00
         0.00000E+00
         0.00000E+00
         0.00000E+00
         0.00000E+00
         0.00000E+00
         0.00000E+00
         0.00000E+00
         0.00000E+00
         0.00000E+00
         0.00000E+00
         0.00000E+00
         0.00000E+00
         0.00000E+00
         0.00000E+00
         0.00000E+00
         0.00000E+00
         0.00000E+00
         0.00000E+00
         0.00000E+00
         0.00000E+00
         0.00000E+00
         0.00000E+00
         0.00000E+00
         0.00000E+00
         0.00000E+00
         0.00000E+00
         0.00000E+00
         0.00000E+00
         0.00000E+00
         0.00000E+00
         0.00000E+00
         0.00000E+00
         0.00000E+00
         0.00000E+00
         0.00000E+00
         0.00000E+00
         0.00000E+00
         0.00000E+00
         0.00000E+00
         0.00000E+00
         0.00000E+00
         0.00000E+00
         0.00000E+00
         0.00000E+00
         0.00000E+00
         0.00000E+00
         0.00000E+00
         0.00000E+00
         0.00000E+00
         0.00000E+00
         0.00000E+00
         0.00000E+00
         0.00000E+00
         0.00000E+00
         0.00000E+00
         0.00000E+00
         0.00000E+00
         0.00000E+00
         0.00000E+00
         0.00000E+00
         0.00000E+00
         0.00000E+00
         0.00000E+00
         0.00000E+00
         0.00000E+00
         0.00000E+00
         0.00000E+00
         0.00000E+00
         0.00000E+00
         0.00000E+00
         0.00000E+00
         0.00000E+00
         0.00000E+00
         0.00000E+00
         0.00000E+00
         0.00000E+00
         0.00000E+00
         0.00000E+00
         0.00000E+00
         0.00000E+00
         0.00000E+00
         0.00000E+00
         0.00000E+00
         0.00000E+00
         0.00000E+00
         0.00000E+00
         0.00000E+00
         0.00000E+00
         0.00000E+00
         0.00000E+00
         0.00000E+00
         0.00000E+00
         0.00000E+00
         0.00000E+00
         0.00000E+00
         0.00000E+00
         0.00000E+00
         0.00000E+00
         0.00000E+00
         0.00000E+00
         0.00000E+00
         0.00000E+00
         0.00000E+00
         0.00000E+00
         0.00000E+00
         0.00000E+00
         0.00000E+00
         0.00000E+00
         0.00000E+00
         0.00000E+00
         0.00000E+00
         0.00000E+00
         0.00000E+00
         0.00000E+00
         0.00000E+00
         0.00000E+00
         0.00000E+00
         0.00000E+00
         0.00000E+00
         0.00000E+00
         0.00000E+00
         0.00000E+00
         0.00000E+00
         0.00000E+00
         0.00000E+00
         0.00000E+00
         0.00000E+00
         0.00000E+00
         0.00000E+00
         0.00000E+00
         0.00000E+00
         0.00000E+00
         0.00000E+00
         0.00000E+00
         0.00000E+00
         0.00000E+00
         0.00000E+00
         0.00000E+00
         0.00000E+00
         0.00000E+00
         0.00000E+00
         0.00000E+00
         0.00000E+00
         0.00000E+00
         0.00000E+00
         0.00000E+00
         0.00000E+00
         0.00000E+00
         0.00000E+00
         0.00000E+00
         0.00000E+00
         0.00000E+00
         0.00000E+00
         0.00000E+00
         0.00000E+00
         0.00000E+00
         0.00000E+00
         0.00000E+00
         0.00000E+00
         0.00000E+00
         0.00000E+00
         0.00000E+00
         0.00000E+00
         0.00000E+00
         0.00000E+00
         0.00000E+00
         0.00000E+00
         0.00000E+00
         0.00000E+00
         0.00000E+00
         0.00000E+00
         0.00000E+00
         0.00000E+00
         0.00000E+00
         0.00000E+00
         0.00000E+00
         0.00000E+00
         0.00000E+00
         0.00000E+00
         0.00000E+00
         0.00000E+00
         0.00000E+00
         0.00000E+00
         0.00000E+00
         0.00000E+00
         0.00000E+00
         0.00000E+00
         0.00000E+00
         0.00000E+00
         0.00000E+00
         0.00000E+00
         0.00000E+00
         0.00000E+00
         0.00000E+00
         0.00000E+00
         0.00000E+00
         0.00000E+00
         0.00000E+00
         0.00000E+00
         0.00000E+00
         0.00000E+00
         0.00000E+00
         0.00000E+00
         0.00000E+00
         0.00000E+00
         0.00000E+00
         0.00000E+00
         0.00000E+00
         0.00000E+00
         0.00000E+00
         0.00000E+00
         0.00000E+00
         0.00000E+00
         0.00000E+00
         0.00000E+00
         0.00000E+00
         0.00000E+00
         0.00000E+00
         0.00000E+00
         0.00000E+00
         0.00000E+00
         0.00000E+00
         0.00000E+00
         0.00000E+00
         0.00000E+00
         0.00000E+00
         0.00000E+00
         0.00000E+00
         0.00000E+00
         0.00000E+00
         0.00000E+00
         0.00000E+00
         0.00000E+00
         0.00000E+00
         0.00000E+00
         0.00000E+00
         0.00000E+00
         0.00000E+00
         0.00000E+00
         0.00000E+00
         0.00000E+00
         0.00000E+00
         0.00000E+00
         0.00000E+00
         0.00000E+00
         0.00000E+00
         0.00000E+00
         0.00000E+00
         0.00000E+00
         0.00000E+00
         0.00000E+00
         0.00000E+00
         0.00000E+00
         0.00000E+00
         0.00000E+00
         0.00000E+00
         0.00000E+00
         0.00000E+00
         0.00000E+00
         0.00000E+00
         0.00000E+00
         0.00000E+00
         0.00000E+00
         0.00000E+00
         0.00000E+00
         0.00000E+00
         0.00000E+00
         0.00000E+00
         0.00000E+00
         0.00000E+00
         0.00000E+00
         0.00000E+00
         0.00000E+00
         0.00000E+00
         0.00000E+00
         0.00000E+00
         0.00000E+00
         0.00000E+00
         0.00000E+00
         0.00000E+00
         0.00000E+00
         0.00000E+00
         0.00000E+00
         0.00000E+00
         0.00000E+00
         0.00000E+00
         0.00000E+00
         0.00000E+00
         0.00000E+00
         0.00000E+00
         0.00000E+00
         0.00000E+00
         0.00000E+00
         0.00000E+00
         0.00000E+00
         0.00000E+00
         0.00000E+00
         0.00000E+00
         0.00000E+00
         0.00000E+00
         0.00000E+00
         0.00000E+00
         0.00000E+00
         0.00000E+00
         0.00000E+00
         0.00000E+00
         0.00000E+00
         0.00000E+00
         0.00000E+00
         0.00000E+00
         0.00000E+00
         0.00000E+00
         0.00000E+00
         0.00000E+00
         0.00000E+00
         0.00000E+00
         0.00000E+00
         0.00000E+00
         0.00000E+00
         0.00000E+00
         0.00000E+00
         0.00000E+00
         0.00000E+00
         0.00000E+00
         0.00000E+00
         0.00000E+00
         0.00000E+00
         0.00000E+00
         0.00000E+00
         0.00000E+00
         0.00000E+00
         0.00000E+00
         0.00000E+00
         0.00000E+00
         0.00000E+00
         0.00000E+00
         0.00000E+00
         0.00000E+00
         0.00000E+00
         0.00000E+00
         0.00000E+00
         0.00000E+00
         0.00000E+00
         0.00000E+00
         0.00000E+00
         0.00000E+00
         0.00000E+00
         0.00000E+00
         0.00000E+00
         0.00000E+00
         0.00000E+00
         0.00000E+00
         0.00000E+00
         0.00000E+00
         0.00000E+00
         0.00000E+00
         0.00000E+00
         0.00000E+00
         0.00000E+00
         0.00000E+00
         0.00000E+00
         0.00000E+00
         0.00000E+00
         0.00000E+00
         0.00000E+00
         0.00000E+00
         0.00000E+00
         0.00000E+00
         0.00000E+00
         0.00000E+00
         0.00000E+00
         0.00000E+00
         0.00000E+00
         0.00000E+00
         0.00000E+00
         0.00000E+00
         0.00000E+00
         0.00000E+00
         0.00000E+00
         0.00000E+00
         0.00000E+00
         0.00000E+00
         0.00000E+00
         0.00000E+00
         0.00000E+00
         0.00000E+00
         0.00000E+00
         0.00000E+00
         0.00000E+00
         0.00000E+00
         0.00000E+00
         0.00000E+00
         0.00000E+00
         0.00000E+00
         0.00000E+00
         0.00000E+00
         0.00000E+00
         0.00000E+00
         0.00000E+00
         0.00000E+00
         0.00000E+00
         0.00000E+00
         0.00000E+00
         0.00000E+00
         0.00000E+00
         0.00000E+00
         0.00000E+00
         0.00000E+00
         0.00000E+00
         0.00000E+00
         0.00000E+00
         0.00000E+00
         0.00000E+00
         0.00000E+00
         0.00000E+00
         0.00000E+00
         0.00000E+00
         0.00000E+00
         0.00000E+00
         0.00000E+00
         0.00000E+00
         0.00000E+00
         0.00000E+00
         0.00000E+00
         0.00000E+00
         0.00000E+00
         0.00000E+00
         0.00000E+00
         0.00000E+00
         0.00000E+00
         0.00000E+00
         0.00000E+00
         0.00000E+00
         0.00000E+00
         0.00000E+00
         0.00000E+00
         0.00000E+00
         0.00000E+00
         0.00000E+00
         0.00000E+00
         0.00000E+00
         0.00000E+00
         0.00000E+00
         0.00000E+00
         0.00000E+00
         0.00000E+00
         0.00000E+00
         0.00000E+00
         0.00000E+00
         0.00000E+00
         0.00000E+00
         0.00000E+00
         0.00000E+00
         0.00000E+00
         0.00000E+00
         0.00000E+00
         0.00000E+00
         0.00000E+00
         0.00000E+00
         0.00000E+00
         0.00000E+00
         0.00000E+00
         0.00000E+00
         0.00000E+00
         0.00000E+00
         0.00000E+00
         0.00000E+00
         0.00000E+00
         0.00000E+00
         0.00000E+00
         0.00000E+00
         0.00000E+00
         0.00000E+00
         0.00000E+00
         0.00000E+00
         0.00000E+00
         0.00000E+00
         0.00000E+00
         0.00000E+00
         0.00000E+00
         0.00000E+00
         0.00000E+00
         0.00000E+00
         0.00000E+00
         0.00000E+00
         0.00000E+00
         0.00000E+00
         0.00000E+00
         0.00000E+00
         0.00000E+00
         0.00000E+00
         0.00000E+00
         0.00000E+00
         0.00000E+00
         0.00000E+00
         0.00000E+00
         0.00000E+00
         0.00000E+00
         0.00000E+00
         0.00000E+00
         0.00000E+00
         0.00000E+00
         0.00000E+00
         0.00000E+00
         0.00000E+00
         0.00000E+00
         0.00000E+00
         0.00000E+00
         0.00000E+00
         0.00000E+00
         0.00000E+00
         0.00000E+00
         0.00000E+00
         0.00000E+00
         0.00000E+00
         0.00000E+00
         0.00000E+00
         0.00000E+00
         0.00000E+00
         0.00000E+00
         0.00000E+00
         0.00000E+00
  
SCALARS                   max_wave_vel  double 1
LOOKUP_TABLE default
         0.00000E+00
         0.00000E+00
         0.00000E+00
         0.00000E+00
         0.00000E+00
         0.00000E+00
         0.00000E+00
         0.00000E+00
         0.00000E+00
         0.00000E+00
         0.00000E+00
         0.00000E+00
         0.00000E+00
         0.00000E+00
         0.00000E+00
         0.00000E+00
         0.00000E+00
         0.00000E+00
         0.00000E+00
         0.00000E+00
         0.00000E+00
         0.00000E+00
         0.00000E+00
         0.00000E+00
         0.00000E+00
         0.00000E+00
         0.00000E+00
         0.00000E+00
         0.00000E+00
         0.00000E+00
         0.00000E+00
         0.00000E+00
         0.00000E+00
         0.00000E+00
         0.00000E+00
         0.00000E+00
         0.00000E+00
         0.00000E+00
         0.00000E+00
         0.00000E+00
         0.00000E+00
         0.00000E+00
         0.00000E+00
         0.00000E+00
         0.00000E+00
         0.00000E+00
         0.00000E+00
         0.00000E+00
         0.00000E+00
         0.00000E+00
         0.00000E+00
         0.00000E+00
         0.00000E+00
         0.00000E+00
         0.00000E+00
         0.00000E+00
         0.00000E+00
         0.00000E+00
         0.00000E+00
         0.00000E+00
         0.00000E+00
         0.00000E+00
         0.00000E+00
         0.00000E+00
         0.00000E+00
         0.00000E+00
         0.00000E+00
         0.00000E+00
         0.00000E+00
         0.00000E+00
         0.00000E+00
         0.00000E+00
         0.00000E+00
         0.00000E+00
         0.00000E+00
         0.00000E+00
         0.00000E+00
         0.00000E+00
         0.00000E+00
         0.00000E+00
         0.00000E+00
         0.00000E+00
         0.00000E+00
         0.00000E+00
         0.00000E+00
         0.00000E+00
         0.00000E+00
         0.00000E+00
         0.00000E+00
         0.00000E+00
         0.00000E+00
         0.00000E+00
         0.00000E+00
         0.00000E+00
         0.00000E+00
         0.00000E+00
         0.00000E+00
         0.00000E+00
         0.00000E+00
         0.00000E+00
         0.00000E+00
         0.00000E+00
         0.00000E+00
         0.00000E+00
         0.00000E+00
         0.00000E+00
         0.00000E+00
         0.00000E+00
         0.00000E+00
         0.00000E+00
         0.00000E+00
         0.00000E+00
         0.00000E+00
         0.00000E+00
         0.00000E+00
         0.00000E+00
         0.00000E+00
         0.00000E+00
         0.00000E+00
         0.00000E+00
         0.00000E+00
         0.00000E+00
         0.00000E+00
         0.00000E+00
         0.00000E+00
         0.00000E+00
         0.00000E+00
         0.00000E+00
         0.00000E+00
         0.00000E+00
         0.00000E+00
         0.00000E+00
         0.00000E+00
         0.00000E+00
         0.00000E+00
         0.00000E+00
         0.00000E+00
         0.00000E+00
         0.00000E+00
         0.00000E+00
         0.00000E+00
         0.00000E+00
         0.00000E+00
         0.00000E+00
         0.00000E+00
         0.00000E+00
         0.00000E+00
         0.00000E+00
         0.00000E+00
         0.00000E+00
         0.00000E+00
         0.00000E+00
         0.00000E+00
         0.00000E+00
         0.00000E+00
         0.00000E+00
         0.00000E+00
         0.00000E+00
         0.00000E+00
         0.00000E+00
         0.00000E+00
         0.00000E+00
         0.00000E+00
         0.00000E+00
         0.00000E+00
         0.00000E+00
         0.00000E+00
         0.00000E+00
         0.00000E+00
         0.00000E+00
         0.00000E+00
         0.00000E+00
         0.00000E+00
         0.00000E+00
         0.00000E+00
         0.00000E+00
         0.00000E+00
         0.00000E+00
         0.00000E+00
         0.00000E+00
         0.00000E+00
         0.00000E+00
         0.00000E+00
         0.00000E+00
         0.00000E+00
         0.00000E+00
         0.00000E+00
         0.00000E+00
         0.00000E+00
         0.00000E+00
         0.00000E+00
         0.00000E+00
         0.00000E+00
         0.00000E+00
         0.00000E+00
         0.00000E+00
         0.00000E+00
         0.00000E+00
         0.00000E+00
         0.00000E+00
         0.00000E+00
         0.00000E+00
         0.00000E+00
         0.00000E+00
         0.00000E+00
         0.00000E+00
         0.00000E+00
         0.00000E+00
         0.00000E+00
         0.00000E+00
         0.00000E+00
         0.00000E+00
         0.00000E+00
         0.00000E+00
         0.00000E+00
         0.00000E+00
         0.00000E+00
         0.00000E+00
         0.00000E+00
         0.00000E+00
         0.00000E+00
         0.00000E+00
         0.00000E+00
         0.00000E+00
         0.00000E+00
         0.00000E+00
         0.00000E+00
         0.00000E+00
         0.00000E+00
         0.00000E+00
         0.00000E+00
         0.00000E+00
         0.00000E+00
         0.00000E+00
         0.00000E+00
         0.00000E+00
         0.00000E+00
         0.00000E+00
         0.00000E+00
         0.00000E+00
         0.00000E+00
         0.00000E+00
         0.00000E+00
         0.00000E+00
         0.00000E+00
         0.00000E+00
         0.00000E+00
         0.00000E+00
         0.00000E+00
         0.00000E+00
         0.00000E+00
         0.00000E+00
         0.00000E+00
         0.00000E+00
         0.00000E+00
         0.00000E+00
         0.00000E+00
         0.00000E+00
         0.00000E+00
         0.00000E+00
         0.00000E+00
         0.00000E+00
         0.00000E+00
         0.00000E+00
         0.00000E+00
         0.00000E+00
         0.00000E+00
         0.00000E+00
         0.00000E+00
         0.00000E+00
         0.00000E+00
         0.00000E+00
         0.00000E+00
         0.00000E+00
         0.00000E+00
         0.00000E+00
         0.00000E+00
         0.00000E+00
         0.00000E+00
         0.00000E+00
         0.00000E+00
         0.00000E+00
         0.00000E+00
         0.00000E+00
         0.00000E+00
         0.00000E+00
         0.00000E+00
         0.00000E+00
         0.00000E+00
         0.00000E+00
         0.00000E+00
         0.00000E+00
         0.00000E+00
         0.00000E+00
         0.00000E+00
         0.00000E+00
         0.00000E+00
         0.00000E+00
         0.00000E+00
         0.00000E+00
         0.00000E+00
         0.00000E+00
         0.00000E+00
         0.00000E+00
         0.00000E+00
         0.00000E+00
         0.00000E+00
         0.00000E+00
         0.00000E+00
         0.00000E+00
         0.00000E+00
         0.00000E+00
         0.00000E+00
         0.00000E+00
         0.00000E+00
         0.00000E+00
         0.00000E+00
         0.00000E+00
         0.00000E+00
         0.00000E+00
         0.00000E+00
         0.00000E+00
         0.00000E+00
         0.00000E+00
         0.00000E+00
         0.00000E+00
         0.00000E+00
         0.00000E+00
         0.00000E+00
         0.00000E+00
         0.00000E+00
         0.00000E+00
         0.00000E+00
         0.00000E+00
         0.00000E+00
         0.00000E+00
         0.00000E+00
         0.00000E+00
         0.00000E+00
         0.00000E+00
         0.00000E+00
         0.00000E+00
         0.00000E+00
         0.00000E+00
         0.00000E+00
         0.00000E+00
         0.00000E+00
         0.00000E+00
         0.00000E+00
         0.00000E+00
         0.00000E+00
         0.00000E+00
         0.00000E+00
         0.00000E+00
         0.00000E+00
         0.00000E+00
         0.00000E+00
         0.00000E+00
         0.00000E+00
         0.00000E+00
         0.00000E+00
         0.00000E+00
         0.00000E+00
         0.00000E+00
         0.00000E+00
         0.00000E+00
         0.00000E+00
         0.00000E+00
         0.00000E+00
         0.00000E+00
         0.00000E+00
         0.00000E+00
         0.00000E+00
         0.00000E+00
         0.00000E+00
         0.00000E+00
         0.00000E+00
         0.00000E+00
         0.00000E+00
         0.00000E+00
         0.00000E+00
         0.00000E+00
         0.00000E+00
         0.00000E+00
         0.00000E+00
         0.00000E+00
         0.00000E+00
         0.00000E+00
         0.00000E+00
         0.00000E+00
         0.00000E+00
         0.00000E+00
         0.00000E+00
         0.00000E+00
         0.00000E+00
         0.00000E+00
         0.00000E+00
         0.00000E+00
         0.00000E+00
         0.00000E+00
         0.00000E+00
         0.00000E+00
         0.00000E+00
         0.00000E+00
         0.00000E+00
         0.00000E+00
         0.00000E+00
         0.00000E+00
         0.00000E+00
         0.00000E+00
         0.00000E+00
         0.00000E+00
         0.00000E+00
         0.00000E+00
         0.00000E+00
         0.00000E+00
         0.00000E+00
         0.00000E+00
         0.00000E+00
         0.00000E+00
         0.00000E+00
         0.00000E+00
         0.00000E+00
         0.00000E+00
         0.00000E+00
         0.00000E+00
         0.00000E+00
         0.00000E+00
         0.00000E+00
         0.00000E+00
         0.00000E+00
         0.00000E+00
         0.00000E+00
         0.00000E+00
         0.00000E+00
         0.00000E+00
         0.00000E+00
         0.00000E+00
         0.00000E+00
         0.00000E+00
         0.00000E+00
         0.00000E+00
         0.00000E+00
         0.00000E+00
         0.00000E+00
         0.00000E+00
         0.00000E+00
         0.00000E+00
         0.00000E+00
         0.00000E+00
         0.00000E+00
         0.00000E+00
         0.00000E+00
         0.00000E+00
         0.00000E+00
         0.00000E+00
         0.00000E+00
         0.00000E+00
         0.00000E+00
         0.00000E+00
         0.00000E+00
         0.00000E+00
         0.00000E+00
         0.00000E+00
         0.00000E+00
         0.00000E+00
         0.00000E+00
         0.00000E+00
         0.00000E+00
         0.00000E+00
         0.00000E+00
         0.00000E+00
         0.00000E+00
         0.00000E+00
         0.00000E+00
         0.00000E+00
         0.00000E+00
         0.00000E+00
         0.00000E+00
         0.00000E+00
         0.00000E+00
         0.00000E+00
         0.00000E+00
         0.00000E+00
         0.00000E+00
         0.00000E+00
         0.00000E+00
         0.00000E+00
         0.00000E+00
         0.00000E+00
         0.00000E+00
         0.00000E+00
         0.00000E+00
         0.00000E+00
         0.00000E+00
         0.00000E+00
         0.00000E+00
         0.00000E+00
         0.00000E+00
         0.00000E+00
         0.00000E+00
         0.00000E+00
         0.00000E+00
         0.00000E+00
         0.00000E+00
         0.00000E+00
         0.00000E+00
         0.00000E+00
         0.00000E+00
         0.00000E+00
         0.00000E+00
         0.00000E+00
         0.00000E+00
         0.00000E+00
         0.00000E+00
         0.00000E+00
         0.00000E+00
         0.00000E+00
         0.00000E+00
         0.00000E+00
         0.00000E+00
         0.00000E+00
         0.00000E+00
         0.00000E+00
         0.00000E+00
         0.00000E+00
         0.00000E+00
         0.00000E+00
         0.00000E+00
         0.00000E+00
         0.00000E+00
         0.00000E+00
         0.00000E+00
         0.00000E+00
         0.00000E+00
         0.00000E+00
         0.00000E+00
         0.00000E+00
         0.00000E+00
         0.00000E+00
         0.00000E+00
         0.00000E+00
         0.00000E+00
         0.00000E+00
         0.00000E+00
         0.00000E+00
         0.00000E+00
         0.00000E+00
         0.00000E+00
         0.00000E+00
         0.00000E+00
         0.00000E+00
         0.00000E+00
         0.00000E+00
         0.00000E+00
         0.00000E+00
         0.00000E+00
         0.00000E+00
         0.00000E+00
         0.00000E+00
         0.00000E+00
         0.00000E+00
         0.00000E+00
         0.00000E+00
         0.00000E+00
         0.00000E+00
         0.00000E+00
         0.00000E+00
         0.00000E+00
         0.00000E+00
         0.00000E+00
         0.00000E+00
         0.00000E+00
         0.00000E+00
         0.00000E+00
         0.00000E+00
         0.00000E+00
         0.00000E+00
         0.00000E+00
         0.00000E+00
         0.00000E+00
         0.00000E+00
         0.00000E+00
         0.00000E+00
         0.00000E+00
         0.00000E+00
         0.00000E+00
         0.00000E+00
         0.00000E+00
         0.00000E+00
         0.00000E+00
         0.00000E+00
         0.00000E+00
         0.00000E+00
         0.00000E+00
         0.00000E+00
         0.00000E+00
         0.00000E+00
         0.00000E+00
         0.00000E+00
         0.00000E+00
         0.00000E+00
         0.00000E+00
         0.00000E+00
         0.00000E+00
         0.00000E+00
         0.00000E+00
         0.00000E+00
         0.00000E+00
         0.00000E+00
         0.00000E+00
         0.00000E+00
         0.00000E+00
         0.00000E+00
         0.00000E+00
         0.00000E+00
         0.00000E+00
         0.00000E+00
         0.00000E+00
         0.00000E+00
         0.00000E+00
         0.00000E+00
         0.00000E+00
         0.00000E+00
         0.00000E+00
         0.00000E+00
         0.00000E+00
         0.00000E+00
         0.00000E+00
         0.00000E+00
         0.00000E+00
         0.00000E+00
         0.00000E+00
         0.00000E+00
         0.00000E+00
         0.00000E+00
         0.00000E+00
         0.00000E+00
         0.00000E+00
         0.00000E+00
         0.00000E+00
         0.00000E+00
         0.00000E+00
         0.00000E+00
         0.00000E+00
         0.00000E+00
         0.00000E+00
         0.00000E+00
         0.00000E+00
         0.00000E+00
         0.00000E+00
         0.00000E+00
         0.00000E+00
         0.00000E+00
         0.00000E+00
         0.00000E+00
         0.00000E+00
         0.00000E+00
         0.00000E+00
         0.00000E+00
         0.00000E+00
         0.00000E+00
         0.00000E+00
         0.00000E+00
         0.00000E+00
         0.00000E+00
         0.00000E+00
         0.00000E+00
         0.00000E+00
         0.00000E+00
         0.00000E+00
         0.00000E+00
         0.00000E+00
         0.00000E+00
         0.00000E+00
         0.00000E+00
         0.00000E+00
         0.00000E+00
         0.00000E+00
         0.00000E+00
         0.00000E+00
         0.00000E+00
         0.00000E+00
         0.00000E+00
         0.00000E+00
         0.00000E+00
         0.00000E+00
         0.00000E+00
         0.00000E+00
         0.00000E+00
         0.00000E+00
         0.00000E+00
         0.00000E+00
         0.00000E+00
         0.00000E+00
         0.00000E+00
         0.00000E+00
         0.00000E+00
         0.00000E+00
         0.00000E+00
         0.00000E+00
         0.00000E+00
         0.00000E+00
         0.00000E+00
         0.00000E+00
         0.00000E+00
         0.00000E+00
         0.00000E+00
         0.00000E+00
         0.00000E+00
         0.00000E+00
         0.00000E+00
         0.00000E+00
         0.00000E+00
         0.00000E+00
         0.00000E+00
         0.00000E+00
         0.00000E+00
         0.00000E+00
         0.00000E+00
         0.00000E+00
         0.00000E+00
         0.00000E+00
         0.00000E+00
         0.00000E+00
         0.00000E+00
         0.00000E+00
         0.00000E+00
         0.00000E+00
         0.00000E+00
         0.00000E+00
         0.00000E+00
         0.00000E+00
         0.00000E+00
         0.00000E+00
         0.00000E+00
         0.00000E+00
         0.00000E+00
         0.00000E+00
         0.00000E+00
         0.00000E+00
         0.00000E+00
         0.00000E+00
         0.00000E+00
         0.00000E+00
         0.00000E+00
         0.00000E+00
         0.00000E+00
         0.00000E+00
         0.00000E+00
         0.00000E+00
         0.00000E+00
         0.00000E+00
         0.00000E+00
         0.00000E+00
         0.00000E+00
         0.00000E+00
         0.00000E+00
         0.00000E+00
         0.00000E+00
         0.00000E+00
         0.00000E+00
         0.00000E+00
         0.00000E+00
         0.00000E+00
         0.00000E+00
         0.00000E+00
         0.00000E+00
         0.00000E+00
         0.00000E+00
         0.00000E+00
         0.00000E+00
         0.00000E+00
         0.00000E+00
         0.00000E+00
         0.00000E+00
         0.00000E+00
         0.00000E+00
         0.00000E+00
         0.00000E+00
         0.00000E+00
         0.00000E+00
         0.00000E+00
         0.00000E+00
         0.00000E+00
         0.00000E+00
         0.00000E+00
         0.00000E+00
         0.00000E+00
         0.00000E+00
         0.00000E+00
         0.00000E+00
         0.00000E+00
         0.00000E+00
         0.00000E+00
         0.00000E+00
         0.00000E+00
         0.00000E+00
         0.00000E+00
         0.00000E+00
         0.00000E+00
         0.00000E+00
         0.00000E+00
         0.00000E+00
         0.00000E+00
         0.00000E+00
         0.00000E+00
         0.00000E+00
         0.00000E+00
         0.00000E+00
         0.00000E+00
         0.00000E+00
         0.00000E+00
         0.00000E+00
         0.00000E+00
         0.00000E+00
         0.00000E+00
         0.00000E+00
         0.00000E+00
         0.00000E+00
         0.00000E+00
         0.00000E+00
         0.00000E+00
         0.00000E+00
         0.00000E+00
         0.00000E+00
         0.00000E+00
         0.00000E+00
         0.00000E+00
         0.00000E+00
         0.00000E+00
         0.00000E+00
         0.00000E+00
         0.00000E+00
         0.00000E+00
         0.00000E+00
         0.00000E+00
         0.00000E+00
         0.00000E+00
         0.00000E+00
         0.00000E+00
         0.00000E+00
         0.00000E+00
         0.00000E+00
         0.00000E+00
         0.00000E+00
         0.00000E+00
         0.00000E+00
         0.00000E+00
         0.00000E+00
         0.00000E+00
         0.00000E+00
         0.00000E+00
         0.00000E+00
         0.00000E+00
         0.00000E+00
         0.00000E+00
         0.00000E+00
         0.00000E+00
         0.00000E+00
         0.00000E+00
         0.00000E+00
         0.00000E+00
         0.00000E+00
         0.00000E+00
         0.00000E+00
         0.00000E+00
         0.00000E+00
         0.00000E+00
         0.00000E+00
         0.00000E+00
         0.00000E+00
         0.00000E+00
         0.00000E+00
         0.00000E+00
         0.00000E+00
         0.00000E+00
         0.00000E+00
         0.00000E+00
         0.00000E+00
         0.00000E+00
         0.00000E+00
         0.00000E+00
         0.00000E+00
         0.00000E+00
         0.00000E+00
         0.00000E+00
         0.00000E+00
         0.00000E+00
         0.00000E+00
         0.00000E+00
         0.00000E+00
         0.00000E+00
         0.00000E+00
         0.00000E+00
         0.00000E+00
         0.00000E+00
         0.00000E+00
         0.00000E+00
         0.00000E+00
         0.00000E+00
         0.00000E+00
         0.00000E+00
         0.00000E+00
         0.00000E+00
         0.00000E+00
         0.00000E+00
         0.00000E+00
         0.00000E+00
         0.00000E+00
         0.00000E+00
         0.00000E+00
         0.00000E+00
         0.00000E+00
         0.00000E+00
         0.00000E+00
         0.00000E+00
         0.00000E+00
         0.00000E+00
         0.00000E+00
         0.00000E+00
         0.00000E+00
         0.00000E+00
         0.00000E+00
         0.00000E+00
         0.00000E+00
         0.00000E+00
         0.00000E+00
         0.00000E+00
         0.00000E+00
         0.00000E+00
         0.00000E+00
         0.00000E+00
         0.00000E+00
         0.00000E+00
         0.00000E+00
         0.00000E+00
         0.00000E+00
         0.00000E+00
         0.00000E+00
         0.00000E+00
         0.00000E+00
         0.00000E+00
         0.00000E+00
         0.00000E+00
         0.00000E+00
         0.00000E+00
         0.00000E+00
         0.00000E+00
         0.00000E+00
         0.00000E+00
         0.00000E+00
         0.00000E+00
         0.00000E+00
         0.00000E+00
         0.00000E+00
         0.00000E+00
         0.00000E+00
         0.00000E+00
         0.00000E+00
         0.00000E+00
         0.00000E+00
         0.00000E+00
         0.00000E+00
         0.00000E+00
         0.00000E+00
         0.00000E+00
         0.00000E+00
         0.00000E+00
         0.00000E+00
         0.00000E+00
         0.00000E+00
         0.00000E+00
         0.00000E+00
         0.00000E+00
         0.00000E+00
         0.00000E+00
         0.00000E+00
         0.00000E+00
         0.00000E+00
         0.00000E+00
         0.00000E+00
         0.00000E+00
         0.00000E+00
         0.00000E+00
         0.00000E+00
         0.00000E+00
         0.00000E+00
         0.00000E+00
         0.00000E+00
         0.00000E+00
         0.00000E+00
         0.00000E+00
         0.00000E+00
         0.00000E+00
         0.00000E+00
         0.00000E+00
         0.00000E+00
         0.00000E+00
         0.00000E+00
         0.00000E+00
         0.00000E+00
         0.00000E+00
         0.00000E+00
         0.00000E+00
         0.00000E+00
         0.00000E+00
         0.00000E+00
         0.00000E+00
         0.00000E+00
         0.00000E+00
         0.00000E+00
         0.00000E+00
         0.00000E+00
         0.00000E+00
         0.00000E+00
         0.00000E+00
         0.00000E+00
         0.00000E+00
         0.00000E+00
         0.00000E+00
         0.00000E+00
         0.00000E+00
         0.00000E+00
         0.00000E+00
         0.00000E+00
         0.00000E+00
         0.00000E+00
         0.00000E+00
         0.00000E+00
         0.00000E+00
         0.00000E+00
         0.00000E+00
         0.00000E+00
         0.00000E+00
         0.00000E+00
         0.00000E+00
         0.00000E+00
         0.00000E+00
         0.00000E+00
         0.00000E+00
         0.00000E+00
         0.00000E+00
         0.00000E+00
         0.00000E+00
         0.00000E+00
         0.00000E+00
         0.00000E+00
         0.00000E+00
         0.00000E+00
         0.00000E+00
         0.00000E+00
         0.00000E+00
         0.00000E+00
         0.00000E+00
         0.00000E+00
         0.00000E+00
         0.00000E+00
         0.00000E+00
         0.00000E+00
         0.00000E+00
         0.00000E+00
         0.00000E+00
         0.00000E+00
         0.00000E+00
         0.00000E+00
         0.00000E+00
         0.00000E+00
         0.00000E+00
         0.00000E+00
         0.00000E+00
         0.00000E+00
         0.00000E+00
         0.00000E+00
         0.00000E+00
         0.00000E+00
         0.00000E+00
         0.00000E+00
         0.00000E+00
         0.00000E+00
         0.00000E+00
         0.00000E+00
         0.00000E+00
         0.00000E+00
         0.00000E+00
         0.00000E+00
         0.00000E+00
         0.00000E+00
         0.00000E+00
         0.00000E+00
         0.00000E+00
         0.00000E+00
         0.00000E+00
         0.00000E+00
         0.00000E+00
         0.00000E+00
         0.00000E+00
         0.00000E+00
         0.00000E+00
         0.00000E+00
         0.00000E+00
         0.00000E+00
         0.00000E+00
         0.00000E+00
         0.00000E+00
         0.00000E+00
         0.00000E+00
         0.00000E+00
         0.00000E+00
         0.00000E+00
         0.00000E+00
         0.00000E+00
         0.00000E+00
         0.00000E+00
         0.00000E+00
         0.00000E+00
         0.00000E+00
         0.00000E+00
         0.00000E+00
         0.00000E+00
         0.00000E+00
         0.00000E+00
         0.00000E+00
         0.00000E+00
         0.00000E+00
         0.00000E+00
         0.00000E+00
         0.00000E+00
         0.00000E+00
         0.00000E+00
         0.00000E+00
         0.00000E+00
         0.00000E+00
         0.00000E+00
         0.00000E+00
         0.00000E+00
         0.00000E+00
         0.00000E+00
         0.00000E+00
         0.00000E+00
         0.00000E+00
         0.00000E+00
         0.00000E+00
         0.00000E+00
         0.00000E+00
         0.00000E+00
         0.00000E+00
         0.00000E+00
         0.00000E+00
         0.00000E+00
         0.00000E+00
         0.00000E+00
         0.00000E+00
         0.00000E+00
         0.00000E+00
         0.00000E+00
         0.00000E+00
         0.00000E+00
         0.00000E+00
         0.00000E+00
         0.00000E+00
         0.00000E+00
         0.00000E+00
         0.00000E+00
         0.00000E+00
         0.00000E+00
         0.00000E+00
         0.00000E+00
         0.00000E+00
         0.00000E+00
         0.00000E+00
         0.00000E+00
         0.00000E+00
         0.00000E+00
         0.00000E+00
         0.00000E+00
         0.00000E+00
         0.00000E+00
         0.00000E+00
         0.00000E+00
         0.00000E+00
         0.00000E+00
         0.00000E+00
         0.00000E+00
         0.00000E+00
         0.00000E+00
         0.00000E+00
         0.00000E+00
         0.00000E+00
         0.00000E+00
         0.00000E+00
         0.00000E+00
         0.00000E+00
         0.00000E+00
         0.00000E+00
         0.00000E+00
         0.00000E+00
         0.00000E+00
         0.00000E+00
         0.00000E+00
         0.00000E+00
         0.00000E+00
         0.00000E+00
         0.00000E+00
         0.00000E+00
         0.00000E+00
         0.00000E+00
         0.00000E+00
         0.00000E+00
         0.00000E+00
         0.00000E+00
         0.00000E+00
         0.00000E+00
         0.00000E+00
         0.00000E+00
         0.00000E+00
         0.00000E+00
         0.00000E+00
         0.00000E+00
         0.00000E+00
         0.00000E+00
         0.00000E+00
         0.00000E+00
         0.00000E+00
         0.00000E+00
         0.00000E+00
         0.00000E+00
         0.00000E+00
         0.00000E+00
         0.00000E+00
         0.00000E+00
         0.00000E+00
         0.00000E+00
         0.00000E+00
         0.00000E+00
         0.00000E+00
         0.00000E+00
         0.00000E+00
         0.00000E+00
         0.00000E+00
         0.00000E+00
         0.00000E+00
         0.00000E+00
         0.00000E+00
         0.00000E+00
         0.00000E+00
         0.00000E+00
         0.00000E+00
         0.00000E+00
         0.00000E+00
         0.00000E+00
         0.00000E+00
         0.00000E+00
         0.00000E+00
         0.00000E+00
         0.00000E+00
         0.00000E+00
         0.00000E+00
         0.00000E+00
         0.00000E+00
         0.00000E+00
         0.00000E+00
         0.00000E+00
         0.00000E+00
         0.00000E+00
         0.00000E+00
         0.00000E+00
         0.00000E+00
         0.00000E+00
         0.00000E+00
         0.00000E+00
         0.00000E+00
         0.00000E+00
         0.00000E+00
         0.00000E+00
         0.00000E+00
         0.00000E+00
         0.00000E+00
         0.00000E+00
         0.00000E+00
         0.00000E+00
         0.00000E+00
         0.00000E+00
         0.00000E+00
         0.00000E+00
         0.00000E+00
         0.00000E+00
         0.00000E+00
         0.00000E+00
         0.00000E+00
         0.00000E+00
         0.00000E+00
         0.00000E+00
         0.00000E+00
         0.00000E+00
         0.00000E+00
         0.00000E+00
         0.00000E+00
         0.00000E+00
         0.00000E+00
         0.00000E+00
         0.00000E+00
         0.00000E+00
         0.00000E+00
         0.00000E+00
         0.00000E+00
         0.00000E+00
         0.00000E+00
         0.00000E+00
         0.00000E+00
         0.00000E+00
         0.00000E+00
         0.00000E+00
         0.00000E+00
         0.00000E+00
         0.00000E+00
         0.00000E+00
         0.00000E+00
         0.00000E+00
         0.00000E+00
         0.00000E+00
         0.00000E+00
         0.00000E+00
         0.00000E+00
         0.00000E+00
         0.00000E+00
         0.00000E+00
         0.00000E+00
         0.00000E+00
         0.00000E+00
         0.00000E+00
         0.00000E+00
         0.00000E+00
         0.00000E+00
         0.00000E+00
         0.00000E+00
         0.00000E+00
         0.00000E+00
         0.00000E+00
         0.00000E+00
         0.00000E+00
         0.00000E+00
         0.00000E+00
         0.00000E+00
         0.00000E+00
         0.00000E+00
         0.00000E+00
         0.00000E+00
         0.00000E+00
         0.00000E+00
         0.00000E+00
         0.00000E+00
         0.00000E+00
         0.00000E+00
         0.00000E+00
         0.00000E+00
         0.00000E+00
         0.00000E+00
         0.00000E+00
         0.00000E+00
         0.00000E+00
         0.00000E+00
         0.00000E+00
         0.00000E+00
         0.00000E+00
         0.00000E+00
         0.00000E+00
         0.00000E+00
         0.00000E+00
         0.00000E+00
         0.00000E+00
         0.00000E+00
         0.00000E+00
         0.00000E+00
         0.00000E+00
         0.00000E+00
         0.00000E+00
         0.00000E+00
         0.00000E+00
         0.00000E+00
         0.00000E+00
         0.00000E+00
         0.00000E+00
         0.00000E+00
         0.00000E+00
         0.00000E+00
         0.00000E+00
         0.00000E+00
         0.00000E+00
         0.00000E+00
         0.00000E+00
         0.00000E+00
         0.00000E+00
         0.00000E+00
         0.00000E+00
         0.00000E+00
         0.00000E+00
         0.00000E+00
         0.00000E+00
         0.00000E+00
         0.00000E+00
         0.00000E+00
         0.00000E+00
         0.00000E+00
         0.00000E+00
         0.00000E+00
         0.00000E+00
         0.00000E+00
         0.00000E+00
         0.00000E+00
         0.00000E+00
         0.00000E+00
         0.00000E+00
         0.00000E+00
         0.00000E+00
         0.00000E+00
         0.00000E+00
         0.00000E+00
         0.00000E+00
         0.00000E+00
         0.00000E+00
         0.00000E+00
         0.00000E+00
         0.00000E+00
         0.00000E+00
         0.00000E+00
         0.00000E+00
         0.00000E+00
         0.00000E+00
         0.00000E+00
         0.00000E+00
         0.00000E+00
         0.00000E+00
         0.00000E+00
         0.00000E+00
         0.00000E+00
         0.00000E+00
         0.00000E+00
         0.00000E+00
         0.00000E+00
         0.00000E+00
         0.00000E+00
         0.00000E+00
         0.00000E+00
         0.00000E+00
         0.00000E+00
         0.00000E+00
         0.00000E+00
         0.00000E+00
         0.00000E+00
         0.00000E+00
         0.00000E+00
         0.00000E+00
         0.00000E+00
         0.00000E+00
         0.00000E+00
         0.00000E+00
         0.00000E+00
         0.00000E+00
         0.00000E+00
         0.00000E+00
         0.00000E+00
         0.00000E+00
         0.00000E+00
         0.00000E+00
         0.00000E+00
         0.00000E+00
         0.00000E+00
         0.00000E+00
         0.00000E+00
         0.00000E+00
         0.00000E+00
         0.00000E+00
         0.00000E+00
         0.00000E+00
         0.00000E+00
         0.00000E+00
         0.00000E+00
         0.00000E+00
         0.00000E+00
         0.00000E+00
         0.00000E+00
         0.00000E+00
         0.00000E+00
         0.00000E+00
         0.00000E+00
         0.00000E+00
         0.00000E+00
         0.00000E+00
         0.00000E+00
         0.00000E+00
         0.00000E+00
         0.00000E+00
         0.00000E+00
         0.00000E+00
         0.00000E+00
         0.00000E+00
         0.00000E+00
         0.00000E+00
         0.00000E+00
         0.00000E+00
         0.00000E+00
         0.00000E+00
         0.00000E+00
         0.00000E+00
         0.00000E+00
         0.00000E+00
         0.00000E+00
         0.00000E+00
         0.00000E+00
         0.00000E+00
         0.00000E+00
         0.00000E+00
         0.00000E+00
         0.00000E+00
         0.00000E+00
         0.00000E+00
         0.00000E+00
         0.00000E+00
         0.00000E+00
         0.00000E+00
         0.00000E+00
         0.00000E+00
         0.00000E+00
         0.00000E+00
         0.00000E+00
         0.00000E+00
         0.00000E+00
         0.00000E+00
         0.00000E+00
         0.00000E+00
         0.00000E+00
         0.00000E+00
         0.00000E+00
         0.00000E+00
         0.00000E+00
         0.00000E+00
         0.00000E+00
         0.00000E+00
         0.00000E+00
         0.00000E+00
         0.00000E+00
         0.00000E+00
         0.00000E+00
         0.00000E+00
         0.00000E+00
         0.00000E+00
         0.00000E+00
         0.00000E+00
         0.00000E+00
         0.00000E+00
         0.00000E+00
         0.00000E+00
         0.00000E+00
         0.00000E+00
         0.00000E+00
         0.00000E+00
         0.00000E+00
         0.00000E+00
         0.00000E+00
         0.00000E+00
         0.00000E+00
         0.00000E+00
         0.00000E+00
         0.00000E+00
         0.00000E+00
         0.00000E+00
         0.00000E+00
         0.00000E+00
         0.00000E+00
         0.00000E+00
         0.00000E+00
         0.00000E+00
         0.00000E+00
         0.00000E+00
         0.00000E+00
         0.00000E+00
         0.00000E+00
         0.00000E+00
         0.00000E+00
         0.00000E+00
         0.00000E+00
         0.00000E+00
         0.00000E+00
         0.00000E+00
         0.00000E+00
         0.00000E+00
         0.00000E+00
         0.00000E+00
         0.00000E+00
         0.00000E+00
         0.00000E+00
         0.00000E+00
         0.00000E+00
         0.00000E+00
         0.00000E+00
         0.00000E+00
         0.00000E+00
         0.00000E+00
         0.00000E+00
         0.00000E+00
         0.00000E+00
         0.00000E+00
         0.00000E+00
         0.00000E+00
         0.00000E+00
         0.00000E+00
         0.00000E+00
         0.00000E+00
         0.00000E+00
         0.00000E+00
         0.00000E+00
         0.00000E+00
         0.00000E+00
         0.00000E+00
         0.00000E+00
         0.00000E+00
         0.00000E+00
         0.00000E+00
         0.00000E+00
         0.00000E+00
         0.00000E+00
         0.00000E+00
         0.00000E+00
         0.00000E+00
         0.00000E+00
         0.00000E+00
         0.00000E+00
         0.00000E+00
         0.00000E+00
         0.00000E+00
         0.00000E+00
         0.00000E+00
         0.00000E+00
         0.00000E+00
         0.00000E+00
         0.00000E+00
         0.00000E+00
         0.00000E+00
         0.00000E+00
         0.00000E+00
         0.00000E+00
         0.00000E+00
         0.00000E+00
         0.00000E+00
         0.00000E+00
         0.00000E+00
         0.00000E+00
         0.00000E+00
         0.00000E+00
         0.00000E+00
         0.00000E+00
         0.00000E+00
         0.00000E+00
         0.00000E+00
         0.00000E+00
         0.00000E+00
         0.00000E+00
         0.00000E+00
         0.00000E+00
         0.00000E+00
         0.00000E+00
         0.00000E+00
         0.00000E+00
         0.00000E+00
         0.00000E+00
         0.00000E+00
         0.00000E+00
         0.00000E+00
         0.00000E+00
         0.00000E+00
         0.00000E+00
         0.00000E+00
         0.00000E+00
         0.00000E+00
         0.00000E+00
         0.00000E+00
         0.00000E+00
         0.00000E+00
         0.00000E+00
         0.00000E+00
         0.00000E+00
         0.00000E+00
         0.00000E+00
         0.00000E+00
         0.00000E+00
         0.00000E+00
         0.00000E+00
         0.00000E+00
         0.00000E+00
         0.00000E+00
         0.00000E+00
         0.00000E+00
         0.00000E+00
         0.00000E+00
         0.00000E+00
         0.00000E+00
         0.00000E+00
         0.00000E+00
         0.00000E+00
         0.00000E+00
         0.00000E+00
         0.00000E+00
         0.00000E+00
         0.00000E+00
         0.00000E+00
         0.00000E+00
         0.00000E+00
         0.00000E+00
         0.00000E+00
         0.00000E+00
         0.00000E+00
         0.00000E+00
         0.00000E+00
         0.00000E+00
         0.00000E+00
         0.00000E+00
         0.00000E+00
         0.00000E+00
         0.00000E+00
         0.00000E+00
         0.00000E+00
         0.00000E+00
         0.00000E+00
         0.00000E+00
         0.00000E+00
         0.00000E+00
         0.00000E+00
         0.00000E+00
         0.00000E+00
         0.00000E+00
         0.00000E+00
         0.00000E+00
         0.00000E+00
         0.00000E+00
         0.00000E+00
         0.00000E+00
         0.00000E+00
         0.00000E+00
         0.00000E+00
         0.00000E+00
         0.00000E+00
         0.00000E+00
         0.00000E+00
         0.00000E+00
         0.00000E+00
         0.00000E+00
         0.00000E+00
         0.00000E+00
         0.00000E+00
         0.00000E+00
         0.00000E+00
         0.00000E+00
         0.00000E+00
         0.00000E+00
         0.00000E+00
         0.00000E+00
         0.00000E+00
         0.00000E+00
         0.00000E+00
         0.00000E+00
         0.00000E+00
         0.00000E+00
         0.00000E+00
         0.00000E+00
         0.00000E+00
         0.00000E+00
         0.00000E+00
         0.00000E+00
         0.00000E+00
         0.00000E+00
         0.00000E+00
         0.00000E+00
         0.00000E+00
         0.00000E+00
         0.00000E+00
         0.00000E+00
         0.00000E+00
         0.00000E+00
         0.00000E+00
         0.00000E+00
         0.00000E+00
         0.00000E+00
         0.00000E+00
         0.00000E+00
         0.00000E+00
         0.00000E+00
         0.00000E+00
         0.00000E+00
         0.00000E+00
         0.00000E+00
         0.00000E+00
         0.00000E+00
         0.00000E+00
         0.00000E+00
         0.00000E+00
         0.00000E+00
         0.00000E+00
         0.00000E+00
         0.00000E+00
         0.00000E+00
         0.00000E+00
         0.00000E+00
         0.00000E+00
         0.00000E+00
         0.00000E+00
         0.00000E+00
         0.00000E+00
         0.00000E+00
         0.00000E+00
         0.00000E+00
         0.00000E+00
         0.00000E+00
         0.00000E+00
         0.00000E+00
         0.00000E+00
         0.00000E+00
         0.00000E+00
         0.00000E+00
         0.00000E+00
         0.00000E+00
         0.00000E+00
         0.00000E+00
         0.00000E+00
         0.00000E+00
         0.00000E+00
         0.00000E+00
         0.00000E+00
         0.00000E+00
         0.00000E+00
         0.00000E+00
         0.00000E+00
         0.00000E+00
         0.00000E+00
         0.00000E+00
         0.00000E+00
         0.00000E+00
         0.00000E+00
         0.00000E+00
         0.00000E+00
         0.00000E+00
         0.00000E+00
         0.00000E+00
         0.00000E+00
         0.00000E+00
         0.00000E+00
         0.00000E+00
         0.00000E+00
         0.00000E+00
         0.00000E+00
         0.00000E+00
         0.00000E+00
         0.00000E+00
         0.00000E+00
         0.00000E+00
         0.00000E+00
         0.00000E+00
         0.00000E+00
         0.00000E+00
         0.00000E+00
         0.00000E+00
         0.00000E+00
         0.00000E+00
         0.00000E+00
         0.00000E+00
         0.00000E+00
         0.00000E+00
         0.00000E+00
         0.00000E+00
         0.00000E+00
         0.00000E+00
         0.00000E+00
         0.00000E+00
         0.00000E+00
         0.00000E+00
         0.00000E+00
         0.00000E+00
         0.00000E+00
         0.00000E+00
         0.00000E+00
         0.00000E+00
         0.00000E+00
         0.00000E+00
         0.00000E+00
         0.00000E+00
         0.00000E+00
         0.00000E+00
         0.00000E+00
         0.00000E+00
         0.00000E+00
         0.00000E+00
         0.00000E+00
         0.00000E+00
         0.00000E+00
         0.00000E+00
         0.00000E+00
         0.00000E+00
         0.00000E+00
         0.00000E+00
         0.00000E+00
         0.00000E+00
         0.00000E+00
         0.00000E+00
         0.00000E+00
         0.00000E+00
         0.00000E+00
         0.00000E+00
         0.00000E+00
         0.00000E+00
         0.00000E+00
         0.00000E+00
         0.00000E+00
         0.00000E+00
         0.00000E+00
         0.00000E+00
         0.00000E+00
         0.00000E+00
         0.00000E+00
         0.00000E+00
         0.00000E+00
         0.00000E+00
         0.00000E+00
         0.00000E+00
         0.00000E+00
         0.00000E+00
         0.00000E+00
         0.00000E+00
         0.00000E+00
         0.00000E+00
         0.00000E+00
         0.00000E+00
         0.00000E+00
         0.00000E+00
         0.00000E+00
         0.00000E+00
         0.00000E+00
         0.00000E+00
         0.00000E+00
         0.00000E+00
         0.00000E+00
         0.00000E+00
         0.00000E+00
         0.00000E+00
         0.00000E+00
         0.00000E+00
         0.00000E+00
         0.00000E+00
         0.00000E+00
         0.00000E+00
         0.00000E+00
  
SCALARS                      eps_shear  double 1
LOOKUP_TABLE default
         0.00000E+00
         0.00000E+00
         0.00000E+00
         0.00000E+00
         0.00000E+00
         0.00000E+00
         0.00000E+00
         0.00000E+00
         0.00000E+00
         0.00000E+00
         0.00000E+00
         0.00000E+00
         0.00000E+00
         0.00000E+00
         0.00000E+00
         0.00000E+00
         0.00000E+00
         0.00000E+00
         0.00000E+00
         0.00000E+00
         0.00000E+00
         0.00000E+00
         0.00000E+00
         0.00000E+00
         0.00000E+00
         0.00000E+00
         0.00000E+00
         0.00000E+00
         0.00000E+00
         0.00000E+00
         0.00000E+00
         0.00000E+00
         0.00000E+00
         0.00000E+00
         0.00000E+00
         0.00000E+00
         0.00000E+00
         0.00000E+00
         0.00000E+00
         0.00000E+00
         0.00000E+00
         0.00000E+00
         0.00000E+00
         0.00000E+00
         0.00000E+00
         0.00000E+00
         0.00000E+00
         0.00000E+00
         0.00000E+00
         0.00000E+00
         0.00000E+00
         0.00000E+00
         0.00000E+00
         0.00000E+00
         0.00000E+00
         0.00000E+00
         0.00000E+00
         0.00000E+00
         0.00000E+00
         0.00000E+00
         0.00000E+00
         0.00000E+00
         0.00000E+00
         0.00000E+00
         0.00000E+00
         0.00000E+00
         0.00000E+00
         0.00000E+00
         0.00000E+00
         0.00000E+00
         0.00000E+00
         0.00000E+00
         0.00000E+00
         0.00000E+00
         0.00000E+00
         0.00000E+00
         0.00000E+00
         0.00000E+00
         0.00000E+00
         0.00000E+00
         0.00000E+00
         0.00000E+00
         0.00000E+00
         0.00000E+00
         0.00000E+00
         0.00000E+00
         0.00000E+00
         0.00000E+00
         0.00000E+00
         0.00000E+00
         0.00000E+00
         0.00000E+00
         0.00000E+00
         0.00000E+00
         0.00000E+00
         0.00000E+00
         0.00000E+00
         0.00000E+00
         0.00000E+00
         0.00000E+00
         0.00000E+00
         0.00000E+00
         0.00000E+00
         0.00000E+00
         0.00000E+00
         0.00000E+00
         0.00000E+00
         0.00000E+00
         0.00000E+00
         0.00000E+00
         0.00000E+00
         0.00000E+00
         0.00000E+00
         0.00000E+00
         0.00000E+00
         0.00000E+00
         0.00000E+00
         0.00000E+00
         0.00000E+00
         0.00000E+00
         0.00000E+00
         0.00000E+00
         0.00000E+00
         0.00000E+00
         0.00000E+00
         0.00000E+00
         0.00000E+00
         0.00000E+00
         0.00000E+00
         0.00000E+00
         0.00000E+00
         0.00000E+00
         0.00000E+00
         0.00000E+00
         0.00000E+00
         0.00000E+00
         0.00000E+00
         0.00000E+00
         0.00000E+00
         0.00000E+00
         0.00000E+00
         0.00000E+00
         0.00000E+00
         0.00000E+00
         0.00000E+00
         0.00000E+00
         0.00000E+00
         0.00000E+00
         0.00000E+00
         0.00000E+00
         0.00000E+00
         0.00000E+00
         0.00000E+00
         0.00000E+00
         0.00000E+00
         0.00000E+00
         0.00000E+00
         0.00000E+00
         0.00000E+00
         0.00000E+00
         0.00000E+00
         0.00000E+00
         0.00000E+00
         0.00000E+00
         0.00000E+00
         0.00000E+00
         0.00000E+00
         0.00000E+00
         0.00000E+00
         0.00000E+00
         0.00000E+00
         0.00000E+00
         0.00000E+00
         0.00000E+00
         0.00000E+00
         0.00000E+00
         0.00000E+00
         0.00000E+00
         0.00000E+00
         0.00000E+00
         0.00000E+00
         0.00000E+00
         0.00000E+00
         0.00000E+00
         0.00000E+00
         0.00000E+00
         0.00000E+00
         0.00000E+00
         0.00000E+00
         0.00000E+00
         0.00000E+00
         0.00000E+00
         0.00000E+00
         0.00000E+00
         0.00000E+00
         0.00000E+00
         0.00000E+00
         0.00000E+00
         0.00000E+00
         0.00000E+00
         0.00000E+00
         0.00000E+00
         0.00000E+00
         0.00000E+00
         0.00000E+00
         0.00000E+00
         0.00000E+00
         0.00000E+00
         0.00000E+00
         0.00000E+00
         0.00000E+00
         0.00000E+00
         0.00000E+00
         0.00000E+00
         0.00000E+00
         0.00000E+00
         0.00000E+00
         0.00000E+00
         0.00000E+00
         0.00000E+00
         0.00000E+00
         0.00000E+00
         0.00000E+00
         0.00000E+00
         0.00000E+00
         0.00000E+00
         0.00000E+00
         0.00000E+00
         0.00000E+00
         0.00000E+00
         0.00000E+00
         0.00000E+00
         0.00000E+00
         0.00000E+00
         0.00000E+00
         0.00000E+00
         0.00000E+00
         0.00000E+00
         0.00000E+00
         0.00000E+00
         0.00000E+00
         0.00000E+00
         0.00000E+00
         0.00000E+00
         0.00000E+00
         0.00000E+00
         0.00000E+00
         0.00000E+00
         0.00000E+00
         0.00000E+00
         0.00000E+00
         0.00000E+00
         0.00000E+00
         0.00000E+00
         0.00000E+00
         0.00000E+00
         0.00000E+00
         0.00000E+00
         0.00000E+00
         0.00000E+00
         0.00000E+00
         0.00000E+00
         0.00000E+00
         0.00000E+00
         0.00000E+00
         0.00000E+00
         0.00000E+00
         0.00000E+00
         0.00000E+00
         0.00000E+00
         0.00000E+00
         0.00000E+00
         0.00000E+00
         0.00000E+00
         0.00000E+00
         0.00000E+00
         0.00000E+00
         0.00000E+00
         0.00000E+00
         0.00000E+00
         0.00000E+00
         0.00000E+00
         0.00000E+00
         0.00000E+00
         0.00000E+00
         0.00000E+00
         0.00000E+00
         0.00000E+00
         0.00000E+00
         0.00000E+00
         0.00000E+00
         0.00000E+00
         0.00000E+00
         0.00000E+00
         0.00000E+00
         0.00000E+00
         0.00000E+00
         0.00000E+00
         0.00000E+00
         0.00000E+00
         0.00000E+00
         0.00000E+00
         0.00000E+00
         0.00000E+00
         0.00000E+00
         0.00000E+00
         0.00000E+00
         0.00000E+00
         0.00000E+00
         0.00000E+00
         0.00000E+00
         0.00000E+00
         0.00000E+00
         0.00000E+00
         0.00000E+00
         0.00000E+00
         0.00000E+00
         0.00000E+00
         0.00000E+00
         0.00000E+00
         0.00000E+00
         0.00000E+00
         0.00000E+00
         0.00000E+00
         0.00000E+00
         0.00000E+00
         0.00000E+00
         0.00000E+00
         0.00000E+00
         0.00000E+00
         0.00000E+00
         0.00000E+00
         0.00000E+00
         0.00000E+00
         0.00000E+00
         0.00000E+00
         0.00000E+00
         0.00000E+00
         0.00000E+00
         0.00000E+00
         0.00000E+00
         0.00000E+00
         0.00000E+00
         0.00000E+00
         0.00000E+00
         0.00000E+00
         0.00000E+00
         0.00000E+00
         0.00000E+00
         0.00000E+00
         0.00000E+00
         0.00000E+00
         0.00000E+00
         0.00000E+00
         0.00000E+00
         0.00000E+00
         0.00000E+00
         0.00000E+00
         0.00000E+00
         0.00000E+00
         0.00000E+00
         0.00000E+00
         0.00000E+00
         0.00000E+00
         0.00000E+00
         0.00000E+00
         0.00000E+00
         0.00000E+00
         0.00000E+00
         0.00000E+00
         0.00000E+00
         0.00000E+00
         0.00000E+00
         0.00000E+00
         0.00000E+00
         0.00000E+00
         0.00000E+00
         0.00000E+00
         0.00000E+00
         0.00000E+00
         0.00000E+00
         0.00000E+00
         0.00000E+00
         0.00000E+00
         0.00000E+00
         0.00000E+00
         0.00000E+00
         0.00000E+00
         0.00000E+00
         0.00000E+00
         0.00000E+00
         0.00000E+00
         0.00000E+00
         0.00000E+00
         0.00000E+00
         0.00000E+00
         0.00000E+00
         0.00000E+00
         0.00000E+00
         0.00000E+00
         0.00000E+00
         0.00000E+00
         0.00000E+00
         0.00000E+00
         0.00000E+00
         0.00000E+00
         0.00000E+00
         0.00000E+00
         0.00000E+00
         0.00000E+00
         0.00000E+00
         0.00000E+00
         0.00000E+00
         0.00000E+00
         0.00000E+00
         0.00000E+00
         0.00000E+00
         0.00000E+00
         0.00000E+00
         0.00000E+00
         0.00000E+00
         0.00000E+00
         0.00000E+00
         0.00000E+00
         0.00000E+00
         0.00000E+00
         0.00000E+00
         0.00000E+00
         0.00000E+00
         0.00000E+00
         0.00000E+00
         0.00000E+00
         0.00000E+00
         0.00000E+00
         0.00000E+00
         0.00000E+00
         0.00000E+00
         0.00000E+00
         0.00000E+00
         0.00000E+00
         0.00000E+00
         0.00000E+00
         0.00000E+00
         0.00000E+00
         0.00000E+00
         0.00000E+00
         0.00000E+00
         0.00000E+00
         0.00000E+00
         0.00000E+00
         0.00000E+00
         0.00000E+00
         0.00000E+00
         0.00000E+00
         0.00000E+00
         0.00000E+00
         0.00000E+00
         0.00000E+00
         0.00000E+00
         0.00000E+00
         0.00000E+00
         0.00000E+00
         0.00000E+00
         0.00000E+00
         0.00000E+00
         0.00000E+00
         0.00000E+00
         0.00000E+00
         0.00000E+00
         0.00000E+00
         0.00000E+00
         0.00000E+00
         0.00000E+00
         0.00000E+00
         0.00000E+00
         0.00000E+00
         0.00000E+00
         0.00000E+00
         0.00000E+00
         0.00000E+00
         0.00000E+00
         0.00000E+00
         0.00000E+00
         0.00000E+00
         0.00000E+00
         0.00000E+00
         0.00000E+00
         0.00000E+00
         0.00000E+00
         0.00000E+00
         0.00000E+00
         0.00000E+00
         0.00000E+00
         0.00000E+00
         0.00000E+00
         0.00000E+00
         0.00000E+00
         0.00000E+00
         0.00000E+00
         0.00000E+00
         0.00000E+00
         0.00000E+00
         0.00000E+00
         0.00000E+00
         0.00000E+00
         0.00000E+00
         0.00000E+00
         0.00000E+00
         0.00000E+00
         0.00000E+00
         0.00000E+00
         0.00000E+00
         0.00000E+00
         0.00000E+00
         0.00000E+00
         0.00000E+00
         0.00000E+00
         0.00000E+00
         0.00000E+00
         0.00000E+00
         0.00000E+00
         0.00000E+00
         0.00000E+00
         0.00000E+00
         0.00000E+00
         0.00000E+00
         0.00000E+00
         0.00000E+00
         0.00000E+00
         0.00000E+00
         0.00000E+00
         0.00000E+00
         0.00000E+00
         0.00000E+00
         0.00000E+00
         0.00000E+00
         0.00000E+00
         0.00000E+00
         0.00000E+00
         0.00000E+00
         0.00000E+00
         0.00000E+00
         0.00000E+00
         0.00000E+00
         0.00000E+00
         0.00000E+00
         0.00000E+00
         0.00000E+00
         0.00000E+00
         0.00000E+00
         0.00000E+00
         0.00000E+00
         0.00000E+00
         0.00000E+00
         0.00000E+00
         0.00000E+00
         0.00000E+00
         0.00000E+00
         0.00000E+00
         0.00000E+00
         0.00000E+00
         0.00000E+00
         0.00000E+00
         0.00000E+00
         0.00000E+00
         0.00000E+00
         0.00000E+00
         0.00000E+00
         0.00000E+00
         0.00000E+00
         0.00000E+00
         0.00000E+00
         0.00000E+00
         0.00000E+00
         0.00000E+00
         0.00000E+00
         0.00000E+00
         0.00000E+00
         0.00000E+00
         0.00000E+00
         0.00000E+00
         0.00000E+00
         0.00000E+00
         0.00000E+00
         0.00000E+00
         0.00000E+00
         0.00000E+00
         0.00000E+00
         0.00000E+00
         0.00000E+00
         0.00000E+00
         0.00000E+00
         0.00000E+00
         0.00000E+00
         0.00000E+00
         0.00000E+00
         0.00000E+00
         0.00000E+00
         0.00000E+00
         0.00000E+00
         0.00000E+00
         0.00000E+00
         0.00000E+00
         0.00000E+00
         0.00000E+00
         0.00000E+00
         0.00000E+00
         0.00000E+00
         0.00000E+00
         0.00000E+00
         0.00000E+00
         0.00000E+00
         0.00000E+00
         0.00000E+00
         0.00000E+00
         0.00000E+00
         0.00000E+00
         0.00000E+00
         0.00000E+00
         0.00000E+00
         0.00000E+00
         0.00000E+00
         0.00000E+00
         0.00000E+00
         0.00000E+00
         0.00000E+00
         0.00000E+00
         0.00000E+00
         0.00000E+00
         0.00000E+00
         0.00000E+00
         0.00000E+00
         0.00000E+00
         0.00000E+00
         0.00000E+00
         0.00000E+00
         0.00000E+00
         0.00000E+00
         0.00000E+00
         0.00000E+00
         0.00000E+00
         0.00000E+00
         0.00000E+00
         0.00000E+00
         0.00000E+00
         0.00000E+00
         0.00000E+00
         0.00000E+00
         0.00000E+00
         0.00000E+00
         0.00000E+00
         0.00000E+00
         0.00000E+00
         0.00000E+00
         0.00000E+00
         0.00000E+00
         0.00000E+00
         0.00000E+00
         0.00000E+00
         0.00000E+00
         0.00000E+00
         0.00000E+00
         0.00000E+00
         0.00000E+00
         0.00000E+00
         0.00000E+00
         0.00000E+00
         0.00000E+00
         0.00000E+00
         0.00000E+00
         0.00000E+00
         0.00000E+00
         0.00000E+00
         0.00000E+00
         0.00000E+00
         0.00000E+00
         0.00000E+00
         0.00000E+00
         0.00000E+00
         0.00000E+00
         0.00000E+00
         0.00000E+00
         0.00000E+00
         0.00000E+00
         0.00000E+00
         0.00000E+00
         0.00000E+00
         0.00000E+00
         0.00000E+00
         0.00000E+00
         0.00000E+00
         0.00000E+00
         0.00000E+00
         0.00000E+00
         0.00000E+00
         0.00000E+00
         0.00000E+00
         0.00000E+00
         0.00000E+00
         0.00000E+00
         0.00000E+00
         0.00000E+00
         0.00000E+00
         0.00000E+00
         0.00000E+00
         0.00000E+00
         0.00000E+00
         0.00000E+00
         0.00000E+00
         0.00000E+00
         0.00000E+00
         0.00000E+00
         0.00000E+00
         0.00000E+00
         0.00000E+00
         0.00000E+00
         0.00000E+00
         0.00000E+00
         0.00000E+00
         0.00000E+00
         0.00000E+00
         0.00000E+00
         0.00000E+00
         0.00000E+00
         0.00000E+00
         0.00000E+00
         0.00000E+00
         0.00000E+00
         0.00000E+00
         0.00000E+00
         0.00000E+00
         0.00000E+00
         0.00000E+00
         0.00000E+00
         0.00000E+00
         0.00000E+00
         0.00000E+00
         0.00000E+00
         0.00000E+00
         0.00000E+00
         0.00000E+00
         0.00000E+00
         0.00000E+00
         0.00000E+00
         0.00000E+00
         0.00000E+00
         0.00000E+00
         0.00000E+00
         0.00000E+00
         0.00000E+00
         0.00000E+00
         0.00000E+00
         0.00000E+00
         0.00000E+00
         0.00000E+00
         0.00000E+00
         0.00000E+00
         0.00000E+00
         0.00000E+00
         0.00000E+00
         0.00000E+00
         0.00000E+00
         0.00000E+00
         0.00000E+00
         0.00000E+00
         0.00000E+00
         0.00000E+00
         0.00000E+00
         0.00000E+00
         0.00000E+00
         0.00000E+00
         0.00000E+00
         0.00000E+00
         0.00000E+00
         0.00000E+00
         0.00000E+00
         0.00000E+00
         0.00000E+00
         0.00000E+00
         0.00000E+00
         0.00000E+00
         0.00000E+00
         0.00000E+00
         0.00000E+00
         0.00000E+00
         0.00000E+00
         0.00000E+00
         0.00000E+00
         0.00000E+00
         0.00000E+00
         0.00000E+00
         0.00000E+00
         0.00000E+00
         0.00000E+00
         0.00000E+00
         0.00000E+00
         0.00000E+00
         0.00000E+00
         0.00000E+00
         0.00000E+00
         0.00000E+00
         0.00000E+00
         0.00000E+00
         0.00000E+00
         0.00000E+00
         0.00000E+00
         0.00000E+00
         0.00000E+00
         0.00000E+00
         0.00000E+00
         0.00000E+00
         0.00000E+00
         0.00000E+00
         0.00000E+00
         0.00000E+00
         0.00000E+00
         0.00000E+00
         0.00000E+00
         0.00000E+00
         0.00000E+00
         0.00000E+00
         0.00000E+00
         0.00000E+00
         0.00000E+00
         0.00000E+00
         0.00000E+00
         0.00000E+00
         0.00000E+00
         0.00000E+00
         0.00000E+00
         0.00000E+00
         0.00000E+00
         0.00000E+00
         0.00000E+00
         0.00000E+00
         0.00000E+00
         0.00000E+00
         0.00000E+00
         0.00000E+00
         0.00000E+00
         0.00000E+00
         0.00000E+00
         0.00000E+00
         0.00000E+00
         0.00000E+00
         0.00000E+00
         0.00000E+00
         0.00000E+00
         0.00000E+00
         0.00000E+00
         0.00000E+00
         0.00000E+00
         0.00000E+00
         0.00000E+00
         0.00000E+00
         0.00000E+00
         0.00000E+00
         0.00000E+00
         0.00000E+00
         0.00000E+00
         0.00000E+00
         0.00000E+00
         0.00000E+00
         0.00000E+00
         0.00000E+00
         0.00000E+00
         0.00000E+00
         0.00000E+00
         0.00000E+00
         0.00000E+00
         0.00000E+00
         0.00000E+00
         0.00000E+00
         0.00000E+00
         0.00000E+00
         0.00000E+00
         0.00000E+00
         0.00000E+00
         0.00000E+00
         0.00000E+00
         0.00000E+00
         0.00000E+00
         0.00000E+00
         0.00000E+00
         0.00000E+00
         0.00000E+00
         0.00000E+00
         0.00000E+00
         0.00000E+00
         0.00000E+00
         0.00000E+00
         0.00000E+00
         0.00000E+00
         0.00000E+00
         0.00000E+00
         0.00000E+00
         0.00000E+00
         0.00000E+00
         0.00000E+00
         0.00000E+00
         0.00000E+00
         0.00000E+00
         0.00000E+00
         0.00000E+00
         0.00000E+00
         0.00000E+00
         0.00000E+00
         0.00000E+00
         0.00000E+00
         0.00000E+00
         0.00000E+00
         0.00000E+00
         0.00000E+00
         0.00000E+00
         0.00000E+00
         0.00000E+00
         0.00000E+00
         0.00000E+00
         0.00000E+00
         0.00000E+00
         0.00000E+00
         0.00000E+00
         0.00000E+00
         0.00000E+00
         0.00000E+00
         0.00000E+00
         0.00000E+00
         0.00000E+00
         0.00000E+00
         0.00000E+00
         0.00000E+00
         0.00000E+00
         0.00000E+00
         0.00000E+00
         0.00000E+00
         0.00000E+00
         0.00000E+00
         0.00000E+00
         0.00000E+00
         0.00000E+00
         0.00000E+00
         0.00000E+00
         0.00000E+00
         0.00000E+00
         0.00000E+00
         0.00000E+00
         0.00000E+00
         0.00000E+00
         0.00000E+00
         0.00000E+00
         0.00000E+00
         0.00000E+00
         0.00000E+00
         0.00000E+00
         0.00000E+00
         0.00000E+00
         0.00000E+00
         0.00000E+00
         0.00000E+00
         0.00000E+00
         0.00000E+00
         0.00000E+00
         0.00000E+00
         0.00000E+00
         0.00000E+00
         0.00000E+00
         0.00000E+00
         0.00000E+00
         0.00000E+00
         0.00000E+00
         0.00000E+00
         0.00000E+00
         0.00000E+00
         0.00000E+00
         0.00000E+00
         0.00000E+00
         0.00000E+00
         0.00000E+00
         0.00000E+00
         0.00000E+00
         0.00000E+00
         0.00000E+00
         0.00000E+00
         0.00000E+00
         0.00000E+00
         0.00000E+00
         0.00000E+00
         0.00000E+00
         0.00000E+00
         0.00000E+00
         0.00000E+00
         0.00000E+00
         0.00000E+00
         0.00000E+00
         0.00000E+00
         0.00000E+00
         0.00000E+00
         0.00000E+00
         0.00000E+00
         0.00000E+00
         0.00000E+00
         0.00000E+00
         0.00000E+00
         0.00000E+00
         0.00000E+00
         0.00000E+00
         0.00000E+00
         0.00000E+00
         0.00000E+00
         0.00000E+00
         0.00000E+00
         0.00000E+00
         0.00000E+00
         0.00000E+00
         0.00000E+00
         0.00000E+00
         0.00000E+00
         0.00000E+00
         0.00000E+00
         0.00000E+00
         0.00000E+00
         0.00000E+00
         0.00000E+00
         0.00000E+00
         0.00000E+00
         0.00000E+00
         0.00000E+00
         0.00000E+00
         0.00000E+00
         0.00000E+00
         0.00000E+00
         0.00000E+00
         0.00000E+00
         0.00000E+00
         0.00000E+00
         0.00000E+00
         0.00000E+00
         0.00000E+00
         0.00000E+00
         0.00000E+00
         0.00000E+00
         0.00000E+00
         0.00000E+00
         0.00000E+00
         0.00000E+00
         0.00000E+00
         0.00000E+00
         0.00000E+00
         0.00000E+00
         0.00000E+00
         0.00000E+00
         0.00000E+00
         0.00000E+00
         0.00000E+00
         0.00000E+00
         0.00000E+00
         0.00000E+00
         0.00000E+00
         0.00000E+00
         0.00000E+00
         0.00000E+00
         0.00000E+00
         0.00000E+00
         0.00000E+00
         0.00000E+00
         0.00000E+00
         0.00000E+00
         0.00000E+00
         0.00000E+00
         0.00000E+00
         0.00000E+00
         0.00000E+00
         0.00000E+00
         0.00000E+00
         0.00000E+00
         0.00000E+00
         0.00000E+00
         0.00000E+00
         0.00000E+00
         0.00000E+00
         0.00000E+00
         0.00000E+00
         0.00000E+00
         0.00000E+00
         0.00000E+00
         0.00000E+00
         0.00000E+00
         0.00000E+00
         0.00000E+00
         0.00000E+00
         0.00000E+00
         0.00000E+00
         0.00000E+00
         0.00000E+00
         0.00000E+00
         0.00000E+00
         0.00000E+00
         0.00000E+00
         0.00000E+00
         0.00000E+00
         0.00000E+00
         0.00000E+00
         0.00000E+00
         0.00000E+00
         0.00000E+00
         0.00000E+00
         0.00000E+00
         0.00000E+00
         0.00000E+00
         0.00000E+00
         0.00000E+00
         0.00000E+00
         0.00000E+00
         0.00000E+00
         0.00000E+00
         0.00000E+00
         0.00000E+00
         0.00000E+00
         0.00000E+00
         0.00000E+00
         0.00000E+00
         0.00000E+00
         0.00000E+00
         0.00000E+00
         0.00000E+00
         0.00000E+00
         0.00000E+00
         0.00000E+00
         0.00000E+00
         0.00000E+00
         0.00000E+00
         0.00000E+00
         0.00000E+00
         0.00000E+00
         0.00000E+00
         0.00000E+00
         0.00000E+00
         0.00000E+00
         0.00000E+00
         0.00000E+00
         0.00000E+00
         0.00000E+00
         0.00000E+00
         0.00000E+00
         0.00000E+00
         0.00000E+00
         0.00000E+00
         0.00000E+00
         0.00000E+00
         0.00000E+00
         0.00000E+00
         0.00000E+00
         0.00000E+00
         0.00000E+00
         0.00000E+00
         0.00000E+00
         0.00000E+00
         0.00000E+00
         0.00000E+00
         0.00000E+00
         0.00000E+00
         0.00000E+00
         0.00000E+00
         0.00000E+00
         0.00000E+00
         0.00000E+00
         0.00000E+00
         0.00000E+00
         0.00000E+00
         0.00000E+00
         0.00000E+00
         0.00000E+00
         0.00000E+00
         0.00000E+00
         0.00000E+00
         0.00000E+00
         0.00000E+00
         0.00000E+00
         0.00000E+00
         0.00000E+00
         0.00000E+00
         0.00000E+00
         0.00000E+00
         0.00000E+00
         0.00000E+00
         0.00000E+00
         0.00000E+00
         0.00000E+00
         0.00000E+00
         0.00000E+00
         0.00000E+00
         0.00000E+00
         0.00000E+00
         0.00000E+00
         0.00000E+00
         0.00000E+00
         0.00000E+00
         0.00000E+00
         0.00000E+00
         0.00000E+00
         0.00000E+00
         0.00000E+00
         0.00000E+00
         0.00000E+00
         0.00000E+00
         0.00000E+00
         0.00000E+00
         0.00000E+00
         0.00000E+00
         0.00000E+00
         0.00000E+00
         0.00000E+00
         0.00000E+00
         0.00000E+00
         0.00000E+00
         0.00000E+00
         0.00000E+00
         0.00000E+00
         0.00000E+00
         0.00000E+00
         0.00000E+00
         0.00000E+00
         0.00000E+00
         0.00000E+00
         0.00000E+00
         0.00000E+00
         0.00000E+00
         0.00000E+00
         0.00000E+00
         0.00000E+00
         0.00000E+00
         0.00000E+00
         0.00000E+00
         0.00000E+00
         0.00000E+00
         0.00000E+00
         0.00000E+00
         0.00000E+00
         0.00000E+00
         0.00000E+00
         0.00000E+00
         0.00000E+00
         0.00000E+00
         0.00000E+00
         0.00000E+00
         0.00000E+00
         0.00000E+00
         0.00000E+00
         0.00000E+00
         0.00000E+00
         0.00000E+00
         0.00000E+00
         0.00000E+00
         0.00000E+00
         0.00000E+00
         0.00000E+00
         0.00000E+00
         0.00000E+00
         0.00000E+00
         0.00000E+00
         0.00000E+00
         0.00000E+00
         0.00000E+00
         0.00000E+00
         0.00000E+00
         0.00000E+00
         0.00000E+00
         0.00000E+00
         0.00000E+00
         0.00000E+00
         0.00000E+00
         0.00000E+00
         0.00000E+00
         0.00000E+00
         0.00000E+00
         0.00000E+00
         0.00000E+00
         0.00000E+00
         0.00000E+00
         0.00000E+00
         0.00000E+00
         0.00000E+00
         0.00000E+00
         0.00000E+00
         0.00000E+00
         0.00000E+00
         0.00000E+00
         0.00000E+00
         0.00000E+00
         0.00000E+00
         0.00000E+00
         0.00000E+00
         0.00000E+00
         0.00000E+00
         0.00000E+00
         0.00000E+00
         0.00000E+00
         0.00000E+00
         0.00000E+00
         0.00000E+00
         0.00000E+00
         0.00000E+00
         0.00000E+00
         0.00000E+00
         0.00000E+00
         0.00000E+00
         0.00000E+00
         0.00000E+00
         0.00000E+00
         0.00000E+00
         0.00000E+00
         0.00000E+00
         0.00000E+00
         0.00000E+00
         0.00000E+00
         0.00000E+00
         0.00000E+00
         0.00000E+00
         0.00000E+00
         0.00000E+00
         0.00000E+00
         0.00000E+00
         0.00000E+00
         0.00000E+00
         0.00000E+00
         0.00000E+00
         0.00000E+00
         0.00000E+00
         0.00000E+00
         0.00000E+00
         0.00000E+00
         0.00000E+00
         0.00000E+00
         0.00000E+00
         0.00000E+00
         0.00000E+00
         0.00000E+00
         0.00000E+00
         0.00000E+00
         0.00000E+00
         0.00000E+00
         0.00000E+00
         0.00000E+00
         0.00000E+00
         0.00000E+00
         0.00000E+00
         0.00000E+00
         0.00000E+00
         0.00000E+00
         0.00000E+00
         0.00000E+00
         0.00000E+00
         0.00000E+00
         0.00000E+00
         0.00000E+00
         0.00000E+00
         0.00000E+00
         0.00000E+00
         0.00000E+00
         0.00000E+00
         0.00000E+00
         0.00000E+00
         0.00000E+00
         0.00000E+00
         0.00000E+00
         0.00000E+00
         0.00000E+00
         0.00000E+00
         0.00000E+00
         0.00000E+00
         0.00000E+00
         0.00000E+00
         0.00000E+00
         0.00000E+00
         0.00000E+00
         0.00000E+00
         0.00000E+00
         0.00000E+00
         0.00000E+00
         0.00000E+00
         0.00000E+00
         0.00000E+00
         0.00000E+00
         0.00000E+00
         0.00000E+00
         0.00000E+00
         0.00000E+00
         0.00000E+00
         0.00000E+00
         0.00000E+00
         0.00000E+00
         0.00000E+00
         0.00000E+00
         0.00000E+00
         0.00000E+00
         0.00000E+00
         0.00000E+00
         0.00000E+00
         0.00000E+00
         0.00000E+00
         0.00000E+00
         0.00000E+00
         0.00000E+00
         0.00000E+00
         0.00000E+00
         0.00000E+00
         0.00000E+00
         0.00000E+00
         0.00000E+00
         0.00000E+00
         0.00000E+00
         0.00000E+00
         0.00000E+00
         0.00000E+00
         0.00000E+00
         0.00000E+00
         0.00000E+00
         0.00000E+00
         0.00000E+00
         0.00000E+00
         0.00000E+00
         0.00000E+00
         0.00000E+00
         0.00000E+00
         0.00000E+00
         0.00000E+00
         0.00000E+00
         0.00000E+00
         0.00000E+00
         0.00000E+00
         0.00000E+00
         0.00000E+00
         0.00000E+00
         0.00000E+00
         0.00000E+00
         0.00000E+00
         0.00000E+00
         0.00000E+00
         0.00000E+00
         0.00000E+00
         0.00000E+00
         0.00000E+00
         0.00000E+00
         0.00000E+00
         0.00000E+00
         0.00000E+00
         0.00000E+00
         0.00000E+00
         0.00000E+00
         0.00000E+00
         0.00000E+00
         0.00000E+00
         0.00000E+00
         0.00000E+00
         0.00000E+00
         0.00000E+00
         0.00000E+00
         0.00000E+00
         0.00000E+00
         0.00000E+00
         0.00000E+00
         0.00000E+00
         0.00000E+00
         0.00000E+00
         0.00000E+00
         0.00000E+00
         0.00000E+00
         0.00000E+00
         0.00000E+00
         0.00000E+00
         0.00000E+00
         0.00000E+00
         0.00000E+00
         0.00000E+00
         0.00000E+00
         0.00000E+00
         0.00000E+00
         0.00000E+00
         0.00000E+00
         0.00000E+00
         0.00000E+00
         0.00000E+00
         0.00000E+00
         0.00000E+00
         0.00000E+00
         0.00000E+00
         0.00000E+00
         0.00000E+00
         0.00000E+00
         0.00000E+00
         0.00000E+00
         0.00000E+00
         0.00000E+00
         0.00000E+00
         0.00000E+00
         0.00000E+00
         0.00000E+00
         0.00000E+00
         0.00000E+00
         0.00000E+00
         0.00000E+00
         0.00000E+00
         0.00000E+00
         0.00000E+00
         0.00000E+00
         0.00000E+00
         0.00000E+00
         0.00000E+00
         0.00000E+00
         0.00000E+00
         0.00000E+00
         0.00000E+00
         0.00000E+00
         0.00000E+00
         0.00000E+00
         0.00000E+00
         0.00000E+00
         0.00000E+00
         0.00000E+00
         0.00000E+00
         0.00000E+00
         0.00000E+00
         0.00000E+00
         0.00000E+00
         0.00000E+00
         0.00000E+00
         0.00000E+00
         0.00000E+00
         0.00000E+00
         0.00000E+00
         0.00000E+00
         0.00000E+00
         0.00000E+00
         0.00000E+00
         0.00000E+00
         0.00000E+00
         0.00000E+00
         0.00000E+00
         0.00000E+00
         0.00000E+00
         0.00000E+00
         0.00000E+00
         0.00000E+00
         0.00000E+00
         0.00000E+00
         0.00000E+00
         0.00000E+00
         0.00000E+00
         0.00000E+00
         0.00000E+00
         0.00000E+00
         0.00000E+00
         0.00000E+00
         0.00000E+00
         0.00000E+00
         0.00000E+00
         0.00000E+00
         0.00000E+00
         0.00000E+00
         0.00000E+00
         0.00000E+00
         0.00000E+00
         0.00000E+00
         0.00000E+00
         0.00000E+00
         0.00000E+00
         0.00000E+00
         0.00000E+00
         0.00000E+00
         0.00000E+00
         0.00000E+00
         0.00000E+00
         0.00000E+00
         0.00000E+00
         0.00000E+00
         0.00000E+00
         0.00000E+00
         0.00000E+00
         0.00000E+00
         0.00000E+00
         0.00000E+00
         0.00000E+00
         0.00000E+00
         0.00000E+00
         0.00000E+00
         0.00000E+00
         0.00000E+00
         0.00000E+00
         0.00000E+00
         0.00000E+00
         0.00000E+00
         0.00000E+00
         0.00000E+00
         0.00000E+00
         0.00000E+00
         0.00000E+00
         0.00000E+00
         0.00000E+00
         0.00000E+00
         0.00000E+00
         0.00000E+00
         0.00000E+00
         0.00000E+00
         0.00000E+00
         0.00000E+00
         0.00000E+00
         0.00000E+00
         0.00000E+00
         0.00000E+00
         0.00000E+00
         0.00000E+00
         0.00000E+00
         0.00000E+00
         0.00000E+00
         0.00000E+00
         0.00000E+00
         0.00000E+00
         0.00000E+00
         0.00000E+00
         0.00000E+00
         0.00000E+00
         0.00000E+00
         0.00000E+00
         0.00000E+00
         0.00000E+00
         0.00000E+00
         0.00000E+00
         0.00000E+00
         0.00000E+00
         0.00000E+00
         0.00000E+00
         0.00000E+00
         0.00000E+00
         0.00000E+00
         0.00000E+00
         0.00000E+00
         0.00000E+00
         0.00000E+00
         0.00000E+00
         0.00000E+00
         0.00000E+00
         0.00000E+00
         0.00000E+00
         0.00000E+00
         0.00000E+00
         0.00000E+00
         0.00000E+00
         0.00000E+00
         0.00000E+00
         0.00000E+00
         0.00000E+00
         0.00000E+00
         0.00000E+00
         0.00000E+00
         0.00000E+00
         0.00000E+00
         0.00000E+00
         0.00000E+00
         0.00000E+00
         0.00000E+00
         0.00000E+00
         0.00000E+00
         0.00000E+00
         0.00000E+00
         0.00000E+00
         0.00000E+00
         0.00000E+00
         0.00000E+00
         0.00000E+00
         0.00000E+00
         0.00000E+00
         0.00000E+00
         0.00000E+00
         0.00000E+00
         0.00000E+00
         0.00000E+00
         0.00000E+00
         0.00000E+00
         0.00000E+00
         0.00000E+00
         0.00000E+00
         0.00000E+00
         0.00000E+00
         0.00000E+00
         0.00000E+00
         0.00000E+00
         0.00000E+00
         0.00000E+00
         0.00000E+00
         0.00000E+00
         0.00000E+00
         0.00000E+00
         0.00000E+00
         0.00000E+00
         0.00000E+00
         0.00000E+00
         0.00000E+00
         0.00000E+00
         0.00000E+00
         0.00000E+00
         0.00000E+00
         0.00000E+00
         0.00000E+00
         0.00000E+00
         0.00000E+00
         0.00000E+00
         0.00000E+00
         0.00000E+00
         0.00000E+00
         0.00000E+00
         0.00000E+00
         0.00000E+00
         0.00000E+00
         0.00000E+00
         0.00000E+00
         0.00000E+00
         0.00000E+00
         0.00000E+00
         0.00000E+00
         0.00000E+00
         0.00000E+00
         0.00000E+00
         0.00000E+00
         0.00000E+00
         0.00000E+00
         0.00000E+00
         0.00000E+00
         0.00000E+00
         0.00000E+00
         0.00000E+00
         0.00000E+00
         0.00000E+00
         0.00000E+00
         0.00000E+00
         0.00000E+00
         0.00000E+00
         0.00000E+00
         0.00000E+00
         0.00000E+00
         0.00000E+00
         0.00000E+00
         0.00000E+00
         0.00000E+00
         0.00000E+00
         0.00000E+00
         0.00000E+00
         0.00000E+00
         0.00000E+00
         0.00000E+00
         0.00000E+00
         0.00000E+00
         0.00000E+00
         0.00000E+00
         0.00000E+00
         0.00000E+00
         0.00000E+00
         0.00000E+00
         0.00000E+00
         0.00000E+00
         0.00000E+00
         0.00000E+00
         0.00000E+00
         0.00000E+00
         0.00000E+00
         0.00000E+00
         0.00000E+00
         0.00000E+00
         0.00000E+00
         0.00000E+00
         0.00000E+00
         0.00000E+00
         0.00000E+00
         0.00000E+00
         0.00000E+00
         0.00000E+00
         0.00000E+00
         0.00000E+00
         0.00000E+00
         0.00000E+00
         0.00000E+00
         0.00000E+00
         0.00000E+00
         0.00000E+00
         0.00000E+00
         0.00000E+00
         0.00000E+00
         0.00000E+00
         0.00000E+00
         0.00000E+00
         0.00000E+00
         0.00000E+00
         0.00000E+00
         0.00000E+00
         0.00000E+00
         0.00000E+00
         0.00000E+00
         0.00000E+00
         0.00000E+00
         0.00000E+00
         0.00000E+00
         0.00000E+00
         0.00000E+00
         0.00000E+00
         0.00000E+00
         0.00000E+00
         0.00000E+00
         0.00000E+00
         0.00000E+00
         0.00000E+00
         0.00000E+00
         0.00000E+00
         0.00000E+00
         0.00000E+00
         0.00000E+00
         0.00000E+00
         0.00000E+00
         0.00000E+00
         0.00000E+00
         0.00000E+00
         0.00000E+00
         0.00000E+00
         0.00000E+00
         0.00000E+00
         0.00000E+00
         0.00000E+00
         0.00000E+00
         0.00000E+00
         0.00000E+00
         0.00000E+00
         0.00000E+00
         0.00000E+00
         0.00000E+00
         0.00000E+00
         0.00000E+00
         0.00000E+00
         0.00000E+00
         0.00000E+00
         0.00000E+00
         0.00000E+00
         0.00000E+00
         0.00000E+00
         0.00000E+00
         0.00000E+00
         0.00000E+00
         0.00000E+00
         0.00000E+00
         0.00000E+00
         0.00000E+00
         0.00000E+00
         0.00000E+00
         0.00000E+00
         0.00000E+00
         0.00000E+00
         0.00000E+00
         0.00000E+00
         0.00000E+00
         0.00000E+00
         0.00000E+00
         0.00000E+00
         0.00000E+00
         0.00000E+00
         0.00000E+00
         0.00000E+00
         0.00000E+00
         0.00000E+00
         0.00000E+00
         0.00000E+00
         0.00000E+00
         0.00000E+00
         0.00000E+00
         0.00000E+00
         0.00000E+00
         0.00000E+00
         0.00000E+00
         0.00000E+00
         0.00000E+00
         0.00000E+00
         0.00000E+00
         0.00000E+00
         0.00000E+00
         0.00000E+00
         0.00000E+00
         0.00000E+00
         0.00000E+00
         0.00000E+00
         0.00000E+00
         0.00000E+00
         0.00000E+00
         0.00000E+00
         0.00000E+00
         0.00000E+00
         0.00000E+00
         0.00000E+00
         0.00000E+00
         0.00000E+00
         0.00000E+00
         0.00000E+00
         0.00000E+00
         0.00000E+00
         0.00000E+00
         0.00000E+00
         0.00000E+00
         0.00000E+00
         0.00000E+00
         0.00000E+00
         0.00000E+00
         0.00000E+00
         0.00000E+00
         0.00000E+00
         0.00000E+00
         0.00000E+00
         0.00000E+00
         0.00000E+00
         0.00000E+00
         0.00000E+00
         0.00000E+00
         0.00000E+00
         0.00000E+00
         0.00000E+00
         0.00000E+00
         0.00000E+00
         0.00000E+00
         0.00000E+00
         0.00000E+00
         0.00000E+00
         0.00000E+00
         0.00000E+00
         0.00000E+00
         0.00000E+00
         0.00000E+00
         0.00000E+00
         0.00000E+00
         0.00000E+00
         0.00000E+00
         0.00000E+00
         0.00000E+00
         0.00000E+00
         0.00000E+00
         0.00000E+00
         0.00000E+00
         0.00000E+00
         0.00000E+00
         0.00000E+00
         0.00000E+00
         0.00000E+00
         0.00000E+00
         0.00000E+00
         0.00000E+00
         0.00000E+00
         0.00000E+00
  
SCALARS                        eps_vol  double 1
LOOKUP_TABLE default
         0.00000E+00
         0.00000E+00
         0.00000E+00
         0.00000E+00
         0.00000E+00
         0.00000E+00
         0.00000E+00
         0.00000E+00
         0.00000E+00
         0.00000E+00
         0.00000E+00
         0.00000E+00
         0.00000E+00
         0.00000E+00
         0.00000E+00
         0.00000E+00
         0.00000E+00
         0.00000E+00
         0.00000E+00
         0.00000E+00
         0.00000E+00
         0.00000E+00
         0.00000E+00
         0.00000E+00
         0.00000E+00
         0.00000E+00
         0.00000E+00
         0.00000E+00
         0.00000E+00
         0.00000E+00
         0.00000E+00
         0.00000E+00
         0.00000E+00
         0.00000E+00
         0.00000E+00
         0.00000E+00
         0.00000E+00
         0.00000E+00
         0.00000E+00
         0.00000E+00
         0.00000E+00
         0.00000E+00
         0.00000E+00
         0.00000E+00
         0.00000E+00
         0.00000E+00
         0.00000E+00
         0.00000E+00
         0.00000E+00
         0.00000E+00
         0.00000E+00
         0.00000E+00
         0.00000E+00
         0.00000E+00
         0.00000E+00
         0.00000E+00
         0.00000E+00
         0.00000E+00
         0.00000E+00
         0.00000E+00
         0.00000E+00
         0.00000E+00
         0.00000E+00
         0.00000E+00
         0.00000E+00
         0.00000E+00
         0.00000E+00
         0.00000E+00
         0.00000E+00
         0.00000E+00
         0.00000E+00
         0.00000E+00
         0.00000E+00
         0.00000E+00
         0.00000E+00
         0.00000E+00
         0.00000E+00
         0.00000E+00
         0.00000E+00
         0.00000E+00
         0.00000E+00
         0.00000E+00
         0.00000E+00
         0.00000E+00
         0.00000E+00
         0.00000E+00
         0.00000E+00
         0.00000E+00
         0.00000E+00
         0.00000E+00
         0.00000E+00
         0.00000E+00
         0.00000E+00
         0.00000E+00
         0.00000E+00
         0.00000E+00
         0.00000E+00
         0.00000E+00
         0.00000E+00
         0.00000E+00
         0.00000E+00
         0.00000E+00
         0.00000E+00
         0.00000E+00
         0.00000E+00
         0.00000E+00
         0.00000E+00
         0.00000E+00
         0.00000E+00
         0.00000E+00
         0.00000E+00
         0.00000E+00
         0.00000E+00
         0.00000E+00
         0.00000E+00
         0.00000E+00
         0.00000E+00
         0.00000E+00
         0.00000E+00
         0.00000E+00
         0.00000E+00
         0.00000E+00
         0.00000E+00
         0.00000E+00
         0.00000E+00
         0.00000E+00
         0.00000E+00
         0.00000E+00
         0.00000E+00
         0.00000E+00
         0.00000E+00
         0.00000E+00
         0.00000E+00
         0.00000E+00
         0.00000E+00
         0.00000E+00
         0.00000E+00
         0.00000E+00
         0.00000E+00
         0.00000E+00
         0.00000E+00
         0.00000E+00
         0.00000E+00
         0.00000E+00
         0.00000E+00
         0.00000E+00
         0.00000E+00
         0.00000E+00
         0.00000E+00
         0.00000E+00
         0.00000E+00
         0.00000E+00
         0.00000E+00
         0.00000E+00
         0.00000E+00
         0.00000E+00
         0.00000E+00
         0.00000E+00
         0.00000E+00
         0.00000E+00
         0.00000E+00
         0.00000E+00
         0.00000E+00
         0.00000E+00
         0.00000E+00
         0.00000E+00
         0.00000E+00
         0.00000E+00
         0.00000E+00
         0.00000E+00
         0.00000E+00
         0.00000E+00
         0.00000E+00
         0.00000E+00
         0.00000E+00
         0.00000E+00
         0.00000E+00
         0.00000E+00
         0.00000E+00
         0.00000E+00
         0.00000E+00
         0.00000E+00
         0.00000E+00
         0.00000E+00
         0.00000E+00
         0.00000E+00
         0.00000E+00
         0.00000E+00
         0.00000E+00
         0.00000E+00
         0.00000E+00
         0.00000E+00
         0.00000E+00
         0.00000E+00
         0.00000E+00
         0.00000E+00
         0.00000E+00
         0.00000E+00
         0.00000E+00
         0.00000E+00
         0.00000E+00
         0.00000E+00
         0.00000E+00
         0.00000E+00
         0.00000E+00
         0.00000E+00
         0.00000E+00
         0.00000E+00
         0.00000E+00
         0.00000E+00
         0.00000E+00
         0.00000E+00
         0.00000E+00
         0.00000E+00
         0.00000E+00
         0.00000E+00
         0.00000E+00
         0.00000E+00
         0.00000E+00
         0.00000E+00
         0.00000E+00
         0.00000E+00
         0.00000E+00
         0.00000E+00
         0.00000E+00
         0.00000E+00
         0.00000E+00
         0.00000E+00
         0.00000E+00
         0.00000E+00
         0.00000E+00
         0.00000E+00
         0.00000E+00
         0.00000E+00
         0.00000E+00
         0.00000E+00
         0.00000E+00
         0.00000E+00
         0.00000E+00
         0.00000E+00
         0.00000E+00
         0.00000E+00
         0.00000E+00
         0.00000E+00
         0.00000E+00
         0.00000E+00
         0.00000E+00
         0.00000E+00
         0.00000E+00
         0.00000E+00
         0.00000E+00
         0.00000E+00
         0.00000E+00
         0.00000E+00
         0.00000E+00
         0.00000E+00
         0.00000E+00
         0.00000E+00
         0.00000E+00
         0.00000E+00
         0.00000E+00
         0.00000E+00
         0.00000E+00
         0.00000E+00
         0.00000E+00
         0.00000E+00
         0.00000E+00
         0.00000E+00
         0.00000E+00
         0.00000E+00
         0.00000E+00
         0.00000E+00
         0.00000E+00
         0.00000E+00
         0.00000E+00
         0.00000E+00
         0.00000E+00
         0.00000E+00
         0.00000E+00
         0.00000E+00
         0.00000E+00
         0.00000E+00
         0.00000E+00
         0.00000E+00
         0.00000E+00
         0.00000E+00
         0.00000E+00
         0.00000E+00
         0.00000E+00
         0.00000E+00
         0.00000E+00
         0.00000E+00
         0.00000E+00
         0.00000E+00
         0.00000E+00
         0.00000E+00
         0.00000E+00
         0.00000E+00
         0.00000E+00
         0.00000E+00
         0.00000E+00
         0.00000E+00
         0.00000E+00
         0.00000E+00
         0.00000E+00
         0.00000E+00
         0.00000E+00
         0.00000E+00
         0.00000E+00
         0.00000E+00
         0.00000E+00
         0.00000E+00
         0.00000E+00
         0.00000E+00
         0.00000E+00
         0.00000E+00
         0.00000E+00
         0.00000E+00
         0.00000E+00
         0.00000E+00
         0.00000E+00
         0.00000E+00
         0.00000E+00
         0.00000E+00
         0.00000E+00
         0.00000E+00
         0.00000E+00
         0.00000E+00
         0.00000E+00
         0.00000E+00
         0.00000E+00
         0.00000E+00
         0.00000E+00
         0.00000E+00
         0.00000E+00
         0.00000E+00
         0.00000E+00
         0.00000E+00
         0.00000E+00
         0.00000E+00
         0.00000E+00
         0.00000E+00
         0.00000E+00
         0.00000E+00
         0.00000E+00
         0.00000E+00
         0.00000E+00
         0.00000E+00
         0.00000E+00
         0.00000E+00
         0.00000E+00
         0.00000E+00
         0.00000E+00
         0.00000E+00
         0.00000E+00
         0.00000E+00
         0.00000E+00
         0.00000E+00
         0.00000E+00
         0.00000E+00
         0.00000E+00
         0.00000E+00
         0.00000E+00
         0.00000E+00
         0.00000E+00
         0.00000E+00
         0.00000E+00
         0.00000E+00
         0.00000E+00
         0.00000E+00
         0.00000E+00
         0.00000E+00
         0.00000E+00
         0.00000E+00
         0.00000E+00
         0.00000E+00
         0.00000E+00
         0.00000E+00
         0.00000E+00
         0.00000E+00
         0.00000E+00
         0.00000E+00
         0.00000E+00
         0.00000E+00
         0.00000E+00
         0.00000E+00
         0.00000E+00
         0.00000E+00
         0.00000E+00
         0.00000E+00
         0.00000E+00
         0.00000E+00
         0.00000E+00
         0.00000E+00
         0.00000E+00
         0.00000E+00
         0.00000E+00
         0.00000E+00
         0.00000E+00
         0.00000E+00
         0.00000E+00
         0.00000E+00
         0.00000E+00
         0.00000E+00
         0.00000E+00
         0.00000E+00
         0.00000E+00
         0.00000E+00
         0.00000E+00
         0.00000E+00
         0.00000E+00
         0.00000E+00
         0.00000E+00
         0.00000E+00
         0.00000E+00
         0.00000E+00
         0.00000E+00
         0.00000E+00
         0.00000E+00
         0.00000E+00
         0.00000E+00
         0.00000E+00
         0.00000E+00
         0.00000E+00
         0.00000E+00
         0.00000E+00
         0.00000E+00
         0.00000E+00
         0.00000E+00
         0.00000E+00
         0.00000E+00
         0.00000E+00
         0.00000E+00
         0.00000E+00
         0.00000E+00
         0.00000E+00
         0.00000E+00
         0.00000E+00
         0.00000E+00
         0.00000E+00
         0.00000E+00
         0.00000E+00
         0.00000E+00
         0.00000E+00
         0.00000E+00
         0.00000E+00
         0.00000E+00
         0.00000E+00
         0.00000E+00
         0.00000E+00
         0.00000E+00
         0.00000E+00
         0.00000E+00
         0.00000E+00
         0.00000E+00
         0.00000E+00
         0.00000E+00
         0.00000E+00
         0.00000E+00
         0.00000E+00
         0.00000E+00
         0.00000E+00
         0.00000E+00
         0.00000E+00
         0.00000E+00
         0.00000E+00
         0.00000E+00
         0.00000E+00
         0.00000E+00
         0.00000E+00
         0.00000E+00
         0.00000E+00
         0.00000E+00
         0.00000E+00
         0.00000E+00
         0.00000E+00
         0.00000E+00
         0.00000E+00
         0.00000E+00
         0.00000E+00
         0.00000E+00
         0.00000E+00
         0.00000E+00
         0.00000E+00
         0.00000E+00
         0.00000E+00
         0.00000E+00
         0.00000E+00
         0.00000E+00
         0.00000E+00
         0.00000E+00
         0.00000E+00
         0.00000E+00
         0.00000E+00
         0.00000E+00
         0.00000E+00
         0.00000E+00
         0.00000E+00
         0.00000E+00
         0.00000E+00
         0.00000E+00
         0.00000E+00
         0.00000E+00
         0.00000E+00
         0.00000E+00
         0.00000E+00
         0.00000E+00
         0.00000E+00
         0.00000E+00
         0.00000E+00
         0.00000E+00
         0.00000E+00
         0.00000E+00
         0.00000E+00
         0.00000E+00
         0.00000E+00
         0.00000E+00
         0.00000E+00
         0.00000E+00
         0.00000E+00
         0.00000E+00
         0.00000E+00
         0.00000E+00
         0.00000E+00
         0.00000E+00
         0.00000E+00
         0.00000E+00
         0.00000E+00
         0.00000E+00
         0.00000E+00
         0.00000E+00
         0.00000E+00
         0.00000E+00
         0.00000E+00
         0.00000E+00
         0.00000E+00
         0.00000E+00
         0.00000E+00
         0.00000E+00
         0.00000E+00
         0.00000E+00
         0.00000E+00
         0.00000E+00
         0.00000E+00
         0.00000E+00
         0.00000E+00
         0.00000E+00
         0.00000E+00
         0.00000E+00
         0.00000E+00
         0.00000E+00
         0.00000E+00
         0.00000E+00
         0.00000E+00
         0.00000E+00
         0.00000E+00
         0.00000E+00
         0.00000E+00
         0.00000E+00
         0.00000E+00
         0.00000E+00
         0.00000E+00
         0.00000E+00
         0.00000E+00
         0.00000E+00
         0.00000E+00
         0.00000E+00
         0.00000E+00
         0.00000E+00
         0.00000E+00
         0.00000E+00
         0.00000E+00
         0.00000E+00
         0.00000E+00
         0.00000E+00
         0.00000E+00
         0.00000E+00
         0.00000E+00
         0.00000E+00
         0.00000E+00
         0.00000E+00
         0.00000E+00
         0.00000E+00
         0.00000E+00
         0.00000E+00
         0.00000E+00
         0.00000E+00
         0.00000E+00
         0.00000E+00
         0.00000E+00
         0.00000E+00
         0.00000E+00
         0.00000E+00
         0.00000E+00
         0.00000E+00
         0.00000E+00
         0.00000E+00
         0.00000E+00
         0.00000E+00
         0.00000E+00
         0.00000E+00
         0.00000E+00
         0.00000E+00
         0.00000E+00
         0.00000E+00
         0.00000E+00
         0.00000E+00
         0.00000E+00
         0.00000E+00
         0.00000E+00
         0.00000E+00
         0.00000E+00
         0.00000E+00
         0.00000E+00
         0.00000E+00
         0.00000E+00
         0.00000E+00
         0.00000E+00
         0.00000E+00
         0.00000E+00
         0.00000E+00
         0.00000E+00
         0.00000E+00
         0.00000E+00
         0.00000E+00
         0.00000E+00
         0.00000E+00
         0.00000E+00
         0.00000E+00
         0.00000E+00
         0.00000E+00
         0.00000E+00
         0.00000E+00
         0.00000E+00
         0.00000E+00
         0.00000E+00
         0.00000E+00
         0.00000E+00
         0.00000E+00
         0.00000E+00
         0.00000E+00
         0.00000E+00
         0.00000E+00
         0.00000E+00
         0.00000E+00
         0.00000E+00
         0.00000E+00
         0.00000E+00
         0.00000E+00
         0.00000E+00
         0.00000E+00
         0.00000E+00
         0.00000E+00
         0.00000E+00
         0.00000E+00
         0.00000E+00
         0.00000E+00
         0.00000E+00
         0.00000E+00
         0.00000E+00
         0.00000E+00
         0.00000E+00
         0.00000E+00
         0.00000E+00
         0.00000E+00
         0.00000E+00
         0.00000E+00
         0.00000E+00
         0.00000E+00
         0.00000E+00
         0.00000E+00
         0.00000E+00
         0.00000E+00
         0.00000E+00
         0.00000E+00
         0.00000E+00
         0.00000E+00
         0.00000E+00
         0.00000E+00
         0.00000E+00
         0.00000E+00
         0.00000E+00
         0.00000E+00
         0.00000E+00
         0.00000E+00
         0.00000E+00
         0.00000E+00
         0.00000E+00
         0.00000E+00
         0.00000E+00
         0.00000E+00
         0.00000E+00
         0.00000E+00
         0.00000E+00
         0.00000E+00
         0.00000E+00
         0.00000E+00
         0.00000E+00
         0.00000E+00
         0.00000E+00
         0.00000E+00
         0.00000E+00
         0.00000E+00
         0.00000E+00
         0.00000E+00
         0.00000E+00
         0.00000E+00
         0.00000E+00
         0.00000E+00
         0.00000E+00
         0.00000E+00
         0.00000E+00
         0.00000E+00
         0.00000E+00
         0.00000E+00
         0.00000E+00
         0.00000E+00
         0.00000E+00
         0.00000E+00
         0.00000E+00
         0.00000E+00
         0.00000E+00
         0.00000E+00
         0.00000E+00
         0.00000E+00
         0.00000E+00
         0.00000E+00
         0.00000E+00
         0.00000E+00
         0.00000E+00
         0.00000E+00
         0.00000E+00
         0.00000E+00
         0.00000E+00
         0.00000E+00
         0.00000E+00
         0.00000E+00
         0.00000E+00
         0.00000E+00
         0.00000E+00
         0.00000E+00
         0.00000E+00
         0.00000E+00
         0.00000E+00
         0.00000E+00
         0.00000E+00
         0.00000E+00
         0.00000E+00
         0.00000E+00
         0.00000E+00
         0.00000E+00
         0.00000E+00
         0.00000E+00
         0.00000E+00
         0.00000E+00
         0.00000E+00
         0.00000E+00
         0.00000E+00
         0.00000E+00
         0.00000E+00
         0.00000E+00
         0.00000E+00
         0.00000E+00
         0.00000E+00
         0.00000E+00
         0.00000E+00
         0.00000E+00
         0.00000E+00
         0.00000E+00
         0.00000E+00
         0.00000E+00
         0.00000E+00
         0.00000E+00
         0.00000E+00
         0.00000E+00
         0.00000E+00
         0.00000E+00
         0.00000E+00
         0.00000E+00
         0.00000E+00
         0.00000E+00
         0.00000E+00
         0.00000E+00
         0.00000E+00
         0.00000E+00
         0.00000E+00
         0.00000E+00
         0.00000E+00
         0.00000E+00
         0.00000E+00
         0.00000E+00
         0.00000E+00
         0.00000E+00
         0.00000E+00
         0.00000E+00
         0.00000E+00
         0.00000E+00
         0.00000E+00
         0.00000E+00
         0.00000E+00
         0.00000E+00
         0.00000E+00
         0.00000E+00
         0.00000E+00
         0.00000E+00
         0.00000E+00
         0.00000E+00
         0.00000E+00
         0.00000E+00
         0.00000E+00
         0.00000E+00
         0.00000E+00
         0.00000E+00
         0.00000E+00
         0.00000E+00
         0.00000E+00
         0.00000E+00
         0.00000E+00
         0.00000E+00
         0.00000E+00
         0.00000E+00
         0.00000E+00
         0.00000E+00
         0.00000E+00
         0.00000E+00
         0.00000E+00
         0.00000E+00
         0.00000E+00
         0.00000E+00
         0.00000E+00
         0.00000E+00
         0.00000E+00
         0.00000E+00
         0.00000E+00
         0.00000E+00
         0.00000E+00
         0.00000E+00
         0.00000E+00
         0.00000E+00
         0.00000E+00
         0.00000E+00
         0.00000E+00
         0.00000E+00
         0.00000E+00
         0.00000E+00
         0.00000E+00
         0.00000E+00
         0.00000E+00
         0.00000E+00
         0.00000E+00
         0.00000E+00
         0.00000E+00
         0.00000E+00
         0.00000E+00
         0.00000E+00
         0.00000E+00
         0.00000E+00
         0.00000E+00
         0.00000E+00
         0.00000E+00
         0.00000E+00
         0.00000E+00
         0.00000E+00
         0.00000E+00
         0.00000E+00
         0.00000E+00
         0.00000E+00
         0.00000E+00
         0.00000E+00
         0.00000E+00
         0.00000E+00
         0.00000E+00
         0.00000E+00
         0.00000E+00
         0.00000E+00
         0.00000E+00
         0.00000E+00
         0.00000E+00
         0.00000E+00
         0.00000E+00
         0.00000E+00
         0.00000E+00
         0.00000E+00
         0.00000E+00
         0.00000E+00
         0.00000E+00
         0.00000E+00
         0.00000E+00
         0.00000E+00
         0.00000E+00
         0.00000E+00
         0.00000E+00
         0.00000E+00
         0.00000E+00
         0.00000E+00
         0.00000E+00
         0.00000E+00
         0.00000E+00
         0.00000E+00
         0.00000E+00
         0.00000E+00
         0.00000E+00
         0.00000E+00
         0.00000E+00
         0.00000E+00
         0.00000E+00
         0.00000E+00
         0.00000E+00
         0.00000E+00
         0.00000E+00
         0.00000E+00
         0.00000E+00
         0.00000E+00
         0.00000E+00
         0.00000E+00
         0.00000E+00
         0.00000E+00
         0.00000E+00
         0.00000E+00
         0.00000E+00
         0.00000E+00
         0.00000E+00
         0.00000E+00
         0.00000E+00
         0.00000E+00
         0.00000E+00
         0.00000E+00
         0.00000E+00
         0.00000E+00
         0.00000E+00
         0.00000E+00
         0.00000E+00
         0.00000E+00
         0.00000E+00
         0.00000E+00
         0.00000E+00
         0.00000E+00
         0.00000E+00
         0.00000E+00
         0.00000E+00
         0.00000E+00
         0.00000E+00
         0.00000E+00
         0.00000E+00
         0.00000E+00
         0.00000E+00
         0.00000E+00
         0.00000E+00
         0.00000E+00
         0.00000E+00
         0.00000E+00
         0.00000E+00
         0.00000E+00
         0.00000E+00
         0.00000E+00
         0.00000E+00
         0.00000E+00
         0.00000E+00
         0.00000E+00
         0.00000E+00
         0.00000E+00
         0.00000E+00
         0.00000E+00
         0.00000E+00
         0.00000E+00
         0.00000E+00
         0.00000E+00
         0.00000E+00
         0.00000E+00
         0.00000E+00
         0.00000E+00
         0.00000E+00
         0.00000E+00
         0.00000E+00
         0.00000E+00
         0.00000E+00
         0.00000E+00
         0.00000E+00
         0.00000E+00
         0.00000E+00
         0.00000E+00
         0.00000E+00
         0.00000E+00
         0.00000E+00
         0.00000E+00
         0.00000E+00
         0.00000E+00
         0.00000E+00
         0.00000E+00
         0.00000E+00
         0.00000E+00
         0.00000E+00
         0.00000E+00
         0.00000E+00
         0.00000E+00
         0.00000E+00
         0.00000E+00
         0.00000E+00
         0.00000E+00
         0.00000E+00
         0.00000E+00
         0.00000E+00
         0.00000E+00
         0.00000E+00
         0.00000E+00
         0.00000E+00
         0.00000E+00
         0.00000E+00
         0.00000E+00
         0.00000E+00
         0.00000E+00
         0.00000E+00
         0.00000E+00
         0.00000E+00
         0.00000E+00
         0.00000E+00
         0.00000E+00
         0.00000E+00
         0.00000E+00
         0.00000E+00
         0.00000E+00
         0.00000E+00
         0.00000E+00
         0.00000E+00
         0.00000E+00
         0.00000E+00
         0.00000E+00
         0.00000E+00
         0.00000E+00
         0.00000E+00
         0.00000E+00
         0.00000E+00
         0.00000E+00
         0.00000E+00
         0.00000E+00
         0.00000E+00
         0.00000E+00
         0.00000E+00
         0.00000E+00
         0.00000E+00
         0.00000E+00
         0.00000E+00
         0.00000E+00
         0.00000E+00
         0.00000E+00
         0.00000E+00
         0.00000E+00
         0.00000E+00
         0.00000E+00
         0.00000E+00
         0.00000E+00
         0.00000E+00
         0.00000E+00
         0.00000E+00
         0.00000E+00
         0.00000E+00
         0.00000E+00
         0.00000E+00
         0.00000E+00
         0.00000E+00
         0.00000E+00
         0.00000E+00
         0.00000E+00
         0.00000E+00
         0.00000E+00
         0.00000E+00
         0.00000E+00
         0.00000E+00
         0.00000E+00
         0.00000E+00
         0.00000E+00
         0.00000E+00
         0.00000E+00
         0.00000E+00
         0.00000E+00
         0.00000E+00
         0.00000E+00
         0.00000E+00
         0.00000E+00
         0.00000E+00
         0.00000E+00
         0.00000E+00
         0.00000E+00
         0.00000E+00
         0.00000E+00
         0.00000E+00
         0.00000E+00
         0.00000E+00
         0.00000E+00
         0.00000E+00
         0.00000E+00
         0.00000E+00
         0.00000E+00
         0.00000E+00
         0.00000E+00
         0.00000E+00
         0.00000E+00
         0.00000E+00
         0.00000E+00
         0.00000E+00
         0.00000E+00
         0.00000E+00
         0.00000E+00
         0.00000E+00
         0.00000E+00
         0.00000E+00
         0.00000E+00
         0.00000E+00
         0.00000E+00
         0.00000E+00
         0.00000E+00
         0.00000E+00
         0.00000E+00
         0.00000E+00
         0.00000E+00
         0.00000E+00
         0.00000E+00
         0.00000E+00
         0.00000E+00
         0.00000E+00
         0.00000E+00
         0.00000E+00
         0.00000E+00
         0.00000E+00
         0.00000E+00
         0.00000E+00
         0.00000E+00
         0.00000E+00
         0.00000E+00
         0.00000E+00
         0.00000E+00
         0.00000E+00
         0.00000E+00
         0.00000E+00
         0.00000E+00
         0.00000E+00
         0.00000E+00
         0.00000E+00
         0.00000E+00
         0.00000E+00
         0.00000E+00
         0.00000E+00
         0.00000E+00
         0.00000E+00
         0.00000E+00
         0.00000E+00
         0.00000E+00
         0.00000E+00
         0.00000E+00
         0.00000E+00
         0.00000E+00
         0.00000E+00
         0.00000E+00
         0.00000E+00
         0.00000E+00
         0.00000E+00
         0.00000E+00
         0.00000E+00
         0.00000E+00
         0.00000E+00
         0.00000E+00
         0.00000E+00
         0.00000E+00
         0.00000E+00
         0.00000E+00
         0.00000E+00
         0.00000E+00
         0.00000E+00
         0.00000E+00
         0.00000E+00
         0.00000E+00
         0.00000E+00
         0.00000E+00
         0.00000E+00
         0.00000E+00
         0.00000E+00
         0.00000E+00
         0.00000E+00
         0.00000E+00
         0.00000E+00
         0.00000E+00
         0.00000E+00
         0.00000E+00
         0.00000E+00
         0.00000E+00
         0.00000E+00
         0.00000E+00
         0.00000E+00
         0.00000E+00
         0.00000E+00
         0.00000E+00
         0.00000E+00
         0.00000E+00
         0.00000E+00
         0.00000E+00
         0.00000E+00
         0.00000E+00
         0.00000E+00
         0.00000E+00
         0.00000E+00
         0.00000E+00
         0.00000E+00
         0.00000E+00
         0.00000E+00
         0.00000E+00
         0.00000E+00
         0.00000E+00
         0.00000E+00
         0.00000E+00
         0.00000E+00
         0.00000E+00
         0.00000E+00
         0.00000E+00
         0.00000E+00
         0.00000E+00
         0.00000E+00
         0.00000E+00
         0.00000E+00
         0.00000E+00
         0.00000E+00
         0.00000E+00
         0.00000E+00
         0.00000E+00
         0.00000E+00
         0.00000E+00
         0.00000E+00
         0.00000E+00
         0.00000E+00
         0.00000E+00
         0.00000E+00
         0.00000E+00
         0.00000E+00
         0.00000E+00
         0.00000E+00
         0.00000E+00
         0.00000E+00
         0.00000E+00
         0.00000E+00
         0.00000E+00
         0.00000E+00
         0.00000E+00
         0.00000E+00
         0.00000E+00
         0.00000E+00
         0.00000E+00
         0.00000E+00
         0.00000E+00
         0.00000E+00
         0.00000E+00
         0.00000E+00
         0.00000E+00
         0.00000E+00
         0.00000E+00
         0.00000E+00
         0.00000E+00
         0.00000E+00
         0.00000E+00
         0.00000E+00
         0.00000E+00
         0.00000E+00
         0.00000E+00
         0.00000E+00
         0.00000E+00
         0.00000E+00
         0.00000E+00
         0.00000E+00
         0.00000E+00
         0.00000E+00
         0.00000E+00
         0.00000E+00
         0.00000E+00
         0.00000E+00
         0.00000E+00
         0.00000E+00
         0.00000E+00
         0.00000E+00
         0.00000E+00
         0.00000E+00
         0.00000E+00
         0.00000E+00
         0.00000E+00
         0.00000E+00
         0.00000E+00
         0.00000E+00
         0.00000E+00
         0.00000E+00
         0.00000E+00
         0.00000E+00
         0.00000E+00
         0.00000E+00
         0.00000E+00
         0.00000E+00
         0.00000E+00
         0.00000E+00
         0.00000E+00
         0.00000E+00
         0.00000E+00
         0.00000E+00
         0.00000E+00
         0.00000E+00
         0.00000E+00
         0.00000E+00
         0.00000E+00
         0.00000E+00
         0.00000E+00
         0.00000E+00
         0.00000E+00
         0.00000E+00
         0.00000E+00
         0.00000E+00
         0.00000E+00
         0.00000E+00
         0.00000E+00
         0.00000E+00
         0.00000E+00
         0.00000E+00
         0.00000E+00
         0.00000E+00
         0.00000E+00
         0.00000E+00
         0.00000E+00
         0.00000E+00
         0.00000E+00
         0.00000E+00
         0.00000E+00
         0.00000E+00
         0.00000E+00
         0.00000E+00
         0.00000E+00
         0.00000E+00
         0.00000E+00
         0.00000E+00
         0.00000E+00
         0.00000E+00
         0.00000E+00
         0.00000E+00
         0.00000E+00
         0.00000E+00
         0.00000E+00
         0.00000E+00
         0.00000E+00
         0.00000E+00
         0.00000E+00
         0.00000E+00
         0.00000E+00
         0.00000E+00
         0.00000E+00
         0.00000E+00
         0.00000E+00
         0.00000E+00
         0.00000E+00
         0.00000E+00
         0.00000E+00
         0.00000E+00
         0.00000E+00
         0.00000E+00
         0.00000E+00
         0.00000E+00
         0.00000E+00
         0.00000E+00
         0.00000E+00
         0.00000E+00
         0.00000E+00
         0.00000E+00
         0.00000E+00
         0.00000E+00
         0.00000E+00
         0.00000E+00
         0.00000E+00
         0.00000E+00
         0.00000E+00
         0.00000E+00
         0.00000E+00
         0.00000E+00
         0.00000E+00
         0.00000E+00
         0.00000E+00
         0.00000E+00
         0.00000E+00
         0.00000E+00
         0.00000E+00
         0.00000E+00
         0.00000E+00
         0.00000E+00
         0.00000E+00
         0.00000E+00
         0.00000E+00
         0.00000E+00
         0.00000E+00
         0.00000E+00
         0.00000E+00
         0.00000E+00
         0.00000E+00
         0.00000E+00
         0.00000E+00
         0.00000E+00
         0.00000E+00
         0.00000E+00
         0.00000E+00
         0.00000E+00
         0.00000E+00
         0.00000E+00
         0.00000E+00
         0.00000E+00
         0.00000E+00
         0.00000E+00
         0.00000E+00
         0.00000E+00
         0.00000E+00
         0.00000E+00
         0.00000E+00
         0.00000E+00
         0.00000E+00
         0.00000E+00
         0.00000E+00
         0.00000E+00
         0.00000E+00
         0.00000E+00
         0.00000E+00
         0.00000E+00
         0.00000E+00
         0.00000E+00
         0.00000E+00
         0.00000E+00
         0.00000E+00
         0.00000E+00
         0.00000E+00
         0.00000E+00
         0.00000E+00
         0.00000E+00
         0.00000E+00
         0.00000E+00
         0.00000E+00
         0.00000E+00
         0.00000E+00
         0.00000E+00
         0.00000E+00
         0.00000E+00
         0.00000E+00
         0.00000E+00
         0.00000E+00
         0.00000E+00
         0.00000E+00
         0.00000E+00
         0.00000E+00
         0.00000E+00
         0.00000E+00
         0.00000E+00
         0.00000E+00
         0.00000E+00
         0.00000E+00
         0.00000E+00
         0.00000E+00
         0.00000E+00
         0.00000E+00
         0.00000E+00
         0.00000E+00
         0.00000E+00
         0.00000E+00
         0.00000E+00
         0.00000E+00
         0.00000E+00
         0.00000E+00
         0.00000E+00
         0.00000E+00
         0.00000E+00
         0.00000E+00
         0.00000E+00
         0.00000E+00
         0.00000E+00
         0.00000E+00
         0.00000E+00
         0.00000E+00
         0.00000E+00
         0.00000E+00
         0.00000E+00
         0.00000E+00
         0.00000E+00
         0.00000E+00
         0.00000E+00
         0.00000E+00
         0.00000E+00
         0.00000E+00
         0.00000E+00
         0.00000E+00
         0.00000E+00
         0.00000E+00
         0.00000E+00
         0.00000E+00
         0.00000E+00
         0.00000E+00
         0.00000E+00
         0.00000E+00
         0.00000E+00
         0.00000E+00
         0.00000E+00
         0.00000E+00
         0.00000E+00
         0.00000E+00
         0.00000E+00
         0.00000E+00
         0.00000E+00
         0.00000E+00
         0.00000E+00
         0.00000E+00
         0.00000E+00
         0.00000E+00
         0.00000E+00
         0.00000E+00
         0.00000E+00
         0.00000E+00
         0.00000E+00
         0.00000E+00
         0.00000E+00
         0.00000E+00
         0.00000E+00
         0.00000E+00
         0.00000E+00
         0.00000E+00
         0.00000E+00
         0.00000E+00
         0.00000E+00
         0.00000E+00
         0.00000E+00
         0.00000E+00
         0.00000E+00
         0.00000E+00
         0.00000E+00
         0.00000E+00
         0.00000E+00
         0.00000E+00
         0.00000E+00
         0.00000E+00
         0.00000E+00
         0.00000E+00
         0.00000E+00
         0.00000E+00
         0.00000E+00
         0.00000E+00
         0.00000E+00
         0.00000E+00
         0.00000E+00
         0.00000E+00
         0.00000E+00
         0.00000E+00
         0.00000E+00
         0.00000E+00
         0.00000E+00
         0.00000E+00
         0.00000E+00
         0.00000E+00
         0.00000E+00
         0.00000E+00
         0.00000E+00
         0.00000E+00
         0.00000E+00
         0.00000E+00
         0.00000E+00
         0.00000E+00
         0.00000E+00
         0.00000E+00
         0.00000E+00
         0.00000E+00
         0.00000E+00
         0.00000E+00
         0.00000E+00
         0.00000E+00
         0.00000E+00
         0.00000E+00
         0.00000E+00
         0.00000E+00
         0.00000E+00
         0.00000E+00
         0.00000E+00
         0.00000E+00
         0.00000E+00
         0.00000E+00
         0.00000E+00
         0.00000E+00
         0.00000E+00
         0.00000E+00
         0.00000E+00
         0.00000E+00
         0.00000E+00
         0.00000E+00
         0.00000E+00
         0.00000E+00
         0.00000E+00
         0.00000E+00
         0.00000E+00
         0.00000E+00
         0.00000E+00
         0.00000E+00
         0.00000E+00
         0.00000E+00
         0.00000E+00
         0.00000E+00
         0.00000E+00
         0.00000E+00
         0.00000E+00
         0.00000E+00
         0.00000E+00
         0.00000E+00
         0.00000E+00
         0.00000E+00
         0.00000E+00
         0.00000E+00
         0.00000E+00
         0.00000E+00
         0.00000E+00
         0.00000E+00
         0.00000E+00
         0.00000E+00
         0.00000E+00
         0.00000E+00
         0.00000E+00
         0.00000E+00
         0.00000E+00
         0.00000E+00
         0.00000E+00
         0.00000E+00
         0.00000E+00
         0.00000E+00
         0.00000E+00
         0.00000E+00
         0.00000E+00
         0.00000E+00
         0.00000E+00
         0.00000E+00
         0.00000E+00
         0.00000E+00
         0.00000E+00
         0.00000E+00
         0.00000E+00
         0.00000E+00
         0.00000E+00
         0.00000E+00
         0.00000E+00
         0.00000E+00
         0.00000E+00
         0.00000E+00
         0.00000E+00
         0.00000E+00
         0.00000E+00
         0.00000E+00
         0.00000E+00
         0.00000E+00
         0.00000E+00
         0.00000E+00
         0.00000E+00
         0.00000E+00
         0.00000E+00
         0.00000E+00
         0.00000E+00
         0.00000E+00
         0.00000E+00
         0.00000E+00
         0.00000E+00
         0.00000E+00
         0.00000E+00
         0.00000E+00
         0.00000E+00
         0.00000E+00
         0.00000E+00
         0.00000E+00
         0.00000E+00
         0.00000E+00
         0.00000E+00
         0.00000E+00
         0.00000E+00
         0.00000E+00
         0.00000E+00
         0.00000E+00
         0.00000E+00
         0.00000E+00
         0.00000E+00
         0.00000E+00
         0.00000E+00
         0.00000E+00
         0.00000E+00
         0.00000E+00
         0.00000E+00
         0.00000E+00
         0.00000E+00
         0.00000E+00
         0.00000E+00
         0.00000E+00
         0.00000E+00
         0.00000E+00
         0.00000E+00
         0.00000E+00
         0.00000E+00
         0.00000E+00
         0.00000E+00
         0.00000E+00
         0.00000E+00
         0.00000E+00
         0.00000E+00
         0.00000E+00
         0.00000E+00
         0.00000E+00
         0.00000E+00
         0.00000E+00
         0.00000E+00
         0.00000E+00
         0.00000E+00
         0.00000E+00
         0.00000E+00
         0.00000E+00
         0.00000E+00
         0.00000E+00
         0.00000E+00
         0.00000E+00
         0.00000E+00
         0.00000E+00
         0.00000E+00
         0.00000E+00
         0.00000E+00
         0.00000E+00
         0.00000E+00
         0.00000E+00
         0.00000E+00
         0.00000E+00
         0.00000E+00
         0.00000E+00
         0.00000E+00
         0.00000E+00
         0.00000E+00
         0.00000E+00
         0.00000E+00
         0.00000E+00
         0.00000E+00
         0.00000E+00
         0.00000E+00
         0.00000E+00
         0.00000E+00
         0.00000E+00
         0.00000E+00
         0.00000E+00
         0.00000E+00
         0.00000E+00
         0.00000E+00
         0.00000E+00
         0.00000E+00
         0.00000E+00
         0.00000E+00
         0.00000E+00
         0.00000E+00
         0.00000E+00
         0.00000E+00
         0.00000E+00
         0.00000E+00
         0.00000E+00
         0.00000E+00
         0.00000E+00
         0.00000E+00
         0.00000E+00
         0.00000E+00
         0.00000E+00
         0.00000E+00
         0.00000E+00
         0.00000E+00
         0.00000E+00
         0.00000E+00
         0.00000E+00
         0.00000E+00
         0.00000E+00
         0.00000E+00
         0.00000E+00
         0.00000E+00
         0.00000E+00
         0.00000E+00
         0.00000E+00
         0.00000E+00
         0.00000E+00
         0.00000E+00
         0.00000E+00
         0.00000E+00
         0.00000E+00
         0.00000E+00
         0.00000E+00
         0.00000E+00
         0.00000E+00
         0.00000E+00
         0.00000E+00
         0.00000E+00
         0.00000E+00
         0.00000E+00
         0.00000E+00
         0.00000E+00
         0.00000E+00
         0.00000E+00
         0.00000E+00
         0.00000E+00
         0.00000E+00
         0.00000E+00
         0.00000E+00
         0.00000E+00
         0.00000E+00
         0.00000E+00
         0.00000E+00
         0.00000E+00
         0.00000E+00
         0.00000E+00
         0.00000E+00
         0.00000E+00
         0.00000E+00
         0.00000E+00
         0.00000E+00
         0.00000E+00
         0.00000E+00
         0.00000E+00
         0.00000E+00
         0.00000E+00
         0.00000E+00
         0.00000E+00
         0.00000E+00
         0.00000E+00
         0.00000E+00
         0.00000E+00
         0.00000E+00
         0.00000E+00
         0.00000E+00
         0.00000E+00
         0.00000E+00
         0.00000E+00
         0.00000E+00
         0.00000E+00
         0.00000E+00
         0.00000E+00
         0.00000E+00
         0.00000E+00
         0.00000E+00
         0.00000E+00
         0.00000E+00
         0.00000E+00
         0.00000E+00
         0.00000E+00
         0.00000E+00
         0.00000E+00
         0.00000E+00
         0.00000E+00
         0.00000E+00
         0.00000E+00
         0.00000E+00
         0.00000E+00
         0.00000E+00
         0.00000E+00
         0.00000E+00
         0.00000E+00
         0.00000E+00
         0.00000E+00
         0.00000E+00
         0.00000E+00
         0.00000E+00
         0.00000E+00
         0.00000E+00
         0.00000E+00
         0.00000E+00
         0.00000E+00
         0.00000E+00
         0.00000E+00
         0.00000E+00
         0.00000E+00
         0.00000E+00
         0.00000E+00
         0.00000E+00
         0.00000E+00
         0.00000E+00
         0.00000E+00
         0.00000E+00
         0.00000E+00
         0.00000E+00
         0.00000E+00
         0.00000E+00
         0.00000E+00
         0.00000E+00
         0.00000E+00
         0.00000E+00
         0.00000E+00
         0.00000E+00
         0.00000E+00
         0.00000E+00
         0.00000E+00
         0.00000E+00
         0.00000E+00
         0.00000E+00
         0.00000E+00
         0.00000E+00
         0.00000E+00
         0.00000E+00
         0.00000E+00
         0.00000E+00
         0.00000E+00
         0.00000E+00
         0.00000E+00
         0.00000E+00
         0.00000E+00
         0.00000E+00
         0.00000E+00
         0.00000E+00
         0.00000E+00
         0.00000E+00
         0.00000E+00
         0.00000E+00
         0.00000E+00
         0.00000E+00
         0.00000E+00
         0.00000E+00
         0.00000E+00
         0.00000E+00
         0.00000E+00
         0.00000E+00
         0.00000E+00
         0.00000E+00
         0.00000E+00
         0.00000E+00
         0.00000E+00
         0.00000E+00
         0.00000E+00
         0.00000E+00
         0.00000E+00
         0.00000E+00
         0.00000E+00
         0.00000E+00
         0.00000E+00
         0.00000E+00
         0.00000E+00
         0.00000E+00
         0.00000E+00
         0.00000E+00
         0.00000E+00
         0.00000E+00
         0.00000E+00
         0.00000E+00
         0.00000E+00
         0.00000E+00
         0.00000E+00
         0.00000E+00
         0.00000E+00
         0.00000E+00
         0.00000E+00
         0.00000E+00
         0.00000E+00
         0.00000E+00
         0.00000E+00
         0.00000E+00
         0.00000E+00
         0.00000E+00
         0.00000E+00
  
SCALARS                            eps  double 1
LOOKUP_TABLE default
         0.77596E+01
         0.76634E+01
         0.77245E+01
         0.78338E+01
         0.00000E+00
         0.00000E+00
         0.00000E+00
         0.00000E+00
         0.76606E+01
         0.76929E+01
         0.00000E+00
         0.00000E+00
         0.75240E+01
         0.75188E+01
         0.00000E+00
         0.00000E+00
         0.78178E+01
         0.75264E+01
         0.00000E+00
         0.00000E+00
         0.74191E+01
         0.73361E+01
         0.74686E+01
         0.00000E+00
         0.00000E+00
         0.00000E+00
         0.73391E+01
         0.72176E+01
         0.00000E+00
         0.00000E+00
         0.78125E+01
         0.76858E+01
         0.79353E+01
         0.00000E+00
         0.00000E+00
         0.00000E+00
         0.77393E+01
         0.75777E+01
         0.00000E+00
         0.00000E+00
         0.76754E+01
         0.75508E+01
         0.00000E+00
         0.00000E+00
         0.77809E+01
         0.78275E+01
         0.00000E+00
         0.00000E+00
         0.74505E+01
         0.00000E+00
         0.78184E+01
         0.00000E+00
         0.73039E+01
         0.00000E+00
         0.72657E+01
         0.00000E+00
         0.72664E+01
         0.74022E+01
         0.00000E+00
         0.00000E+00
         0.78099E+01
         0.77613E+01
         0.00000E+00
         0.00000E+00
         0.78403E+01
         0.00000E+00
         0.77825E+01
         0.00000E+00
         0.76311E+01
         0.76153E+01
         0.00000E+00
         0.00000E+00
         0.75807E+01
         0.00000E+00
         0.71744E+01
         0.00000E+00
         0.71531E+01
         0.00000E+00
         0.71640E+01
         0.00000E+00
         0.72235E+01
         0.72841E+01
         0.00000E+00
         0.00000E+00
         0.74069E+01
         0.00000E+00
         0.77786E+01
         0.00000E+00
         0.77210E+01
         0.00000E+00
         0.76741E+01
         0.76472E+01
         0.00000E+00
         0.00000E+00
         0.76791E+01
         0.00000E+00
         0.77019E+01
         0.00000E+00
         0.76815E+01
         0.00000E+00
         0.76748E+01
         0.76952E+01
         0.00000E+00
         0.00000E+00
         0.75626E+01
         0.76183E+01
         0.00000E+00
         0.00000E+00
         0.75530E+01
         0.00000E+00
         0.76173E+01
         0.00000E+00
         0.75544E+01
         0.00000E+00
         0.74160E+01
         0.00000E+00
         0.72823E+01
         0.00000E+00
         0.72018E+01
         0.00000E+00
         0.71936E+01
         0.00000E+00
         0.71960E+01
         0.00000E+00
         0.72832E+01
         0.00000E+00
         0.74473E+01
         0.00000E+00
         0.76268E+01
         0.00000E+00
         0.77309E+01
         0.00000E+00
         0.78340E+01
         0.00000E+00
         0.79021E+01
         0.00000E+00
         0.79000E+01
         0.00000E+00
         0.77329E+01
         0.00000E+00
         0.76161E+01
         0.00000E+00
         0.75775E+01
         0.00000E+00
         0.76404E+01
         0.00000E+00
         0.76724E+01
         0.00000E+00
         0.76169E+01
         0.00000E+00
         0.76169E+01
         0.00000E+00
         0.76587E+01
         0.00000E+00
         0.77130E+01
         0.00000E+00
         0.32746E+00
         0.32742E+00
         0.32742E+00
         0.32745E+00
         0.32744E+00
         0.32745E+00
         0.32738E+00
         0.32741E+00
         0.32745E+00
         0.32744E+00
         0.32736E+00
         0.32747E+00
         0.32745E+00
         0.32737E+00
         0.32748E+00
         0.32745E+00
         0.32744E+00
         0.32745E+00
         0.32741E+00
         0.32742E+00
         0.32748E+00
         0.32749E+00
         0.32747E+00
         0.32741E+00
         0.32742E+00
         0.32741E+00
         0.32739E+00
         0.32739E+00
         0.32738E+00
         0.32741E+00
         0.32744E+00
         0.32741E+00
         0.32744E+00
         0.32742E+00
         0.32746E+00
         0.32742E+00
         0.32744E+00
         0.32748E+00
         0.32745E+00
         0.32743E+00
         0.32749E+00
         0.32747E+00
         0.32750E+00
         0.32746E+00
         0.32745E+00
         0.32747E+00
         0.32742E+00
         0.32744E+00
         0.32743E+00
         0.32742E+00
         0.32746E+00
         0.32744E+00
         0.33074E+00
         0.32839E+00
         0.32865E+00
         0.32854E+00
         0.32867E+00
         0.33001E+00
         0.33149E+00
         0.33179E+00
         0.33151E+00
         0.33175E+00
         0.33238E+00
         0.32856E+00
         0.32832E+00
         0.32824E+00
         0.32836E+00
         0.32847E+00
         0.32855E+00
         0.32860E+00
         0.32991E+00
         0.32906E+00
         0.32844E+00
         0.32834E+00
         0.32835E+00
         0.32900E+00
         0.32838E+00
         0.32845E+00
         0.61516E-02
         0.24400E-02
         0.21243E-02
         0.48038E-03
         0.65107E-02
         0.35265E-02
         0.00000E+00
         0.59977E-02
         0.25811E-02
         0.54685E-02
         0.10628E-02
         0.15031E-01
         0.10629E-01
         0.37259E-02
         0.15898E-01
         0.36064E-02
         0.29150E-03
         0.00000E+00
         0.14080E-02
         0.00000E+00
         0.11123E-01
         0.10235E-01
         0.98827E-02
         0.25421E-03
         0.24141E-02
         0.00000E+00
         0.33378E-02
         0.00000E+00
         0.00000E+00
         0.28834E-02
         0.26240E-02
         0.00000E+00
         0.60385E-03
         0.10492E-03
         0.93531E-02
         0.43193E-02
         0.65234E-02
         0.12361E-01
         0.87616E-02
         0.79327E-02
         0.12624E-01
         0.11140E-01
         0.11235E-01
         0.79700E-02
         0.67757E-02
         0.10450E-01
         0.57482E-02
         0.44144E-02
         0.30889E-02
         0.42160E-02
         0.89121E-02
         0.51199E-02
         0.50429E-01
         0.51721E-01
         0.54227E-01
         0.53808E-01
         0.57599E-01
         0.62113E-01
         0.59454E-01
         0.52464E-01
         0.51035E-01
         0.54872E-01
         0.53706E-01
         0.52926E-01
         0.43132E-01
         0.40828E-01
         0.45201E-01
         0.48669E-01
         0.50642E-01
         0.55636E-01
         0.53379E-01
         0.54922E-01
         0.49095E-01
         0.46435E-01
         0.49758E-01
         0.48562E-01
         0.50077E-01
         0.49625E-01
         0.61586E-02
         0.24412E-02
         0.21273E-02
         0.48551E-03
         0.65064E-02
         0.35226E-02
         0.00000E+00
         0.60066E-02
         0.25909E-02
         0.54939E-02
         0.10627E-02
         0.15030E-01
         0.10634E-01
         0.37098E-02
         0.15918E-01
         0.36117E-02
         0.30098E-03
         0.00000E+00
         0.14106E-02
         0.00000E+00
         0.11124E-01
         0.10234E-01
         0.98819E-02
         0.25412E-03
         0.24380E-02
         0.00000E+00
         0.33399E-02
         0.00000E+00
         0.00000E+00
         0.28940E-02
         0.26295E-02
         0.00000E+00
         0.59759E-03
         0.10784E-03
         0.93587E-02
         0.43172E-02
         0.65212E-02
         0.12385E-01
         0.87885E-02
         0.79482E-02
         0.12634E-01
         0.11147E-01
         0.11237E-01
         0.79698E-02
         0.67737E-02
         0.10449E-01
         0.57483E-02
         0.44139E-02
         0.30800E-02
         0.42060E-02
         0.89053E-02
         0.51071E-02
         0.50409E-01
         0.51708E-01
         0.54227E-01
         0.53808E-01
         0.57589E-01
         0.62090E-01
         0.59428E-01
         0.52450E-01
         0.51021E-01
         0.54855E-01
         0.53696E-01
         0.52927E-01
         0.43128E-01
         0.40826E-01
         0.45207E-01
         0.48682E-01
         0.50656E-01
         0.55649E-01
         0.53375E-01
         0.54919E-01
         0.49090E-01
         0.46432E-01
         0.49740E-01
         0.48528E-01
         0.50047E-01
         0.49597E-01
         0.61657E-02
         0.24425E-02
         0.21303E-02
         0.49066E-03
         0.65019E-02
         0.35189E-02
         0.00000E+00
         0.60154E-02
         0.26008E-02
         0.55191E-02
         0.10626E-02
         0.15029E-01
         0.10640E-01
         0.36937E-02
         0.15938E-01
         0.36173E-02
         0.31062E-03
         0.00000E+00
         0.14133E-02
         0.00000E+00
         0.11125E-01
         0.10233E-01
         0.98811E-02
         0.25397E-03
         0.24616E-02
         0.00000E+00
         0.33420E-02
         0.00000E+00
         0.00000E+00
         0.29042E-02
         0.26352E-02
         0.00000E+00
         0.59133E-03
         0.11072E-03
         0.93643E-02
         0.43153E-02
         0.65189E-02
         0.12409E-01
         0.88155E-02
         0.79637E-02
         0.12645E-01
         0.11155E-01
         0.11239E-01
         0.79701E-02
         0.67721E-02
         0.10449E-01
         0.57484E-02
         0.44133E-02
         0.30713E-02
         0.41958E-02
         0.88987E-02
         0.50944E-02
         0.50390E-01
         0.51695E-01
         0.54227E-01
         0.53809E-01
         0.57579E-01
         0.62068E-01
         0.59402E-01
         0.52435E-01
         0.51007E-01
         0.54837E-01
         0.53686E-01
         0.52930E-01
         0.43123E-01
         0.40824E-01
         0.45213E-01
         0.48695E-01
         0.50670E-01
         0.55661E-01
         0.53372E-01
         0.54915E-01
         0.49084E-01
         0.46428E-01
         0.49721E-01
         0.48494E-01
         0.50017E-01
         0.49568E-01
         0.61728E-02
         0.24438E-02
         0.21333E-02
         0.49582E-03
         0.64974E-02
         0.35151E-02
         0.00000E+00
         0.60242E-02
         0.26107E-02
         0.55438E-02
         0.10627E-02
         0.15029E-01
         0.10645E-01
         0.36776E-02
         0.15958E-01
         0.36233E-02
         0.32064E-03
         0.00000E+00
         0.14162E-02
         0.00000E+00
         0.11127E-01
         0.10232E-01
         0.98813E-02
         0.25364E-03
         0.24848E-02
         0.00000E+00
         0.33438E-02
         0.00000E+00
         0.00000E+00
         0.29135E-02
         0.26410E-02
         0.00000E+00
         0.58503E-03
         0.11363E-03
         0.93697E-02
         0.43132E-02
         0.65166E-02
         0.12434E-01
         0.88429E-02
         0.79801E-02
         0.12657E-01
         0.11163E-01
         0.11242E-01
         0.79713E-02
         0.67709E-02
         0.10448E-01
         0.57491E-02
         0.44129E-02
         0.30625E-02
         0.41857E-02
         0.88918E-02
         0.50816E-02
         0.50370E-01
         0.51682E-01
         0.54227E-01
         0.53809E-01
         0.57569E-01
         0.62046E-01
         0.59375E-01
         0.52420E-01
         0.50993E-01
         0.54819E-01
         0.53677E-01
         0.52932E-01
         0.43120E-01
         0.40823E-01
         0.45219E-01
         0.48710E-01
         0.50686E-01
         0.55675E-01
         0.53369E-01
         0.54912E-01
         0.49078E-01
         0.46425E-01
         0.49703E-01
         0.48460E-01
         0.49987E-01
         0.49540E-01
         0.61797E-02
         0.24450E-02
         0.21363E-02
         0.50096E-03
         0.64932E-02
         0.35113E-02
         0.00000E+00
         0.60329E-02
         0.26205E-02
         0.55680E-02
         0.10628E-02
         0.15028E-01
         0.10651E-01
         0.36616E-02
         0.15978E-01
         0.36298E-02
         0.33103E-03
         0.00000E+00
         0.14191E-02
         0.00000E+00
         0.11129E-01
         0.10232E-01
         0.98821E-02
         0.25313E-03
         0.25074E-02
         0.00000E+00
         0.33453E-02
         0.00000E+00
         0.00000E+00
         0.29219E-02
         0.26471E-02
         0.00000E+00
         0.57873E-03
         0.11653E-03
         0.93754E-02
         0.43111E-02
         0.65144E-02
         0.12458E-01
         0.88708E-02
         0.79972E-02
         0.12669E-01
         0.11171E-01
         0.11245E-01
         0.79737E-02
         0.67705E-02
         0.10449E-01
         0.57502E-02
         0.44128E-02
         0.30538E-02
         0.41754E-02
         0.88852E-02
         0.50689E-02
         0.50351E-01
         0.51668E-01
         0.54226E-01
         0.53809E-01
         0.57558E-01
         0.62024E-01
         0.59349E-01
         0.52405E-01
         0.50980E-01
         0.54802E-01
         0.53667E-01
         0.52936E-01
         0.43118E-01
         0.40822E-01
         0.45226E-01
         0.48726E-01
         0.50704E-01
         0.55689E-01
         0.53366E-01
         0.54908E-01
         0.49072E-01
         0.46422E-01
         0.49685E-01
         0.48426E-01
         0.49956E-01
         0.49512E-01
         0.61864E-02
         0.24460E-02
         0.21391E-02
         0.50611E-03
         0.64888E-02
         0.35075E-02
         0.00000E+00
         0.60409E-02
         0.26303E-02
         0.55915E-02
         0.10632E-02
         0.15028E-01
         0.10656E-01
         0.36455E-02
         0.15997E-01
         0.36365E-02
         0.34148E-03
         0.00000E+00
         0.14221E-02
         0.00000E+00
         0.11132E-01
         0.10232E-01
         0.98835E-02
         0.25260E-03
         0.25295E-02
         0.00000E+00
         0.33468E-02
         0.00000E+00
         0.00000E+00
         0.29299E-02
         0.26530E-02
         0.00000E+00
         0.57243E-03
         0.11943E-03
         0.93812E-02
         0.43094E-02
         0.65125E-02
         0.12483E-01
         0.88991E-02
         0.80149E-02
         0.12681E-01
         0.11180E-01
         0.11249E-01
         0.79764E-02
         0.67708E-02
         0.10450E-01
         0.57514E-02
         0.44130E-02
         0.30455E-02
         0.41655E-02
         0.88787E-02
         0.50564E-02
         0.50331E-01
         0.51655E-01
         0.54226E-01
         0.53810E-01
         0.57548E-01
         0.62002E-01
         0.59322E-01
         0.52390E-01
         0.50966E-01
         0.54784E-01
         0.53658E-01
         0.52940E-01
         0.43117E-01
         0.40821E-01
         0.45234E-01
         0.48744E-01
         0.50723E-01
         0.55704E-01
         0.53363E-01
         0.54905E-01
         0.49067E-01
         0.46419E-01
         0.49667E-01
         0.48392E-01
         0.49926E-01
         0.49484E-01
         0.61925E-02
         0.24461E-02
         0.21419E-02
         0.51133E-03
         0.64846E-02
         0.35039E-02
         0.00000E+00
         0.60478E-02
         0.26404E-02
         0.56140E-02
         0.10643E-02
         0.15028E-01
         0.10663E-01
         0.36297E-02
         0.16017E-01
         0.36432E-02
         0.35174E-03
         0.00000E+00
         0.14252E-02
         0.00000E+00
         0.11134E-01
         0.10232E-01
         0.98850E-02
         0.25220E-03
         0.25509E-02
         0.00000E+00
         0.33485E-02
         0.00000E+00
         0.00000E+00
         0.29380E-02
         0.26585E-02
         0.00000E+00
         0.56607E-03
         0.12222E-03
         0.93870E-02
         0.43080E-02
         0.65108E-02
         0.12508E-01
         0.89276E-02
         0.80325E-02
         0.12694E-01
         0.11188E-01
         0.11252E-01
         0.79792E-02
         0.67715E-02
         0.10452E-01
         0.57534E-02
         0.44139E-02
         0.30384E-02
         0.41560E-02
         0.88727E-02
         0.50440E-02
         0.50312E-01
         0.51642E-01
         0.54225E-01
         0.53810E-01
         0.57538E-01
         0.61979E-01
         0.59296E-01
         0.52375E-01
         0.50952E-01
         0.54766E-01
         0.53649E-01
         0.52944E-01
         0.43115E-01
         0.40820E-01
         0.45241E-01
         0.48761E-01
         0.50742E-01
         0.55718E-01
         0.53360E-01
         0.54901E-01
         0.49062E-01
         0.46417E-01
         0.49648E-01
         0.48358E-01
         0.49896E-01
         0.49455E-01
         0.61984E-02
         0.24462E-02
         0.21446E-02
         0.51652E-03
         0.64806E-02
         0.35000E-02
         0.00000E+00
         0.60541E-02
         0.26505E-02
         0.56360E-02
         0.10657E-02
         0.15028E-01
         0.10669E-01
         0.36139E-02
         0.16037E-01
         0.36500E-02
         0.36190E-03
         0.00000E+00
         0.14282E-02
         0.00000E+00
         0.11137E-01
         0.10232E-01
         0.98863E-02
         0.25176E-03
         0.25720E-02
         0.00000E+00
         0.33503E-02
         0.00000E+00
         0.00000E+00
         0.29460E-02
         0.26638E-02
         0.00000E+00
         0.55970E-03
         0.12501E-03
         0.93932E-02
         0.43069E-02
         0.65096E-02
         0.12533E-01
         0.89562E-02
         0.80503E-02
         0.12707E-01
         0.11197E-01
         0.11256E-01
         0.79824E-02
         0.67724E-02
         0.10454E-01
         0.57556E-02
         0.44150E-02
         0.30318E-02
         0.41467E-02
         0.88669E-02
         0.50318E-02
         0.50292E-01
         0.51629E-01
         0.54225E-01
         0.53811E-01
         0.57528E-01
         0.61957E-01
         0.59269E-01
         0.52360E-01
         0.50938E-01
         0.54748E-01
         0.53640E-01
         0.52947E-01
         0.43113E-01
         0.40819E-01
         0.45248E-01
         0.48779E-01
         0.50760E-01
         0.55732E-01
         0.53356E-01
         0.54898E-01
         0.49057E-01
         0.46414E-01
         0.49630E-01
         0.48324E-01
         0.49866E-01
         0.49427E-01
         0.62042E-02
         0.24462E-02
         0.21473E-02
         0.52173E-03
         0.64764E-02
         0.34962E-02
         0.00000E+00
         0.60604E-02
         0.26607E-02
         0.56580E-02
         0.10671E-02
         0.15028E-01
         0.10675E-01
         0.35982E-02
         0.16058E-01
         0.36567E-02
         0.37209E-03
         0.00000E+00
         0.14312E-02
         0.00000E+00
         0.11139E-01
         0.10232E-01
         0.98878E-02
         0.25145E-03
         0.25931E-02
         0.00000E+00
         0.33521E-02
         0.00000E+00
         0.00000E+00
         0.29541E-02
         0.26691E-02
         0.00000E+00
         0.55338E-03
         0.12778E-03
         0.93995E-02
         0.43055E-02
         0.65082E-02
         0.12558E-01
         0.89849E-02
         0.80679E-02
         0.12719E-01
         0.11206E-01
         0.11260E-01
         0.79857E-02
         0.67735E-02
         0.10457E-01
         0.57576E-02
         0.44162E-02
         0.30253E-02
         0.41376E-02
         0.88614E-02
         0.50195E-02
         0.50272E-01
         0.51616E-01
         0.54224E-01
         0.53811E-01
         0.57518E-01
         0.61935E-01
         0.59243E-01
         0.52345E-01
         0.50925E-01
         0.54730E-01
         0.53630E-01
         0.52951E-01
         0.43111E-01
         0.40819E-01
         0.45256E-01
         0.48796E-01
         0.50779E-01
         0.55745E-01
         0.53352E-01
         0.54894E-01
         0.49053E-01
         0.46412E-01
         0.49612E-01
         0.48290E-01
         0.49837E-01
         0.49399E-01
         0.62100E-02
         0.24461E-02
         0.21499E-02
         0.52699E-03
         0.64723E-02
         0.34924E-02
         0.00000E+00
         0.60668E-02
         0.26709E-02
         0.56800E-02
         0.10686E-02
         0.15028E-01
         0.10682E-01
         0.35825E-02
         0.16078E-01
         0.36634E-02
         0.38231E-03
         0.00000E+00
         0.14341E-02
         0.00000E+00
         0.11142E-01
         0.10232E-01
         0.98890E-02
         0.25112E-03
         0.26141E-02
         0.00000E+00
         0.33540E-02
         0.00000E+00
         0.00000E+00
         0.29622E-02
         0.26744E-02
         0.00000E+00
         0.54708E-03
         0.13058E-03
         0.94055E-02
         0.43045E-02
         0.65070E-02
         0.12583E-01
         0.90136E-02
         0.80857E-02
         0.12732E-01
         0.11215E-01
         0.11264E-01
         0.79888E-02
         0.67745E-02
         0.10459E-01
         0.57599E-02
         0.44175E-02
         0.30187E-02
         0.41282E-02
         0.88555E-02
         0.50072E-02
         0.50253E-01
         0.51603E-01
         0.54223E-01
         0.53811E-01
         0.57508E-01
         0.61912E-01
         0.59216E-01
         0.52330E-01
         0.50911E-01
         0.54712E-01
         0.53621E-01
         0.52955E-01
         0.43110E-01
         0.40818E-01
         0.45263E-01
         0.48813E-01
         0.50798E-01
         0.55759E-01
         0.53348E-01
         0.54890E-01
         0.49048E-01
         0.46410E-01
         0.49593E-01
         0.48256E-01
         0.49807E-01
         0.49371E-01
         0.62157E-02
         0.24460E-02
         0.21526E-02
         0.53219E-03
         0.64683E-02
         0.34888E-02
         0.00000E+00
         0.60730E-02
         0.26811E-02
         0.57019E-02
         0.10702E-02
         0.15028E-01
         0.10688E-01
         0.35668E-02
         0.16098E-01
         0.36702E-02
         0.39254E-03
         0.00000E+00
         0.14372E-02
         0.00000E+00
         0.11144E-01
         0.10232E-01
         0.98905E-02
         0.25083E-03
         0.26351E-02
         0.00000E+00
         0.33559E-02
         0.00000E+00
         0.00000E+00
         0.29702E-02
         0.26797E-02
         0.00000E+00
         0.54085E-03
         0.13335E-03
         0.94117E-02
         0.43033E-02
         0.65057E-02
         0.12608E-01
         0.90424E-02
         0.81032E-02
         0.12745E-01
         0.11223E-01
         0.11267E-01
         0.79918E-02
         0.67755E-02
         0.10461E-01
         0.57621E-02
         0.44187E-02
         0.30122E-02
         0.41190E-02
         0.88500E-02
         0.49950E-02
         0.50233E-01
         0.51590E-01
         0.54222E-01
         0.53811E-01
         0.57498E-01
         0.61890E-01
         0.59189E-01
         0.52314E-01
         0.50898E-01
         0.54694E-01
         0.53612E-01
         0.52958E-01
         0.43108E-01
         0.40817E-01
         0.45271E-01
         0.48831E-01
         0.50816E-01
         0.55773E-01
         0.53344E-01
         0.54887E-01
         0.49043E-01
         0.46407E-01
         0.49575E-01
         0.48222E-01
         0.49777E-01
         0.49343E-01
         0.62215E-02
         0.24460E-02
         0.21552E-02
         0.53747E-03
         0.64642E-02
         0.34850E-02
         0.00000E+00
         0.60793E-02
         0.26914E-02
         0.57239E-02
         0.10719E-02
         0.15028E-01
         0.10694E-01
         0.35512E-02
         0.16118E-01
         0.36769E-02
         0.40278E-03
         0.00000E+00
         0.14401E-02
         0.00000E+00
         0.11146E-01
         0.10232E-01
         0.98920E-02
         0.25056E-03
         0.26561E-02
         0.00000E+00
         0.33578E-02
         0.00000E+00
         0.00000E+00
         0.29783E-02
         0.26850E-02
         0.00000E+00
         0.53458E-03
         0.13617E-03
         0.94180E-02
         0.43021E-02
         0.65043E-02
         0.12633E-01
         0.90711E-02
         0.81210E-02
         0.12757E-01
         0.11232E-01
         0.11271E-01
         0.79950E-02
         0.67765E-02
         0.10463E-01
         0.57642E-02
         0.44200E-02
         0.30057E-02
         0.41098E-02
         0.88442E-02
         0.49827E-02
         0.50213E-01
         0.51577E-01
         0.54222E-01
         0.53811E-01
         0.57488E-01
         0.61867E-01
         0.59162E-01
         0.52299E-01
         0.50884E-01
         0.54676E-01
         0.53602E-01
         0.52962E-01
         0.43106E-01
         0.40816E-01
         0.45278E-01
         0.48848E-01
         0.50835E-01
         0.55787E-01
         0.53340E-01
         0.54883E-01
         0.49038E-01
         0.46405E-01
         0.49556E-01
         0.48189E-01
         0.49747E-01
         0.49315E-01
         0.62273E-02
         0.24459E-02
         0.21579E-02
         0.54274E-03
         0.64601E-02
         0.34812E-02
         0.00000E+00
         0.60856E-02
         0.27016E-02
         0.57457E-02
         0.10736E-02
         0.15029E-01
         0.10701E-01
         0.35355E-02
         0.16139E-01
         0.36836E-02
         0.41303E-03
         0.00000E+00
         0.14431E-02
         0.00000E+00
         0.11149E-01
         0.10232E-01
         0.98933E-02
         0.25030E-03
         0.26770E-02
         0.00000E+00
         0.33597E-02
         0.00000E+00
         0.00000E+00
         0.29862E-02
         0.26903E-02
         0.00000E+00
         0.52834E-03
         0.13896E-03
         0.94241E-02
         0.43011E-02
         0.65030E-02
         0.12658E-01
         0.91000E-02
         0.81386E-02
         0.12770E-01
         0.11241E-01
         0.11275E-01
         0.79982E-02
         0.67776E-02
         0.10465E-01
         0.57665E-02
         0.44213E-02
         0.29992E-02
         0.41006E-02
         0.88382E-02
         0.49704E-02
         0.50194E-01
         0.51564E-01
         0.54221E-01
         0.53812E-01
         0.57478E-01
         0.61845E-01
         0.59135E-01
         0.52284E-01
         0.50870E-01
         0.54657E-01
         0.53593E-01
         0.52966E-01
         0.43104E-01
         0.40815E-01
         0.45285E-01
         0.48866E-01
         0.50854E-01
         0.55801E-01
         0.53337E-01
         0.54880E-01
         0.49034E-01
         0.46403E-01
         0.49538E-01
         0.48155E-01
         0.49718E-01
         0.49287E-01
         0.62330E-02
         0.24459E-02
         0.21606E-02
         0.54801E-03
         0.64561E-02
         0.34774E-02
         0.00000E+00
         0.60918E-02
         0.27118E-02
         0.57676E-02
         0.10754E-02
         0.15029E-01
         0.10707E-01
         0.35199E-02
         0.16159E-01
         0.36903E-02
         0.42331E-03
         0.00000E+00
         0.14461E-02
         0.00000E+00
         0.11151E-01
         0.10232E-01
         0.98948E-02
         0.25003E-03
         0.26979E-02
         0.00000E+00
         0.33614E-02
         0.00000E+00
         0.00000E+00
         0.29942E-02
         0.26956E-02
         0.00000E+00
         0.52216E-03
         0.14176E-03
         0.94304E-02
         0.42999E-02
         0.65017E-02
         0.12684E-01
         0.91288E-02
         0.81561E-02
         0.12783E-01
         0.11249E-01
         0.11279E-01
         0.80014E-02
         0.67786E-02
         0.10467E-01
         0.57687E-02
         0.44224E-02
         0.29927E-02
         0.40914E-02
         0.88327E-02
         0.49583E-02
         0.50174E-01
         0.51551E-01
         0.54220E-01
         0.53812E-01
         0.57468E-01
         0.61823E-01
         0.59108E-01
         0.52269E-01
         0.50857E-01
         0.54639E-01
         0.53583E-01
         0.52969E-01
         0.43102E-01
         0.40814E-01
         0.45293E-01
         0.48883E-01
         0.50873E-01
         0.55814E-01
         0.53333E-01
         0.54876E-01
         0.49029E-01
         0.46400E-01
         0.49519E-01
         0.48121E-01
         0.49688E-01
         0.49258E-01
         0.62387E-02
         0.24459E-02
         0.21632E-02
         0.55333E-03
         0.64520E-02
         0.34736E-02
         0.00000E+00
         0.60981E-02
         0.27221E-02
         0.57895E-02
         0.10772E-02
         0.15029E-01
         0.10713E-01
         0.35043E-02
         0.16179E-01
         0.36970E-02
         0.43361E-03
         0.00000E+00
         0.14491E-02
         0.00000E+00
         0.11154E-01
         0.10232E-01
         0.98961E-02
         0.24977E-03
         0.27188E-02
         0.00000E+00
         0.33633E-02
         0.00000E+00
         0.00000E+00
         0.30022E-02
         0.27009E-02
         0.00000E+00
         0.51599E-03
         0.14456E-03
         0.94365E-02
         0.42989E-02
         0.65004E-02
         0.12709E-01
         0.91577E-02
         0.81737E-02
         0.12795E-01
         0.11258E-01
         0.11282E-01
         0.80045E-02
         0.67796E-02
         0.10470E-01
         0.57708E-02
         0.44238E-02
         0.29861E-02
         0.40821E-02
         0.88269E-02
         0.49460E-02
         0.50154E-01
         0.51538E-01
         0.54219E-01
         0.53812E-01
         0.57458E-01
         0.61800E-01
         0.59081E-01
         0.52253E-01
         0.50843E-01
         0.54620E-01
         0.53574E-01
         0.52973E-01
         0.43101E-01
         0.40814E-01
         0.45300E-01
         0.48901E-01
         0.50891E-01
         0.55828E-01
         0.53329E-01
         0.54872E-01
         0.49024E-01
         0.46398E-01
         0.49500E-01
         0.48087E-01
         0.49658E-01
         0.49230E-01
         0.62444E-02
         0.24457E-02
         0.21659E-02
         0.55861E-03
         0.64479E-02
         0.34700E-02
         0.00000E+00
         0.61044E-02
         0.27324E-02
         0.58113E-02
         0.10791E-02
         0.15029E-01
         0.10720E-01
         0.34888E-02
         0.16199E-01
         0.37037E-02
         0.44395E-03
         0.00000E+00
         0.14521E-02
         0.00000E+00
         0.11156E-01
         0.10232E-01
         0.98975E-02
         0.24954E-03
         0.27397E-02
         0.00000E+00
         0.33651E-02
         0.00000E+00
         0.00000E+00
         0.30101E-02
         0.27061E-02
         0.00000E+00
         0.50988E-03
         0.14740E-03
         0.94429E-02
         0.42977E-02
         0.64991E-02
         0.12734E-01
         0.91865E-02
         0.81910E-02
         0.12808E-01
         0.11267E-01
         0.11286E-01
         0.80074E-02
         0.67808E-02
         0.10472E-01
         0.57730E-02
         0.44250E-02
         0.29797E-02
         0.40729E-02
         0.88212E-02
         0.49337E-02
         0.50135E-01
         0.51525E-01
         0.54218E-01
         0.53813E-01
         0.57448E-01
         0.61778E-01
         0.59053E-01
         0.52238E-01
         0.50829E-01
         0.54602E-01
         0.53565E-01
         0.52977E-01
         0.43099E-01
         0.40813E-01
         0.45308E-01
         0.48918E-01
         0.50910E-01
         0.55842E-01
         0.53325E-01
         0.54869E-01
         0.49020E-01
         0.46396E-01
         0.49482E-01
         0.48053E-01
         0.49629E-01
         0.49202E-01
         0.62501E-02
         0.24457E-02
         0.21685E-02
         0.56393E-03
         0.64440E-02
         0.34662E-02
         0.00000E+00
         0.61106E-02
         0.27427E-02
         0.58331E-02
         0.10811E-02
         0.15029E-01
         0.10726E-01
         0.34731E-02
         0.16220E-01
         0.37104E-02
         0.45432E-03
         0.00000E+00
         0.14551E-02
         0.00000E+00
         0.11159E-01
         0.10232E-01
         0.98989E-02
         0.24935E-03
         0.27605E-02
         0.00000E+00
         0.33668E-02
         0.00000E+00
         0.00000E+00
         0.30179E-02
         0.27114E-02
         0.00000E+00
         0.50382E-03
         0.15027E-03
         0.94493E-02
         0.42966E-02
         0.64977E-02
         0.12760E-01
         0.92154E-02
         0.82085E-02
         0.12820E-01
         0.11275E-01
         0.11290E-01
         0.80107E-02
         0.67819E-02
         0.10474E-01
         0.57753E-02
         0.44263E-02
         0.29733E-02
         0.40636E-02
         0.88154E-02
         0.49216E-02
         0.50115E-01
         0.51512E-01
         0.54217E-01
         0.53813E-01
         0.57437E-01
         0.61755E-01
         0.59026E-01
         0.52223E-01
         0.50816E-01
         0.54583E-01
         0.53556E-01
         0.52981E-01
         0.43097E-01
         0.40812E-01
         0.45315E-01
         0.48935E-01
         0.50929E-01
         0.55855E-01
         0.53322E-01
         0.54865E-01
         0.49015E-01
         0.46393E-01
         0.49463E-01
         0.48019E-01
         0.49599E-01
         0.49174E-01
         0.62558E-02
         0.24456E-02
         0.21712E-02
         0.56927E-03
         0.64400E-02
         0.34624E-02
         0.00000E+00
         0.61168E-02
         0.27530E-02
         0.58548E-02
         0.10831E-02
         0.15029E-01
         0.10732E-01
         0.34575E-02
         0.16240E-01
         0.37171E-02
         0.46468E-03
         0.00000E+00
         0.14582E-02
         0.00000E+00
         0.11161E-01
         0.10232E-01
         0.99004E-02
         0.24906E-03
         0.27813E-02
         0.00000E+00
         0.33679E-02
         0.00000E+00
         0.00000E+00
         0.30254E-02
         0.27167E-02
         0.00000E+00
         0.49774E-03
         0.15312E-03
         0.94554E-02
         0.42956E-02
         0.64965E-02
         0.12785E-01
         0.92443E-02
         0.82251E-02
         0.12832E-01
         0.11283E-01
         0.11293E-01
         0.80139E-02
         0.67829E-02
         0.10476E-01
         0.57774E-02
         0.44276E-02
         0.29667E-02
         0.40544E-02
         0.88099E-02
         0.49093E-02
         0.50095E-01
         0.51500E-01
         0.54216E-01
         0.53813E-01
         0.57427E-01
         0.61732E-01
         0.58999E-01
         0.52208E-01
         0.50802E-01
         0.54563E-01
         0.53547E-01
         0.52987E-01
         0.43097E-01
         0.40811E-01
         0.45322E-01
         0.48952E-01
         0.50948E-01
         0.55869E-01
         0.53318E-01
         0.54861E-01
         0.49010E-01
         0.46391E-01
         0.49444E-01
         0.47985E-01
         0.49570E-01
         0.49146E-01
         0.62615E-02
         0.24456E-02
         0.21738E-02
         0.57461E-03
         0.64358E-02
         0.34586E-02
         0.00000E+00
         0.61229E-02
         0.27634E-02
         0.58762E-02
         0.10851E-02
         0.15029E-01
         0.10738E-01
         0.34417E-02
         0.16260E-01
         0.37238E-02
         0.47505E-03
         0.00000E+00
         0.14612E-02
         0.00000E+00
         0.11164E-01
         0.10231E-01
         0.99019E-02
         0.24887E-03
         0.28019E-02
         0.00000E+00
         0.33686E-02
         0.00000E+00
         0.00000E+00
         0.30324E-02
         0.27220E-02
         0.00000E+00
         0.49168E-03
         0.15596E-03
         0.94618E-02
         0.42945E-02
         0.64952E-02
         0.12810E-01
         0.92729E-02
         0.82414E-02
         0.12843E-01
         0.11290E-01
         0.11296E-01
         0.80170E-02
         0.67841E-02
         0.10479E-01
         0.57797E-02
         0.44289E-02
         0.29603E-02
         0.40451E-02
         0.88040E-02
         0.48970E-02
         0.50075E-01
         0.51487E-01
         0.54215E-01
         0.53813E-01
         0.57417E-01
         0.61710E-01
         0.58971E-01
         0.52192E-01
         0.50788E-01
         0.54543E-01
         0.53538E-01
         0.52994E-01
         0.43097E-01
         0.40811E-01
         0.45330E-01
         0.48970E-01
         0.50966E-01
         0.55882E-01
         0.53314E-01
         0.54858E-01
         0.49006E-01
         0.46389E-01
         0.49426E-01
         0.47952E-01
         0.49540E-01
         0.49118E-01
         0.62672E-02
         0.24456E-02
         0.21766E-02
         0.57998E-03
         0.64320E-02
         0.34550E-02
         0.00000E+00
         0.61291E-02
         0.27739E-02
         0.58976E-02
         0.10873E-02
         0.15030E-01
         0.10745E-01
         0.34259E-02
         0.16280E-01
         0.37305E-02
         0.48548E-03
         0.00000E+00
         0.14642E-02
         0.00000E+00
         0.11166E-01
         0.10231E-01
         0.99031E-02
         0.24870E-03
         0.28226E-02
         0.00000E+00
         0.33692E-02
         0.00000E+00
         0.00000E+00
         0.30394E-02
         0.27273E-02
         0.00000E+00
         0.48577E-03
         0.15888E-03
         0.94683E-02
         0.42935E-02
         0.64938E-02
         0.12836E-01
         0.93015E-02
         0.82571E-02
         0.12854E-01
         0.11297E-01
         0.11299E-01
         0.80202E-02
         0.67851E-02
         0.10481E-01
         0.57819E-02
         0.44303E-02
         0.29539E-02
         0.40359E-02
         0.87985E-02
         0.48849E-02
         0.50056E-01
         0.51474E-01
         0.54214E-01
         0.53813E-01
         0.57407E-01
         0.61687E-01
         0.58944E-01
         0.52177E-01
         0.50774E-01
         0.54522E-01
         0.53529E-01
         0.53001E-01
         0.43097E-01
         0.40810E-01
         0.45337E-01
         0.48987E-01
         0.50985E-01
         0.55896E-01
         0.53310E-01
         0.54854E-01
         0.49001E-01
         0.46386E-01
         0.49407E-01
         0.47918E-01
         0.49511E-01
         0.49090E-01
         0.67051E-02
         0.31453E-02
         0.28982E-02
         0.13968E-02
         0.70150E-02
         0.41491E-02
         0.12354E-02
         0.66830E-02
         0.33860E-02
         0.64777E-02
         0.22931E-02
         0.15553E-01
         0.11267E-01
         0.43125E-02
         0.16827E-01
         0.42451E-02
         0.14617E-02
         0.93481E-04
         0.23288E-02
         0.73024E-03
         0.11605E-01
         0.10696E-01
         0.10334E-01
         0.12542E-02
         0.36237E-02
         0.65544E-04
         0.42545E-02
         0.33824E-03
         0.11157E-02
         0.38575E-02
         0.33204E-02
         0.98253E-03
         0.13183E-02
         0.11355E-02
         0.10048E-01
         0.50002E-02
         0.70713E-02
         0.13403E-01
         0.99329E-02
         0.89013E-02
         0.13388E-01
         0.11811E-01
         0.11764E-01
         0.84774E-02
         0.73220E-02
         0.11028E-01
         0.64124E-02
         0.50617E-02
         0.36682E-02
         0.47069E-02
         0.93446E-02
         0.55067E-02
         0.50753E-01
         0.52155E-01
         0.54924E-01
         0.54494E-01
         0.58109E-01
         0.62427E-01
         0.59686E-01
         0.52921E-01
         0.51529E-01
         0.55295E-01
         0.54281E-01
         0.53709E-01
         0.43702E-01
         0.41371E-01
         0.45907E-01
         0.49578E-01
         0.51587E-01
         0.56565E-01
         0.54029E-01
         0.55576E-01
         0.49645E-01
         0.47003E-01
         0.50037E-01
         0.48528E-01
         0.50116E-01
         0.49697E-01
         0.29790E-01
         0.29069E-01
         0.28528E-01
         0.25431E-01
         0.33928E-01
         0.30571E-01
         0.30749E-01
         0.33463E-01
         0.27254E-01
         0.33313E-01
         0.34182E-01
         0.45620E-01
         0.39366E-01
         0.35933E-01
         0.47903E-01
         0.27181E-01
         0.27906E-01
         0.23800E-01
         0.29140E-01
         0.30194E-01
         0.36963E-01
         0.37040E-01
         0.34883E-01
         0.27640E-01
         0.32237E-01
         0.26297E-01
         0.35808E-01
         0.33956E-01
         0.34305E-01
         0.33460E-01
         0.26980E-01
         0.27435E-01
         0.25613E-01
         0.26768E-01
         0.38530E-01
         0.33042E-01
         0.34258E-01
         0.44422E-01
         0.41207E-01
         0.40147E-01
         0.43751E-01
         0.40926E-01
         0.39128E-01
         0.32953E-01
         0.33341E-01
         0.39100E-01
         0.33963E-01
         0.31424E-01
         0.30174E-01
         0.31731E-01
         0.36791E-01
         0.32199E-01
         0.87203E-01
         0.87500E-01
         0.91049E-01
         0.89632E-01
         0.94313E-01
         0.10075E+00
         0.99270E-01
         0.92827E-01
         0.91637E-01
         0.95978E-01
         0.93826E-01
         0.90748E-01
         0.77344E-01
         0.73272E-01
         0.77321E-01
         0.80868E-01
         0.83059E-01
         0.90442E-01
         0.90303E-01
         0.92060E-01
         0.83902E-01
         0.80407E-01
         0.84374E-01
         0.82791E-01
         0.83825E-01
         0.83113E-01
  
SCALARS                            dam  double 1
LOOKUP_TABLE default
         0.00000E+00
         0.00000E+00
         0.00000E+00
         0.00000E+00
         0.00000E+00
         0.00000E+00
         0.00000E+00
         0.00000E+00
         0.00000E+00
         0.00000E+00
         0.00000E+00
         0.00000E+00
         0.00000E+00
         0.00000E+00
         0.00000E+00
         0.00000E+00
         0.00000E+00
         0.00000E+00
         0.00000E+00
         0.00000E+00
         0.00000E+00
         0.00000E+00
         0.00000E+00
         0.00000E+00
         0.00000E+00
         0.00000E+00
         0.00000E+00
         0.00000E+00
         0.00000E+00
         0.00000E+00
         0.00000E+00
         0.00000E+00
         0.00000E+00
         0.00000E+00
         0.00000E+00
         0.00000E+00
         0.00000E+00
         0.00000E+00
         0.00000E+00
         0.00000E+00
         0.00000E+00
         0.00000E+00
         0.00000E+00
         0.00000E+00
         0.00000E+00
         0.00000E+00
         0.00000E+00
         0.00000E+00
         0.00000E+00
         0.00000E+00
         0.00000E+00
         0.00000E+00
         0.00000E+00
         0.00000E+00
         0.00000E+00
         0.00000E+00
         0.00000E+00
         0.00000E+00
         0.00000E+00
         0.00000E+00
         0.00000E+00
         0.00000E+00
         0.00000E+00
         0.00000E+00
         0.00000E+00
         0.00000E+00
         0.00000E+00
         0.00000E+00
         0.00000E+00
         0.00000E+00
         0.00000E+00
         0.00000E+00
         0.00000E+00
         0.00000E+00
         0.00000E+00
         0.00000E+00
         0.00000E+00
         0.00000E+00
         0.00000E+00
         0.00000E+00
         0.00000E+00
         0.00000E+00
         0.00000E+00
         0.00000E+00
         0.00000E+00
         0.00000E+00
         0.00000E+00
         0.00000E+00
         0.00000E+00
         0.00000E+00
         0.00000E+00
         0.00000E+00
         0.00000E+00
         0.00000E+00
         0.00000E+00
         0.00000E+00
         0.00000E+00
         0.00000E+00
         0.00000E+00
         0.00000E+00
         0.00000E+00
         0.00000E+00
         0.00000E+00
         0.00000E+00
         0.00000E+00
         0.00000E+00
         0.00000E+00
         0.00000E+00
         0.00000E+00
         0.00000E+00
         0.00000E+00
         0.00000E+00
         0.00000E+00
         0.00000E+00
         0.00000E+00
         0.00000E+00
         0.00000E+00
         0.00000E+00
         0.00000E+00
         0.00000E+00
         0.00000E+00
         0.00000E+00
         0.00000E+00
         0.00000E+00
         0.00000E+00
         0.00000E+00
         0.00000E+00
         0.00000E+00
         0.00000E+00
         0.00000E+00
         0.00000E+00
         0.00000E+00
         0.00000E+00
         0.00000E+00
         0.00000E+00
         0.00000E+00
         0.00000E+00
         0.00000E+00
         0.00000E+00
         0.00000E+00
         0.00000E+00
         0.00000E+00
         0.00000E+00
         0.00000E+00
         0.00000E+00
         0.00000E+00
         0.00000E+00
         0.00000E+00
         0.00000E+00
         0.00000E+00
         0.00000E+00
         0.00000E+00
         0.00000E+00
         0.00000E+00
         0.00000E+00
         0.00000E+00
         0.00000E+00
         0.00000E+00
         0.00000E+00
         0.00000E+00
         0.00000E+00
         0.00000E+00
         0.00000E+00
         0.00000E+00
         0.00000E+00
         0.00000E+00
         0.00000E+00
         0.00000E+00
         0.00000E+00
         0.00000E+00
         0.00000E+00
         0.00000E+00
         0.00000E+00
         0.00000E+00
         0.00000E+00
         0.00000E+00
         0.00000E+00
         0.00000E+00
         0.00000E+00
         0.00000E+00
         0.00000E+00
         0.00000E+00
         0.00000E+00
         0.00000E+00
         0.00000E+00
         0.00000E+00
         0.00000E+00
         0.00000E+00
         0.00000E+00
         0.00000E+00
         0.00000E+00
         0.00000E+00
         0.00000E+00
         0.00000E+00
         0.00000E+00
         0.00000E+00
         0.00000E+00
         0.00000E+00
         0.00000E+00
         0.00000E+00
         0.00000E+00
         0.00000E+00
         0.00000E+00
         0.00000E+00
         0.00000E+00
         0.00000E+00
         0.00000E+00
         0.00000E+00
         0.00000E+00
         0.00000E+00
         0.00000E+00
         0.00000E+00
         0.00000E+00
         0.00000E+00
         0.00000E+00
         0.00000E+00
         0.00000E+00
         0.00000E+00
         0.00000E+00
         0.00000E+00
         0.00000E+00
         0.00000E+00
         0.00000E+00
         0.00000E+00
         0.00000E+00
         0.00000E+00
         0.00000E+00
         0.00000E+00
         0.00000E+00
         0.00000E+00
         0.00000E+00
         0.00000E+00
         0.00000E+00
         0.00000E+00
         0.00000E+00
         0.00000E+00
         0.00000E+00
         0.00000E+00
         0.00000E+00
         0.00000E+00
         0.00000E+00
         0.00000E+00
         0.00000E+00
         0.00000E+00
         0.00000E+00
         0.00000E+00
         0.00000E+00
         0.00000E+00
         0.00000E+00
         0.00000E+00
         0.00000E+00
         0.00000E+00
         0.00000E+00
         0.00000E+00
         0.00000E+00
         0.00000E+00
         0.00000E+00
         0.00000E+00
         0.00000E+00
         0.00000E+00
         0.00000E+00
         0.00000E+00
         0.00000E+00
         0.00000E+00
         0.00000E+00
         0.00000E+00
         0.00000E+00
         0.00000E+00
         0.00000E+00
         0.00000E+00
         0.00000E+00
         0.00000E+00
         0.00000E+00
         0.00000E+00
         0.00000E+00
         0.00000E+00
         0.00000E+00
         0.00000E+00
         0.00000E+00
         0.00000E+00
         0.00000E+00
         0.00000E+00
         0.00000E+00
         0.00000E+00
         0.00000E+00
         0.00000E+00
         0.00000E+00
         0.00000E+00
         0.00000E+00
         0.00000E+00
         0.00000E+00
         0.00000E+00
         0.00000E+00
         0.00000E+00
         0.00000E+00
         0.00000E+00
         0.00000E+00
         0.00000E+00
         0.00000E+00
         0.00000E+00
         0.00000E+00
         0.00000E+00
         0.00000E+00
         0.00000E+00
         0.00000E+00
         0.00000E+00
         0.00000E+00
         0.00000E+00
         0.00000E+00
         0.00000E+00
         0.00000E+00
         0.00000E+00
         0.00000E+00
         0.00000E+00
         0.00000E+00
         0.00000E+00
         0.00000E+00
         0.00000E+00
         0.00000E+00
         0.00000E+00
         0.00000E+00
         0.00000E+00
         0.00000E+00
         0.00000E+00
         0.00000E+00
         0.00000E+00
         0.00000E+00
         0.00000E+00
         0.00000E+00
         0.00000E+00
         0.00000E+00
         0.00000E+00
         0.00000E+00
         0.00000E+00
         0.00000E+00
         0.00000E+00
         0.00000E+00
         0.00000E+00
         0.00000E+00
         0.00000E+00
         0.00000E+00
         0.00000E+00
         0.00000E+00
         0.00000E+00
         0.00000E+00
         0.00000E+00
         0.00000E+00
         0.00000E+00
         0.00000E+00
         0.00000E+00
         0.00000E+00
         0.00000E+00
         0.00000E+00
         0.00000E+00
         0.00000E+00
         0.00000E+00
         0.00000E+00
         0.00000E+00
         0.00000E+00
         0.00000E+00
         0.00000E+00
         0.00000E+00
         0.00000E+00
         0.00000E+00
         0.00000E+00
         0.00000E+00
         0.00000E+00
         0.00000E+00
         0.00000E+00
         0.00000E+00
         0.00000E+00
         0.00000E+00
         0.00000E+00
         0.00000E+00
         0.00000E+00
         0.00000E+00
         0.00000E+00
         0.00000E+00
         0.00000E+00
         0.00000E+00
         0.00000E+00
         0.00000E+00
         0.00000E+00
         0.00000E+00
         0.00000E+00
         0.00000E+00
         0.00000E+00
         0.00000E+00
         0.00000E+00
         0.00000E+00
         0.00000E+00
         0.00000E+00
         0.00000E+00
         0.00000E+00
         0.00000E+00
         0.00000E+00
         0.00000E+00
         0.00000E+00
         0.00000E+00
         0.00000E+00
         0.00000E+00
         0.00000E+00
         0.00000E+00
         0.00000E+00
         0.00000E+00
         0.00000E+00
         0.00000E+00
         0.00000E+00
         0.00000E+00
         0.00000E+00
         0.00000E+00
         0.00000E+00
         0.00000E+00
         0.00000E+00
         0.00000E+00
         0.00000E+00
         0.00000E+00
         0.00000E+00
         0.00000E+00
         0.00000E+00
         0.00000E+00
         0.00000E+00
         0.00000E+00
         0.00000E+00
         0.00000E+00
         0.00000E+00
         0.00000E+00
         0.00000E+00
         0.00000E+00
         0.00000E+00
         0.00000E+00
         0.00000E+00
         0.00000E+00
         0.00000E+00
         0.00000E+00
         0.00000E+00
         0.00000E+00
         0.00000E+00
         0.00000E+00
         0.00000E+00
         0.00000E+00
         0.00000E+00
         0.00000E+00
         0.00000E+00
         0.00000E+00
         0.00000E+00
         0.00000E+00
         0.00000E+00
         0.00000E+00
         0.00000E+00
         0.00000E+00
         0.00000E+00
         0.00000E+00
         0.00000E+00
         0.00000E+00
         0.00000E+00
         0.00000E+00
         0.00000E+00
         0.00000E+00
         0.00000E+00
         0.00000E+00
         0.00000E+00
         0.00000E+00
         0.00000E+00
         0.00000E+00
         0.00000E+00
         0.00000E+00
         0.00000E+00
         0.00000E+00
         0.00000E+00
         0.00000E+00
         0.00000E+00
         0.00000E+00
         0.00000E+00
         0.00000E+00
         0.00000E+00
         0.00000E+00
         0.00000E+00
         0.00000E+00
         0.00000E+00
         0.00000E+00
         0.00000E+00
         0.00000E+00
         0.00000E+00
         0.00000E+00
         0.00000E+00
         0.00000E+00
         0.00000E+00
         0.00000E+00
         0.00000E+00
         0.00000E+00
         0.00000E+00
         0.00000E+00
         0.00000E+00
         0.00000E+00
         0.00000E+00
         0.00000E+00
         0.00000E+00
         0.00000E+00
         0.00000E+00
         0.00000E+00
         0.00000E+00
         0.00000E+00
         0.00000E+00
         0.00000E+00
         0.00000E+00
         0.00000E+00
         0.00000E+00
         0.00000E+00
         0.00000E+00
         0.00000E+00
         0.00000E+00
         0.00000E+00
         0.00000E+00
         0.00000E+00
         0.00000E+00
         0.00000E+00
         0.00000E+00
         0.00000E+00
         0.00000E+00
         0.00000E+00
         0.00000E+00
         0.00000E+00
         0.00000E+00
         0.00000E+00
         0.00000E+00
         0.00000E+00
         0.00000E+00
         0.00000E+00
         0.00000E+00
         0.00000E+00
         0.00000E+00
         0.00000E+00
         0.00000E+00
         0.00000E+00
         0.00000E+00
         0.00000E+00
         0.00000E+00
         0.00000E+00
         0.00000E+00
         0.00000E+00
         0.00000E+00
         0.00000E+00
         0.00000E+00
         0.00000E+00
         0.00000E+00
         0.00000E+00
         0.00000E+00
         0.00000E+00
         0.00000E+00
         0.00000E+00
         0.00000E+00
         0.00000E+00
         0.00000E+00
         0.00000E+00
         0.00000E+00
         0.00000E+00
         0.00000E+00
         0.00000E+00
         0.00000E+00
         0.00000E+00
         0.00000E+00
         0.00000E+00
         0.00000E+00
         0.00000E+00
         0.00000E+00
         0.00000E+00
         0.00000E+00
         0.00000E+00
         0.00000E+00
         0.00000E+00
         0.00000E+00
         0.00000E+00
         0.00000E+00
         0.00000E+00
         0.00000E+00
         0.00000E+00
         0.00000E+00
         0.00000E+00
         0.00000E+00
         0.00000E+00
         0.00000E+00
         0.00000E+00
         0.00000E+00
         0.00000E+00
         0.00000E+00
         0.00000E+00
         0.00000E+00
         0.00000E+00
         0.00000E+00
         0.00000E+00
         0.00000E+00
         0.00000E+00
         0.00000E+00
         0.00000E+00
         0.00000E+00
         0.00000E+00
         0.00000E+00
         0.00000E+00
         0.00000E+00
         0.00000E+00
         0.00000E+00
         0.00000E+00
         0.00000E+00
         0.00000E+00
         0.00000E+00
         0.00000E+00
         0.00000E+00
         0.00000E+00
         0.00000E+00
         0.00000E+00
         0.00000E+00
         0.00000E+00
         0.00000E+00
         0.00000E+00
         0.00000E+00
         0.00000E+00
         0.00000E+00
         0.00000E+00
         0.00000E+00
         0.00000E+00
         0.00000E+00
         0.00000E+00
         0.00000E+00
         0.00000E+00
         0.00000E+00
         0.00000E+00
         0.00000E+00
         0.00000E+00
         0.00000E+00
         0.00000E+00
         0.00000E+00
         0.00000E+00
         0.00000E+00
         0.00000E+00
         0.00000E+00
         0.00000E+00
         0.00000E+00
         0.00000E+00
         0.00000E+00
         0.00000E+00
         0.00000E+00
         0.00000E+00
         0.00000E+00
         0.00000E+00
         0.00000E+00
         0.00000E+00
         0.00000E+00
         0.00000E+00
         0.00000E+00
         0.00000E+00
         0.00000E+00
         0.00000E+00
         0.00000E+00
         0.00000E+00
         0.00000E+00
         0.00000E+00
         0.00000E+00
         0.00000E+00
         0.00000E+00
         0.00000E+00
         0.00000E+00
         0.00000E+00
         0.00000E+00
         0.00000E+00
         0.00000E+00
         0.00000E+00
         0.00000E+00
         0.00000E+00
         0.00000E+00
         0.00000E+00
         0.00000E+00
         0.00000E+00
         0.00000E+00
         0.00000E+00
         0.00000E+00
         0.00000E+00
         0.00000E+00
         0.00000E+00
         0.00000E+00
         0.00000E+00
         0.00000E+00
         0.00000E+00
         0.00000E+00
         0.00000E+00
         0.00000E+00
         0.00000E+00
         0.00000E+00
         0.00000E+00
         0.00000E+00
         0.00000E+00
         0.00000E+00
         0.00000E+00
         0.00000E+00
         0.00000E+00
         0.00000E+00
         0.00000E+00
         0.00000E+00
         0.00000E+00
         0.00000E+00
         0.00000E+00
         0.00000E+00
         0.00000E+00
         0.00000E+00
         0.00000E+00
         0.00000E+00
         0.00000E+00
         0.00000E+00
         0.00000E+00
         0.00000E+00
         0.00000E+00
         0.00000E+00
         0.00000E+00
         0.00000E+00
         0.00000E+00
         0.00000E+00
         0.00000E+00
         0.00000E+00
         0.00000E+00
         0.00000E+00
         0.00000E+00
         0.00000E+00
         0.00000E+00
         0.00000E+00
         0.00000E+00
         0.00000E+00
         0.00000E+00
         0.00000E+00
         0.00000E+00
         0.00000E+00
         0.00000E+00
         0.00000E+00
         0.00000E+00
         0.00000E+00
         0.00000E+00
         0.00000E+00
         0.00000E+00
         0.00000E+00
         0.00000E+00
         0.00000E+00
         0.00000E+00
         0.00000E+00
         0.00000E+00
         0.00000E+00
         0.00000E+00
         0.00000E+00
         0.00000E+00
         0.00000E+00
         0.00000E+00
         0.00000E+00
         0.00000E+00
         0.00000E+00
         0.00000E+00
         0.00000E+00
         0.00000E+00
         0.00000E+00
         0.00000E+00
         0.00000E+00
         0.00000E+00
         0.00000E+00
         0.00000E+00
         0.00000E+00
         0.00000E+00
         0.00000E+00
         0.00000E+00
         0.00000E+00
         0.00000E+00
         0.00000E+00
         0.00000E+00
         0.00000E+00
         0.00000E+00
         0.00000E+00
         0.00000E+00
         0.00000E+00
         0.00000E+00
         0.00000E+00
         0.00000E+00
         0.00000E+00
         0.00000E+00
         0.00000E+00
         0.00000E+00
         0.00000E+00
         0.00000E+00
         0.00000E+00
         0.00000E+00
         0.00000E+00
         0.00000E+00
         0.00000E+00
         0.00000E+00
         0.00000E+00
         0.00000E+00
         0.00000E+00
         0.00000E+00
         0.00000E+00
         0.00000E+00
         0.00000E+00
         0.00000E+00
         0.00000E+00
         0.00000E+00
         0.00000E+00
         0.00000E+00
         0.00000E+00
         0.00000E+00
         0.00000E+00
         0.00000E+00
         0.00000E+00
         0.00000E+00
         0.00000E+00
         0.00000E+00
         0.00000E+00
         0.00000E+00
         0.00000E+00
         0.00000E+00
         0.00000E+00
         0.00000E+00
         0.00000E+00
         0.00000E+00
         0.00000E+00
         0.00000E+00
         0.00000E+00
         0.00000E+00
         0.00000E+00
         0.00000E+00
         0.00000E+00
         0.00000E+00
         0.00000E+00
         0.00000E+00
         0.00000E+00
         0.00000E+00
         0.00000E+00
         0.00000E+00
         0.00000E+00
         0.00000E+00
         0.00000E+00
         0.00000E+00
         0.00000E+00
         0.00000E+00
         0.00000E+00
         0.00000E+00
         0.00000E+00
         0.00000E+00
         0.00000E+00
         0.00000E+00
         0.00000E+00
         0.00000E+00
         0.00000E+00
         0.00000E+00
         0.00000E+00
         0.00000E+00
         0.00000E+00
         0.00000E+00
         0.00000E+00
         0.00000E+00
         0.00000E+00
         0.00000E+00
         0.00000E+00
         0.00000E+00
         0.00000E+00
         0.00000E+00
         0.00000E+00
         0.00000E+00
         0.00000E+00
         0.00000E+00
         0.00000E+00
         0.00000E+00
         0.00000E+00
         0.00000E+00
         0.00000E+00
         0.00000E+00
         0.00000E+00
         0.00000E+00
         0.00000E+00
         0.00000E+00
         0.00000E+00
         0.00000E+00
         0.00000E+00
         0.00000E+00
         0.00000E+00
         0.00000E+00
         0.00000E+00
         0.00000E+00
         0.00000E+00
         0.00000E+00
         0.00000E+00
         0.00000E+00
         0.00000E+00
         0.00000E+00
         0.00000E+00
         0.00000E+00
         0.00000E+00
         0.00000E+00
         0.00000E+00
         0.00000E+00
         0.00000E+00
         0.00000E+00
         0.00000E+00
         0.00000E+00
         0.00000E+00
         0.00000E+00
         0.00000E+00
         0.00000E+00
         0.00000E+00
         0.00000E+00
         0.00000E+00
         0.00000E+00
         0.00000E+00
         0.00000E+00
         0.00000E+00
         0.00000E+00
         0.00000E+00
         0.00000E+00
         0.00000E+00
         0.00000E+00
         0.00000E+00
         0.00000E+00
         0.00000E+00
         0.00000E+00
         0.00000E+00
         0.00000E+00
         0.00000E+00
         0.00000E+00
         0.00000E+00
         0.00000E+00
         0.00000E+00
         0.00000E+00
         0.00000E+00
         0.00000E+00
         0.00000E+00
         0.00000E+00
         0.00000E+00
         0.00000E+00
         0.00000E+00
         0.00000E+00
         0.00000E+00
         0.00000E+00
         0.00000E+00
         0.00000E+00
         0.00000E+00
         0.00000E+00
         0.00000E+00
         0.00000E+00
         0.00000E+00
         0.00000E+00
         0.00000E+00
         0.00000E+00
         0.00000E+00
         0.00000E+00
         0.00000E+00
         0.00000E+00
         0.00000E+00
         0.00000E+00
         0.00000E+00
         0.00000E+00
         0.00000E+00
         0.00000E+00
         0.00000E+00
         0.00000E+00
         0.00000E+00
         0.00000E+00
         0.00000E+00
         0.00000E+00
         0.00000E+00
         0.00000E+00
         0.00000E+00
         0.00000E+00
         0.00000E+00
         0.00000E+00
         0.00000E+00
         0.00000E+00
         0.00000E+00
         0.00000E+00
         0.00000E+00
         0.00000E+00
         0.00000E+00
         0.00000E+00
         0.00000E+00
         0.00000E+00
         0.00000E+00
         0.00000E+00
         0.00000E+00
         0.00000E+00
         0.00000E+00
         0.00000E+00
         0.00000E+00
         0.00000E+00
         0.00000E+00
         0.00000E+00
         0.00000E+00
         0.00000E+00
         0.00000E+00
         0.00000E+00
         0.00000E+00
         0.00000E+00
         0.00000E+00
         0.00000E+00
         0.00000E+00
         0.00000E+00
         0.00000E+00
         0.00000E+00
         0.00000E+00
         0.00000E+00
         0.00000E+00
         0.00000E+00
         0.00000E+00
         0.00000E+00
         0.00000E+00
         0.00000E+00
         0.00000E+00
         0.00000E+00
         0.00000E+00
         0.00000E+00
         0.00000E+00
         0.00000E+00
         0.00000E+00
         0.00000E+00
         0.00000E+00
         0.00000E+00
         0.00000E+00
         0.00000E+00
         0.00000E+00
         0.00000E+00
         0.00000E+00
         0.00000E+00
         0.00000E+00
         0.00000E+00
         0.00000E+00
         0.00000E+00
         0.00000E+00
         0.00000E+00
         0.00000E+00
         0.00000E+00
         0.00000E+00
         0.00000E+00
         0.00000E+00
         0.00000E+00
         0.00000E+00
         0.00000E+00
         0.00000E+00
         0.00000E+00
         0.00000E+00
         0.00000E+00
         0.00000E+00
         0.00000E+00
         0.00000E+00
         0.00000E+00
         0.00000E+00
         0.00000E+00
         0.00000E+00
         0.00000E+00
         0.00000E+00
         0.00000E+00
         0.00000E+00
         0.00000E+00
         0.00000E+00
         0.00000E+00
         0.00000E+00
         0.00000E+00
         0.00000E+00
         0.00000E+00
         0.00000E+00
         0.00000E+00
         0.00000E+00
         0.00000E+00
         0.00000E+00
         0.00000E+00
         0.00000E+00
         0.00000E+00
         0.00000E+00
         0.00000E+00
         0.00000E+00
         0.00000E+00
         0.00000E+00
         0.00000E+00
         0.00000E+00
         0.00000E+00
         0.00000E+00
         0.00000E+00
         0.00000E+00
         0.00000E+00
         0.00000E+00
         0.00000E+00
         0.00000E+00
         0.00000E+00
         0.00000E+00
         0.00000E+00
         0.00000E+00
         0.00000E+00
         0.00000E+00
         0.00000E+00
         0.00000E+00
         0.00000E+00
         0.00000E+00
         0.00000E+00
         0.00000E+00
         0.00000E+00
         0.00000E+00
         0.00000E+00
         0.00000E+00
         0.00000E+00
         0.00000E+00
         0.00000E+00
         0.00000E+00
         0.00000E+00
         0.00000E+00
         0.00000E+00
         0.00000E+00
         0.00000E+00
         0.00000E+00
         0.00000E+00
         0.00000E+00
         0.00000E+00
         0.00000E+00
         0.00000E+00
         0.00000E+00
         0.00000E+00
         0.00000E+00
         0.00000E+00
         0.00000E+00
         0.00000E+00
         0.00000E+00
         0.00000E+00
         0.00000E+00
         0.00000E+00
         0.00000E+00
         0.00000E+00
         0.00000E+00
         0.00000E+00
         0.00000E+00
         0.00000E+00
         0.00000E+00
         0.00000E+00
         0.00000E+00
         0.00000E+00
         0.00000E+00
         0.00000E+00
         0.00000E+00
         0.00000E+00
         0.00000E+00
         0.00000E+00
         0.00000E+00
         0.00000E+00
         0.00000E+00
         0.00000E+00
         0.00000E+00
         0.00000E+00
         0.00000E+00
         0.00000E+00
         0.00000E+00
         0.00000E+00
         0.00000E+00
         0.00000E+00
         0.00000E+00
         0.00000E+00
         0.00000E+00
         0.00000E+00
         0.00000E+00
         0.00000E+00
         0.00000E+00
         0.00000E+00
         0.00000E+00
         0.00000E+00
         0.00000E+00
         0.00000E+00
         0.00000E+00
         0.00000E+00
         0.00000E+00
         0.00000E+00
         0.00000E+00
         0.00000E+00
         0.00000E+00
         0.00000E+00
         0.00000E+00
         0.00000E+00
         0.00000E+00
         0.00000E+00
         0.00000E+00
         0.00000E+00
         0.00000E+00
         0.00000E+00
         0.00000E+00
         0.00000E+00
         0.00000E+00
         0.00000E+00
         0.00000E+00
         0.00000E+00
         0.00000E+00
         0.00000E+00
         0.00000E+00
         0.00000E+00
         0.00000E+00
         0.00000E+00
         0.00000E+00
         0.00000E+00
         0.00000E+00
         0.00000E+00
         0.00000E+00
         0.00000E+00
         0.00000E+00
         0.00000E+00
         0.00000E+00
         0.00000E+00
         0.00000E+00
         0.00000E+00
         0.00000E+00
         0.00000E+00
         0.00000E+00
         0.00000E+00
         0.00000E+00
         0.00000E+00
         0.00000E+00
         0.00000E+00
         0.00000E+00
         0.00000E+00
         0.00000E+00
         0.00000E+00
         0.00000E+00
         0.00000E+00
         0.00000E+00
         0.00000E+00
         0.00000E+00
         0.00000E+00
         0.00000E+00
         0.00000E+00
         0.00000E+00
         0.00000E+00
         0.00000E+00
         0.00000E+00
         0.00000E+00
         0.00000E+00
         0.00000E+00
         0.00000E+00
         0.00000E+00
         0.00000E+00
         0.00000E+00
         0.00000E+00
         0.00000E+00
         0.00000E+00
         0.00000E+00
         0.00000E+00
         0.00000E+00
         0.00000E+00
         0.00000E+00
         0.00000E+00
         0.00000E+00
         0.00000E+00
         0.00000E+00
         0.00000E+00
         0.00000E+00
         0.00000E+00
         0.00000E+00
         0.00000E+00
         0.00000E+00
         0.00000E+00
         0.00000E+00
         0.00000E+00
         0.00000E+00
         0.00000E+00
         0.00000E+00
         0.00000E+00
         0.00000E+00
         0.00000E+00
         0.00000E+00
         0.00000E+00
         0.00000E+00
         0.00000E+00
         0.00000E+00
         0.00000E+00
         0.00000E+00
         0.00000E+00
         0.00000E+00
         0.00000E+00
         0.00000E+00
         0.00000E+00
         0.00000E+00
         0.00000E+00
         0.00000E+00
         0.00000E+00
         0.00000E+00
         0.00000E+00
         0.00000E+00
         0.00000E+00
         0.00000E+00
         0.00000E+00
         0.00000E+00
         0.00000E+00
         0.00000E+00
         0.00000E+00
         0.00000E+00
         0.00000E+00
         0.00000E+00
         0.00000E+00
         0.00000E+00
         0.00000E+00
         0.00000E+00
         0.00000E+00
         0.00000E+00
         0.00000E+00
         0.00000E+00
         0.00000E+00
         0.00000E+00
         0.00000E+00
         0.00000E+00
         0.00000E+00
         0.00000E+00
         0.00000E+00
         0.00000E+00
         0.00000E+00
         0.00000E+00
         0.00000E+00
         0.00000E+00
         0.00000E+00
         0.00000E+00
         0.00000E+00
         0.00000E+00
         0.00000E+00
         0.00000E+00
         0.00000E+00
         0.00000E+00
         0.00000E+00
         0.00000E+00
         0.00000E+00
         0.00000E+00
         0.00000E+00
         0.00000E+00
         0.00000E+00
         0.00000E+00
         0.00000E+00
         0.00000E+00
         0.00000E+00
         0.00000E+00
         0.00000E+00
         0.00000E+00
         0.00000E+00
         0.00000E+00
         0.00000E+00
         0.00000E+00
         0.00000E+00
         0.00000E+00
         0.00000E+00
         0.00000E+00
         0.00000E+00
         0.00000E+00
         0.00000E+00
         0.00000E+00
         0.00000E+00
         0.00000E+00
         0.00000E+00
         0.00000E+00
         0.00000E+00
         0.00000E+00
         0.00000E+00
         0.00000E+00
         0.00000E+00
         0.00000E+00
         0.00000E+00
         0.00000E+00
         0.00000E+00
         0.00000E+00
         0.00000E+00
         0.00000E+00
         0.00000E+00
         0.00000E+00
         0.00000E+00
         0.00000E+00
         0.00000E+00
         0.00000E+00
         0.00000E+00
         0.00000E+00
         0.00000E+00
         0.00000E+00
         0.00000E+00
         0.00000E+00
         0.00000E+00
         0.00000E+00
         0.00000E+00
         0.00000E+00
         0.00000E+00
         0.00000E+00
         0.00000E+00
         0.00000E+00
         0.00000E+00
         0.00000E+00
         0.00000E+00
         0.00000E+00
         0.00000E+00
         0.00000E+00
         0.00000E+00
         0.00000E+00
         0.00000E+00
         0.00000E+00
         0.00000E+00
         0.00000E+00
         0.00000E+00
         0.00000E+00
         0.00000E+00
         0.00000E+00
         0.00000E+00
         0.00000E+00
         0.00000E+00
         0.00000E+00
         0.00000E+00
         0.00000E+00
         0.00000E+00
         0.00000E+00
         0.00000E+00
         0.00000E+00
         0.00000E+00
         0.00000E+00
         0.00000E+00
         0.00000E+00
         0.00000E+00
         0.00000E+00
         0.00000E+00
         0.00000E+00
         0.00000E+00
         0.00000E+00
         0.00000E+00
         0.00000E+00
         0.00000E+00
         0.00000E+00
         0.00000E+00
         0.00000E+00
         0.00000E+00
         0.00000E+00
         0.00000E+00
         0.00000E+00
         0.00000E+00
         0.00000E+00
         0.00000E+00
         0.00000E+00
         0.00000E+00
         0.00000E+00
         0.00000E+00
         0.00000E+00
         0.00000E+00
         0.00000E+00
         0.00000E+00
         0.00000E+00
         0.00000E+00
         0.00000E+00
         0.00000E+00
         0.00000E+00
         0.00000E+00
         0.00000E+00
         0.00000E+00
         0.00000E+00
         0.00000E+00
         0.00000E+00
         0.00000E+00
         0.00000E+00
         0.00000E+00
         0.00000E+00
         0.00000E+00
         0.00000E+00
         0.00000E+00
         0.00000E+00
         0.00000E+00
         0.00000E+00
         0.00000E+00
         0.00000E+00
         0.00000E+00
         0.00000E+00
         0.00000E+00
         0.00000E+00
         0.00000E+00
         0.00000E+00
         0.00000E+00
         0.00000E+00
         0.00000E+00
         0.00000E+00
         0.00000E+00
         0.00000E+00
         0.00000E+00
         0.00000E+00
         0.00000E+00
         0.00000E+00
         0.00000E+00
         0.00000E+00
         0.00000E+00
         0.00000E+00
         0.00000E+00
         0.00000E+00
         0.00000E+00
         0.00000E+00
         0.00000E+00
         0.00000E+00
         0.00000E+00
         0.00000E+00
         0.00000E+00
         0.00000E+00
         0.00000E+00
         0.00000E+00
         0.00000E+00
         0.00000E+00
         0.00000E+00
         0.00000E+00
         0.00000E+00
         0.00000E+00
         0.00000E+00
         0.00000E+00
         0.00000E+00
         0.00000E+00
         0.00000E+00
         0.00000E+00
         0.00000E+00
         0.00000E+00
         0.00000E+00
         0.00000E+00
         0.00000E+00
         0.00000E+00
         0.00000E+00
         0.00000E+00
         0.00000E+00
         0.00000E+00
         0.00000E+00
         0.00000E+00
         0.00000E+00
         0.00000E+00
         0.00000E+00
         0.00000E+00
         0.00000E+00
         0.00000E+00
         0.00000E+00
         0.00000E+00
         0.00000E+00
         0.00000E+00
         0.00000E+00
         0.00000E+00
         0.00000E+00
         0.00000E+00
         0.00000E+00
         0.00000E+00
         0.00000E+00
         0.00000E+00
         0.00000E+00
         0.00000E+00
         0.00000E+00
         0.00000E+00
         0.00000E+00
         0.00000E+00
         0.00000E+00
         0.00000E+00
         0.00000E+00
         0.00000E+00
         0.00000E+00
         0.00000E+00
         0.00000E+00
         0.00000E+00
         0.00000E+00
         0.00000E+00
         0.00000E+00
         0.00000E+00
         0.00000E+00
         0.00000E+00
         0.00000E+00
         0.00000E+00
         0.00000E+00
         0.00000E+00
         0.00000E+00
         0.00000E+00
         0.00000E+00
         0.00000E+00
         0.00000E+00
         0.00000E+00
         0.00000E+00
         0.00000E+00
         0.00000E+00
         0.00000E+00
         0.00000E+00
         0.00000E+00
         0.00000E+00
         0.00000E+00
         0.00000E+00
         0.00000E+00
         0.00000E+00
         0.00000E+00
         0.00000E+00
         0.00000E+00
         0.00000E+00
         0.00000E+00
         0.00000E+00
         0.00000E+00
         0.00000E+00
         0.00000E+00
         0.00000E+00
         0.00000E+00
         0.00000E+00
         0.00000E+00
         0.00000E+00
         0.00000E+00
         0.00000E+00
         0.00000E+00
         0.00000E+00
         0.00000E+00
         0.00000E+00
         0.00000E+00
         0.00000E+00
         0.00000E+00
         0.00000E+00
         0.00000E+00
         0.00000E+00
         0.00000E+00
         0.00000E+00
         0.00000E+00
         0.00000E+00
         0.00000E+00
         0.00000E+00
         0.00000E+00
         0.00000E+00
         0.00000E+00
         0.00000E+00
         0.00000E+00
         0.00000E+00
         0.00000E+00
         0.00000E+00
         0.00000E+00
         0.00000E+00
         0.00000E+00
         0.00000E+00
         0.00000E+00
         0.00000E+00
         0.00000E+00
         0.00000E+00
         0.00000E+00
         0.00000E+00
         0.00000E+00
         0.00000E+00
         0.00000E+00
         0.00000E+00
         0.00000E+00
         0.00000E+00
         0.00000E+00
         0.00000E+00
         0.00000E+00
         0.00000E+00
         0.00000E+00
         0.00000E+00
         0.00000E+00
         0.00000E+00
         0.00000E+00
         0.00000E+00
         0.00000E+00
         0.00000E+00
         0.00000E+00
         0.00000E+00
         0.00000E+00
         0.00000E+00
         0.00000E+00
         0.00000E+00
         0.00000E+00
         0.00000E+00
         0.00000E+00
         0.00000E+00
         0.00000E+00
         0.00000E+00
         0.00000E+00
         0.00000E+00
         0.00000E+00
         0.00000E+00
         0.00000E+00
         0.00000E+00
         0.00000E+00
         0.00000E+00
         0.00000E+00
         0.00000E+00
         0.00000E+00
         0.00000E+00
         0.00000E+00
         0.00000E+00
         0.00000E+00
         0.00000E+00
         0.00000E+00
         0.00000E+00
         0.00000E+00
         0.00000E+00
         0.00000E+00
         0.00000E+00
         0.00000E+00
         0.00000E+00
         0.00000E+00
         0.00000E+00
         0.00000E+00
         0.00000E+00
         0.00000E+00
         0.00000E+00
         0.00000E+00
         0.00000E+00
         0.00000E+00
         0.00000E+00
         0.00000E+00
         0.00000E+00
         0.00000E+00
         0.00000E+00
         0.00000E+00
         0.00000E+00
         0.00000E+00
         0.00000E+00
         0.00000E+00
         0.00000E+00
         0.00000E+00
         0.00000E+00
         0.00000E+00
         0.00000E+00
         0.00000E+00
         0.00000E+00
         0.00000E+00
         0.00000E+00
         0.00000E+00
         0.00000E+00
         0.00000E+00
         0.00000E+00
         0.00000E+00
         0.00000E+00
         0.00000E+00
         0.00000E+00
         0.00000E+00
         0.00000E+00
         0.00000E+00
         0.00000E+00
         0.00000E+00
         0.00000E+00
         0.00000E+00
         0.00000E+00
         0.00000E+00
         0.00000E+00
         0.00000E+00
         0.00000E+00
         0.00000E+00
         0.00000E+00
         0.00000E+00
         0.00000E+00
         0.00000E+00
         0.00000E+00
         0.00000E+00
         0.00000E+00
         0.00000E+00
         0.00000E+00
         0.00000E+00
         0.00000E+00
         0.00000E+00
         0.00000E+00
         0.00000E+00
         0.00000E+00
         0.00000E+00
         0.00000E+00
         0.00000E+00
         0.00000E+00
         0.00000E+00
         0.00000E+00
         0.00000E+00
         0.00000E+00
         0.00000E+00
         0.00000E+00
         0.00000E+00
         0.00000E+00
         0.00000E+00
         0.00000E+00
         0.00000E+00
         0.00000E+00
         0.00000E+00
         0.00000E+00
         0.00000E+00
         0.00000E+00
         0.00000E+00
         0.00000E+00
         0.00000E+00
         0.00000E+00
         0.00000E+00
         0.00000E+00
         0.00000E+00
         0.00000E+00
         0.00000E+00
         0.00000E+00
         0.00000E+00
         0.00000E+00
         0.00000E+00
         0.00000E+00
         0.00000E+00
         0.00000E+00
         0.00000E+00
         0.00000E+00
         0.00000E+00
         0.00000E+00
         0.00000E+00
         0.00000E+00
         0.00000E+00
         0.00000E+00
         0.00000E+00
         0.00000E+00
         0.00000E+00
         0.00000E+00
         0.00000E+00
         0.00000E+00
         0.00000E+00
         0.00000E+00
         0.00000E+00
         0.00000E+00
         0.00000E+00
         0.00000E+00
         0.00000E+00
         0.00000E+00
         0.00000E+00
         0.00000E+00
         0.00000E+00
         0.00000E+00
         0.00000E+00
         0.00000E+00
         0.00000E+00
         0.00000E+00
         0.00000E+00
         0.00000E+00
         0.00000E+00
         0.00000E+00
         0.00000E+00
         0.00000E+00
         0.00000E+00
         0.00000E+00
         0.00000E+00
         0.00000E+00
         0.00000E+00
         0.00000E+00
         0.00000E+00
         0.00000E+00
         0.00000E+00
         0.00000E+00
         0.00000E+00
         0.00000E+00
         0.00000E+00
         0.00000E+00
         0.00000E+00
         0.00000E+00
         0.00000E+00
         0.00000E+00
         0.00000E+00
         0.00000E+00
         0.00000E+00
         0.00000E+00
         0.00000E+00
         0.00000E+00
         0.00000E+00
         0.00000E+00
         0.00000E+00
         0.00000E+00
         0.00000E+00
         0.00000E+00
         0.00000E+00
         0.00000E+00
         0.00000E+00
         0.00000E+00
         0.00000E+00
         0.00000E+00
         0.00000E+00
         0.00000E+00
         0.00000E+00
         0.00000E+00
         0.00000E+00
         0.00000E+00
         0.00000E+00
         0.00000E+00
         0.00000E+00
         0.00000E+00
         0.00000E+00
         0.00000E+00
         0.00000E+00
         0.00000E+00
         0.00000E+00
         0.00000E+00
         0.00000E+00
         0.00000E+00
         0.00000E+00
         0.00000E+00
         0.00000E+00
         0.00000E+00
         0.00000E+00
         0.00000E+00
         0.00000E+00
         0.00000E+00
         0.00000E+00
         0.00000E+00
         0.00000E+00
         0.00000E+00
         0.00000E+00
         0.00000E+00
         0.00000E+00
         0.00000E+00
         0.00000E+00
         0.00000E+00
         0.00000E+00
         0.00000E+00
         0.00000E+00
         0.00000E+00
         0.00000E+00
         0.00000E+00
         0.00000E+00
         0.00000E+00
         0.00000E+00
         0.00000E+00
         0.00000E+00
         0.00000E+00
         0.00000E+00
         0.00000E+00
         0.00000E+00
         0.00000E+00
         0.00000E+00
         0.00000E+00
         0.00000E+00
         0.00000E+00
         0.00000E+00
         0.00000E+00
         0.00000E+00
         0.00000E+00
         0.00000E+00
         0.00000E+00
         0.00000E+00
         0.00000E+00
         0.00000E+00
         0.00000E+00
         0.00000E+00
         0.00000E+00
         0.00000E+00
         0.00000E+00
         0.00000E+00
         0.00000E+00
         0.00000E+00
         0.00000E+00
         0.00000E+00
         0.00000E+00
         0.00000E+00
         0.00000E+00
         0.00000E+00
         0.00000E+00
         0.00000E+00
         0.00000E+00
         0.00000E+00
         0.00000E+00
         0.00000E+00
         0.00000E+00
         0.00000E+00
         0.00000E+00
         0.00000E+00
         0.00000E+00
         0.00000E+00
         0.00000E+00
         0.00000E+00
         0.00000E+00
         0.00000E+00
         0.00000E+00
         0.00000E+00
         0.00000E+00
         0.00000E+00
  
SCALARS           initial_coordinate_x  double 1
LOOKUP_TABLE default
         0.10378E-02
         0.17452E-02
         0.23177E-02
         0.16698E-02
         0.10379E-02
         0.17453E-02
         0.23178E-02
         0.16700E-02
         0.30377E-02
         0.27791E-02
         0.30377E-02
         0.27788E-02
         0.12850E-02
         0.65139E-03
         0.12851E-02
         0.65164E-03
         0.12757E-03
        -0.12822E-03
         0.12783E-03
        -0.12804E-03
         0.94500E-03
         0.11327E-02
         0.17490E-02
         0.94533E-03
         0.11330E-02
         0.17494E-02
         0.40588E-03
         0.39779E-03
         0.40594E-03
         0.39781E-03
        -0.76303E-03
        -0.86604E-03
         0.46119E-03
        -0.76268E-03
        -0.86593E-03
         0.46164E-03
        -0.18300E-02
        -0.18440E-02
        -0.18297E-02
        -0.18441E-02
        -0.27238E-02
        -0.28028E-02
        -0.27238E-02
        -0.28031E-02
        -0.25365E-02
        -0.19287E-02
        -0.25363E-02
        -0.19283E-02
        -0.99363E-03
        -0.99377E-03
        -0.14380E-02
        -0.14377E-02
        -0.31574E-03
        -0.31594E-03
        -0.11068E-02
        -0.11071E-02
        -0.18845E-02
        -0.18713E-02
        -0.18846E-02
        -0.18714E-02
        -0.15871E-03
        -0.94089E-03
        -0.15844E-03
        -0.94029E-03
         0.78856E-03
         0.78922E-03
         0.17211E-02
         0.17211E-02
         0.32050E-02
         0.28046E-02
         0.32047E-02
         0.28047E-02
         0.23059E-02
         0.23060E-02
        -0.40614E-03
        -0.40627E-03
        -0.12092E-02
        -0.12092E-02
        -0.19448E-02
        -0.19448E-02
        -0.25029E-02
        -0.26371E-02
        -0.25029E-02
        -0.26372E-02
        -0.27671E-02
        -0.27674E-02
        -0.21123E-02
        -0.21122E-02
        -0.16087E-02
        -0.16087E-02
        -0.11939E-02
        -0.58641E-03
        -0.11937E-02
        -0.58606E-03
         0.20912E-03
         0.20952E-03
         0.10586E-02
         0.10589E-02
         0.18413E-02
         0.18413E-02
         0.24544E-02
         0.26022E-02
         0.24543E-02
         0.26021E-02
         0.37964E-02
         0.39100E-02
         0.37964E-02
         0.39100E-02
         0.34621E-02
         0.34621E-02
         0.29267E-02
         0.29267E-02
         0.22211E-02
         0.22211E-02
         0.13865E-02
         0.13865E-02
         0.47130E-03
         0.47130E-03
        -0.47130E-03
        -0.47130E-03
        -0.13865E-02
        -0.13865E-02
        -0.22211E-02
        -0.22211E-02
        -0.29267E-02
        -0.29267E-02
        -0.34621E-02
        -0.34621E-02
        -0.37964E-02
        -0.37964E-02
        -0.39100E-02
        -0.39100E-02
        -0.37964E-02
        -0.37964E-02
        -0.34621E-02
        -0.34621E-02
        -0.29267E-02
        -0.29267E-02
        -0.22211E-02
        -0.22211E-02
        -0.13865E-02
        -0.13865E-02
        -0.47130E-03
        -0.47130E-03
         0.47130E-03
         0.47130E-03
         0.13865E-02
         0.13865E-02
         0.22211E-02
         0.22211E-02
         0.29267E-02
         0.29267E-02
         0.34621E-02
         0.34621E-02
         0.37964E-02
         0.37964E-02
         0.10376E-02
         0.17450E-02
         0.23175E-02
         0.16696E-02
         0.30377E-02
         0.27795E-02
         0.12849E-02
         0.65115E-03
         0.12731E-03
        -0.12841E-03
         0.94467E-03
         0.11323E-02
         0.17487E-02
         0.40583E-03
         0.39777E-03
        -0.76338E-03
        -0.86615E-03
         0.46074E-03
        -0.18303E-02
        -0.18439E-02
        -0.27238E-02
        -0.28025E-02
        -0.25366E-02
        -0.19292E-02
        -0.99349E-03
        -0.14384E-02
        -0.31554E-03
        -0.11064E-02
        -0.18845E-02
        -0.18712E-02
        -0.15899E-03
        -0.94149E-03
         0.78790E-03
         0.17210E-02
         0.32053E-02
         0.28046E-02
         0.23058E-02
        -0.40600E-03
        -0.12092E-02
        -0.19447E-02
        -0.25028E-02
        -0.26370E-02
        -0.27668E-02
        -0.21125E-02
        -0.16088E-02
        -0.11940E-02
        -0.58676E-03
         0.20871E-03
         0.10583E-02
         0.18413E-02
         0.24545E-02
         0.26022E-02
         0.37964E-02
         0.39100E-02
         0.34621E-02
         0.29267E-02
         0.22211E-02
         0.13865E-02
         0.47130E-03
        -0.47130E-03
        -0.13865E-02
        -0.22211E-02
        -0.29267E-02
        -0.34621E-02
        -0.37964E-02
        -0.39100E-02
        -0.37964E-02
        -0.34621E-02
        -0.29267E-02
        -0.22211E-02
        -0.13865E-02
        -0.47130E-03
         0.47130E-03
         0.13865E-02
         0.22211E-02
         0.29267E-02
         0.34621E-02
         0.37964E-02
         0.10375E-02
         0.17448E-02
         0.23174E-02
         0.16694E-02
         0.30377E-02
         0.27798E-02
         0.12848E-02
         0.65090E-03
         0.12705E-03
        -0.12859E-03
         0.94434E-03
         0.11320E-02
         0.17483E-02
         0.40577E-03
         0.39776E-03
        -0.76374E-03
        -0.86626E-03
         0.46029E-03
        -0.18306E-02
        -0.18438E-02
        -0.27238E-02
        -0.28022E-02
        -0.25368E-02
        -0.19296E-02
        -0.99334E-03
        -0.14387E-02
        -0.31534E-03
        -0.11061E-02
        -0.18844E-02
        -0.18710E-02
        -0.15926E-03
        -0.94209E-03
         0.78724E-03
         0.17210E-02
         0.32056E-02
         0.28046E-02
         0.23057E-02
        -0.40586E-03
        -0.12092E-02
        -0.19447E-02
        -0.25028E-02
        -0.26369E-02
        -0.27665E-02
        -0.21126E-02
        -0.16088E-02
        -0.11941E-02
        -0.58711E-03
         0.20830E-03
         0.10580E-02
         0.18414E-02
         0.24546E-02
         0.26023E-02
         0.37964E-02
         0.39100E-02
         0.34621E-02
         0.29267E-02
         0.22211E-02
         0.13865E-02
         0.47130E-03
        -0.47130E-03
        -0.13865E-02
        -0.22211E-02
        -0.29267E-02
        -0.34621E-02
        -0.37964E-02
        -0.39100E-02
        -0.37964E-02
        -0.34621E-02
        -0.29267E-02
        -0.22211E-02
        -0.13865E-02
        -0.47130E-03
         0.47130E-03
         0.13865E-02
         0.22211E-02
         0.29267E-02
         0.34621E-02
         0.37964E-02
         0.10374E-02
         0.17446E-02
         0.23173E-02
         0.16692E-02
         0.30376E-02
         0.27801E-02
         0.12847E-02
         0.65065E-03
         0.12678E-03
        -0.12878E-03
         0.94401E-03
         0.11316E-02
         0.17479E-02
         0.40572E-03
         0.39774E-03
        -0.76409E-03
        -0.86637E-03
         0.45985E-03
        -0.18309E-02
        -0.18437E-02
        -0.27237E-02
        -0.28020E-02
        -0.25369E-02
        -0.19300E-02
        -0.99320E-03
        -0.14391E-02
        -0.31514E-03
        -0.11057E-02
        -0.18844E-02
        -0.18709E-02
        -0.15954E-03
        -0.94269E-03
         0.78658E-03
         0.17209E-02
         0.32060E-02
         0.28046E-02
         0.23056E-02
        -0.40572E-03
        -0.12092E-02
        -0.19446E-02
        -0.25028E-02
        -0.26368E-02
        -0.27662E-02
        -0.21128E-02
        -0.16088E-02
        -0.11942E-02
        -0.58746E-03
         0.20790E-03
         0.10577E-02
         0.18414E-02
         0.24548E-02
         0.26024E-02
         0.37964E-02
         0.39100E-02
         0.34621E-02
         0.29267E-02
         0.22211E-02
         0.13865E-02
         0.47130E-03
        -0.47130E-03
        -0.13865E-02
        -0.22211E-02
        -0.29267E-02
        -0.34621E-02
        -0.37964E-02
        -0.39100E-02
        -0.37964E-02
        -0.34621E-02
        -0.29267E-02
        -0.22211E-02
        -0.13865E-02
        -0.47130E-03
         0.47130E-03
         0.13865E-02
         0.22211E-02
         0.29267E-02
         0.34621E-02
         0.37964E-02
         0.10373E-02
         0.17445E-02
         0.23172E-02
         0.16689E-02
         0.30376E-02
         0.27805E-02
         0.12846E-02
         0.65041E-03
         0.12652E-03
        -0.12896E-03
         0.94367E-03
         0.11313E-02
         0.17475E-02
         0.40566E-03
         0.39772E-03
        -0.76444E-03
        -0.86648E-03
         0.45940E-03
        -0.18312E-02
        -0.18436E-02
        -0.27237E-02
        -0.28017E-02
        -0.25371E-02
        -0.19305E-02
        -0.99305E-03
        -0.14394E-02
        -0.31494E-03
        -0.11054E-02
        -0.18843E-02
        -0.18708E-02
        -0.15981E-03
        -0.94328E-03
         0.78592E-03
         0.17209E-02
         0.32063E-02
         0.28045E-02
         0.23055E-02
        -0.40558E-03
        -0.12092E-02
        -0.19446E-02
        -0.25027E-02
        -0.26367E-02
        -0.27658E-02
        -0.21129E-02
        -0.16089E-02
        -0.11943E-02
        -0.58781E-03
         0.20749E-03
         0.10574E-02
         0.18415E-02
         0.24549E-02
         0.26025E-02
         0.37964E-02
         0.39100E-02
         0.34621E-02
         0.29267E-02
         0.22211E-02
         0.13865E-02
         0.47130E-03
        -0.47130E-03
        -0.13865E-02
        -0.22211E-02
        -0.29267E-02
        -0.34621E-02
        -0.37964E-02
        -0.39100E-02
        -0.37964E-02
        -0.34621E-02
        -0.29267E-02
        -0.22211E-02
        -0.13865E-02
        -0.47130E-03
         0.47130E-03
         0.13865E-02
         0.22211E-02
         0.29267E-02
         0.34621E-02
         0.37964E-02
         0.10372E-02
         0.17443E-02
         0.23171E-02
         0.16687E-02
         0.30376E-02
         0.27808E-02
         0.12845E-02
         0.65016E-03
         0.12626E-03
        -0.12915E-03
         0.94334E-03
         0.11310E-02
         0.17471E-02
         0.40561E-03
         0.39770E-03
        -0.76480E-03
        -0.86659E-03
         0.45895E-03
        -0.18315E-02
        -0.18435E-02
        -0.27237E-02
        -0.28014E-02
        -0.25372E-02
        -0.19309E-02
        -0.99291E-03
        -0.14398E-02
        -0.31474E-03
        -0.11051E-02
        -0.18843E-02
        -0.18706E-02
        -0.16009E-03
        -0.94388E-03
         0.78526E-03
         0.17208E-02
         0.32066E-02
         0.28045E-02
         0.23053E-02
        -0.40545E-03
        -0.12092E-02
        -0.19446E-02
        -0.25027E-02
        -0.26366E-02
        -0.27655E-02
        -0.21130E-02
        -0.16089E-02
        -0.11944E-02
        -0.58816E-03
         0.20709E-03
         0.10571E-02
         0.18415E-02
         0.24550E-02
         0.26025E-02
         0.37964E-02
         0.39100E-02
         0.34621E-02
         0.29267E-02
         0.22211E-02
         0.13865E-02
         0.47130E-03
        -0.47130E-03
        -0.13865E-02
        -0.22211E-02
        -0.29267E-02
        -0.34621E-02
        -0.37964E-02
        -0.39100E-02
        -0.37964E-02
        -0.34621E-02
        -0.29267E-02
        -0.22211E-02
        -0.13865E-02
        -0.47130E-03
         0.47130E-03
         0.13865E-02
         0.22211E-02
         0.29267E-02
         0.34621E-02
         0.37964E-02
         0.10371E-02
         0.17441E-02
         0.23169E-02
         0.16685E-02
         0.30376E-02
         0.27812E-02
         0.12844E-02
         0.64992E-03
         0.12600E-03
        -0.12933E-03
         0.94301E-03
         0.11306E-02
         0.17467E-02
         0.40556E-03
         0.39769E-03
        -0.76515E-03
        -0.86670E-03
         0.45850E-03
        -0.18318E-02
        -0.18434E-02
        -0.27236E-02
        -0.28011E-02
        -0.25374E-02
        -0.19313E-02
        -0.99277E-03
        -0.14401E-02
        -0.31454E-03
        -0.11047E-02
        -0.18842E-02
        -0.18705E-02
        -0.16036E-03
        -0.94448E-03
         0.78460E-03
         0.17208E-02
         0.32070E-02
         0.28045E-02
         0.23052E-02
        -0.40531E-03
        -0.12092E-02
        -0.19445E-02
        -0.25027E-02
        -0.26366E-02
        -0.27652E-02
        -0.21132E-02
        -0.16090E-02
        -0.11946E-02
        -0.58851E-03
         0.20668E-03
         0.10567E-02
         0.18416E-02
         0.24551E-02
         0.26026E-02
         0.37964E-02
         0.39100E-02
         0.34621E-02
         0.29267E-02
         0.22211E-02
         0.13865E-02
         0.47130E-03
        -0.47130E-03
        -0.13865E-02
        -0.22211E-02
        -0.29267E-02
        -0.34621E-02
        -0.37964E-02
        -0.39100E-02
        -0.37964E-02
        -0.34621E-02
        -0.29267E-02
        -0.22211E-02
        -0.13865E-02
        -0.47130E-03
         0.47130E-03
         0.13865E-02
         0.22211E-02
         0.29267E-02
         0.34621E-02
         0.37964E-02
         0.10370E-02
         0.17439E-02
         0.23168E-02
         0.16683E-02
         0.30375E-02
         0.27815E-02
         0.12843E-02
         0.64967E-03
         0.12573E-03
        -0.12952E-03
         0.94268E-03
         0.11303E-02
         0.17463E-02
         0.40550E-03
         0.39767E-03
        -0.76551E-03
        -0.86680E-03
         0.45806E-03
        -0.18321E-02
        -0.18433E-02
        -0.27236E-02
        -0.28009E-02
        -0.25375E-02
        -0.19317E-02
        -0.99262E-03
        -0.14405E-02
        -0.31434E-03
        -0.11044E-02
        -0.18842E-02
        -0.18704E-02
        -0.16064E-03
        -0.94508E-03
         0.78394E-03
         0.17208E-02
         0.32073E-02
         0.28045E-02
         0.23051E-02
        -0.40517E-03
        -0.12092E-02
        -0.19445E-02
        -0.25026E-02
        -0.26365E-02
        -0.27649E-02
        -0.21133E-02
        -0.16090E-02
        -0.11947E-02
        -0.58886E-03
         0.20627E-03
         0.10564E-02
         0.18416E-02
         0.24553E-02
         0.26027E-02
         0.37964E-02
         0.39100E-02
         0.34621E-02
         0.29267E-02
         0.22211E-02
         0.13865E-02
         0.47130E-03
        -0.47130E-03
        -0.13865E-02
        -0.22211E-02
        -0.29267E-02
        -0.34621E-02
        -0.37964E-02
        -0.39100E-02
        -0.37964E-02
        -0.34621E-02
        -0.29267E-02
        -0.22211E-02
        -0.13865E-02
        -0.47130E-03
         0.47130E-03
         0.13865E-02
         0.22211E-02
         0.29267E-02
         0.34621E-02
         0.37964E-02
         0.10368E-02
         0.17438E-02
         0.23167E-02
         0.16681E-02
         0.30375E-02
         0.27819E-02
         0.12842E-02
         0.64943E-03
         0.12547E-03
        -0.12970E-03
         0.94235E-03
         0.11300E-02
         0.17459E-02
         0.40545E-03
         0.39766E-03
        -0.76586E-03
        -0.86691E-03
         0.45761E-03
        -0.18324E-02
        -0.18432E-02
        -0.27236E-02
        -0.28006E-02
        -0.25377E-02
        -0.19322E-02
        -0.99248E-03
        -0.14408E-02
        -0.31414E-03
        -0.11040E-02
        -0.18841E-02
        -0.18703E-02
        -0.16091E-03
        -0.94568E-03
         0.78328E-03
         0.17207E-02
         0.32076E-02
         0.28044E-02
         0.23050E-02
        -0.40503E-03
        -0.12092E-02
        -0.19445E-02
        -0.25026E-02
        -0.26364E-02
        -0.27646E-02
        -0.21134E-02
        -0.16091E-02
        -0.11948E-02
        -0.58921E-03
         0.20587E-03
         0.10561E-02
         0.18416E-02
         0.24554E-02
         0.26027E-02
         0.37964E-02
         0.39100E-02
         0.34621E-02
         0.29267E-02
         0.22211E-02
         0.13865E-02
         0.47130E-03
        -0.47130E-03
        -0.13865E-02
        -0.22211E-02
        -0.29267E-02
        -0.34621E-02
        -0.37964E-02
        -0.39100E-02
        -0.37964E-02
        -0.34621E-02
        -0.29267E-02
        -0.22211E-02
        -0.13865E-02
        -0.47130E-03
         0.47130E-03
         0.13865E-02
         0.22211E-02
         0.29267E-02
         0.34621E-02
         0.37964E-02
         0.10367E-02
         0.17436E-02
         0.23166E-02
         0.16679E-02
         0.30375E-02
         0.27822E-02
         0.12841E-02
         0.64918E-03
         0.12521E-03
        -0.12989E-03
         0.94202E-03
         0.11296E-02
         0.17455E-02
         0.40539E-03
         0.39764E-03
        -0.76621E-03
        -0.86702E-03
         0.45716E-03
        -0.18326E-02
        -0.18431E-02
        -0.27235E-02
        -0.28003E-02
        -0.25379E-02
        -0.19326E-02
        -0.99233E-03
        -0.14412E-02
        -0.31394E-03
        -0.11037E-02
        -0.18841E-02
        -0.18701E-02
        -0.16119E-03
        -0.94628E-03
         0.78262E-03
         0.17207E-02
         0.32079E-02
         0.28044E-02
         0.23049E-02
        -0.40490E-03
        -0.12093E-02
        -0.19444E-02
        -0.25026E-02
        -0.26363E-02
        -0.27643E-02
        -0.21136E-02
        -0.16091E-02
        -0.11949E-02
        -0.58956E-03
         0.20546E-03
         0.10558E-02
         0.18417E-02
         0.24555E-02
         0.26028E-02
         0.37964E-02
         0.39100E-02
         0.34621E-02
         0.29267E-02
         0.22211E-02
         0.13865E-02
         0.47130E-03
        -0.47130E-03
        -0.13865E-02
        -0.22211E-02
        -0.29267E-02
        -0.34621E-02
        -0.37964E-02
        -0.39100E-02
        -0.37964E-02
        -0.34621E-02
        -0.29267E-02
        -0.22211E-02
        -0.13865E-02
        -0.47130E-03
         0.47130E-03
         0.13865E-02
         0.22211E-02
         0.29267E-02
         0.34621E-02
         0.37964E-02
         0.10366E-02
         0.17434E-02
         0.23164E-02
         0.16677E-02
         0.30375E-02
         0.27825E-02
         0.12840E-02
         0.64894E-03
         0.12495E-03
        -0.13007E-03
         0.94169E-03
         0.11293E-02
         0.17451E-02
         0.40534E-03
         0.39762E-03
        -0.76657E-03
        -0.86713E-03
         0.45671E-03
        -0.18329E-02
        -0.18430E-02
        -0.27235E-02
        -0.28001E-02
        -0.25380E-02
        -0.19330E-02
        -0.99219E-03
        -0.14415E-02
        -0.31374E-03
        -0.11033E-02
        -0.18840E-02
        -0.18700E-02
        -0.16146E-03
        -0.94687E-03
         0.78195E-03
         0.17207E-02
         0.32083E-02
         0.28044E-02
         0.23048E-02
        -0.40476E-03
        -0.12093E-02
        -0.19444E-02
        -0.25026E-02
        -0.26362E-02
        -0.27640E-02
        -0.21137E-02
        -0.16091E-02
        -0.11950E-02
        -0.58991E-03
         0.20505E-03
         0.10555E-02
         0.18417E-02
         0.24556E-02
         0.26029E-02
         0.37964E-02
         0.39100E-02
         0.34621E-02
         0.29267E-02
         0.22211E-02
         0.13865E-02
         0.47130E-03
        -0.47130E-03
        -0.13865E-02
        -0.22211E-02
        -0.29267E-02
        -0.34621E-02
        -0.37964E-02
        -0.39100E-02
        -0.37964E-02
        -0.34621E-02
        -0.29267E-02
        -0.22211E-02
        -0.13865E-02
        -0.47130E-03
         0.47130E-03
         0.13865E-02
         0.22211E-02
         0.29267E-02
         0.34621E-02
         0.37964E-02
         0.10365E-02
         0.17432E-02
         0.23163E-02
         0.16675E-02
         0.30374E-02
         0.27829E-02
         0.12839E-02
         0.64869E-03
         0.12468E-03
        -0.13026E-03
         0.94135E-03
         0.11289E-02
         0.17447E-02
         0.40528E-03
         0.39760E-03
        -0.76692E-03
        -0.86724E-03
         0.45626E-03
        -0.18332E-02
        -0.18430E-02
        -0.27235E-02
        -0.27998E-02
        -0.25382E-02
        -0.19334E-02
        -0.99205E-03
        -0.14419E-02
        -0.31354E-03
        -0.11030E-02
        -0.18840E-02
        -0.18699E-02
        -0.16174E-03
        -0.94747E-03
         0.78129E-03
         0.17206E-02
         0.32086E-02
         0.28044E-02
         0.23047E-02
        -0.40462E-03
        -0.12093E-02
        -0.19444E-02
        -0.25025E-02
        -0.26361E-02
        -0.27637E-02
        -0.21139E-02
        -0.16092E-02
        -0.11951E-02
        -0.59025E-03
         0.20465E-03
         0.10552E-02
         0.18418E-02
         0.24558E-02
         0.26030E-02
         0.37964E-02
         0.39100E-02
         0.34621E-02
         0.29267E-02
         0.22211E-02
         0.13865E-02
         0.47130E-03
        -0.47130E-03
        -0.13865E-02
        -0.22211E-02
        -0.29267E-02
        -0.34621E-02
        -0.37964E-02
        -0.39100E-02
        -0.37964E-02
        -0.34621E-02
        -0.29267E-02
        -0.22211E-02
        -0.13865E-02
        -0.47130E-03
         0.47130E-03
         0.13865E-02
         0.22211E-02
         0.29267E-02
         0.34621E-02
         0.37964E-02
         0.10364E-02
         0.17430E-02
         0.23162E-02
         0.16672E-02
         0.30374E-02
         0.27832E-02
         0.12838E-02
         0.64845E-03
         0.12442E-03
        -0.13044E-03
         0.94102E-03
         0.11286E-02
         0.17443E-02
         0.40523E-03
         0.39759E-03
        -0.76727E-03
        -0.86735E-03
         0.45582E-03
        -0.18335E-02
        -0.18429E-02
        -0.27235E-02
        -0.27995E-02
        -0.25383E-02
        -0.19339E-02
        -0.99190E-03
        -0.14422E-02
        -0.31334E-03
        -0.11026E-02
        -0.18839E-02
        -0.18697E-02
        -0.16201E-03
        -0.94807E-03
         0.78063E-03
         0.17206E-02
         0.32089E-02
         0.28043E-02
         0.23046E-02
        -0.40448E-03
        -0.12093E-02
        -0.19443E-02
        -0.25025E-02
        -0.26360E-02
        -0.27633E-02
        -0.21140E-02
        -0.16092E-02
        -0.11953E-02
        -0.59060E-03
         0.20424E-03
         0.10549E-02
         0.18418E-02
         0.24559E-02
         0.26030E-02
         0.37964E-02
         0.39100E-02
         0.34621E-02
         0.29267E-02
         0.22211E-02
         0.13865E-02
         0.47130E-03
        -0.47130E-03
        -0.13865E-02
        -0.22211E-02
        -0.29267E-02
        -0.34621E-02
        -0.37964E-02
        -0.39100E-02
        -0.37964E-02
        -0.34621E-02
        -0.29267E-02
        -0.22211E-02
        -0.13865E-02
        -0.47130E-03
         0.47130E-03
         0.13865E-02
         0.22211E-02
         0.29267E-02
         0.34621E-02
         0.37964E-02
         0.10363E-02
         0.17429E-02
         0.23161E-02
         0.16670E-02
         0.30374E-02
         0.27836E-02
         0.12837E-02
         0.64820E-03
         0.12416E-03
        -0.13063E-03
         0.94069E-03
         0.11282E-02
         0.17439E-02
         0.40518E-03
         0.39757E-03
        -0.76763E-03
        -0.86746E-03
         0.45537E-03
        -0.18338E-02
        -0.18428E-02
        -0.27234E-02
        -0.27992E-02
        -0.25385E-02
        -0.19343E-02
        -0.99176E-03
        -0.14425E-02
        -0.31314E-03
        -0.11023E-02
        -0.18839E-02
        -0.18696E-02
        -0.16229E-03
        -0.94867E-03
         0.77997E-03
         0.17205E-02
         0.32092E-02
         0.28043E-02
         0.23044E-02
        -0.40434E-03
        -0.12093E-02
        -0.19443E-02
        -0.25025E-02
        -0.26359E-02
        -0.27630E-02
        -0.21141E-02
        -0.16093E-02
        -0.11954E-02
        -0.59095E-03
         0.20384E-03
         0.10546E-02
         0.18419E-02
         0.24560E-02
         0.26031E-02
         0.37964E-02
         0.39100E-02
         0.34621E-02
         0.29267E-02
         0.22211E-02
         0.13865E-02
         0.47130E-03
        -0.47130E-03
        -0.13865E-02
        -0.22211E-02
        -0.29267E-02
        -0.34621E-02
        -0.37964E-02
        -0.39100E-02
        -0.37964E-02
        -0.34621E-02
        -0.29267E-02
        -0.22211E-02
        -0.13865E-02
        -0.47130E-03
         0.47130E-03
         0.13865E-02
         0.22211E-02
         0.29267E-02
         0.34621E-02
         0.37964E-02
         0.10362E-02
         0.17427E-02
         0.23160E-02
         0.16668E-02
         0.30373E-02
         0.27839E-02
         0.12836E-02
         0.64796E-03
         0.12390E-03
        -0.13082E-03
         0.94036E-03
         0.11279E-02
         0.17435E-02
         0.40512E-03
         0.39755E-03
        -0.76798E-03
        -0.86756E-03
         0.45492E-03
        -0.18341E-02
        -0.18427E-02
        -0.27234E-02
        -0.27990E-02
        -0.25386E-02
        -0.19347E-02
        -0.99161E-03
        -0.14429E-02
        -0.31294E-03
        -0.11019E-02
        -0.18838E-02
        -0.18695E-02
        -0.16256E-03
        -0.94927E-03
         0.77931E-03
         0.17205E-02
         0.32096E-02
         0.28043E-02
         0.23043E-02
        -0.40420E-03
        -0.12093E-02
        -0.19443E-02
        -0.25024E-02
        -0.26358E-02
        -0.27627E-02
        -0.21143E-02
        -0.16093E-02
        -0.11955E-02
        -0.59130E-03
         0.20343E-03
         0.10543E-02
         0.18419E-02
         0.24561E-02
         0.26032E-02
         0.37964E-02
         0.39100E-02
         0.34621E-02
         0.29267E-02
         0.22211E-02
         0.13865E-02
         0.47130E-03
        -0.47130E-03
        -0.13865E-02
        -0.22211E-02
        -0.29267E-02
        -0.34621E-02
        -0.37964E-02
        -0.39100E-02
        -0.37964E-02
        -0.34621E-02
        -0.29267E-02
        -0.22211E-02
        -0.13865E-02
        -0.47130E-03
         0.47130E-03
         0.13865E-02
         0.22211E-02
         0.29267E-02
         0.34621E-02
         0.37964E-02
         0.10360E-02
         0.17425E-02
         0.23158E-02
         0.16666E-02
         0.30373E-02
         0.27842E-02
         0.12835E-02
         0.64771E-03
         0.12363E-03
        -0.13100E-03
         0.94003E-03
         0.11276E-02
         0.17432E-02
         0.40507E-03
         0.39754E-03
        -0.76834E-03
        -0.86767E-03
         0.45447E-03
        -0.18344E-02
        -0.18426E-02
        -0.27234E-02
        -0.27987E-02
        -0.25388E-02
        -0.19352E-02
        -0.99147E-03
        -0.14433E-02
        -0.31274E-03
        -0.11016E-02
        -0.18838E-02
        -0.18694E-02
        -0.16284E-03
        -0.94986E-03
         0.77865E-03
         0.17205E-02
         0.32099E-02
         0.28042E-02
         0.23042E-02
        -0.40407E-03
        -0.12093E-02
        -0.19442E-02
        -0.25024E-02
        -0.26358E-02
        -0.27624E-02
        -0.21144E-02
        -0.16094E-02
        -0.11956E-02
        -0.59165E-03
         0.20302E-03
         0.10540E-02
         0.18419E-02
         0.24563E-02
         0.26033E-02
         0.37964E-02
         0.39100E-02
         0.34621E-02
         0.29267E-02
         0.22211E-02
         0.13865E-02
         0.47130E-03
        -0.47130E-03
        -0.13865E-02
        -0.22211E-02
        -0.29267E-02
        -0.34621E-02
        -0.37964E-02
        -0.39100E-02
        -0.37964E-02
        -0.34621E-02
        -0.29267E-02
        -0.22211E-02
        -0.13865E-02
        -0.47130E-03
         0.47130E-03
         0.13865E-02
         0.22211E-02
         0.29267E-02
         0.34621E-02
         0.37964E-02
         0.10359E-02
         0.17423E-02
         0.23157E-02
         0.16664E-02
         0.30373E-02
         0.27846E-02
         0.12834E-02
         0.64747E-03
         0.12337E-03
        -0.13118E-03
         0.93970E-03
         0.11272E-02
         0.17428E-02
         0.40501E-03
         0.39752E-03
        -0.76869E-03
        -0.86778E-03
         0.45402E-03
        -0.18347E-02
        -0.18425E-02
        -0.27234E-02
        -0.27984E-02
        -0.25389E-02
        -0.19356E-02
        -0.99133E-03
        -0.14436E-02
        -0.31254E-03
        -0.11013E-02
        -0.18837E-02
        -0.18692E-02
        -0.16311E-03
        -0.95046E-03
         0.77799E-03
         0.17204E-02
         0.32102E-02
         0.28042E-02
         0.23041E-02
        -0.40393E-03
        -0.12093E-02
        -0.19442E-02
        -0.25024E-02
        -0.26357E-02
        -0.27621E-02
        -0.21146E-02
        -0.16094E-02
        -0.11957E-02
        -0.59200E-03
         0.20262E-03
         0.10536E-02
         0.18420E-02
         0.24564E-02
         0.26033E-02
         0.37964E-02
         0.39100E-02
         0.34621E-02
         0.29267E-02
         0.22211E-02
         0.13865E-02
         0.47130E-03
        -0.47130E-03
        -0.13865E-02
        -0.22211E-02
        -0.29267E-02
        -0.34621E-02
        -0.37964E-02
        -0.39100E-02
        -0.37964E-02
        -0.34621E-02
        -0.29267E-02
        -0.22211E-02
        -0.13865E-02
        -0.47130E-03
         0.47130E-03
         0.13865E-02
         0.22211E-02
         0.29267E-02
         0.34621E-02
         0.37964E-02
         0.10358E-02
         0.17422E-02
         0.23156E-02
         0.16662E-02
         0.30373E-02
         0.27849E-02
         0.12833E-02
         0.64722E-03
         0.12311E-03
        -0.13137E-03
         0.93937E-03
         0.11269E-02
         0.17424E-02
         0.40496E-03
         0.39750E-03
        -0.76904E-03
        -0.86789E-03
         0.45358E-03
        -0.18350E-02
        -0.18424E-02
        -0.27233E-02
        -0.27981E-02
        -0.25391E-02
        -0.19360E-02
        -0.99118E-03
        -0.14440E-02
        -0.31234E-03
        -0.11009E-02
        -0.18836E-02
        -0.18691E-02
        -0.16339E-03
        -0.95106E-03
         0.77733E-03
         0.17204E-02
         0.32105E-02
         0.28042E-02
         0.23040E-02
        -0.40379E-03
        -0.12093E-02
        -0.19441E-02
        -0.25023E-02
        -0.26356E-02
        -0.27618E-02
        -0.21147E-02
        -0.16094E-02
        -0.11958E-02
        -0.59235E-03
         0.20221E-03
         0.10533E-02
         0.18420E-02
         0.24565E-02
         0.26034E-02
         0.37964E-02
         0.39100E-02
         0.34621E-02
         0.29267E-02
         0.22211E-02
         0.13865E-02
         0.47130E-03
        -0.47130E-03
        -0.13865E-02
        -0.22211E-02
        -0.29267E-02
        -0.34621E-02
        -0.37964E-02
        -0.39100E-02
        -0.37964E-02
        -0.34621E-02
        -0.29267E-02
        -0.22211E-02
        -0.13865E-02
        -0.47130E-03
         0.47130E-03
         0.13865E-02
         0.22211E-02
         0.29267E-02
         0.34621E-02
         0.37964E-02
         0.10357E-02
         0.17420E-02
         0.23155E-02
         0.16660E-02
         0.30372E-02
         0.27853E-02
         0.12832E-02
         0.64698E-03
         0.12285E-03
        -0.13155E-03
         0.93903E-03
         0.11266E-02
         0.17420E-02
         0.40490E-03
         0.39749E-03
        -0.76940E-03
        -0.86800E-03
         0.45313E-03
        -0.18353E-02
        -0.18423E-02
        -0.27233E-02
        -0.27979E-02
        -0.25393E-02
        -0.19365E-02
        -0.99104E-03
        -0.14443E-02
        -0.31214E-03
        -0.11006E-02
        -0.18836E-02
        -0.18690E-02
        -0.16366E-03
        -0.95166E-03
         0.77667E-03
         0.17203E-02
         0.32109E-02
         0.28042E-02
         0.23039E-02
        -0.40365E-03
        -0.12093E-02
        -0.19441E-02
        -0.25023E-02
        -0.26355E-02
        -0.27615E-02
        -0.21148E-02
        -0.16095E-02
        -0.11960E-02
        -0.59270E-03
         0.20180E-03
         0.10530E-02
         0.18421E-02
         0.24566E-02
         0.26035E-02
         0.37964E-02
         0.39100E-02
         0.34621E-02
         0.29267E-02
         0.22211E-02
         0.13865E-02
         0.47130E-03
        -0.47130E-03
        -0.13865E-02
        -0.22211E-02
        -0.29267E-02
        -0.34621E-02
        -0.37964E-02
        -0.39100E-02
        -0.37964E-02
        -0.34621E-02
        -0.29267E-02
        -0.22211E-02
        -0.13865E-02
        -0.47130E-03
         0.47130E-03
         0.13865E-02
         0.22211E-02
         0.29267E-02
         0.34621E-02
         0.37964E-02
         0.10356E-02
         0.17418E-02
         0.23153E-02
         0.16657E-02
         0.30372E-02
         0.27856E-02
         0.12830E-02
         0.64673E-03
         0.12259E-03
        -0.13174E-03
         0.93870E-03
         0.11262E-02
         0.17416E-02
         0.40485E-03
         0.39747E-03
        -0.76975E-03
        -0.86811E-03
         0.45268E-03
        -0.18356E-02
        -0.18422E-02
        -0.27233E-02
        -0.27976E-02
        -0.25394E-02
        -0.19369E-02
        -0.99090E-03
        -0.14446E-02
        -0.31194E-03
        -0.11002E-02
        -0.18835E-02
        -0.18689E-02
        -0.16394E-03
        -0.95226E-03
         0.77601E-03
         0.17203E-02
         0.32112E-02
         0.28042E-02
         0.23038E-02
        -0.40352E-03
        -0.12093E-02
        -0.19441E-02
        -0.25023E-02
        -0.26354E-02
        -0.27612E-02
        -0.21150E-02
        -0.16095E-02
        -0.11961E-02
        -0.59305E-03
         0.20140E-03
         0.10527E-02
         0.18421E-02
         0.24568E-02
         0.26036E-02
         0.37964E-02
         0.39100E-02
         0.34621E-02
         0.29267E-02
         0.22211E-02
         0.13865E-02
         0.47130E-03
        -0.47130E-03
        -0.13865E-02
        -0.22211E-02
        -0.29267E-02
        -0.34621E-02
        -0.37964E-02
        -0.39100E-02
        -0.37964E-02
        -0.34621E-02
        -0.29267E-02
        -0.22211E-02
        -0.13865E-02
        -0.47130E-03
         0.47130E-03
         0.13865E-02
         0.22211E-02
         0.29267E-02
         0.34621E-02
         0.37964E-02
         0.10355E-02
         0.17416E-02
         0.23152E-02
         0.16655E-02
         0.30372E-02
         0.27860E-02
         0.12829E-02
         0.64649E-03
         0.12232E-03
        -0.13193E-03
         0.93837E-03
         0.11259E-02
         0.17412E-02
         0.40480E-03
         0.39745E-03
        -0.77011E-03
        -0.86822E-03
         0.45223E-03
        -0.18359E-02
        -0.18421E-02
        -0.27232E-02
        -0.27973E-02
        -0.25396E-02
        -0.19373E-02
        -0.99075E-03
        -0.14450E-02
        -0.31173E-03
        -0.10999E-02
        -0.18835E-02
        -0.18687E-02
        -0.16421E-03
        -0.95285E-03
         0.77535E-03
         0.17202E-02
         0.32115E-02
         0.28041E-02
         0.23037E-02
        -0.40338E-03
        -0.12093E-02
        -0.19440E-02
        -0.25023E-02
        -0.26353E-02
        -0.27609E-02
        -0.21151E-02
        -0.16096E-02
        -0.11962E-02
        -0.59340E-03
         0.20099E-03
         0.10524E-02
         0.18422E-02
         0.24569E-02
         0.26036E-02
         0.37964E-02
         0.39100E-02
         0.34621E-02
         0.29267E-02
         0.22211E-02
         0.13865E-02
         0.47130E-03
        -0.47130E-03
        -0.13865E-02
        -0.22211E-02
        -0.29267E-02
        -0.34621E-02
        -0.37964E-02
        -0.39100E-02
        -0.37964E-02
        -0.34621E-02
        -0.29267E-02
        -0.22211E-02
        -0.13865E-02
        -0.47130E-03
         0.47130E-03
         0.13865E-02
         0.22211E-02
         0.29267E-02
         0.34621E-02
         0.37964E-02
         0.10354E-02
         0.17414E-02
         0.23151E-02
         0.16653E-02
         0.30372E-02
         0.27863E-02
         0.12829E-02
         0.64624E-03
         0.12206E-03
        -0.13211E-03
         0.93804E-03
         0.11255E-02
         0.17408E-02
         0.40474E-03
         0.39744E-03
        -0.77046E-03
        -0.86832E-03
         0.45179E-03
        -0.18362E-02
        -0.18420E-02
        -0.27232E-02
        -0.27970E-02
        -0.25397E-02
        -0.19377E-02
        -0.99061E-03
        -0.14453E-02
        -0.31153E-03
        -0.10995E-02
        -0.18834E-02
        -0.18686E-02
        -0.16449E-03
        -0.95345E-03
         0.77469E-03
         0.17202E-02
         0.32119E-02
         0.28041E-02
         0.23036E-02
        -0.40324E-03
        -0.12093E-02
        -0.19440E-02
        -0.25022E-02
        -0.26352E-02
        -0.27606E-02
        -0.21152E-02
        -0.16096E-02
        -0.11963E-02
        -0.59375E-03
         0.20059E-03
         0.10521E-02
         0.18422E-02
         0.24570E-02
         0.26037E-02
         0.37964E-02
         0.39100E-02
         0.34621E-02
         0.29267E-02
         0.22211E-02
         0.13865E-02
         0.47130E-03
        -0.47130E-03
        -0.13865E-02
        -0.22211E-02
        -0.29267E-02
        -0.34621E-02
        -0.37964E-02
        -0.39100E-02
        -0.37964E-02
        -0.34621E-02
        -0.29267E-02
        -0.22211E-02
        -0.13865E-02
        -0.47130E-03
         0.47130E-03
         0.13865E-02
         0.22211E-02
         0.29267E-02
         0.34621E-02
         0.37964E-02
         0.10352E-02
         0.17413E-02
         0.23150E-02
         0.16651E-02
         0.30371E-02
         0.27866E-02
         0.12827E-02
         0.64600E-03
         0.12180E-03
        -0.13230E-03
         0.93771E-03
         0.11252E-02
         0.17404E-02
         0.40469E-03
         0.39742E-03
        -0.77081E-03
        -0.86843E-03
         0.45134E-03
        -0.18365E-02
        -0.18419E-02
        -0.27232E-02
        -0.27968E-02
        -0.25399E-02
        -0.19382E-02
        -0.99046E-03
        -0.14457E-02
        -0.31133E-03
        -0.10992E-02
        -0.18834E-02
        -0.18685E-02
        -0.16476E-03
        -0.95405E-03
         0.77402E-03
         0.17202E-02
         0.32122E-02
         0.28041E-02
         0.23034E-02
        -0.40310E-03
        -0.12093E-02
        -0.19440E-02
        -0.25022E-02
        -0.26351E-02
        -0.27602E-02
        -0.21154E-02
        -0.16097E-02
        -0.11964E-02
        -0.59409E-03
         0.20018E-03
         0.10518E-02
         0.18422E-02
         0.24571E-02
         0.26038E-02
         0.37964E-02
         0.39100E-02
         0.34621E-02
         0.29267E-02
         0.22211E-02
         0.13865E-02
         0.47130E-03
        -0.47130E-03
        -0.13865E-02
        -0.22211E-02
        -0.29267E-02
        -0.34621E-02
        -0.37964E-02
        -0.39100E-02
        -0.37964E-02
        -0.34621E-02
        -0.29267E-02
        -0.22211E-02
        -0.13865E-02
        -0.47130E-03
         0.47130E-03
         0.13865E-02
         0.22211E-02
         0.29267E-02
         0.34621E-02
         0.37964E-02
         0.10351E-02
         0.17411E-02
         0.23149E-02
         0.16649E-02
         0.30371E-02
         0.27870E-02
         0.12826E-02
         0.64575E-03
         0.12154E-03
        -0.13248E-03
         0.93738E-03
         0.11249E-02
         0.17400E-02
         0.40463E-03
         0.39740E-03
        -0.77117E-03
        -0.86854E-03
         0.45089E-03
        -0.18368E-02
        -0.18418E-02
        -0.27232E-02
        -0.27965E-02
        -0.25400E-02
        -0.19386E-02
        -0.99032E-03
        -0.14460E-02
        -0.31113E-03
        -0.10988E-02
        -0.18833E-02
        -0.18683E-02
        -0.16504E-03
        -0.95465E-03
         0.77336E-03
         0.17201E-02
         0.32125E-02
         0.28041E-02
         0.23033E-02
        -0.40296E-03
        -0.12093E-02
        -0.19439E-02
        -0.25022E-02
        -0.26350E-02
        -0.27599E-02
        -0.21155E-02
        -0.16097E-02
        -0.11965E-02
        -0.59444E-03
         0.19977E-03
         0.10515E-02
         0.18423E-02
         0.24573E-02
         0.26039E-02
         0.37964E-02
         0.39100E-02
         0.34621E-02
         0.29267E-02
         0.22211E-02
         0.13865E-02
         0.47130E-03
        -0.47130E-03
        -0.13865E-02
        -0.22211E-02
        -0.29267E-02
        -0.34621E-02
        -0.37964E-02
        -0.39100E-02
        -0.37964E-02
        -0.34621E-02
        -0.29267E-02
        -0.22211E-02
        -0.13865E-02
        -0.47130E-03
         0.47130E-03
         0.13865E-02
         0.22211E-02
         0.29267E-02
         0.34621E-02
         0.37964E-02
  
SCALARS           initial_coordinate_y  double 1
LOOKUP_TABLE default
         0.67292E-03
         0.12308E-02
         0.59151E-03
        -0.33775E-03
         0.67237E-03
         0.12301E-02
         0.59098E-03
        -0.33851E-03
         0.14882E-03
        -0.67643E-03
         0.14846E-03
        -0.67692E-03
         0.18412E-02
         0.14576E-02
         0.18410E-02
         0.14566E-02
         0.29933E-03
         0.11672E-02
         0.29819E-03
         0.11655E-02
         0.22748E-02
         0.28286E-02
         0.24238E-02
         0.22746E-02
         0.28291E-02
         0.24236E-02
         0.21685E-02
         0.29366E-02
         0.21684E-02
         0.29369E-02
        -0.10033E-02
         0.78969E-04
        -0.70318E-03
        -0.10032E-02
         0.78160E-04
        -0.70391E-03
        -0.71196E-03
         0.82749E-04
        -0.71210E-03
         0.82626E-04
        -0.77865E-03
         0.40713E-04
        -0.77882E-03
         0.40439E-04
        -0.15195E-02
        -0.13230E-02
        -0.15195E-02
        -0.13231E-02
         0.98847E-03
         0.98712E-03
        -0.17325E-02
        -0.17325E-02
         0.20220E-02
         0.20217E-02
         0.18615E-02
         0.18616E-02
         0.17175E-02
         0.90940E-03
         0.17175E-02
         0.90916E-03
        -0.19800E-02
        -0.23489E-02
        -0.19800E-02
        -0.23489E-02
        -0.17074E-02
        -0.17074E-02
        -0.14894E-02
        -0.14892E-02
         0.76036E-03
         0.12477E-02
         0.75936E-03
         0.12473E-02
         0.18665E-02
         0.18664E-02
         0.29038E-02
         0.29049E-02
         0.27207E-02
         0.27212E-02
         0.24642E-02
         0.24645E-02
         0.22359E-02
         0.16503E-02
         0.22359E-02
         0.16503E-02
         0.87493E-03
         0.87466E-03
        -0.21373E-02
        -0.21373E-02
        -0.26931E-02
        -0.26931E-02
        -0.31291E-02
        -0.30382E-02
        -0.31291E-02
        -0.30382E-02
        -0.28748E-02
        -0.28748E-02
        -0.26423E-02
        -0.26420E-02
        -0.23707E-02
        -0.23705E-02
        -0.21445E-02
        -0.15105E-02
        -0.21439E-02
        -0.15106E-02
         0.93572E-03
         0.00000E+00
         0.93572E-03
         0.00000E+00
         0.18171E-02
         0.18171E-02
         0.25928E-02
         0.25928E-02
         0.32179E-02
         0.32179E-02
         0.36559E-02
         0.36559E-02
         0.38815E-02
         0.38815E-02
         0.38815E-02
         0.38815E-02
         0.36559E-02
         0.36559E-02
         0.32179E-02
         0.32179E-02
         0.25928E-02
         0.25928E-02
         0.18171E-02
         0.18171E-02
         0.93572E-03
         0.93572E-03
         0.22152E-17
        -0.47884E-18
        -0.93572E-03
        -0.93572E-03
        -0.18171E-02
        -0.18171E-02
        -0.25928E-02
        -0.25928E-02
        -0.32179E-02
        -0.32179E-02
        -0.36559E-02
        -0.36559E-02
        -0.38815E-02
        -0.38815E-02
        -0.38815E-02
        -0.38815E-02
        -0.36559E-02
        -0.36559E-02
        -0.32179E-02
        -0.32179E-02
        -0.25928E-02
        -0.25928E-02
        -0.18171E-02
        -0.18171E-02
        -0.93572E-03
        -0.93572E-03
         0.67348E-03
         0.12314E-02
         0.59203E-03
        -0.33700E-03
         0.14918E-03
        -0.67594E-03
         0.18414E-02
         0.14586E-02
         0.30048E-03
         0.11690E-02
         0.22749E-02
         0.28282E-02
         0.24239E-02
         0.21685E-02
         0.29364E-02
        -0.10035E-02
         0.79778E-04
        -0.70245E-03
        -0.71182E-03
         0.82873E-04
        -0.77848E-03
         0.40986E-04
        -0.15194E-02
        -0.13228E-02
         0.98983E-03
        -0.17324E-02
         0.20223E-02
         0.18614E-02
         0.17175E-02
         0.90964E-03
        -0.19800E-02
        -0.23489E-02
        -0.17074E-02
        -0.14896E-02
         0.76137E-03
         0.12481E-02
         0.18665E-02
         0.29027E-02
         0.27202E-02
         0.24640E-02
         0.22359E-02
         0.16503E-02
         0.87519E-03
        -0.21373E-02
        -0.26932E-02
        -0.31291E-02
        -0.30382E-02
        -0.28748E-02
        -0.26426E-02
        -0.23709E-02
        -0.21450E-02
        -0.15104E-02
         0.93572E-03
         0.00000E+00
         0.18171E-02
         0.25928E-02
         0.32179E-02
         0.36559E-02
         0.38815E-02
         0.38815E-02
         0.36559E-02
         0.32179E-02
         0.25928E-02
         0.18171E-02
         0.93572E-03
        -0.47884E-18
        -0.93572E-03
        -0.18171E-02
        -0.25928E-02
        -0.32179E-02
        -0.36559E-02
        -0.38815E-02
        -0.38815E-02
        -0.36559E-02
        -0.32179E-02
        -0.25928E-02
        -0.18171E-02
        -0.93572E-03
         0.67403E-03
         0.12321E-02
         0.59255E-03
        -0.33624E-03
         0.14955E-03
        -0.67544E-03
         0.18415E-02
         0.14596E-02
         0.30163E-03
         0.11707E-02
         0.22750E-02
         0.28277E-02
         0.24241E-02
         0.21685E-02
         0.29361E-02
        -0.10036E-02
         0.80588E-04
        -0.70173E-03
        -0.71168E-03
         0.82996E-04
        -0.77831E-03
         0.41259E-04
        -0.15194E-02
        -0.13227E-02
         0.99119E-03
        -0.17324E-02
         0.20226E-02
         0.18613E-02
         0.17175E-02
         0.90988E-03
        -0.19801E-02
        -0.23490E-02
        -0.17074E-02
        -0.14899E-02
         0.76237E-03
         0.12485E-02
         0.18666E-02
         0.29017E-02
         0.27198E-02
         0.24638E-02
         0.22359E-02
         0.16503E-02
         0.87545E-03
        -0.21374E-02
        -0.26932E-02
        -0.31291E-02
        -0.30382E-02
        -0.28748E-02
        -0.26428E-02
        -0.23711E-02
        -0.21456E-02
        -0.15103E-02
         0.93572E-03
         0.00000E+00
         0.18171E-02
         0.25928E-02
         0.32179E-02
         0.36559E-02
         0.38815E-02
         0.38815E-02
         0.36559E-02
         0.32179E-02
         0.25928E-02
         0.18171E-02
         0.93572E-03
         0.39516E-17
        -0.93572E-03
        -0.18171E-02
        -0.25928E-02
        -0.32179E-02
        -0.36559E-02
        -0.38815E-02
        -0.38815E-02
        -0.36559E-02
        -0.32179E-02
        -0.25928E-02
        -0.18171E-02
        -0.93572E-03
         0.67459E-03
         0.12328E-02
         0.59308E-03
        -0.33549E-03
         0.14991E-03
        -0.67495E-03
         0.18417E-02
         0.14606E-02
         0.30278E-03
         0.11725E-02
         0.22752E-02
         0.28273E-02
         0.24242E-02
         0.21686E-02
         0.29359E-02
        -0.10038E-02
         0.81397E-04
        -0.70100E-03
        -0.71154E-03
         0.83120E-04
        -0.77814E-03
         0.41533E-04
        -0.15193E-02
        -0.13227E-02
         0.99254E-03
        -0.17324E-02
         0.20228E-02
         0.18611E-02
         0.17175E-02
         0.91012E-03
        -0.19801E-02
        -0.23490E-02
        -0.17074E-02
        -0.14901E-02
         0.76338E-03
         0.12490E-02
         0.18666E-02
         0.29006E-02
         0.27193E-02
         0.24636E-02
         0.22359E-02
         0.16503E-02
         0.87571E-03
        -0.21374E-02
        -0.26932E-02
        -0.31291E-02
        -0.30382E-02
        -0.28748E-02
        -0.26431E-02
        -0.23713E-02
        -0.21461E-02
        -0.15102E-02
         0.93572E-03
         0.00000E+00
         0.18171E-02
         0.25928E-02
         0.32179E-02
         0.36559E-02
         0.38815E-02
         0.38815E-02
         0.36559E-02
         0.32179E-02
         0.25928E-02
         0.18171E-02
         0.93572E-03
        -0.47884E-18
        -0.93572E-03
        -0.18171E-02
        -0.25928E-02
        -0.32179E-02
        -0.36559E-02
        -0.38815E-02
        -0.38815E-02
        -0.36559E-02
        -0.32179E-02
        -0.25928E-02
        -0.18171E-02
        -0.93572E-03
         0.67514E-03
         0.12334E-02
         0.59360E-03
        -0.33474E-03
         0.15027E-03
        -0.67446E-03
         0.18419E-02
         0.14616E-02
         0.30393E-03
         0.11742E-02
         0.22753E-02
         0.28269E-02
         0.24244E-02
         0.21686E-02
         0.29356E-02
        -0.10039E-02
         0.82206E-04
        -0.70028E-03
        -0.71140E-03
         0.83243E-04
        -0.77797E-03
         0.41806E-04
        -0.15193E-02
        -0.13226E-02
         0.99390E-03
        -0.17323E-02
         0.20231E-02
         0.18610E-02
         0.17175E-02
         0.91036E-03
        -0.19801E-02
        -0.23490E-02
        -0.17074E-02
        -0.14904E-02
         0.76439E-03
         0.12494E-02
         0.18666E-02
         0.28995E-02
         0.27188E-02
         0.24633E-02
         0.22359E-02
         0.16503E-02
         0.87597E-03
        -0.21374E-02
        -0.26932E-02
        -0.31291E-02
        -0.30382E-02
        -0.28748E-02
        -0.26434E-02
        -0.23715E-02
        -0.21467E-02
        -0.15101E-02
         0.93572E-03
         0.00000E+00
         0.18171E-02
         0.25928E-02
         0.32179E-02
         0.36559E-02
         0.38815E-02
         0.38815E-02
         0.36559E-02
         0.32179E-02
         0.25928E-02
         0.18171E-02
         0.93572E-03
        -0.47884E-18
        -0.93572E-03
        -0.18171E-02
        -0.25928E-02
        -0.32179E-02
        -0.36559E-02
        -0.38815E-02
        -0.38815E-02
        -0.36559E-02
        -0.32179E-02
        -0.25928E-02
        -0.18171E-02
        -0.93572E-03
         0.67570E-03
         0.12341E-02
         0.59412E-03
        -0.33398E-03
         0.15064E-03
        -0.67396E-03
         0.18421E-02
         0.14626E-02
         0.30507E-03
         0.11760E-02
         0.22754E-02
         0.28264E-02
         0.24245E-02
         0.21686E-02
         0.29353E-02
        -0.10040E-02
         0.83015E-04
        -0.69955E-03
        -0.71126E-03
         0.83367E-04
        -0.77780E-03
         0.42080E-04
        -0.15192E-02
        -0.13224E-02
         0.99526E-03
        -0.17323E-02
         0.20234E-02
         0.18609E-02
         0.17175E-02
         0.91060E-03
        -0.19801E-02
        -0.23490E-02
        -0.17074E-02
        -0.14906E-02
         0.76539E-03
         0.12498E-02
         0.18667E-02
         0.28984E-02
         0.27184E-02
         0.24631E-02
         0.22359E-02
         0.16503E-02
         0.87623E-03
        -0.21374E-02
        -0.26932E-02
        -0.31291E-02
        -0.30382E-02
        -0.28748E-02
        -0.26436E-02
        -0.23717E-02
        -0.21472E-02
        -0.15100E-02
         0.93572E-03
         0.00000E+00
         0.18171E-02
         0.25928E-02
         0.32179E-02
         0.36559E-02
         0.38815E-02
         0.38815E-02
         0.36559E-02
         0.32179E-02
         0.25928E-02
         0.18171E-02
         0.93572E-03
        -0.47884E-18
        -0.93572E-03
        -0.18171E-02
        -0.25928E-02
        -0.32179E-02
        -0.36559E-02
        -0.38815E-02
        -0.38815E-02
        -0.36559E-02
        -0.32179E-02
        -0.25928E-02
        -0.18171E-02
        -0.93572E-03
         0.67625E-03
         0.12348E-02
         0.59465E-03
        -0.33323E-03
         0.15100E-03
        -0.67347E-03
         0.18423E-02
         0.14636E-02
         0.30622E-03
         0.11777E-02
         0.22755E-02
         0.28260E-02
         0.24247E-02
         0.21687E-02
         0.29351E-02
        -0.10042E-02
         0.83825E-04
        -0.69882E-03
        -0.71112E-03
         0.83490E-04
        -0.77763E-03
         0.42353E-04
        -0.15192E-02
        -0.13223E-02
         0.99661E-03
        -0.17322E-02
         0.20237E-02
         0.18607E-02
         0.17175E-02
         0.91084E-03
        -0.19801E-02
        -0.23491E-02
        -0.17074E-02
        -0.14909E-02
         0.76640E-03
         0.12503E-02
         0.18667E-02
         0.28974E-02
         0.27179E-02
         0.24629E-02
         0.22359E-02
         0.16503E-02
         0.87650E-03
        -0.21374E-02
        -0.26933E-02
        -0.31291E-02
        -0.30382E-02
        -0.28749E-02
        -0.26439E-02
        -0.23719E-02
        -0.21478E-02
        -0.15099E-02
         0.93572E-03
         0.00000E+00
         0.18171E-02
         0.25928E-02
         0.32179E-02
         0.36559E-02
         0.38815E-02
         0.38815E-02
         0.36559E-02
         0.32179E-02
         0.25928E-02
         0.18171E-02
         0.93572E-03
        -0.47884E-18
        -0.93572E-03
        -0.18171E-02
        -0.25928E-02
        -0.32179E-02
        -0.36559E-02
        -0.38815E-02
        -0.38815E-02
        -0.36559E-02
        -0.32179E-02
        -0.25928E-02
        -0.18171E-02
        -0.93572E-03
         0.67680E-03
         0.12354E-02
         0.59517E-03
        -0.33247E-03
         0.15136E-03
        -0.67298E-03
         0.18425E-02
         0.14646E-02
         0.30737E-03
         0.11795E-02
         0.22757E-02
         0.28255E-02
         0.24248E-02
         0.21687E-02
         0.29348E-02
        -0.10043E-02
         0.84634E-04
        -0.69810E-03
        -0.71098E-03
         0.83614E-04
        -0.77746E-03
         0.42626E-04
        -0.15191E-02
        -0.13223E-02
         0.99797E-03
        -0.17322E-02
         0.20240E-02
         0.18606E-02
         0.17175E-02
         0.91108E-03
        -0.19802E-02
        -0.23491E-02
        -0.17074E-02
        -0.14911E-02
         0.76740E-03
         0.12507E-02
         0.18668E-02
         0.28963E-02
         0.27174E-02
         0.24627E-02
         0.22358E-02
         0.16503E-02
         0.87676E-03
        -0.21374E-02
        -0.26933E-02
        -0.31291E-02
        -0.30382E-02
        -0.28749E-02
        -0.26442E-02
        -0.23721E-02
        -0.21483E-02
        -0.15097E-02
         0.93572E-03
         0.00000E+00
         0.18171E-02
         0.25928E-02
         0.32179E-02
         0.36559E-02
         0.38815E-02
         0.38815E-02
         0.36559E-02
         0.32179E-02
         0.25928E-02
         0.18171E-02
         0.93572E-03
        -0.47884E-18
        -0.93572E-03
        -0.18171E-02
        -0.25928E-02
        -0.32179E-02
        -0.36559E-02
        -0.38815E-02
        -0.38815E-02
        -0.36559E-02
        -0.32179E-02
        -0.25928E-02
        -0.18171E-02
        -0.93572E-03
         0.67736E-03
         0.12361E-02
         0.59570E-03
        -0.33172E-03
         0.15173E-03
        -0.67248E-03
         0.18427E-02
         0.14656E-02
         0.30852E-03
         0.11812E-02
         0.22758E-02
         0.28251E-02
         0.24249E-02
         0.21688E-02
         0.29345E-02
        -0.10044E-02
         0.85443E-04
        -0.69737E-03
        -0.71084E-03
         0.83737E-04
        -0.77729E-03
         0.42899E-04
        -0.15191E-02
        -0.13222E-02
         0.99932E-03
        -0.17322E-02
         0.20243E-02
         0.18605E-02
         0.17175E-02
         0.91132E-03
        -0.19802E-02
        -0.23491E-02
        -0.17074E-02
        -0.14914E-02
         0.76841E-03
         0.12511E-02
         0.18668E-02
         0.28952E-02
         0.27170E-02
         0.24624E-02
         0.22358E-02
         0.16503E-02
         0.87702E-03
        -0.21374E-02
        -0.26933E-02
        -0.31291E-02
        -0.30382E-02
        -0.28749E-02
        -0.26444E-02
        -0.23723E-02
        -0.21489E-02
        -0.15096E-02
         0.93572E-03
         0.00000E+00
         0.18171E-02
         0.25928E-02
         0.32179E-02
         0.36559E-02
         0.38815E-02
         0.38815E-02
         0.36559E-02
         0.32179E-02
         0.25928E-02
         0.18171E-02
         0.93572E-03
        -0.47884E-18
        -0.93572E-03
        -0.18171E-02
        -0.25928E-02
        -0.32179E-02
        -0.36559E-02
        -0.38815E-02
        -0.38815E-02
        -0.36559E-02
        -0.32179E-02
        -0.25928E-02
        -0.18171E-02
        -0.93572E-03
         0.67791E-03
         0.12368E-02
         0.59622E-03
        -0.33096E-03
         0.15209E-03
        -0.67199E-03
         0.18429E-02
         0.14666E-02
         0.30967E-03
         0.11830E-02
         0.22759E-02
         0.28247E-02
         0.24251E-02
         0.21688E-02
         0.29343E-02
        -0.10046E-02
         0.86253E-04
        -0.69665E-03
        -0.71070E-03
         0.83861E-04
        -0.77712E-03
         0.43173E-04
        -0.15190E-02
        -0.13220E-02
         0.10007E-02
        -0.17321E-02
         0.20245E-02
         0.18603E-02
         0.17175E-02
         0.91156E-03
        -0.19802E-02
        -0.23491E-02
        -0.17074E-02
        -0.14916E-02
         0.76941E-03
         0.12515E-02
         0.18668E-02
         0.28942E-02
         0.27165E-02
         0.24622E-02
         0.22358E-02
         0.16503E-02
         0.87728E-03
        -0.21374E-02
        -0.26933E-02
        -0.31291E-02
        -0.30382E-02
        -0.28749E-02
        -0.26447E-02
        -0.23725E-02
        -0.21494E-02
        -0.15095E-02
         0.93572E-03
         0.00000E+00
         0.18171E-02
         0.25928E-02
         0.32179E-02
         0.36559E-02
         0.38815E-02
         0.38815E-02
         0.36559E-02
         0.32179E-02
         0.25928E-02
         0.18171E-02
         0.93572E-03
        -0.47884E-18
        -0.93572E-03
        -0.18171E-02
        -0.25928E-02
        -0.32179E-02
        -0.36559E-02
        -0.38815E-02
        -0.38815E-02
        -0.36559E-02
        -0.32179E-02
        -0.25928E-02
        -0.18171E-02
        -0.93572E-03
         0.67847E-03
         0.12374E-02
         0.59674E-03
        -0.33021E-03
         0.15245E-03
        -0.67150E-03
         0.18430E-02
         0.14676E-02
         0.31081E-03
         0.11847E-02
         0.22761E-02
         0.28242E-02
         0.24252E-02
         0.21688E-02
         0.29340E-02
        -0.10047E-02
         0.87062E-04
        -0.69592E-03
        -0.71056E-03
         0.83985E-04
        -0.77695E-03
         0.43446E-04
        -0.15190E-02
        -0.13219E-02
         0.10020E-02
        -0.17321E-02
         0.20248E-02
         0.18602E-02
         0.17175E-02
         0.91180E-03
        -0.19803E-02
        -0.23491E-02
        -0.17073E-02
        -0.14919E-02
         0.77042E-03
         0.12520E-02
         0.18669E-02
         0.28931E-02
         0.27160E-02
         0.24620E-02
         0.22358E-02
         0.16503E-02
         0.87754E-03
        -0.21374E-02
        -0.26933E-02
        -0.31291E-02
        -0.30382E-02
        -0.28749E-02
        -0.26450E-02
        -0.23727E-02
        -0.21500E-02
        -0.15094E-02
         0.93572E-03
         0.00000E+00
         0.18171E-02
         0.25928E-02
         0.32179E-02
         0.36559E-02
         0.38815E-02
         0.38815E-02
         0.36559E-02
         0.32179E-02
         0.25928E-02
         0.18171E-02
         0.93572E-03
         0.39516E-17
        -0.93572E-03
        -0.18171E-02
        -0.25928E-02
        -0.32179E-02
        -0.36559E-02
        -0.38815E-02
        -0.38815E-02
        -0.36559E-02
        -0.32179E-02
        -0.25928E-02
        -0.18171E-02
        -0.93572E-03
         0.67902E-03
         0.12381E-02
         0.59727E-03
        -0.32945E-03
         0.15282E-03
        -0.67100E-03
         0.18432E-02
         0.14686E-02
         0.31196E-03
         0.11865E-02
         0.22762E-02
         0.28238E-02
         0.24254E-02
         0.21688E-02
         0.29337E-02
        -0.10049E-02
         0.87871E-04
        -0.69519E-03
        -0.71042E-03
         0.84108E-04
        -0.77678E-03
         0.43720E-04
        -0.15189E-02
        -0.13219E-02
         0.10034E-02
        -0.17320E-02
         0.20251E-02
         0.18601E-02
         0.17175E-02
         0.91204E-03
        -0.19803E-02
        -0.23492E-02
        -0.17073E-02
        -0.14921E-02
         0.77142E-03
         0.12524E-02
         0.18669E-02
         0.28920E-02
         0.27155E-02
         0.24618E-02
         0.22358E-02
         0.16503E-02
         0.87781E-03
        -0.21374E-02
        -0.26934E-02
        -0.31291E-02
        -0.30382E-02
        -0.28749E-02
        -0.26452E-02
        -0.23729E-02
        -0.21505E-02
        -0.15093E-02
         0.93572E-03
         0.00000E+00
         0.18171E-02
         0.25928E-02
         0.32179E-02
         0.36559E-02
         0.38815E-02
         0.38815E-02
         0.36559E-02
         0.32179E-02
         0.25928E-02
         0.18171E-02
         0.93572E-03
        -0.47884E-18
        -0.93572E-03
        -0.18171E-02
        -0.25928E-02
        -0.32179E-02
        -0.36559E-02
        -0.38815E-02
        -0.38815E-02
        -0.36559E-02
        -0.32179E-02
        -0.25928E-02
        -0.18171E-02
        -0.93572E-03
         0.67958E-03
         0.12387E-02
         0.59779E-03
        -0.32870E-03
         0.15318E-03
        -0.67051E-03
         0.18434E-02
         0.14696E-02
         0.31311E-03
         0.11882E-02
         0.22763E-02
         0.28233E-02
         0.24255E-02
         0.21689E-02
         0.29335E-02
        -0.10050E-02
         0.88681E-04
        -0.69447E-03
        -0.71028E-03
         0.84232E-04
        -0.77661E-03
         0.43993E-04
        -0.15189E-02
        -0.13218E-02
         0.10048E-02
        -0.17320E-02
         0.20254E-02
         0.18599E-02
         0.17175E-02
         0.91228E-03
        -0.19803E-02
        -0.23492E-02
        -0.17073E-02
        -0.14923E-02
         0.77243E-03
         0.12528E-02
         0.18670E-02
         0.28910E-02
         0.27151E-02
         0.24615E-02
         0.22358E-02
         0.16503E-02
         0.87807E-03
        -0.21374E-02
        -0.26934E-02
        -0.31291E-02
        -0.30382E-02
        -0.28749E-02
        -0.26455E-02
        -0.23732E-02
        -0.21511E-02
        -0.15092E-02
         0.93572E-03
         0.00000E+00
         0.18171E-02
         0.25928E-02
         0.32179E-02
         0.36559E-02
         0.38815E-02
         0.38815E-02
         0.36559E-02
         0.32179E-02
         0.25928E-02
         0.18171E-02
         0.93572E-03
         0.22152E-17
        -0.93572E-03
        -0.18171E-02
        -0.25928E-02
        -0.32179E-02
        -0.36559E-02
        -0.38815E-02
        -0.38815E-02
        -0.36559E-02
        -0.32179E-02
        -0.25928E-02
        -0.18171E-02
        -0.93572E-03
         0.68013E-03
         0.12394E-02
         0.59831E-03
        -0.32794E-03
         0.15354E-03
        -0.67002E-03
         0.18436E-02
         0.14706E-02
         0.31426E-03
         0.11900E-02
         0.22765E-02
         0.28229E-02
         0.24257E-02
         0.21689E-02
         0.29332E-02
        -0.10051E-02
         0.89490E-04
        -0.69374E-03
        -0.71013E-03
         0.84355E-04
        -0.77644E-03
         0.44266E-04
        -0.15188E-02
        -0.13216E-02
         0.10061E-02
        -0.17320E-02
         0.20257E-02
         0.18598E-02
         0.17175E-02
         0.91252E-03
        -0.19803E-02
        -0.23492E-02
        -0.17073E-02
        -0.14926E-02
         0.77343E-03
         0.12533E-02
         0.18670E-02
         0.28899E-02
         0.27146E-02
         0.24613E-02
         0.22358E-02
         0.16503E-02
         0.87833E-03
        -0.21374E-02
        -0.26934E-02
        -0.31291E-02
        -0.30382E-02
        -0.28750E-02
        -0.26458E-02
        -0.23734E-02
        -0.21516E-02
        -0.15091E-02
         0.93572E-03
         0.00000E+00
         0.18171E-02
         0.25928E-02
         0.32179E-02
         0.36559E-02
         0.38815E-02
         0.38815E-02
         0.36559E-02
         0.32179E-02
         0.25928E-02
         0.18171E-02
         0.93572E-03
        -0.47884E-18
        -0.93572E-03
        -0.18171E-02
        -0.25928E-02
        -0.32179E-02
        -0.36559E-02
        -0.38815E-02
        -0.38815E-02
        -0.36559E-02
        -0.32179E-02
        -0.25928E-02
        -0.18171E-02
        -0.93572E-03
         0.68068E-03
         0.12401E-02
         0.59884E-03
        -0.32719E-03
         0.15391E-03
        -0.66953E-03
         0.18438E-02
         0.14716E-02
         0.31541E-03
         0.11917E-02
         0.22766E-02
         0.28225E-02
         0.24258E-02
         0.21690E-02
         0.29330E-02
        -0.10053E-02
         0.90299E-04
        -0.69302E-03
        -0.70999E-03
         0.84479E-04
        -0.77627E-03
         0.44540E-04
        -0.15188E-02
        -0.13215E-02
         0.10075E-02
        -0.17319E-02
         0.20260E-02
         0.18597E-02
         0.17175E-02
         0.91276E-03
        -0.19804E-02
        -0.23493E-02
        -0.17073E-02
        -0.14928E-02
         0.77444E-03
         0.12537E-02
         0.18670E-02
         0.28888E-02
         0.27141E-02
         0.24611E-02
         0.22358E-02
         0.16503E-02
         0.87859E-03
        -0.21374E-02
        -0.26934E-02
        -0.31291E-02
        -0.30382E-02
        -0.28750E-02
        -0.26460E-02
        -0.23736E-02
        -0.21521E-02
        -0.15090E-02
         0.93572E-03
         0.00000E+00
         0.18171E-02
         0.25928E-02
         0.32179E-02
         0.36559E-02
         0.38815E-02
         0.38815E-02
         0.36559E-02
         0.32179E-02
         0.25928E-02
         0.18171E-02
         0.93572E-03
         0.22152E-17
        -0.93572E-03
        -0.18171E-02
        -0.25928E-02
        -0.32179E-02
        -0.36559E-02
        -0.38815E-02
        -0.38815E-02
        -0.36559E-02
        -0.32179E-02
        -0.25928E-02
        -0.18171E-02
        -0.93572E-03
         0.68124E-03
         0.12407E-02
         0.59936E-03
        -0.32643E-03
         0.15427E-03
        -0.66903E-03
         0.18440E-02
         0.14727E-02
         0.31656E-03
         0.11935E-02
         0.22767E-02
         0.28220E-02
         0.24260E-02
         0.21690E-02
         0.29327E-02
        -0.10054E-02
         0.91108E-04
        -0.69229E-03
        -0.70985E-03
         0.84602E-04
        -0.77610E-03
         0.44813E-04
        -0.15187E-02
        -0.13215E-02
         0.10088E-02
        -0.17319E-02
         0.20262E-02
         0.18595E-02
         0.17175E-02
         0.91300E-03
        -0.19804E-02
        -0.23493E-02
        -0.17073E-02
        -0.14931E-02
         0.77544E-03
         0.12541E-02
         0.18671E-02
         0.28877E-02
         0.27137E-02
         0.24609E-02
         0.22358E-02
         0.16503E-02
         0.87885E-03
        -0.21374E-02
        -0.26934E-02
        -0.31291E-02
        -0.30382E-02
        -0.28750E-02
        -0.26463E-02
        -0.23738E-02
        -0.21527E-02
        -0.15088E-02
         0.93572E-03
         0.00000E+00
         0.18171E-02
         0.25928E-02
         0.32179E-02
         0.36559E-02
         0.38815E-02
         0.38815E-02
         0.36559E-02
         0.32179E-02
         0.25928E-02
         0.18171E-02
         0.93572E-03
        -0.47884E-18
        -0.93572E-03
        -0.18171E-02
        -0.25928E-02
        -0.32179E-02
        -0.36559E-02
        -0.38815E-02
        -0.38815E-02
        -0.36559E-02
        -0.32179E-02
        -0.25928E-02
        -0.18171E-02
        -0.93572E-03
         0.68179E-03
         0.12414E-02
         0.59988E-03
        -0.32568E-03
         0.15463E-03
        -0.66854E-03
         0.18442E-02
         0.14736E-02
         0.31770E-03
         0.11952E-02
         0.22768E-02
         0.28216E-02
         0.24261E-02
         0.21690E-02
         0.29324E-02
        -0.10056E-02
         0.91918E-04
        -0.69156E-03
        -0.70971E-03
         0.84726E-04
        -0.77593E-03
         0.45086E-04
        -0.15187E-02
        -0.13213E-02
         0.10102E-02
        -0.17318E-02
         0.20265E-02
         0.18594E-02
         0.17175E-02
         0.91324E-03
        -0.19804E-02
        -0.23493E-02
        -0.17073E-02
        -0.14933E-02
         0.77645E-03
         0.12545E-02
         0.18671E-02
         0.28867E-02
         0.27132E-02
         0.24606E-02
         0.22358E-02
         0.16503E-02
         0.87912E-03
        -0.21374E-02
        -0.26935E-02
        -0.31291E-02
        -0.30381E-02
        -0.28750E-02
        -0.26466E-02
        -0.23740E-02
        -0.21533E-02
        -0.15087E-02
         0.93572E-03
         0.00000E+00
         0.18171E-02
         0.25928E-02
         0.32179E-02
         0.36559E-02
         0.38815E-02
         0.38815E-02
         0.36559E-02
         0.32179E-02
         0.25928E-02
         0.18171E-02
         0.93572E-03
        -0.47884E-18
        -0.93572E-03
        -0.18171E-02
        -0.25928E-02
        -0.32179E-02
        -0.36559E-02
        -0.38815E-02
        -0.38815E-02
        -0.36559E-02
        -0.32179E-02
        -0.25928E-02
        -0.18171E-02
        -0.93572E-03
         0.68235E-03
         0.12421E-02
         0.60041E-03
        -0.32493E-03
         0.15500E-03
        -0.66805E-03
         0.18444E-02
         0.14747E-02
         0.31885E-03
         0.11970E-02
         0.22770E-02
         0.28211E-02
         0.24262E-02
         0.21691E-02
         0.29322E-02
        -0.10057E-02
         0.92727E-04
        -0.69084E-03
        -0.70957E-03
         0.84849E-04
        -0.77576E-03
         0.45359E-04
        -0.15186E-02
        -0.13212E-02
         0.10115E-02
        -0.17318E-02
         0.20268E-02
         0.18593E-02
         0.17175E-02
         0.91347E-03
        -0.19804E-02
        -0.23493E-02
        -0.17073E-02
        -0.14936E-02
         0.77745E-03
         0.12550E-02
         0.18671E-02
         0.28856E-02
         0.27127E-02
         0.24604E-02
         0.22358E-02
         0.16503E-02
         0.87938E-03
        -0.21374E-02
        -0.26935E-02
        -0.31291E-02
        -0.30381E-02
        -0.28750E-02
        -0.26468E-02
        -0.23742E-02
        -0.21538E-02
        -0.15086E-02
         0.93572E-03
         0.00000E+00
         0.18171E-02
         0.25928E-02
         0.32179E-02
         0.36559E-02
         0.38815E-02
         0.38815E-02
         0.36559E-02
         0.32179E-02
         0.25928E-02
         0.18171E-02
         0.93572E-03
        -0.47884E-18
        -0.93572E-03
        -0.18171E-02
        -0.25928E-02
        -0.32179E-02
        -0.36559E-02
        -0.38815E-02
        -0.38815E-02
        -0.36559E-02
        -0.32179E-02
        -0.25928E-02
        -0.18171E-02
        -0.93572E-03
         0.68290E-03
         0.12427E-02
         0.60093E-03
        -0.32417E-03
         0.15536E-03
        -0.66755E-03
         0.18445E-02
         0.14757E-02
         0.32000E-03
         0.11987E-02
         0.22771E-02
         0.28207E-02
         0.24264E-02
         0.21691E-02
         0.29319E-02
        -0.10058E-02
         0.93536E-04
        -0.69011E-03
        -0.70943E-03
         0.84973E-04
        -0.77559E-03
         0.45633E-04
        -0.15186E-02
        -0.13212E-02
         0.10129E-02
        -0.17318E-02
         0.20271E-02
         0.18592E-02
         0.17175E-02
         0.91371E-03
        -0.19805E-02
        -0.23493E-02
        -0.17073E-02
        -0.14938E-02
         0.77846E-03
         0.12554E-02
         0.18672E-02
         0.28845E-02
         0.27122E-02
         0.24602E-02
         0.22358E-02
         0.16502E-02
         0.87964E-03
        -0.21374E-02
        -0.26935E-02
        -0.31291E-02
        -0.30381E-02
        -0.28750E-02
        -0.26471E-02
        -0.23744E-02
        -0.21543E-02
        -0.15085E-02
         0.93572E-03
         0.00000E+00
         0.18171E-02
         0.25928E-02
         0.32179E-02
         0.36559E-02
         0.38815E-02
         0.38815E-02
         0.36559E-02
         0.32179E-02
         0.25928E-02
         0.18171E-02
         0.93572E-03
        -0.47884E-18
        -0.93572E-03
        -0.18171E-02
        -0.25928E-02
        -0.32179E-02
        -0.36559E-02
        -0.38815E-02
        -0.38815E-02
        -0.36559E-02
        -0.32179E-02
        -0.25928E-02
        -0.18171E-02
        -0.93572E-03
         0.68346E-03
         0.12434E-02
         0.60145E-03
        -0.32342E-03
         0.15572E-03
        -0.66706E-03
         0.18447E-02
         0.14767E-02
         0.32115E-03
         0.12005E-02
         0.22772E-02
         0.28203E-02
         0.24265E-02
         0.21691E-02
         0.29316E-02
        -0.10060E-02
         0.94345E-04
        -0.68939E-03
        -0.70929E-03
         0.85096E-04
        -0.77542E-03
         0.45906E-04
        -0.15185E-02
        -0.13211E-02
         0.10142E-02
        -0.17317E-02
         0.20274E-02
         0.18590E-02
         0.17175E-02
         0.91395E-03
        -0.19805E-02
        -0.23494E-02
        -0.17073E-02
        -0.14941E-02
         0.77946E-03
         0.12558E-02
         0.18672E-02
         0.28835E-02
         0.27118E-02
         0.24600E-02
         0.22358E-02
         0.16502E-02
         0.87990E-03
        -0.21374E-02
        -0.26935E-02
        -0.31291E-02
        -0.30381E-02
        -0.28750E-02
        -0.26474E-02
        -0.23746E-02
        -0.21549E-02
        -0.15084E-02
         0.93572E-03
         0.00000E+00
         0.18171E-02
         0.25928E-02
         0.32179E-02
         0.36559E-02
         0.38815E-02
         0.38815E-02
         0.36559E-02
         0.32179E-02
         0.25928E-02
         0.18171E-02
         0.93572E-03
         0.22152E-17
        -0.93572E-03
        -0.18171E-02
        -0.25928E-02
        -0.32179E-02
        -0.36559E-02
        -0.38815E-02
        -0.38815E-02
        -0.36559E-02
        -0.32179E-02
        -0.25928E-02
        -0.18171E-02
        -0.93572E-03
         0.68401E-03
         0.12440E-02
         0.60198E-03
        -0.32266E-03
         0.15609E-03
        -0.66657E-03
         0.18449E-02
         0.14777E-02
         0.32230E-03
         0.12022E-02
         0.22774E-02
         0.28198E-02
         0.24267E-02
         0.21692E-02
         0.29314E-02
        -0.10061E-02
         0.95155E-04
        -0.68866E-03
        -0.70915E-03
         0.85220E-04
        -0.77525E-03
         0.46180E-04
        -0.15185E-02
        -0.13210E-02
         0.10156E-02
        -0.17317E-02
         0.20277E-02
         0.18589E-02
         0.17175E-02
         0.91419E-03
        -0.19805E-02
        -0.23494E-02
        -0.17073E-02
        -0.14943E-02
         0.78047E-03
         0.12563E-02
         0.18672E-02
         0.28824E-02
         0.27113E-02
         0.24597E-02
         0.22358E-02
         0.16502E-02
         0.88016E-03
        -0.21374E-02
        -0.26935E-02
        -0.31291E-02
        -0.30381E-02
        -0.28751E-02
        -0.26476E-02
        -0.23748E-02
        -0.21554E-02
        -0.15083E-02
         0.93572E-03
         0.00000E+00
         0.18171E-02
         0.25928E-02
         0.32179E-02
         0.36559E-02
         0.38815E-02
         0.38815E-02
         0.36559E-02
         0.32179E-02
         0.25928E-02
         0.18171E-02
         0.93572E-03
        -0.47884E-18
        -0.93572E-03
        -0.18171E-02
        -0.25928E-02
        -0.32179E-02
        -0.36559E-02
        -0.38815E-02
        -0.38815E-02
        -0.36559E-02
        -0.32179E-02
        -0.25928E-02
        -0.18171E-02
        -0.93572E-03
         0.68457E-03
         0.12447E-02
         0.60250E-03
        -0.32191E-03
         0.15645E-03
        -0.66607E-03
         0.18451E-02
         0.14787E-02
         0.32345E-03
         0.12040E-02
         0.22775E-02
         0.28194E-02
         0.24268E-02
         0.21692E-02
         0.29311E-02
        -0.10062E-02
         0.95964E-04
        -0.68793E-03
        -0.70901E-03
         0.85343E-04
        -0.77507E-03
         0.46453E-04
        -0.15184E-02
        -0.13209E-02
         0.10169E-02
        -0.17316E-02
         0.20280E-02
         0.18588E-02
         0.17175E-02
         0.91443E-03
        -0.19806E-02
        -0.23494E-02
        -0.17073E-02
        -0.14945E-02
         0.78148E-03
         0.12567E-02
         0.18673E-02
         0.28813E-02
         0.27108E-02
         0.24595E-02
         0.22358E-02
         0.16502E-02
         0.88043E-03
        -0.21374E-02
        -0.26936E-02
        -0.31291E-02
        -0.30381E-02
        -0.28751E-02
        -0.26479E-02
        -0.23750E-02
        -0.21560E-02
        -0.15082E-02
         0.93572E-03
         0.00000E+00
         0.18171E-02
         0.25928E-02
         0.32179E-02
         0.36559E-02
         0.38815E-02
         0.38815E-02
         0.36559E-02
         0.32179E-02
         0.25928E-02
         0.18171E-02
         0.93572E-03
        -0.47884E-18
        -0.93572E-03
        -0.18171E-02
        -0.25928E-02
        -0.32179E-02
        -0.36559E-02
        -0.38815E-02
        -0.38815E-02
        -0.36559E-02
        -0.32179E-02
        -0.25928E-02
        -0.18171E-02
        -0.93572E-03
         0.68512E-03
         0.12454E-02
         0.60302E-03
        -0.32115E-03
         0.15681E-03
        -0.66558E-03
         0.18453E-02
         0.14797E-02
         0.32459E-03
         0.12058E-02
         0.22776E-02
         0.28189E-02
         0.24270E-02
         0.21693E-02
         0.29308E-02
        -0.10064E-02
         0.96773E-04
        -0.68721E-03
        -0.70887E-03
         0.85467E-04
        -0.77490E-03
         0.46726E-04
        -0.15184E-02
        -0.13208E-02
         0.10183E-02
        -0.17316E-02
         0.20283E-02
         0.18586E-02
         0.17175E-02
         0.91467E-03
        -0.19806E-02
        -0.23494E-02
        -0.17073E-02
        -0.14948E-02
         0.78248E-03
         0.12571E-02
         0.18673E-02
         0.28802E-02
         0.27103E-02
         0.24593E-02
         0.22358E-02
         0.16502E-02
         0.88069E-03
        -0.21374E-02
        -0.26936E-02
        -0.31291E-02
        -0.30381E-02
        -0.28751E-02
        -0.26482E-02
        -0.23752E-02
        -0.21565E-02
        -0.15081E-02
         0.93572E-03
         0.00000E+00
         0.18171E-02
         0.25928E-02
         0.32179E-02
         0.36559E-02
         0.38815E-02
         0.38815E-02
         0.36559E-02
         0.32179E-02
         0.25928E-02
         0.18171E-02
         0.93572E-03
        -0.47884E-18
        -0.93572E-03
        -0.18171E-02
        -0.25928E-02
        -0.32179E-02
        -0.36559E-02
        -0.38815E-02
        -0.38815E-02
        -0.36559E-02
        -0.32179E-02
        -0.25928E-02
        -0.18171E-02
        -0.93572E-03
         0.68567E-03
         0.12460E-02
         0.60355E-03
        -0.32040E-03
         0.15718E-03
        -0.66509E-03
         0.18455E-02
         0.14807E-02
         0.32574E-03
         0.12075E-02
         0.22777E-02
         0.28185E-02
         0.24271E-02
         0.21693E-02
         0.29306E-02
        -0.10065E-02
         0.97583E-04
        -0.68648E-03
        -0.70873E-03
         0.85591E-04
        -0.77474E-03
         0.47000E-04
        -0.15183E-02
        -0.13207E-02
         0.10197E-02
        -0.17316E-02
         0.20285E-02
         0.18585E-02
         0.17175E-02
         0.91491E-03
        -0.19806E-02
        -0.23495E-02
        -0.17073E-02
        -0.14950E-02
         0.78348E-03
         0.12576E-02
         0.18674E-02
         0.28792E-02
         0.27099E-02
         0.24591E-02
         0.22358E-02
         0.16502E-02
         0.88095E-03
        -0.21374E-02
        -0.26936E-02
        -0.31290E-02
        -0.30381E-02
        -0.28751E-02
        -0.26484E-02
        -0.23754E-02
        -0.21571E-02
        -0.15080E-02
         0.93572E-03
         0.00000E+00
         0.18171E-02
         0.25928E-02
         0.32179E-02
         0.36559E-02
         0.38815E-02
         0.38815E-02
         0.36559E-02
         0.32179E-02
         0.25928E-02
         0.18171E-02
         0.93572E-03
         0.47884E-18
        -0.93572E-03
        -0.18171E-02
        -0.25928E-02
        -0.32179E-02
        -0.36559E-02
        -0.38815E-02
        -0.38815E-02
        -0.36559E-02
        -0.32179E-02
        -0.25928E-02
        -0.18171E-02
        -0.93572E-03
  
SCALARS           initial_coordinate_z  double 1
LOOKUP_TABLE default
        -0.10771E-01
        -0.10771E-01
        -0.10771E-01
        -0.10771E-01
        -0.11750E-01
        -0.11750E-01
        -0.11750E-01
        -0.11750E-01
        -0.10771E-01
        -0.10771E-01
        -0.11750E-01
        -0.11750E-01
        -0.10771E-01
        -0.10771E-01
        -0.11750E-01
        -0.11750E-01
        -0.10771E-01
        -0.10771E-01
        -0.11750E-01
        -0.11750E-01
        -0.10771E-01
        -0.10771E-01
        -0.10771E-01
        -0.11750E-01
        -0.11750E-01
        -0.11750E-01
        -0.10771E-01
        -0.10771E-01
        -0.11750E-01
        -0.11750E-01
        -0.10771E-01
        -0.10771E-01
        -0.10771E-01
        -0.11750E-01
        -0.11750E-01
        -0.11750E-01
        -0.10771E-01
        -0.10771E-01
        -0.11750E-01
        -0.11750E-01
        -0.10771E-01
        -0.10771E-01
        -0.11750E-01
        -0.11750E-01
        -0.10771E-01
        -0.10771E-01
        -0.11750E-01
        -0.11750E-01
        -0.10771E-01
        -0.11750E-01
        -0.10771E-01
        -0.11750E-01
        -0.10771E-01
        -0.11750E-01
        -0.10771E-01
        -0.11750E-01
        -0.10771E-01
        -0.10771E-01
        -0.11750E-01
        -0.11750E-01
        -0.10771E-01
        -0.10771E-01
        -0.11750E-01
        -0.11750E-01
        -0.10771E-01
        -0.11750E-01
        -0.10771E-01
        -0.11750E-01
        -0.10771E-01
        -0.10771E-01
        -0.11750E-01
        -0.11750E-01
        -0.10771E-01
        -0.11750E-01
        -0.10771E-01
        -0.11750E-01
        -0.10771E-01
        -0.11750E-01
        -0.10771E-01
        -0.11750E-01
        -0.10771E-01
        -0.10771E-01
        -0.11750E-01
        -0.11750E-01
        -0.10771E-01
        -0.11750E-01
        -0.10771E-01
        -0.11750E-01
        -0.10771E-01
        -0.11750E-01
        -0.10771E-01
        -0.10771E-01
        -0.11750E-01
        -0.11750E-01
        -0.10771E-01
        -0.11750E-01
        -0.10771E-01
        -0.11750E-01
        -0.10771E-01
        -0.11750E-01
        -0.10771E-01
        -0.10771E-01
        -0.11750E-01
        -0.11750E-01
        -0.10771E-01
        -0.10771E-01
        -0.11750E-01
        -0.11750E-01
        -0.10771E-01
        -0.11750E-01
        -0.10771E-01
        -0.11750E-01
        -0.10771E-01
        -0.11750E-01
        -0.10771E-01
        -0.11750E-01
        -0.10771E-01
        -0.11750E-01
        -0.10771E-01
        -0.11750E-01
        -0.10771E-01
        -0.11750E-01
        -0.10771E-01
        -0.11750E-01
        -0.10771E-01
        -0.11750E-01
        -0.10771E-01
        -0.11750E-01
        -0.10771E-01
        -0.11750E-01
        -0.10771E-01
        -0.11750E-01
        -0.10771E-01
        -0.11750E-01
        -0.10771E-01
        -0.11750E-01
        -0.10771E-01
        -0.11750E-01
        -0.10771E-01
        -0.11750E-01
        -0.10771E-01
        -0.11750E-01
        -0.10771E-01
        -0.11750E-01
        -0.10771E-01
        -0.11750E-01
        -0.10771E-01
        -0.11750E-01
        -0.10771E-01
        -0.11750E-01
        -0.10771E-01
        -0.11750E-01
        -0.10771E-01
        -0.11750E-01
        -0.10771E-01
        -0.11750E-01
        -0.97917E-02
        -0.97917E-02
        -0.97917E-02
        -0.97917E-02
        -0.97917E-02
        -0.97917E-02
        -0.97917E-02
        -0.97917E-02
        -0.97917E-02
        -0.97917E-02
        -0.97917E-02
        -0.97917E-02
        -0.97917E-02
        -0.97917E-02
        -0.97917E-02
        -0.97917E-02
        -0.97917E-02
        -0.97917E-02
        -0.97917E-02
        -0.97917E-02
        -0.97917E-02
        -0.97917E-02
        -0.97917E-02
        -0.97917E-02
        -0.97917E-02
        -0.97917E-02
        -0.97917E-02
        -0.97917E-02
        -0.97917E-02
        -0.97917E-02
        -0.97917E-02
        -0.97917E-02
        -0.97917E-02
        -0.97917E-02
        -0.97917E-02
        -0.97917E-02
        -0.97917E-02
        -0.97917E-02
        -0.97917E-02
        -0.97917E-02
        -0.97917E-02
        -0.97917E-02
        -0.97917E-02
        -0.97917E-02
        -0.97917E-02
        -0.97917E-02
        -0.97917E-02
        -0.97917E-02
        -0.97917E-02
        -0.97917E-02
        -0.97917E-02
        -0.97917E-02
        -0.97917E-02
        -0.97917E-02
        -0.97917E-02
        -0.97917E-02
        -0.97917E-02
        -0.97917E-02
        -0.97917E-02
        -0.97917E-02
        -0.97917E-02
        -0.97917E-02
        -0.97917E-02
        -0.97917E-02
        -0.97917E-02
        -0.97917E-02
        -0.97917E-02
        -0.97917E-02
        -0.97917E-02
        -0.97917E-02
        -0.97917E-02
        -0.97917E-02
        -0.97917E-02
        -0.97917E-02
        -0.97917E-02
        -0.97917E-02
        -0.97917E-02
        -0.97917E-02
        -0.88125E-02
        -0.88125E-02
        -0.88125E-02
        -0.88125E-02
        -0.88125E-02
        -0.88125E-02
        -0.88125E-02
        -0.88125E-02
        -0.88125E-02
        -0.88125E-02
        -0.88125E-02
        -0.88125E-02
        -0.88125E-02
        -0.88125E-02
        -0.88125E-02
        -0.88125E-02
        -0.88125E-02
        -0.88125E-02
        -0.88125E-02
        -0.88125E-02
        -0.88125E-02
        -0.88125E-02
        -0.88125E-02
        -0.88125E-02
        -0.88125E-02
        -0.88125E-02
        -0.88125E-02
        -0.88125E-02
        -0.88125E-02
        -0.88125E-02
        -0.88125E-02
        -0.88125E-02
        -0.88125E-02
        -0.88125E-02
        -0.88125E-02
        -0.88125E-02
        -0.88125E-02
        -0.88125E-02
        -0.88125E-02
        -0.88125E-02
        -0.88125E-02
        -0.88125E-02
        -0.88125E-02
        -0.88125E-02
        -0.88125E-02
        -0.88125E-02
        -0.88125E-02
        -0.88125E-02
        -0.88125E-02
        -0.88125E-02
        -0.88125E-02
        -0.88125E-02
        -0.88125E-02
        -0.88125E-02
        -0.88125E-02
        -0.88125E-02
        -0.88125E-02
        -0.88125E-02
        -0.88125E-02
        -0.88125E-02
        -0.88125E-02
        -0.88125E-02
        -0.88125E-02
        -0.88125E-02
        -0.88125E-02
        -0.88125E-02
        -0.88125E-02
        -0.88125E-02
        -0.88125E-02
        -0.88125E-02
        -0.88125E-02
        -0.88125E-02
        -0.88125E-02
        -0.88125E-02
        -0.88125E-02
        -0.88125E-02
        -0.88125E-02
        -0.88125E-02
        -0.78333E-02
        -0.78333E-02
        -0.78333E-02
        -0.78333E-02
        -0.78333E-02
        -0.78333E-02
        -0.78333E-02
        -0.78333E-02
        -0.78333E-02
        -0.78333E-02
        -0.78333E-02
        -0.78333E-02
        -0.78333E-02
        -0.78333E-02
        -0.78333E-02
        -0.78333E-02
        -0.78333E-02
        -0.78333E-02
        -0.78333E-02
        -0.78333E-02
        -0.78333E-02
        -0.78333E-02
        -0.78333E-02
        -0.78333E-02
        -0.78333E-02
        -0.78333E-02
        -0.78333E-02
        -0.78333E-02
        -0.78333E-02
        -0.78333E-02
        -0.78333E-02
        -0.78333E-02
        -0.78333E-02
        -0.78333E-02
        -0.78333E-02
        -0.78333E-02
        -0.78333E-02
        -0.78333E-02
        -0.78333E-02
        -0.78333E-02
        -0.78333E-02
        -0.78333E-02
        -0.78333E-02
        -0.78333E-02
        -0.78333E-02
        -0.78333E-02
        -0.78333E-02
        -0.78333E-02
        -0.78333E-02
        -0.78333E-02
        -0.78333E-02
        -0.78333E-02
        -0.78333E-02
        -0.78333E-02
        -0.78333E-02
        -0.78333E-02
        -0.78333E-02
        -0.78333E-02
        -0.78333E-02
        -0.78333E-02
        -0.78333E-02
        -0.78333E-02
        -0.78333E-02
        -0.78333E-02
        -0.78333E-02
        -0.78333E-02
        -0.78333E-02
        -0.78333E-02
        -0.78333E-02
        -0.78333E-02
        -0.78333E-02
        -0.78333E-02
        -0.78333E-02
        -0.78333E-02
        -0.78333E-02
        -0.78333E-02
        -0.78333E-02
        -0.78333E-02
        -0.68542E-02
        -0.68542E-02
        -0.68542E-02
        -0.68542E-02
        -0.68542E-02
        -0.68542E-02
        -0.68542E-02
        -0.68542E-02
        -0.68542E-02
        -0.68542E-02
        -0.68542E-02
        -0.68542E-02
        -0.68542E-02
        -0.68542E-02
        -0.68542E-02
        -0.68542E-02
        -0.68542E-02
        -0.68542E-02
        -0.68542E-02
        -0.68542E-02
        -0.68542E-02
        -0.68542E-02
        -0.68542E-02
        -0.68542E-02
        -0.68542E-02
        -0.68542E-02
        -0.68542E-02
        -0.68542E-02
        -0.68542E-02
        -0.68542E-02
        -0.68542E-02
        -0.68542E-02
        -0.68542E-02
        -0.68542E-02
        -0.68542E-02
        -0.68542E-02
        -0.68542E-02
        -0.68542E-02
        -0.68542E-02
        -0.68542E-02
        -0.68542E-02
        -0.68542E-02
        -0.68542E-02
        -0.68542E-02
        -0.68542E-02
        -0.68542E-02
        -0.68542E-02
        -0.68542E-02
        -0.68542E-02
        -0.68542E-02
        -0.68542E-02
        -0.68542E-02
        -0.68542E-02
        -0.68542E-02
        -0.68542E-02
        -0.68542E-02
        -0.68542E-02
        -0.68542E-02
        -0.68542E-02
        -0.68542E-02
        -0.68542E-02
        -0.68542E-02
        -0.68542E-02
        -0.68542E-02
        -0.68542E-02
        -0.68542E-02
        -0.68542E-02
        -0.68542E-02
        -0.68542E-02
        -0.68542E-02
        -0.68542E-02
        -0.68542E-02
        -0.68542E-02
        -0.68542E-02
        -0.68542E-02
        -0.68542E-02
        -0.68542E-02
        -0.68542E-02
        -0.58750E-02
        -0.58750E-02
        -0.58750E-02
        -0.58750E-02
        -0.58750E-02
        -0.58750E-02
        -0.58750E-02
        -0.58750E-02
        -0.58750E-02
        -0.58750E-02
        -0.58750E-02
        -0.58750E-02
        -0.58750E-02
        -0.58750E-02
        -0.58750E-02
        -0.58750E-02
        -0.58750E-02
        -0.58750E-02
        -0.58750E-02
        -0.58750E-02
        -0.58750E-02
        -0.58750E-02
        -0.58750E-02
        -0.58750E-02
        -0.58750E-02
        -0.58750E-02
        -0.58750E-02
        -0.58750E-02
        -0.58750E-02
        -0.58750E-02
        -0.58750E-02
        -0.58750E-02
        -0.58750E-02
        -0.58750E-02
        -0.58750E-02
        -0.58750E-02
        -0.58750E-02
        -0.58750E-02
        -0.58750E-02
        -0.58750E-02
        -0.58750E-02
        -0.58750E-02
        -0.58750E-02
        -0.58750E-02
        -0.58750E-02
        -0.58750E-02
        -0.58750E-02
        -0.58750E-02
        -0.58750E-02
        -0.58750E-02
        -0.58750E-02
        -0.58750E-02
        -0.58750E-02
        -0.58750E-02
        -0.58750E-02
        -0.58750E-02
        -0.58750E-02
        -0.58750E-02
        -0.58750E-02
        -0.58750E-02
        -0.58750E-02
        -0.58750E-02
        -0.58750E-02
        -0.58750E-02
        -0.58750E-02
        -0.58750E-02
        -0.58750E-02
        -0.58750E-02
        -0.58750E-02
        -0.58750E-02
        -0.58750E-02
        -0.58750E-02
        -0.58750E-02
        -0.58750E-02
        -0.58750E-02
        -0.58750E-02
        -0.58750E-02
        -0.58750E-02
        -0.48958E-02
        -0.48958E-02
        -0.48958E-02
        -0.48958E-02
        -0.48958E-02
        -0.48958E-02
        -0.48958E-02
        -0.48958E-02
        -0.48958E-02
        -0.48958E-02
        -0.48958E-02
        -0.48958E-02
        -0.48958E-02
        -0.48958E-02
        -0.48958E-02
        -0.48958E-02
        -0.48958E-02
        -0.48958E-02
        -0.48958E-02
        -0.48958E-02
        -0.48958E-02
        -0.48958E-02
        -0.48958E-02
        -0.48958E-02
        -0.48958E-02
        -0.48958E-02
        -0.48958E-02
        -0.48958E-02
        -0.48958E-02
        -0.48958E-02
        -0.48958E-02
        -0.48958E-02
        -0.48958E-02
        -0.48958E-02
        -0.48958E-02
        -0.48958E-02
        -0.48958E-02
        -0.48958E-02
        -0.48958E-02
        -0.48958E-02
        -0.48958E-02
        -0.48958E-02
        -0.48958E-02
        -0.48958E-02
        -0.48958E-02
        -0.48958E-02
        -0.48958E-02
        -0.48958E-02
        -0.48958E-02
        -0.48958E-02
        -0.48958E-02
        -0.48958E-02
        -0.48958E-02
        -0.48958E-02
        -0.48958E-02
        -0.48958E-02
        -0.48958E-02
        -0.48958E-02
        -0.48958E-02
        -0.48958E-02
        -0.48958E-02
        -0.48958E-02
        -0.48958E-02
        -0.48958E-02
        -0.48958E-02
        -0.48958E-02
        -0.48958E-02
        -0.48958E-02
        -0.48958E-02
        -0.48958E-02
        -0.48958E-02
        -0.48958E-02
        -0.48958E-02
        -0.48958E-02
        -0.48958E-02
        -0.48958E-02
        -0.48958E-02
        -0.48958E-02
        -0.39167E-02
        -0.39167E-02
        -0.39167E-02
        -0.39167E-02
        -0.39167E-02
        -0.39167E-02
        -0.39167E-02
        -0.39167E-02
        -0.39167E-02
        -0.39167E-02
        -0.39167E-02
        -0.39167E-02
        -0.39167E-02
        -0.39167E-02
        -0.39167E-02
        -0.39167E-02
        -0.39167E-02
        -0.39167E-02
        -0.39167E-02
        -0.39167E-02
        -0.39167E-02
        -0.39167E-02
        -0.39167E-02
        -0.39167E-02
        -0.39167E-02
        -0.39167E-02
        -0.39167E-02
        -0.39167E-02
        -0.39167E-02
        -0.39167E-02
        -0.39167E-02
        -0.39167E-02
        -0.39167E-02
        -0.39167E-02
        -0.39167E-02
        -0.39167E-02
        -0.39167E-02
        -0.39167E-02
        -0.39167E-02
        -0.39167E-02
        -0.39167E-02
        -0.39167E-02
        -0.39167E-02
        -0.39167E-02
        -0.39167E-02
        -0.39167E-02
        -0.39167E-02
        -0.39167E-02
        -0.39167E-02
        -0.39167E-02
        -0.39167E-02
        -0.39167E-02
        -0.39167E-02
        -0.39167E-02
        -0.39167E-02
        -0.39167E-02
        -0.39167E-02
        -0.39167E-02
        -0.39167E-02
        -0.39167E-02
        -0.39167E-02
        -0.39167E-02
        -0.39167E-02
        -0.39167E-02
        -0.39167E-02
        -0.39167E-02
        -0.39167E-02
        -0.39167E-02
        -0.39167E-02
        -0.39167E-02
        -0.39167E-02
        -0.39167E-02
        -0.39167E-02
        -0.39167E-02
        -0.39167E-02
        -0.39167E-02
        -0.39167E-02
        -0.39167E-02
        -0.29375E-02
        -0.29375E-02
        -0.29375E-02
        -0.29375E-02
        -0.29375E-02
        -0.29375E-02
        -0.29375E-02
        -0.29375E-02
        -0.29375E-02
        -0.29375E-02
        -0.29375E-02
        -0.29375E-02
        -0.29375E-02
        -0.29375E-02
        -0.29375E-02
        -0.29375E-02
        -0.29375E-02
        -0.29375E-02
        -0.29375E-02
        -0.29375E-02
        -0.29375E-02
        -0.29375E-02
        -0.29375E-02
        -0.29375E-02
        -0.29375E-02
        -0.29375E-02
        -0.29375E-02
        -0.29375E-02
        -0.29375E-02
        -0.29375E-02
        -0.29375E-02
        -0.29375E-02
        -0.29375E-02
        -0.29375E-02
        -0.29375E-02
        -0.29375E-02
        -0.29375E-02
        -0.29375E-02
        -0.29375E-02
        -0.29375E-02
        -0.29375E-02
        -0.29375E-02
        -0.29375E-02
        -0.29375E-02
        -0.29375E-02
        -0.29375E-02
        -0.29375E-02
        -0.29375E-02
        -0.29375E-02
        -0.29375E-02
        -0.29375E-02
        -0.29375E-02
        -0.29375E-02
        -0.29375E-02
        -0.29375E-02
        -0.29375E-02
        -0.29375E-02
        -0.29375E-02
        -0.29375E-02
        -0.29375E-02
        -0.29375E-02
        -0.29375E-02
        -0.29375E-02
        -0.29375E-02
        -0.29375E-02
        -0.29375E-02
        -0.29375E-02
        -0.29375E-02
        -0.29375E-02
        -0.29375E-02
        -0.29375E-02
        -0.29375E-02
        -0.29375E-02
        -0.29375E-02
        -0.29375E-02
        -0.29375E-02
        -0.29375E-02
        -0.29375E-02
        -0.19583E-02
        -0.19583E-02
        -0.19583E-02
        -0.19583E-02
        -0.19583E-02
        -0.19583E-02
        -0.19583E-02
        -0.19583E-02
        -0.19583E-02
        -0.19583E-02
        -0.19583E-02
        -0.19583E-02
        -0.19583E-02
        -0.19583E-02
        -0.19583E-02
        -0.19583E-02
        -0.19583E-02
        -0.19583E-02
        -0.19583E-02
        -0.19583E-02
        -0.19583E-02
        -0.19583E-02
        -0.19583E-02
        -0.19583E-02
        -0.19583E-02
        -0.19583E-02
        -0.19583E-02
        -0.19583E-02
        -0.19583E-02
        -0.19583E-02
        -0.19583E-02
        -0.19583E-02
        -0.19583E-02
        -0.19583E-02
        -0.19583E-02
        -0.19583E-02
        -0.19583E-02
        -0.19583E-02
        -0.19583E-02
        -0.19583E-02
        -0.19583E-02
        -0.19583E-02
        -0.19583E-02
        -0.19583E-02
        -0.19583E-02
        -0.19583E-02
        -0.19583E-02
        -0.19583E-02
        -0.19583E-02
        -0.19583E-02
        -0.19583E-02
        -0.19583E-02
        -0.19583E-02
        -0.19583E-02
        -0.19583E-02
        -0.19583E-02
        -0.19583E-02
        -0.19583E-02
        -0.19583E-02
        -0.19583E-02
        -0.19583E-02
        -0.19583E-02
        -0.19583E-02
        -0.19583E-02
        -0.19583E-02
        -0.19583E-02
        -0.19583E-02
        -0.19583E-02
        -0.19583E-02
        -0.19583E-02
        -0.19583E-02
        -0.19583E-02
        -0.19583E-02
        -0.19583E-02
        -0.19583E-02
        -0.19583E-02
        -0.19583E-02
        -0.19583E-02
        -0.97917E-03
        -0.97917E-03
        -0.97917E-03
        -0.97917E-03
        -0.97917E-03
        -0.97917E-03
        -0.97917E-03
        -0.97917E-03
        -0.97917E-03
        -0.97917E-03
        -0.97917E-03
        -0.97917E-03
        -0.97917E-03
        -0.97917E-03
        -0.97917E-03
        -0.97917E-03
        -0.97917E-03
        -0.97917E-03
        -0.97917E-03
        -0.97917E-03
        -0.97917E-03
        -0.97917E-03
        -0.97917E-03
        -0.97917E-03
        -0.97917E-03
        -0.97917E-03
        -0.97917E-03
        -0.97917E-03
        -0.97917E-03
        -0.97917E-03
        -0.97917E-03
        -0.97917E-03
        -0.97917E-03
        -0.97917E-03
        -0.97917E-03
        -0.97917E-03
        -0.97917E-03
        -0.97917E-03
        -0.97917E-03
        -0.97917E-03
        -0.97917E-03
        -0.97917E-03
        -0.97917E-03
        -0.97917E-03
        -0.97917E-03
        -0.97917E-03
        -0.97917E-03
        -0.97917E-03
        -0.97917E-03
        -0.97917E-03
        -0.97917E-03
        -0.97917E-03
        -0.97917E-03
        -0.97917E-03
        -0.97917E-03
        -0.97917E-03
        -0.97917E-03
        -0.97917E-03
        -0.97917E-03
        -0.97917E-03
        -0.97917E-03
        -0.97917E-03
        -0.97917E-03
        -0.97917E-03
        -0.97917E-03
        -0.97917E-03
        -0.97917E-03
        -0.97917E-03
        -0.97917E-03
        -0.97917E-03
        -0.97917E-03
        -0.97917E-03
        -0.97917E-03
        -0.97917E-03
        -0.97917E-03
        -0.97917E-03
        -0.97917E-03
        -0.97917E-03
         0.38917E-18
         0.44621E-18
         0.34485E-18
         0.23671E-18
         0.26613E-18
         0.16162E-18
         0.53980E-18
         0.50579E-18
         0.36337E-18
         0.48798E-18
         0.60712E-18
         0.67611E-18
         0.60634E-18
         0.60658E-18
         0.70997E-18
         0.20892E-18
         0.35894E-18
         0.21887E-18
         0.27638E-18
         0.38382E-18
         0.29058E-18
         0.40326E-18
         0.18564E-18
         0.19650E-18
         0.48570E-18
         0.12837E-18
         0.60589E-18
         0.60416E-18
         0.60524E-18
         0.49621E-18
         0.61582E-19
         0.32255E-19
         0.73874E-19
         0.78478E-19
         0.34514E-18
         0.42054E-18
         0.51644E-18
         0.72521E-18
         0.72233E-18
         0.70722E-18
         0.69126E-18
         0.61573E-18
         0.51484E-18
         0.91170E-19
         0.30347E-20
        -0.66516E-19
        -0.69988E-19
        -0.68643E-19
        -0.59779E-19
        -0.43507E-19
        -0.29471E-19
         0.53205E-19
         0.86819E-18
         0.00000E+00
         0.86819E-18
         0.86819E-18
         0.00000E+00
         0.00000E+00
         0.00000E+00
         0.17364E-17
         0.17364E-17
         0.17364E-17
         0.43410E-18
         0.43410E-18
         0.43410E-18
         0.00000E+00
         0.00000E+00
         0.00000E+00
         0.00000E+00
         0.00000E+00
         0.21705E-18
        -0.21705E-18
         0.00000E+00
         0.00000E+00
         0.00000E+00
        -0.32557E-18
         0.54262E-19
        -0.40697E-18
         0.97917E-03
         0.97917E-03
         0.97917E-03
         0.97917E-03
         0.97917E-03
         0.97917E-03
         0.97917E-03
         0.97917E-03
         0.97917E-03
         0.97917E-03
         0.97917E-03
         0.97917E-03
         0.97917E-03
         0.97917E-03
         0.97917E-03
         0.97917E-03
         0.97917E-03
         0.97917E-03
         0.97917E-03
         0.97917E-03
         0.97917E-03
         0.97917E-03
         0.97917E-03
         0.97917E-03
         0.97917E-03
         0.97917E-03
         0.97917E-03
         0.97917E-03
         0.97917E-03
         0.97917E-03
         0.97917E-03
         0.97917E-03
         0.97917E-03
         0.97917E-03
         0.97917E-03
         0.97917E-03
         0.97917E-03
         0.97917E-03
         0.97917E-03
         0.97917E-03
         0.97917E-03
         0.97917E-03
         0.97917E-03
         0.97917E-03
         0.97917E-03
         0.97917E-03
         0.97917E-03
         0.97917E-03
         0.97917E-03
         0.97917E-03
         0.97917E-03
         0.97917E-03
         0.97917E-03
         0.97917E-03
         0.97917E-03
         0.97917E-03
         0.97917E-03
         0.97917E-03
         0.97917E-03
         0.97917E-03
         0.97917E-03
         0.97917E-03
         0.97917E-03
         0.97917E-03
         0.97917E-03
         0.97917E-03
         0.97917E-03
         0.97917E-03
         0.97917E-03
         0.97917E-03
         0.97917E-03
         0.97917E-03
         0.97917E-03
         0.97917E-03
         0.97917E-03
         0.97917E-03
         0.97917E-03
         0.97917E-03
         0.19583E-02
         0.19583E-02
         0.19583E-02
         0.19583E-02
         0.19583E-02
         0.19583E-02
         0.19583E-02
         0.19583E-02
         0.19583E-02
         0.19583E-02
         0.19583E-02
         0.19583E-02
         0.19583E-02
         0.19583E-02
         0.19583E-02
         0.19583E-02
         0.19583E-02
         0.19583E-02
         0.19583E-02
         0.19583E-02
         0.19583E-02
         0.19583E-02
         0.19583E-02
         0.19583E-02
         0.19583E-02
         0.19583E-02
         0.19583E-02
         0.19583E-02
         0.19583E-02
         0.19583E-02
         0.19583E-02
         0.19583E-02
         0.19583E-02
         0.19583E-02
         0.19583E-02
         0.19583E-02
         0.19583E-02
         0.19583E-02
         0.19583E-02
         0.19583E-02
         0.19583E-02
         0.19583E-02
         0.19583E-02
         0.19583E-02
         0.19583E-02
         0.19583E-02
         0.19583E-02
         0.19583E-02
         0.19583E-02
         0.19583E-02
         0.19583E-02
         0.19583E-02
         0.19583E-02
         0.19583E-02
         0.19583E-02
         0.19583E-02
         0.19583E-02
         0.19583E-02
         0.19583E-02
         0.19583E-02
         0.19583E-02
         0.19583E-02
         0.19583E-02
         0.19583E-02
         0.19583E-02
         0.19583E-02
         0.19583E-02
         0.19583E-02
         0.19583E-02
         0.19583E-02
         0.19583E-02
         0.19583E-02
         0.19583E-02
         0.19583E-02
         0.19583E-02
         0.19583E-02
         0.19583E-02
         0.19583E-02
         0.29375E-02
         0.29375E-02
         0.29375E-02
         0.29375E-02
         0.29375E-02
         0.29375E-02
         0.29375E-02
         0.29375E-02
         0.29375E-02
         0.29375E-02
         0.29375E-02
         0.29375E-02
         0.29375E-02
         0.29375E-02
         0.29375E-02
         0.29375E-02
         0.29375E-02
         0.29375E-02
         0.29375E-02
         0.29375E-02
         0.29375E-02
         0.29375E-02
         0.29375E-02
         0.29375E-02
         0.29375E-02
         0.29375E-02
         0.29375E-02
         0.29375E-02
         0.29375E-02
         0.29375E-02
         0.29375E-02
         0.29375E-02
         0.29375E-02
         0.29375E-02
         0.29375E-02
         0.29375E-02
         0.29375E-02
         0.29375E-02
         0.29375E-02
         0.29375E-02
         0.29375E-02
         0.29375E-02
         0.29375E-02
         0.29375E-02
         0.29375E-02
         0.29375E-02
         0.29375E-02
         0.29375E-02
         0.29375E-02
         0.29375E-02
         0.29375E-02
         0.29375E-02
         0.29375E-02
         0.29375E-02
         0.29375E-02
         0.29375E-02
         0.29375E-02
         0.29375E-02
         0.29375E-02
         0.29375E-02
         0.29375E-02
         0.29375E-02
         0.29375E-02
         0.29375E-02
         0.29375E-02
         0.29375E-02
         0.29375E-02
         0.29375E-02
         0.29375E-02
         0.29375E-02
         0.29375E-02
         0.29375E-02
         0.29375E-02
         0.29375E-02
         0.29375E-02
         0.29375E-02
         0.29375E-02
         0.29375E-02
         0.39167E-02
         0.39167E-02
         0.39167E-02
         0.39167E-02
         0.39167E-02
         0.39167E-02
         0.39167E-02
         0.39167E-02
         0.39167E-02
         0.39167E-02
         0.39167E-02
         0.39167E-02
         0.39167E-02
         0.39167E-02
         0.39167E-02
         0.39167E-02
         0.39167E-02
         0.39167E-02
         0.39167E-02
         0.39167E-02
         0.39167E-02
         0.39167E-02
         0.39167E-02
         0.39167E-02
         0.39167E-02
         0.39167E-02
         0.39167E-02
         0.39167E-02
         0.39167E-02
         0.39167E-02
         0.39167E-02
         0.39167E-02
         0.39167E-02
         0.39167E-02
         0.39167E-02
         0.39167E-02
         0.39167E-02
         0.39167E-02
         0.39167E-02
         0.39167E-02
         0.39167E-02
         0.39167E-02
         0.39167E-02
         0.39167E-02
         0.39167E-02
         0.39167E-02
         0.39167E-02
         0.39167E-02
         0.39167E-02
         0.39167E-02
         0.39167E-02
         0.39167E-02
         0.39167E-02
         0.39167E-02
         0.39167E-02
         0.39167E-02
         0.39167E-02
         0.39167E-02
         0.39167E-02
         0.39167E-02
         0.39167E-02
         0.39167E-02
         0.39167E-02
         0.39167E-02
         0.39167E-02
         0.39167E-02
         0.39167E-02
         0.39167E-02
         0.39167E-02
         0.39167E-02
         0.39167E-02
         0.39167E-02
         0.39167E-02
         0.39167E-02
         0.39167E-02
         0.39167E-02
         0.39167E-02
         0.39167E-02
         0.48958E-02
         0.48958E-02
         0.48958E-02
         0.48958E-02
         0.48958E-02
         0.48958E-02
         0.48958E-02
         0.48958E-02
         0.48958E-02
         0.48958E-02
         0.48958E-02
         0.48958E-02
         0.48958E-02
         0.48958E-02
         0.48958E-02
         0.48958E-02
         0.48958E-02
         0.48958E-02
         0.48958E-02
         0.48958E-02
         0.48958E-02
         0.48958E-02
         0.48958E-02
         0.48958E-02
         0.48958E-02
         0.48958E-02
         0.48958E-02
         0.48958E-02
         0.48958E-02
         0.48958E-02
         0.48958E-02
         0.48958E-02
         0.48958E-02
         0.48958E-02
         0.48958E-02
         0.48958E-02
         0.48958E-02
         0.48958E-02
         0.48958E-02
         0.48958E-02
         0.48958E-02
         0.48958E-02
         0.48958E-02
         0.48958E-02
         0.48958E-02
         0.48958E-02
         0.48958E-02
         0.48958E-02
         0.48958E-02
         0.48958E-02
         0.48958E-02
         0.48958E-02
         0.48958E-02
         0.48958E-02
         0.48958E-02
         0.48958E-02
         0.48958E-02
         0.48958E-02
         0.48958E-02
         0.48958E-02
         0.48958E-02
         0.48958E-02
         0.48958E-02
         0.48958E-02
         0.48958E-02
         0.48958E-02
         0.48958E-02
         0.48958E-02
         0.48958E-02
         0.48958E-02
         0.48958E-02
         0.48958E-02
         0.48958E-02
         0.48958E-02
         0.48958E-02
         0.48958E-02
         0.48958E-02
         0.48958E-02
         0.58750E-02
         0.58750E-02
         0.58750E-02
         0.58750E-02
         0.58750E-02
         0.58750E-02
         0.58750E-02
         0.58750E-02
         0.58750E-02
         0.58750E-02
         0.58750E-02
         0.58750E-02
         0.58750E-02
         0.58750E-02
         0.58750E-02
         0.58750E-02
         0.58750E-02
         0.58750E-02
         0.58750E-02
         0.58750E-02
         0.58750E-02
         0.58750E-02
         0.58750E-02
         0.58750E-02
         0.58750E-02
         0.58750E-02
         0.58750E-02
         0.58750E-02
         0.58750E-02
         0.58750E-02
         0.58750E-02
         0.58750E-02
         0.58750E-02
         0.58750E-02
         0.58750E-02
         0.58750E-02
         0.58750E-02
         0.58750E-02
         0.58750E-02
         0.58750E-02
         0.58750E-02
         0.58750E-02
         0.58750E-02
         0.58750E-02
         0.58750E-02
         0.58750E-02
         0.58750E-02
         0.58750E-02
         0.58750E-02
         0.58750E-02
         0.58750E-02
         0.58750E-02
         0.58750E-02
         0.58750E-02
         0.58750E-02
         0.58750E-02
         0.58750E-02
         0.58750E-02
         0.58750E-02
         0.58750E-02
         0.58750E-02
         0.58750E-02
         0.58750E-02
         0.58750E-02
         0.58750E-02
         0.58750E-02
         0.58750E-02
         0.58750E-02
         0.58750E-02
         0.58750E-02
         0.58750E-02
         0.58750E-02
         0.58750E-02
         0.58750E-02
         0.58750E-02
         0.58750E-02
         0.58750E-02
         0.58750E-02
         0.68542E-02
         0.68542E-02
         0.68542E-02
         0.68542E-02
         0.68542E-02
         0.68542E-02
         0.68542E-02
         0.68542E-02
         0.68542E-02
         0.68542E-02
         0.68542E-02
         0.68542E-02
         0.68542E-02
         0.68542E-02
         0.68542E-02
         0.68542E-02
         0.68542E-02
         0.68542E-02
         0.68542E-02
         0.68542E-02
         0.68542E-02
         0.68542E-02
         0.68542E-02
         0.68542E-02
         0.68542E-02
         0.68542E-02
         0.68542E-02
         0.68542E-02
         0.68542E-02
         0.68542E-02
         0.68542E-02
         0.68542E-02
         0.68542E-02
         0.68542E-02
         0.68542E-02
         0.68542E-02
         0.68542E-02
         0.68542E-02
         0.68542E-02
         0.68542E-02
         0.68542E-02
         0.68542E-02
         0.68542E-02
         0.68542E-02
         0.68542E-02
         0.68542E-02
         0.68542E-02
         0.68542E-02
         0.68542E-02
         0.68542E-02
         0.68542E-02
         0.68542E-02
         0.68542E-02
         0.68542E-02
         0.68542E-02
         0.68542E-02
         0.68542E-02
         0.68542E-02
         0.68542E-02
         0.68542E-02
         0.68542E-02
         0.68542E-02
         0.68542E-02
         0.68542E-02
         0.68542E-02
         0.68542E-02
         0.68542E-02
         0.68542E-02
         0.68542E-02
         0.68542E-02
         0.68542E-02
         0.68542E-02
         0.68542E-02
         0.68542E-02
         0.68542E-02
         0.68542E-02
         0.68542E-02
         0.68542E-02
         0.78333E-02
         0.78333E-02
         0.78333E-02
         0.78333E-02
         0.78333E-02
         0.78333E-02
         0.78333E-02
         0.78333E-02
         0.78333E-02
         0.78333E-02
         0.78333E-02
         0.78333E-02
         0.78333E-02
         0.78333E-02
         0.78333E-02
         0.78333E-02
         0.78333E-02
         0.78333E-02
         0.78333E-02
         0.78333E-02
         0.78333E-02
         0.78333E-02
         0.78333E-02
         0.78333E-02
         0.78333E-02
         0.78333E-02
         0.78333E-02
         0.78333E-02
         0.78333E-02
         0.78333E-02
         0.78333E-02
         0.78333E-02
         0.78333E-02
         0.78333E-02
         0.78333E-02
         0.78333E-02
         0.78333E-02
         0.78333E-02
         0.78333E-02
         0.78333E-02
         0.78333E-02
         0.78333E-02
         0.78333E-02
         0.78333E-02
         0.78333E-02
         0.78333E-02
         0.78333E-02
         0.78333E-02
         0.78333E-02
         0.78333E-02
         0.78333E-02
         0.78333E-02
         0.78333E-02
         0.78333E-02
         0.78333E-02
         0.78333E-02
         0.78333E-02
         0.78333E-02
         0.78333E-02
         0.78333E-02
         0.78333E-02
         0.78333E-02
         0.78333E-02
         0.78333E-02
         0.78333E-02
         0.78333E-02
         0.78333E-02
         0.78333E-02
         0.78333E-02
         0.78333E-02
         0.78333E-02
         0.78333E-02
         0.78333E-02
         0.78333E-02
         0.78333E-02
         0.78333E-02
         0.78333E-02
         0.78333E-02
         0.88125E-02
         0.88125E-02
         0.88125E-02
         0.88125E-02
         0.88125E-02
         0.88125E-02
         0.88125E-02
         0.88125E-02
         0.88125E-02
         0.88125E-02
         0.88125E-02
         0.88125E-02
         0.88125E-02
         0.88125E-02
         0.88125E-02
         0.88125E-02
         0.88125E-02
         0.88125E-02
         0.88125E-02
         0.88125E-02
         0.88125E-02
         0.88125E-02
         0.88125E-02
         0.88125E-02
         0.88125E-02
         0.88125E-02
         0.88125E-02
         0.88125E-02
         0.88125E-02
         0.88125E-02
         0.88125E-02
         0.88125E-02
         0.88125E-02
         0.88125E-02
         0.88125E-02
         0.88125E-02
         0.88125E-02
         0.88125E-02
         0.88125E-02
         0.88125E-02
         0.88125E-02
         0.88125E-02
         0.88125E-02
         0.88125E-02
         0.88125E-02
         0.88125E-02
         0.88125E-02
         0.88125E-02
         0.88125E-02
         0.88125E-02
         0.88125E-02
         0.88125E-02
         0.88125E-02
         0.88125E-02
         0.88125E-02
         0.88125E-02
         0.88125E-02
         0.88125E-02
         0.88125E-02
         0.88125E-02
         0.88125E-02
         0.88125E-02
         0.88125E-02
         0.88125E-02
         0.88125E-02
         0.88125E-02
         0.88125E-02
         0.88125E-02
         0.88125E-02
         0.88125E-02
         0.88125E-02
         0.88125E-02
         0.88125E-02
         0.88125E-02
         0.88125E-02
         0.88125E-02
         0.88125E-02
         0.88125E-02
         0.97917E-02
         0.97917E-02
         0.97917E-02
         0.97917E-02
         0.97917E-02
         0.97917E-02
         0.97917E-02
         0.97917E-02
         0.97917E-02
         0.97917E-02
         0.97917E-02
         0.97917E-02
         0.97917E-02
         0.97917E-02
         0.97917E-02
         0.97917E-02
         0.97917E-02
         0.97917E-02
         0.97917E-02
         0.97917E-02
         0.97917E-02
         0.97917E-02
         0.97917E-02
         0.97917E-02
         0.97917E-02
         0.97917E-02
         0.97917E-02
         0.97917E-02
         0.97917E-02
         0.97917E-02
         0.97917E-02
         0.97917E-02
         0.97917E-02
         0.97917E-02
         0.97917E-02
         0.97917E-02
         0.97917E-02
         0.97917E-02
         0.97917E-02
         0.97917E-02
         0.97917E-02
         0.97917E-02
         0.97917E-02
         0.97917E-02
         0.97917E-02
         0.97917E-02
         0.97917E-02
         0.97917E-02
         0.97917E-02
         0.97917E-02
         0.97917E-02
         0.97917E-02
         0.97917E-02
         0.97917E-02
         0.97917E-02
         0.97917E-02
         0.97917E-02
         0.97917E-02
         0.97917E-02
         0.97917E-02
         0.97917E-02
         0.97917E-02
         0.97917E-02
         0.97917E-02
         0.97917E-02
         0.97917E-02
         0.97917E-02
         0.97917E-02
         0.97917E-02
         0.97917E-02
         0.97917E-02
         0.97917E-02
         0.97917E-02
         0.97917E-02
         0.97917E-02
         0.97917E-02
         0.97917E-02
         0.97917E-02
         0.10771E-01
         0.10771E-01
         0.10771E-01
         0.10771E-01
         0.10771E-01
         0.10771E-01
         0.10771E-01
         0.10771E-01
         0.10771E-01
         0.10771E-01
         0.10771E-01
         0.10771E-01
         0.10771E-01
         0.10771E-01
         0.10771E-01
         0.10771E-01
         0.10771E-01
         0.10771E-01
         0.10771E-01
         0.10771E-01
         0.10771E-01
         0.10771E-01
         0.10771E-01
         0.10771E-01
         0.10771E-01
         0.10771E-01
         0.10771E-01
         0.10771E-01
         0.10771E-01
         0.10771E-01
         0.10771E-01
         0.10771E-01
         0.10771E-01
         0.10771E-01
         0.10771E-01
         0.10771E-01
         0.10771E-01
         0.10771E-01
         0.10771E-01
         0.10771E-01
         0.10771E-01
         0.10771E-01
         0.10771E-01
         0.10771E-01
         0.10771E-01
         0.10771E-01
         0.10771E-01
         0.10771E-01
         0.10771E-01
         0.10771E-01
         0.10771E-01
         0.10771E-01
         0.10771E-01
         0.10771E-01
         0.10771E-01
         0.10771E-01
         0.10771E-01
         0.10771E-01
         0.10771E-01
         0.10771E-01
         0.10771E-01
         0.10771E-01
         0.10771E-01
         0.10771E-01
         0.10771E-01
         0.10771E-01
         0.10771E-01
         0.10771E-01
         0.10771E-01
         0.10771E-01
         0.10771E-01
         0.10771E-01
         0.10771E-01
         0.10771E-01
         0.10771E-01
         0.10771E-01
         0.10771E-01
         0.10771E-01
         0.11750E-01
         0.11750E-01
         0.11750E-01
         0.11750E-01
         0.11750E-01
         0.11750E-01
         0.11750E-01
         0.11750E-01
         0.11750E-01
         0.11750E-01
         0.11750E-01
         0.11750E-01
         0.11750E-01
         0.11750E-01
         0.11750E-01
         0.11750E-01
         0.11750E-01
         0.11750E-01
         0.11750E-01
         0.11750E-01
         0.11750E-01
         0.11750E-01
         0.11750E-01
         0.11750E-01
         0.11750E-01
         0.11750E-01
         0.11750E-01
         0.11750E-01
         0.11750E-01
         0.11750E-01
         0.11750E-01
         0.11750E-01
         0.11750E-01
         0.11750E-01
         0.11750E-01
         0.11750E-01
         0.11750E-01
         0.11750E-01
         0.11750E-01
         0.11750E-01
         0.11750E-01
         0.11750E-01
         0.11750E-01
         0.11750E-01
         0.11750E-01
         0.11750E-01
         0.11750E-01
         0.11750E-01
         0.11750E-01
         0.11750E-01
         0.11750E-01
         0.11750E-01
         0.11750E-01
         0.11750E-01
         0.11750E-01
         0.11750E-01
         0.11750E-01
         0.11750E-01
         0.11750E-01
         0.11750E-01
         0.11750E-01
         0.11750E-01
         0.11750E-01
         0.11750E-01
         0.11750E-01
         0.11750E-01
         0.11750E-01
         0.11750E-01
         0.11750E-01
         0.11750E-01
         0.11750E-01
         0.11750E-01
         0.11750E-01
         0.11750E-01
         0.11750E-01
         0.11750E-01
         0.11750E-01
         0.11750E-01
  
SCALARS                init_velocity_x  double 1
LOOKUP_TABLE default
         0.00000E+00
         0.00000E+00
         0.00000E+00
         0.00000E+00
         0.00000E+00
         0.00000E+00
         0.00000E+00
         0.00000E+00
         0.00000E+00
         0.00000E+00
         0.00000E+00
         0.00000E+00
         0.00000E+00
         0.00000E+00
         0.00000E+00
         0.00000E+00
         0.00000E+00
         0.00000E+00
         0.00000E+00
         0.00000E+00
         0.00000E+00
         0.00000E+00
         0.00000E+00
         0.00000E+00
         0.00000E+00
         0.00000E+00
         0.00000E+00
         0.00000E+00
         0.00000E+00
         0.00000E+00
         0.00000E+00
         0.00000E+00
         0.00000E+00
         0.00000E+00
         0.00000E+00
         0.00000E+00
         0.00000E+00
         0.00000E+00
         0.00000E+00
         0.00000E+00
         0.00000E+00
         0.00000E+00
         0.00000E+00
         0.00000E+00
         0.00000E+00
         0.00000E+00
         0.00000E+00
         0.00000E+00
         0.00000E+00
         0.00000E+00
         0.00000E+00
         0.00000E+00
         0.00000E+00
         0.00000E+00
         0.00000E+00
         0.00000E+00
         0.00000E+00
         0.00000E+00
         0.00000E+00
         0.00000E+00
         0.00000E+00
         0.00000E+00
         0.00000E+00
         0.00000E+00
         0.00000E+00
         0.00000E+00
         0.00000E+00
         0.00000E+00
         0.00000E+00
         0.00000E+00
         0.00000E+00
         0.00000E+00
         0.00000E+00
         0.00000E+00
         0.00000E+00
         0.00000E+00
         0.00000E+00
         0.00000E+00
         0.00000E+00
         0.00000E+00
         0.00000E+00
         0.00000E+00
         0.00000E+00
         0.00000E+00
         0.00000E+00
         0.00000E+00
         0.00000E+00
         0.00000E+00
         0.00000E+00
         0.00000E+00
         0.00000E+00
         0.00000E+00
         0.00000E+00
         0.00000E+00
         0.00000E+00
         0.00000E+00
         0.00000E+00
         0.00000E+00
         0.00000E+00
         0.00000E+00
         0.00000E+00
         0.00000E+00
         0.00000E+00
         0.00000E+00
         0.00000E+00
         0.00000E+00
         0.00000E+00
         0.00000E+00
         0.00000E+00
         0.00000E+00
         0.00000E+00
         0.00000E+00
         0.00000E+00
         0.00000E+00
         0.00000E+00
         0.00000E+00
         0.00000E+00
         0.00000E+00
         0.00000E+00
         0.00000E+00
         0.00000E+00
         0.00000E+00
         0.00000E+00
         0.00000E+00
         0.00000E+00
         0.00000E+00
         0.00000E+00
         0.00000E+00
         0.00000E+00
         0.00000E+00
         0.00000E+00
         0.00000E+00
         0.00000E+00
         0.00000E+00
         0.00000E+00
         0.00000E+00
         0.00000E+00
         0.00000E+00
         0.00000E+00
         0.00000E+00
         0.00000E+00
         0.00000E+00
         0.00000E+00
         0.00000E+00
         0.00000E+00
         0.00000E+00
         0.00000E+00
         0.00000E+00
         0.00000E+00
         0.00000E+00
         0.00000E+00
         0.00000E+00
         0.00000E+00
         0.00000E+00
         0.00000E+00
         0.00000E+00
         0.00000E+00
         0.00000E+00
         0.00000E+00
         0.00000E+00
         0.00000E+00
         0.00000E+00
         0.00000E+00
         0.00000E+00
         0.00000E+00
         0.00000E+00
         0.00000E+00
         0.00000E+00
         0.00000E+00
         0.00000E+00
         0.00000E+00
         0.00000E+00
         0.00000E+00
         0.00000E+00
         0.00000E+00
         0.00000E+00
         0.00000E+00
         0.00000E+00
         0.00000E+00
         0.00000E+00
         0.00000E+00
         0.00000E+00
         0.00000E+00
         0.00000E+00
         0.00000E+00
         0.00000E+00
         0.00000E+00
         0.00000E+00
         0.00000E+00
         0.00000E+00
         0.00000E+00
         0.00000E+00
         0.00000E+00
         0.00000E+00
         0.00000E+00
         0.00000E+00
         0.00000E+00
         0.00000E+00
         0.00000E+00
         0.00000E+00
         0.00000E+00
         0.00000E+00
         0.00000E+00
         0.00000E+00
         0.00000E+00
         0.00000E+00
         0.00000E+00
         0.00000E+00
         0.00000E+00
         0.00000E+00
         0.00000E+00
         0.00000E+00
         0.00000E+00
         0.00000E+00
         0.00000E+00
         0.00000E+00
         0.00000E+00
         0.00000E+00
         0.00000E+00
         0.00000E+00
         0.00000E+00
         0.00000E+00
         0.00000E+00
         0.00000E+00
         0.00000E+00
         0.00000E+00
         0.00000E+00
         0.00000E+00
         0.00000E+00
         0.00000E+00
         0.00000E+00
         0.00000E+00
         0.00000E+00
         0.00000E+00
         0.00000E+00
         0.00000E+00
         0.00000E+00
         0.00000E+00
         0.00000E+00
         0.00000E+00
         0.00000E+00
         0.00000E+00
         0.00000E+00
         0.00000E+00
         0.00000E+00
         0.00000E+00
         0.00000E+00
         0.00000E+00
         0.00000E+00
         0.00000E+00
         0.00000E+00
         0.00000E+00
         0.00000E+00
         0.00000E+00
         0.00000E+00
         0.00000E+00
         0.00000E+00
         0.00000E+00
         0.00000E+00
         0.00000E+00
         0.00000E+00
         0.00000E+00
         0.00000E+00
         0.00000E+00
         0.00000E+00
         0.00000E+00
         0.00000E+00
         0.00000E+00
         0.00000E+00
         0.00000E+00
         0.00000E+00
         0.00000E+00
         0.00000E+00
         0.00000E+00
         0.00000E+00
         0.00000E+00
         0.00000E+00
         0.00000E+00
         0.00000E+00
         0.00000E+00
         0.00000E+00
         0.00000E+00
         0.00000E+00
         0.00000E+00
         0.00000E+00
         0.00000E+00
         0.00000E+00
         0.00000E+00
         0.00000E+00
         0.00000E+00
         0.00000E+00
         0.00000E+00
         0.00000E+00
         0.00000E+00
         0.00000E+00
         0.00000E+00
         0.00000E+00
         0.00000E+00
         0.00000E+00
         0.00000E+00
         0.00000E+00
         0.00000E+00
         0.00000E+00
         0.00000E+00
         0.00000E+00
         0.00000E+00
         0.00000E+00
         0.00000E+00
         0.00000E+00
         0.00000E+00
         0.00000E+00
         0.00000E+00
         0.00000E+00
         0.00000E+00
         0.00000E+00
         0.00000E+00
         0.00000E+00
         0.00000E+00
         0.00000E+00
         0.00000E+00
         0.00000E+00
         0.00000E+00
         0.00000E+00
         0.00000E+00
         0.00000E+00
         0.00000E+00
         0.00000E+00
         0.00000E+00
         0.00000E+00
         0.00000E+00
         0.00000E+00
         0.00000E+00
         0.00000E+00
         0.00000E+00
         0.00000E+00
         0.00000E+00
         0.00000E+00
         0.00000E+00
         0.00000E+00
         0.00000E+00
         0.00000E+00
         0.00000E+00
         0.00000E+00
         0.00000E+00
         0.00000E+00
         0.00000E+00
         0.00000E+00
         0.00000E+00
         0.00000E+00
         0.00000E+00
         0.00000E+00
         0.00000E+00
         0.00000E+00
         0.00000E+00
         0.00000E+00
         0.00000E+00
         0.00000E+00
         0.00000E+00
         0.00000E+00
         0.00000E+00
         0.00000E+00
         0.00000E+00
         0.00000E+00
         0.00000E+00
         0.00000E+00
         0.00000E+00
         0.00000E+00
         0.00000E+00
         0.00000E+00
         0.00000E+00
         0.00000E+00
         0.00000E+00
         0.00000E+00
         0.00000E+00
         0.00000E+00
         0.00000E+00
         0.00000E+00
         0.00000E+00
         0.00000E+00
         0.00000E+00
         0.00000E+00
         0.00000E+00
         0.00000E+00
         0.00000E+00
         0.00000E+00
         0.00000E+00
         0.00000E+00
         0.00000E+00
         0.00000E+00
         0.00000E+00
         0.00000E+00
         0.00000E+00
         0.00000E+00
         0.00000E+00
         0.00000E+00
         0.00000E+00
         0.00000E+00
         0.00000E+00
         0.00000E+00
         0.00000E+00
         0.00000E+00
         0.00000E+00
         0.00000E+00
         0.00000E+00
         0.00000E+00
         0.00000E+00
         0.00000E+00
         0.00000E+00
         0.00000E+00
         0.00000E+00
         0.00000E+00
         0.00000E+00
         0.00000E+00
         0.00000E+00
         0.00000E+00
         0.00000E+00
         0.00000E+00
         0.00000E+00
         0.00000E+00
         0.00000E+00
         0.00000E+00
         0.00000E+00
         0.00000E+00
         0.00000E+00
         0.00000E+00
         0.00000E+00
         0.00000E+00
         0.00000E+00
         0.00000E+00
         0.00000E+00
         0.00000E+00
         0.00000E+00
         0.00000E+00
         0.00000E+00
         0.00000E+00
         0.00000E+00
         0.00000E+00
         0.00000E+00
         0.00000E+00
         0.00000E+00
         0.00000E+00
         0.00000E+00
         0.00000E+00
         0.00000E+00
         0.00000E+00
         0.00000E+00
         0.00000E+00
         0.00000E+00
         0.00000E+00
         0.00000E+00
         0.00000E+00
         0.00000E+00
         0.00000E+00
         0.00000E+00
         0.00000E+00
         0.00000E+00
         0.00000E+00
         0.00000E+00
         0.00000E+00
         0.00000E+00
         0.00000E+00
         0.00000E+00
         0.00000E+00
         0.00000E+00
         0.00000E+00
         0.00000E+00
         0.00000E+00
         0.00000E+00
         0.00000E+00
         0.00000E+00
         0.00000E+00
         0.00000E+00
         0.00000E+00
         0.00000E+00
         0.00000E+00
         0.00000E+00
         0.00000E+00
         0.00000E+00
         0.00000E+00
         0.00000E+00
         0.00000E+00
         0.00000E+00
         0.00000E+00
         0.00000E+00
         0.00000E+00
         0.00000E+00
         0.00000E+00
         0.00000E+00
         0.00000E+00
         0.00000E+00
         0.00000E+00
         0.00000E+00
         0.00000E+00
         0.00000E+00
         0.00000E+00
         0.00000E+00
         0.00000E+00
         0.00000E+00
         0.00000E+00
         0.00000E+00
         0.00000E+00
         0.00000E+00
         0.00000E+00
         0.00000E+00
         0.00000E+00
         0.00000E+00
         0.00000E+00
         0.00000E+00
         0.00000E+00
         0.00000E+00
         0.00000E+00
         0.00000E+00
         0.00000E+00
         0.00000E+00
         0.00000E+00
         0.00000E+00
         0.00000E+00
         0.00000E+00
         0.00000E+00
         0.00000E+00
         0.00000E+00
         0.00000E+00
         0.00000E+00
         0.00000E+00
         0.00000E+00
         0.00000E+00
         0.00000E+00
         0.00000E+00
         0.00000E+00
         0.00000E+00
         0.00000E+00
         0.00000E+00
         0.00000E+00
         0.00000E+00
         0.00000E+00
         0.00000E+00
         0.00000E+00
         0.00000E+00
         0.00000E+00
         0.00000E+00
         0.00000E+00
         0.00000E+00
         0.00000E+00
         0.00000E+00
         0.00000E+00
         0.00000E+00
         0.00000E+00
         0.00000E+00
         0.00000E+00
         0.00000E+00
         0.00000E+00
         0.00000E+00
         0.00000E+00
         0.00000E+00
         0.00000E+00
         0.00000E+00
         0.00000E+00
         0.00000E+00
         0.00000E+00
         0.00000E+00
         0.00000E+00
         0.00000E+00
         0.00000E+00
         0.00000E+00
         0.00000E+00
         0.00000E+00
         0.00000E+00
         0.00000E+00
         0.00000E+00
         0.00000E+00
         0.00000E+00
         0.00000E+00
         0.00000E+00
         0.00000E+00
         0.00000E+00
         0.00000E+00
         0.00000E+00
         0.00000E+00
         0.00000E+00
         0.00000E+00
         0.00000E+00
         0.00000E+00
         0.00000E+00
         0.00000E+00
         0.00000E+00
         0.00000E+00
         0.00000E+00
         0.00000E+00
         0.00000E+00
         0.00000E+00
         0.00000E+00
         0.00000E+00
         0.00000E+00
         0.00000E+00
         0.00000E+00
         0.00000E+00
         0.00000E+00
         0.00000E+00
         0.00000E+00
         0.00000E+00
         0.00000E+00
         0.00000E+00
         0.00000E+00
         0.00000E+00
         0.00000E+00
         0.00000E+00
         0.00000E+00
         0.00000E+00
         0.00000E+00
         0.00000E+00
         0.00000E+00
         0.00000E+00
         0.00000E+00
         0.00000E+00
         0.00000E+00
         0.00000E+00
         0.00000E+00
         0.00000E+00
         0.00000E+00
         0.00000E+00
         0.00000E+00
         0.00000E+00
         0.00000E+00
         0.00000E+00
         0.00000E+00
         0.00000E+00
         0.00000E+00
         0.00000E+00
         0.00000E+00
         0.00000E+00
         0.00000E+00
         0.00000E+00
         0.00000E+00
         0.00000E+00
         0.00000E+00
         0.00000E+00
         0.00000E+00
         0.00000E+00
         0.00000E+00
         0.00000E+00
         0.00000E+00
         0.00000E+00
         0.00000E+00
         0.00000E+00
         0.00000E+00
         0.00000E+00
         0.00000E+00
         0.00000E+00
         0.00000E+00
         0.00000E+00
         0.00000E+00
         0.00000E+00
         0.00000E+00
         0.00000E+00
         0.00000E+00
         0.00000E+00
         0.00000E+00
         0.00000E+00
         0.00000E+00
         0.00000E+00
         0.00000E+00
         0.00000E+00
         0.00000E+00
         0.00000E+00
         0.00000E+00
         0.00000E+00
         0.00000E+00
         0.00000E+00
         0.00000E+00
         0.00000E+00
         0.00000E+00
         0.00000E+00
         0.00000E+00
         0.00000E+00
         0.00000E+00
         0.00000E+00
         0.00000E+00
         0.00000E+00
         0.00000E+00
         0.00000E+00
         0.00000E+00
         0.00000E+00
         0.00000E+00
         0.00000E+00
         0.00000E+00
         0.00000E+00
         0.00000E+00
         0.00000E+00
         0.00000E+00
         0.00000E+00
         0.00000E+00
         0.00000E+00
         0.00000E+00
         0.00000E+00
         0.00000E+00
         0.00000E+00
         0.00000E+00
         0.00000E+00
         0.00000E+00
         0.00000E+00
         0.00000E+00
         0.00000E+00
         0.00000E+00
         0.00000E+00
         0.00000E+00
         0.00000E+00
         0.00000E+00
         0.00000E+00
         0.00000E+00
         0.00000E+00
         0.00000E+00
         0.00000E+00
         0.00000E+00
         0.00000E+00
         0.00000E+00
         0.00000E+00
         0.00000E+00
         0.00000E+00
         0.00000E+00
         0.00000E+00
         0.00000E+00
         0.00000E+00
         0.00000E+00
         0.00000E+00
         0.00000E+00
         0.00000E+00
         0.00000E+00
         0.00000E+00
         0.00000E+00
         0.00000E+00
         0.00000E+00
         0.00000E+00
         0.00000E+00
         0.00000E+00
         0.00000E+00
         0.00000E+00
         0.00000E+00
         0.00000E+00
         0.00000E+00
         0.00000E+00
         0.00000E+00
         0.00000E+00
         0.00000E+00
         0.00000E+00
         0.00000E+00
         0.00000E+00
         0.00000E+00
         0.00000E+00
         0.00000E+00
         0.00000E+00
         0.00000E+00
         0.00000E+00
         0.00000E+00
         0.00000E+00
         0.00000E+00
         0.00000E+00
         0.00000E+00
         0.00000E+00
         0.00000E+00
         0.00000E+00
         0.00000E+00
         0.00000E+00
         0.00000E+00
         0.00000E+00
         0.00000E+00
         0.00000E+00
         0.00000E+00
         0.00000E+00
         0.00000E+00
         0.00000E+00
         0.00000E+00
         0.00000E+00
         0.00000E+00
         0.00000E+00
         0.00000E+00
         0.00000E+00
         0.00000E+00
         0.00000E+00
         0.00000E+00
         0.00000E+00
         0.00000E+00
         0.00000E+00
         0.00000E+00
         0.00000E+00
         0.00000E+00
         0.00000E+00
         0.00000E+00
         0.00000E+00
         0.00000E+00
         0.00000E+00
         0.00000E+00
         0.00000E+00
         0.00000E+00
         0.00000E+00
         0.00000E+00
         0.00000E+00
         0.00000E+00
         0.00000E+00
         0.00000E+00
         0.00000E+00
         0.00000E+00
         0.00000E+00
         0.00000E+00
         0.00000E+00
         0.00000E+00
         0.00000E+00
         0.00000E+00
         0.00000E+00
         0.00000E+00
         0.00000E+00
         0.00000E+00
         0.00000E+00
         0.00000E+00
         0.00000E+00
         0.00000E+00
         0.00000E+00
         0.00000E+00
         0.00000E+00
         0.00000E+00
         0.00000E+00
         0.00000E+00
         0.00000E+00
         0.00000E+00
         0.00000E+00
         0.00000E+00
         0.00000E+00
         0.00000E+00
         0.00000E+00
         0.00000E+00
         0.00000E+00
         0.00000E+00
         0.00000E+00
         0.00000E+00
         0.00000E+00
         0.00000E+00
         0.00000E+00
         0.00000E+00
         0.00000E+00
         0.00000E+00
         0.00000E+00
         0.00000E+00
         0.00000E+00
         0.00000E+00
         0.00000E+00
         0.00000E+00
         0.00000E+00
         0.00000E+00
         0.00000E+00
         0.00000E+00
         0.00000E+00
         0.00000E+00
         0.00000E+00
         0.00000E+00
         0.00000E+00
         0.00000E+00
         0.00000E+00
         0.00000E+00
         0.00000E+00
         0.00000E+00
         0.00000E+00
         0.00000E+00
         0.00000E+00
         0.00000E+00
         0.00000E+00
         0.00000E+00
         0.00000E+00
         0.00000E+00
         0.00000E+00
         0.00000E+00
         0.00000E+00
         0.00000E+00
         0.00000E+00
         0.00000E+00
         0.00000E+00
         0.00000E+00
         0.00000E+00
         0.00000E+00
         0.00000E+00
         0.00000E+00
         0.00000E+00
         0.00000E+00
         0.00000E+00
         0.00000E+00
         0.00000E+00
         0.00000E+00
         0.00000E+00
         0.00000E+00
         0.00000E+00
         0.00000E+00
         0.00000E+00
         0.00000E+00
         0.00000E+00
         0.00000E+00
         0.00000E+00
         0.00000E+00
         0.00000E+00
         0.00000E+00
         0.00000E+00
         0.00000E+00
         0.00000E+00
         0.00000E+00
         0.00000E+00
         0.00000E+00
         0.00000E+00
         0.00000E+00
         0.00000E+00
         0.00000E+00
         0.00000E+00
         0.00000E+00
         0.00000E+00
         0.00000E+00
         0.00000E+00
         0.00000E+00
         0.00000E+00
         0.00000E+00
         0.00000E+00
         0.00000E+00
         0.00000E+00
         0.00000E+00
         0.00000E+00
         0.00000E+00
         0.00000E+00
         0.00000E+00
         0.00000E+00
         0.00000E+00
         0.00000E+00
         0.00000E+00
         0.00000E+00
         0.00000E+00
         0.00000E+00
         0.00000E+00
         0.00000E+00
         0.00000E+00
         0.00000E+00
         0.00000E+00
         0.00000E+00
         0.00000E+00
         0.00000E+00
         0.00000E+00
         0.00000E+00
         0.00000E+00
         0.00000E+00
         0.00000E+00
         0.00000E+00
         0.00000E+00
         0.00000E+00
         0.00000E+00
         0.00000E+00
         0.00000E+00
         0.00000E+00
         0.00000E+00
         0.00000E+00
         0.00000E+00
         0.00000E+00
         0.00000E+00
         0.00000E+00
         0.00000E+00
         0.00000E+00
         0.00000E+00
         0.00000E+00
         0.00000E+00
         0.00000E+00
         0.00000E+00
         0.00000E+00
         0.00000E+00
         0.00000E+00
         0.00000E+00
         0.00000E+00
         0.00000E+00
         0.00000E+00
         0.00000E+00
         0.00000E+00
         0.00000E+00
         0.00000E+00
         0.00000E+00
         0.00000E+00
         0.00000E+00
         0.00000E+00
         0.00000E+00
         0.00000E+00
         0.00000E+00
         0.00000E+00
         0.00000E+00
         0.00000E+00
         0.00000E+00
         0.00000E+00
         0.00000E+00
         0.00000E+00
         0.00000E+00
         0.00000E+00
         0.00000E+00
         0.00000E+00
         0.00000E+00
         0.00000E+00
         0.00000E+00
         0.00000E+00
         0.00000E+00
         0.00000E+00
         0.00000E+00
         0.00000E+00
         0.00000E+00
         0.00000E+00
         0.00000E+00
         0.00000E+00
         0.00000E+00
         0.00000E+00
         0.00000E+00
         0.00000E+00
         0.00000E+00
         0.00000E+00
         0.00000E+00
         0.00000E+00
         0.00000E+00
         0.00000E+00
         0.00000E+00
         0.00000E+00
         0.00000E+00
         0.00000E+00
         0.00000E+00
         0.00000E+00
         0.00000E+00
         0.00000E+00
         0.00000E+00
         0.00000E+00
         0.00000E+00
         0.00000E+00
         0.00000E+00
         0.00000E+00
         0.00000E+00
         0.00000E+00
         0.00000E+00
         0.00000E+00
         0.00000E+00
         0.00000E+00
         0.00000E+00
         0.00000E+00
         0.00000E+00
         0.00000E+00
         0.00000E+00
         0.00000E+00
         0.00000E+00
         0.00000E+00
         0.00000E+00
         0.00000E+00
         0.00000E+00
         0.00000E+00
         0.00000E+00
         0.00000E+00
         0.00000E+00
         0.00000E+00
         0.00000E+00
         0.00000E+00
         0.00000E+00
         0.00000E+00
         0.00000E+00
         0.00000E+00
         0.00000E+00
         0.00000E+00
         0.00000E+00
         0.00000E+00
         0.00000E+00
         0.00000E+00
         0.00000E+00
         0.00000E+00
         0.00000E+00
         0.00000E+00
         0.00000E+00
         0.00000E+00
         0.00000E+00
         0.00000E+00
         0.00000E+00
         0.00000E+00
         0.00000E+00
         0.00000E+00
         0.00000E+00
         0.00000E+00
         0.00000E+00
         0.00000E+00
         0.00000E+00
         0.00000E+00
         0.00000E+00
         0.00000E+00
         0.00000E+00
         0.00000E+00
         0.00000E+00
         0.00000E+00
         0.00000E+00
         0.00000E+00
         0.00000E+00
         0.00000E+00
         0.00000E+00
         0.00000E+00
         0.00000E+00
         0.00000E+00
         0.00000E+00
         0.00000E+00
         0.00000E+00
         0.00000E+00
         0.00000E+00
         0.00000E+00
         0.00000E+00
         0.00000E+00
         0.00000E+00
         0.00000E+00
         0.00000E+00
         0.00000E+00
         0.00000E+00
         0.00000E+00
         0.00000E+00
         0.00000E+00
         0.00000E+00
         0.00000E+00
         0.00000E+00
         0.00000E+00
         0.00000E+00
         0.00000E+00
         0.00000E+00
         0.00000E+00
         0.00000E+00
         0.00000E+00
         0.00000E+00
         0.00000E+00
         0.00000E+00
         0.00000E+00
         0.00000E+00
         0.00000E+00
         0.00000E+00
         0.00000E+00
         0.00000E+00
         0.00000E+00
         0.00000E+00
         0.00000E+00
         0.00000E+00
         0.00000E+00
         0.00000E+00
         0.00000E+00
         0.00000E+00
         0.00000E+00
         0.00000E+00
         0.00000E+00
         0.00000E+00
         0.00000E+00
         0.00000E+00
         0.00000E+00
         0.00000E+00
         0.00000E+00
         0.00000E+00
         0.00000E+00
         0.00000E+00
         0.00000E+00
         0.00000E+00
         0.00000E+00
         0.00000E+00
         0.00000E+00
         0.00000E+00
         0.00000E+00
         0.00000E+00
         0.00000E+00
         0.00000E+00
         0.00000E+00
         0.00000E+00
         0.00000E+00
         0.00000E+00
         0.00000E+00
         0.00000E+00
         0.00000E+00
         0.00000E+00
         0.00000E+00
         0.00000E+00
         0.00000E+00
         0.00000E+00
         0.00000E+00
         0.00000E+00
         0.00000E+00
         0.00000E+00
         0.00000E+00
         0.00000E+00
         0.00000E+00
         0.00000E+00
         0.00000E+00
         0.00000E+00
         0.00000E+00
         0.00000E+00
         0.00000E+00
         0.00000E+00
         0.00000E+00
         0.00000E+00
         0.00000E+00
         0.00000E+00
         0.00000E+00
         0.00000E+00
         0.00000E+00
         0.00000E+00
         0.00000E+00
         0.00000E+00
         0.00000E+00
         0.00000E+00
         0.00000E+00
         0.00000E+00
         0.00000E+00
         0.00000E+00
         0.00000E+00
         0.00000E+00
         0.00000E+00
         0.00000E+00
         0.00000E+00
         0.00000E+00
         0.00000E+00
         0.00000E+00
         0.00000E+00
         0.00000E+00
         0.00000E+00
         0.00000E+00
         0.00000E+00
         0.00000E+00
         0.00000E+00
         0.00000E+00
         0.00000E+00
         0.00000E+00
         0.00000E+00
         0.00000E+00
         0.00000E+00
         0.00000E+00
         0.00000E+00
         0.00000E+00
         0.00000E+00
         0.00000E+00
         0.00000E+00
         0.00000E+00
         0.00000E+00
         0.00000E+00
         0.00000E+00
         0.00000E+00
         0.00000E+00
         0.00000E+00
         0.00000E+00
         0.00000E+00
         0.00000E+00
         0.00000E+00
         0.00000E+00
         0.00000E+00
         0.00000E+00
         0.00000E+00
         0.00000E+00
         0.00000E+00
         0.00000E+00
         0.00000E+00
         0.00000E+00
         0.00000E+00
         0.00000E+00
         0.00000E+00
         0.00000E+00
         0.00000E+00
         0.00000E+00
         0.00000E+00
         0.00000E+00
         0.00000E+00
         0.00000E+00
         0.00000E+00
         0.00000E+00
         0.00000E+00
         0.00000E+00
         0.00000E+00
         0.00000E+00
         0.00000E+00
         0.00000E+00
         0.00000E+00
         0.00000E+00
         0.00000E+00
         0.00000E+00
         0.00000E+00
         0.00000E+00
         0.00000E+00
         0.00000E+00
         0.00000E+00
         0.00000E+00
         0.00000E+00
         0.00000E+00
         0.00000E+00
         0.00000E+00
         0.00000E+00
         0.00000E+00
         0.00000E+00
         0.00000E+00
         0.00000E+00
         0.00000E+00
         0.00000E+00
         0.00000E+00
         0.00000E+00
         0.00000E+00
         0.00000E+00
         0.00000E+00
         0.00000E+00
         0.00000E+00
         0.00000E+00
         0.00000E+00
         0.00000E+00
         0.00000E+00
         0.00000E+00
         0.00000E+00
         0.00000E+00
         0.00000E+00
         0.00000E+00
         0.00000E+00
         0.00000E+00
         0.00000E+00
         0.00000E+00
         0.00000E+00
         0.00000E+00
         0.00000E+00
         0.00000E+00
         0.00000E+00
         0.00000E+00
         0.00000E+00
         0.00000E+00
         0.00000E+00
         0.00000E+00
         0.00000E+00
         0.00000E+00
         0.00000E+00
         0.00000E+00
         0.00000E+00
         0.00000E+00
         0.00000E+00
         0.00000E+00
         0.00000E+00
         0.00000E+00
         0.00000E+00
         0.00000E+00
         0.00000E+00
         0.00000E+00
         0.00000E+00
         0.00000E+00
         0.00000E+00
         0.00000E+00
         0.00000E+00
         0.00000E+00
         0.00000E+00
         0.00000E+00
         0.00000E+00
         0.00000E+00
         0.00000E+00
         0.00000E+00
         0.00000E+00
         0.00000E+00
         0.00000E+00
         0.00000E+00
         0.00000E+00
         0.00000E+00
         0.00000E+00
         0.00000E+00
         0.00000E+00
         0.00000E+00
         0.00000E+00
         0.00000E+00
         0.00000E+00
         0.00000E+00
         0.00000E+00
         0.00000E+00
         0.00000E+00
         0.00000E+00
         0.00000E+00
         0.00000E+00
         0.00000E+00
         0.00000E+00
         0.00000E+00
         0.00000E+00
         0.00000E+00
         0.00000E+00
         0.00000E+00
         0.00000E+00
         0.00000E+00
         0.00000E+00
         0.00000E+00
         0.00000E+00
         0.00000E+00
         0.00000E+00
         0.00000E+00
         0.00000E+00
         0.00000E+00
         0.00000E+00
         0.00000E+00
         0.00000E+00
         0.00000E+00
         0.00000E+00
         0.00000E+00
         0.00000E+00
         0.00000E+00
         0.00000E+00
         0.00000E+00
         0.00000E+00
         0.00000E+00
         0.00000E+00
         0.00000E+00
         0.00000E+00
         0.00000E+00
         0.00000E+00
         0.00000E+00
         0.00000E+00
         0.00000E+00
         0.00000E+00
         0.00000E+00
         0.00000E+00
         0.00000E+00
         0.00000E+00
         0.00000E+00
         0.00000E+00
         0.00000E+00
         0.00000E+00
         0.00000E+00
         0.00000E+00
         0.00000E+00
         0.00000E+00
         0.00000E+00
         0.00000E+00
         0.00000E+00
         0.00000E+00
         0.00000E+00
         0.00000E+00
         0.00000E+00
         0.00000E+00
         0.00000E+00
         0.00000E+00
         0.00000E+00
         0.00000E+00
         0.00000E+00
         0.00000E+00
         0.00000E+00
         0.00000E+00
         0.00000E+00
         0.00000E+00
         0.00000E+00
         0.00000E+00
         0.00000E+00
         0.00000E+00
         0.00000E+00
         0.00000E+00
         0.00000E+00
         0.00000E+00
         0.00000E+00
         0.00000E+00
         0.00000E+00
         0.00000E+00
         0.00000E+00
         0.00000E+00
         0.00000E+00
         0.00000E+00
         0.00000E+00
         0.00000E+00
         0.00000E+00
         0.00000E+00
         0.00000E+00
         0.00000E+00
         0.00000E+00
         0.00000E+00
         0.00000E+00
         0.00000E+00
         0.00000E+00
         0.00000E+00
         0.00000E+00
         0.00000E+00
         0.00000E+00
         0.00000E+00
         0.00000E+00
         0.00000E+00
         0.00000E+00
         0.00000E+00
         0.00000E+00
         0.00000E+00
         0.00000E+00
         0.00000E+00
         0.00000E+00
         0.00000E+00
         0.00000E+00
         0.00000E+00
         0.00000E+00
         0.00000E+00
         0.00000E+00
         0.00000E+00
         0.00000E+00
         0.00000E+00
         0.00000E+00
         0.00000E+00
         0.00000E+00
         0.00000E+00
         0.00000E+00
         0.00000E+00
         0.00000E+00
         0.00000E+00
         0.00000E+00
         0.00000E+00
         0.00000E+00
         0.00000E+00
         0.00000E+00
         0.00000E+00
         0.00000E+00
         0.00000E+00
         0.00000E+00
         0.00000E+00
         0.00000E+00
         0.00000E+00
         0.00000E+00
         0.00000E+00
         0.00000E+00
         0.00000E+00
         0.00000E+00
         0.00000E+00
         0.00000E+00
         0.00000E+00
         0.00000E+00
         0.00000E+00
         0.00000E+00
         0.00000E+00
         0.00000E+00
         0.00000E+00
         0.00000E+00
         0.00000E+00
         0.00000E+00
         0.00000E+00
         0.00000E+00
         0.00000E+00
         0.00000E+00
         0.00000E+00
         0.00000E+00
         0.00000E+00
         0.00000E+00
         0.00000E+00
         0.00000E+00
         0.00000E+00
         0.00000E+00
         0.00000E+00
         0.00000E+00
         0.00000E+00
         0.00000E+00
         0.00000E+00
         0.00000E+00
         0.00000E+00
         0.00000E+00
         0.00000E+00
         0.00000E+00
         0.00000E+00
         0.00000E+00
         0.00000E+00
         0.00000E+00
         0.00000E+00
         0.00000E+00
         0.00000E+00
         0.00000E+00
         0.00000E+00
         0.00000E+00
         0.00000E+00
         0.00000E+00
         0.00000E+00
         0.00000E+00
         0.00000E+00
         0.00000E+00
         0.00000E+00
         0.00000E+00
         0.00000E+00
         0.00000E+00
         0.00000E+00
         0.00000E+00
         0.00000E+00
         0.00000E+00
         0.00000E+00
         0.00000E+00
         0.00000E+00
         0.00000E+00
         0.00000E+00
         0.00000E+00
         0.00000E+00
         0.00000E+00
         0.00000E+00
         0.00000E+00
         0.00000E+00
         0.00000E+00
         0.00000E+00
         0.00000E+00
         0.00000E+00
         0.00000E+00
         0.00000E+00
         0.00000E+00
         0.00000E+00
         0.00000E+00
         0.00000E+00
         0.00000E+00
         0.00000E+00
         0.00000E+00
         0.00000E+00
         0.00000E+00
         0.00000E+00
         0.00000E+00
         0.00000E+00
         0.00000E+00
         0.00000E+00
         0.00000E+00
         0.00000E+00
         0.00000E+00
         0.00000E+00
         0.00000E+00
         0.00000E+00
         0.00000E+00
         0.00000E+00
         0.00000E+00
         0.00000E+00
         0.00000E+00
         0.00000E+00
         0.00000E+00
         0.00000E+00
         0.00000E+00
         0.00000E+00
         0.00000E+00
         0.00000E+00
         0.00000E+00
         0.00000E+00
         0.00000E+00
         0.00000E+00
         0.00000E+00
         0.00000E+00
         0.00000E+00
         0.00000E+00
         0.00000E+00
         0.00000E+00
         0.00000E+00
         0.00000E+00
         0.00000E+00
         0.00000E+00
         0.00000E+00
         0.00000E+00
         0.00000E+00
         0.00000E+00
         0.00000E+00
         0.00000E+00
         0.00000E+00
         0.00000E+00
         0.00000E+00
         0.00000E+00
         0.00000E+00
         0.00000E+00
         0.00000E+00
         0.00000E+00
         0.00000E+00
         0.00000E+00
         0.00000E+00
         0.00000E+00
         0.00000E+00
         0.00000E+00
         0.00000E+00
         0.00000E+00
         0.00000E+00
         0.00000E+00
         0.00000E+00
         0.00000E+00
         0.00000E+00
         0.00000E+00
         0.00000E+00
         0.00000E+00
         0.00000E+00
         0.00000E+00
         0.00000E+00
         0.00000E+00
         0.00000E+00
         0.00000E+00
         0.00000E+00
         0.00000E+00
         0.00000E+00
         0.00000E+00
         0.00000E+00
         0.00000E+00
         0.00000E+00
         0.00000E+00
         0.00000E+00
         0.00000E+00
         0.00000E+00
         0.00000E+00
         0.00000E+00
         0.00000E+00
         0.00000E+00
         0.00000E+00
         0.00000E+00
         0.00000E+00
         0.00000E+00
         0.00000E+00
         0.00000E+00
         0.00000E+00
         0.00000E+00
         0.00000E+00
         0.00000E+00
         0.00000E+00
         0.00000E+00
         0.00000E+00
         0.00000E+00
         0.00000E+00
         0.00000E+00
         0.00000E+00
         0.00000E+00
         0.00000E+00
         0.00000E+00
         0.00000E+00
         0.00000E+00
         0.00000E+00
         0.00000E+00
         0.00000E+00
         0.00000E+00
         0.00000E+00
         0.00000E+00
         0.00000E+00
         0.00000E+00
         0.00000E+00
         0.00000E+00
         0.00000E+00
         0.00000E+00
         0.00000E+00
         0.00000E+00
         0.00000E+00
         0.00000E+00
         0.00000E+00
         0.00000E+00
         0.00000E+00
         0.00000E+00
         0.00000E+00
         0.00000E+00
         0.00000E+00
         0.00000E+00
         0.00000E+00
         0.00000E+00
         0.00000E+00
         0.00000E+00
         0.00000E+00
         0.00000E+00
         0.00000E+00
         0.00000E+00
         0.00000E+00
         0.00000E+00
         0.00000E+00
         0.00000E+00
         0.00000E+00
         0.00000E+00
         0.00000E+00
         0.00000E+00
         0.00000E+00
         0.00000E+00
         0.00000E+00
         0.00000E+00
         0.00000E+00
         0.00000E+00
         0.00000E+00
         0.00000E+00
         0.00000E+00
         0.00000E+00
         0.00000E+00
         0.00000E+00
         0.00000E+00
         0.00000E+00
         0.00000E+00
         0.00000E+00
         0.00000E+00
         0.00000E+00
         0.00000E+00
         0.00000E+00
         0.00000E+00
         0.00000E+00
         0.00000E+00
         0.00000E+00
         0.00000E+00
         0.00000E+00
         0.00000E+00
         0.00000E+00
         0.00000E+00
         0.00000E+00
         0.00000E+00
         0.00000E+00
         0.00000E+00
         0.00000E+00
         0.00000E+00
         0.00000E+00
         0.00000E+00
         0.00000E+00
         0.00000E+00
         0.00000E+00
         0.00000E+00
         0.00000E+00
         0.00000E+00
         0.00000E+00
         0.00000E+00
         0.00000E+00
         0.00000E+00
         0.00000E+00
         0.00000E+00
         0.00000E+00
         0.00000E+00
         0.00000E+00
         0.00000E+00
         0.00000E+00
         0.00000E+00
         0.00000E+00
         0.00000E+00
         0.00000E+00
         0.00000E+00
         0.00000E+00
         0.00000E+00
         0.00000E+00
         0.00000E+00
         0.00000E+00
         0.00000E+00
         0.00000E+00
         0.00000E+00
         0.00000E+00
         0.00000E+00
         0.00000E+00
         0.00000E+00
         0.00000E+00
         0.00000E+00
         0.00000E+00
         0.00000E+00
         0.00000E+00
         0.00000E+00
         0.00000E+00
         0.00000E+00
         0.00000E+00
         0.00000E+00
         0.00000E+00
         0.00000E+00
         0.00000E+00
         0.00000E+00
         0.00000E+00
         0.00000E+00
         0.00000E+00
         0.00000E+00
         0.00000E+00
         0.00000E+00
         0.00000E+00
         0.00000E+00
         0.00000E+00
         0.00000E+00
         0.00000E+00
         0.00000E+00
         0.00000E+00
         0.00000E+00
         0.00000E+00
         0.00000E+00
         0.00000E+00
         0.00000E+00
         0.00000E+00
         0.00000E+00
         0.00000E+00
         0.00000E+00
         0.00000E+00
         0.00000E+00
         0.00000E+00
         0.00000E+00
         0.00000E+00
         0.00000E+00
         0.00000E+00
         0.00000E+00
         0.00000E+00
         0.00000E+00
         0.00000E+00
         0.00000E+00
         0.00000E+00
         0.00000E+00
         0.00000E+00
         0.00000E+00
         0.00000E+00
         0.00000E+00
         0.00000E+00
         0.00000E+00
         0.00000E+00
         0.00000E+00
         0.00000E+00
         0.00000E+00
         0.00000E+00
         0.00000E+00
         0.00000E+00
         0.00000E+00
         0.00000E+00
         0.00000E+00
         0.00000E+00
         0.00000E+00
         0.00000E+00
         0.00000E+00
         0.00000E+00
         0.00000E+00
         0.00000E+00
         0.00000E+00
         0.00000E+00
         0.00000E+00
         0.00000E+00
         0.00000E+00
         0.00000E+00
         0.00000E+00
         0.00000E+00
         0.00000E+00
         0.00000E+00
         0.00000E+00
         0.00000E+00
         0.00000E+00
         0.00000E+00
         0.00000E+00
         0.00000E+00
         0.00000E+00
         0.00000E+00
         0.00000E+00
         0.00000E+00
         0.00000E+00
         0.00000E+00
         0.00000E+00
         0.00000E+00
         0.00000E+00
         0.00000E+00
         0.00000E+00
         0.00000E+00
         0.00000E+00
         0.00000E+00
         0.00000E+00
         0.00000E+00
         0.00000E+00
         0.00000E+00
         0.00000E+00
         0.00000E+00
         0.00000E+00
         0.00000E+00
         0.00000E+00
         0.00000E+00
         0.00000E+00
         0.00000E+00
         0.00000E+00
         0.00000E+00
         0.00000E+00
         0.00000E+00
         0.00000E+00
         0.00000E+00
         0.00000E+00
         0.00000E+00
         0.00000E+00
         0.00000E+00
         0.00000E+00
         0.00000E+00
         0.00000E+00
         0.00000E+00
         0.00000E+00
         0.00000E+00
         0.00000E+00
         0.00000E+00
         0.00000E+00
         0.00000E+00
         0.00000E+00
         0.00000E+00
         0.00000E+00
         0.00000E+00
  
SCALARS                init_velocity_y  double 1
LOOKUP_TABLE default
         0.00000E+00
         0.00000E+00
         0.00000E+00
         0.00000E+00
         0.00000E+00
         0.00000E+00
         0.00000E+00
         0.00000E+00
         0.00000E+00
         0.00000E+00
         0.00000E+00
         0.00000E+00
         0.00000E+00
         0.00000E+00
         0.00000E+00
         0.00000E+00
         0.00000E+00
         0.00000E+00
         0.00000E+00
         0.00000E+00
         0.00000E+00
         0.00000E+00
         0.00000E+00
         0.00000E+00
         0.00000E+00
         0.00000E+00
         0.00000E+00
         0.00000E+00
         0.00000E+00
         0.00000E+00
         0.00000E+00
         0.00000E+00
         0.00000E+00
         0.00000E+00
         0.00000E+00
         0.00000E+00
         0.00000E+00
         0.00000E+00
         0.00000E+00
         0.00000E+00
         0.00000E+00
         0.00000E+00
         0.00000E+00
         0.00000E+00
         0.00000E+00
         0.00000E+00
         0.00000E+00
         0.00000E+00
         0.00000E+00
         0.00000E+00
         0.00000E+00
         0.00000E+00
         0.00000E+00
         0.00000E+00
         0.00000E+00
         0.00000E+00
         0.00000E+00
         0.00000E+00
         0.00000E+00
         0.00000E+00
         0.00000E+00
         0.00000E+00
         0.00000E+00
         0.00000E+00
         0.00000E+00
         0.00000E+00
         0.00000E+00
         0.00000E+00
         0.00000E+00
         0.00000E+00
         0.00000E+00
         0.00000E+00
         0.00000E+00
         0.00000E+00
         0.00000E+00
         0.00000E+00
         0.00000E+00
         0.00000E+00
         0.00000E+00
         0.00000E+00
         0.00000E+00
         0.00000E+00
         0.00000E+00
         0.00000E+00
         0.00000E+00
         0.00000E+00
         0.00000E+00
         0.00000E+00
         0.00000E+00
         0.00000E+00
         0.00000E+00
         0.00000E+00
         0.00000E+00
         0.00000E+00
         0.00000E+00
         0.00000E+00
         0.00000E+00
         0.00000E+00
         0.00000E+00
         0.00000E+00
         0.00000E+00
         0.00000E+00
         0.00000E+00
         0.00000E+00
         0.00000E+00
         0.00000E+00
         0.00000E+00
         0.00000E+00
         0.00000E+00
         0.00000E+00
         0.00000E+00
         0.00000E+00
         0.00000E+00
         0.00000E+00
         0.00000E+00
         0.00000E+00
         0.00000E+00
         0.00000E+00
         0.00000E+00
         0.00000E+00
         0.00000E+00
         0.00000E+00
         0.00000E+00
         0.00000E+00
         0.00000E+00
         0.00000E+00
         0.00000E+00
         0.00000E+00
         0.00000E+00
         0.00000E+00
         0.00000E+00
         0.00000E+00
         0.00000E+00
         0.00000E+00
         0.00000E+00
         0.00000E+00
         0.00000E+00
         0.00000E+00
         0.00000E+00
         0.00000E+00
         0.00000E+00
         0.00000E+00
         0.00000E+00
         0.00000E+00
         0.00000E+00
         0.00000E+00
         0.00000E+00
         0.00000E+00
         0.00000E+00
         0.00000E+00
         0.00000E+00
         0.00000E+00
         0.00000E+00
         0.00000E+00
         0.00000E+00
         0.00000E+00
         0.00000E+00
         0.00000E+00
         0.00000E+00
         0.00000E+00
         0.00000E+00
         0.00000E+00
         0.00000E+00
         0.00000E+00
         0.00000E+00
         0.00000E+00
         0.00000E+00
         0.00000E+00
         0.00000E+00
         0.00000E+00
         0.00000E+00
         0.00000E+00
         0.00000E+00
         0.00000E+00
         0.00000E+00
         0.00000E+00
         0.00000E+00
         0.00000E+00
         0.00000E+00
         0.00000E+00
         0.00000E+00
         0.00000E+00
         0.00000E+00
         0.00000E+00
         0.00000E+00
         0.00000E+00
         0.00000E+00
         0.00000E+00
         0.00000E+00
         0.00000E+00
         0.00000E+00
         0.00000E+00
         0.00000E+00
         0.00000E+00
         0.00000E+00
         0.00000E+00
         0.00000E+00
         0.00000E+00
         0.00000E+00
         0.00000E+00
         0.00000E+00
         0.00000E+00
         0.00000E+00
         0.00000E+00
         0.00000E+00
         0.00000E+00
         0.00000E+00
         0.00000E+00
         0.00000E+00
         0.00000E+00
         0.00000E+00
         0.00000E+00
         0.00000E+00
         0.00000E+00
         0.00000E+00
         0.00000E+00
         0.00000E+00
         0.00000E+00
         0.00000E+00
         0.00000E+00
         0.00000E+00
         0.00000E+00
         0.00000E+00
         0.00000E+00
         0.00000E+00
         0.00000E+00
         0.00000E+00
         0.00000E+00
         0.00000E+00
         0.00000E+00
         0.00000E+00
         0.00000E+00
         0.00000E+00
         0.00000E+00
         0.00000E+00
         0.00000E+00
         0.00000E+00
         0.00000E+00
         0.00000E+00
         0.00000E+00
         0.00000E+00
         0.00000E+00
         0.00000E+00
         0.00000E+00
         0.00000E+00
         0.00000E+00
         0.00000E+00
         0.00000E+00
         0.00000E+00
         0.00000E+00
         0.00000E+00
         0.00000E+00
         0.00000E+00
         0.00000E+00
         0.00000E+00
         0.00000E+00
         0.00000E+00
         0.00000E+00
         0.00000E+00
         0.00000E+00
         0.00000E+00
         0.00000E+00
         0.00000E+00
         0.00000E+00
         0.00000E+00
         0.00000E+00
         0.00000E+00
         0.00000E+00
         0.00000E+00
         0.00000E+00
         0.00000E+00
         0.00000E+00
         0.00000E+00
         0.00000E+00
         0.00000E+00
         0.00000E+00
         0.00000E+00
         0.00000E+00
         0.00000E+00
         0.00000E+00
         0.00000E+00
         0.00000E+00
         0.00000E+00
         0.00000E+00
         0.00000E+00
         0.00000E+00
         0.00000E+00
         0.00000E+00
         0.00000E+00
         0.00000E+00
         0.00000E+00
         0.00000E+00
         0.00000E+00
         0.00000E+00
         0.00000E+00
         0.00000E+00
         0.00000E+00
         0.00000E+00
         0.00000E+00
         0.00000E+00
         0.00000E+00
         0.00000E+00
         0.00000E+00
         0.00000E+00
         0.00000E+00
         0.00000E+00
         0.00000E+00
         0.00000E+00
         0.00000E+00
         0.00000E+00
         0.00000E+00
         0.00000E+00
         0.00000E+00
         0.00000E+00
         0.00000E+00
         0.00000E+00
         0.00000E+00
         0.00000E+00
         0.00000E+00
         0.00000E+00
         0.00000E+00
         0.00000E+00
         0.00000E+00
         0.00000E+00
         0.00000E+00
         0.00000E+00
         0.00000E+00
         0.00000E+00
         0.00000E+00
         0.00000E+00
         0.00000E+00
         0.00000E+00
         0.00000E+00
         0.00000E+00
         0.00000E+00
         0.00000E+00
         0.00000E+00
         0.00000E+00
         0.00000E+00
         0.00000E+00
         0.00000E+00
         0.00000E+00
         0.00000E+00
         0.00000E+00
         0.00000E+00
         0.00000E+00
         0.00000E+00
         0.00000E+00
         0.00000E+00
         0.00000E+00
         0.00000E+00
         0.00000E+00
         0.00000E+00
         0.00000E+00
         0.00000E+00
         0.00000E+00
         0.00000E+00
         0.00000E+00
         0.00000E+00
         0.00000E+00
         0.00000E+00
         0.00000E+00
         0.00000E+00
         0.00000E+00
         0.00000E+00
         0.00000E+00
         0.00000E+00
         0.00000E+00
         0.00000E+00
         0.00000E+00
         0.00000E+00
         0.00000E+00
         0.00000E+00
         0.00000E+00
         0.00000E+00
         0.00000E+00
         0.00000E+00
         0.00000E+00
         0.00000E+00
         0.00000E+00
         0.00000E+00
         0.00000E+00
         0.00000E+00
         0.00000E+00
         0.00000E+00
         0.00000E+00
         0.00000E+00
         0.00000E+00
         0.00000E+00
         0.00000E+00
         0.00000E+00
         0.00000E+00
         0.00000E+00
         0.00000E+00
         0.00000E+00
         0.00000E+00
         0.00000E+00
         0.00000E+00
         0.00000E+00
         0.00000E+00
         0.00000E+00
         0.00000E+00
         0.00000E+00
         0.00000E+00
         0.00000E+00
         0.00000E+00
         0.00000E+00
         0.00000E+00
         0.00000E+00
         0.00000E+00
         0.00000E+00
         0.00000E+00
         0.00000E+00
         0.00000E+00
         0.00000E+00
         0.00000E+00
         0.00000E+00
         0.00000E+00
         0.00000E+00
         0.00000E+00
         0.00000E+00
         0.00000E+00
         0.00000E+00
         0.00000E+00
         0.00000E+00
         0.00000E+00
         0.00000E+00
         0.00000E+00
         0.00000E+00
         0.00000E+00
         0.00000E+00
         0.00000E+00
         0.00000E+00
         0.00000E+00
         0.00000E+00
         0.00000E+00
         0.00000E+00
         0.00000E+00
         0.00000E+00
         0.00000E+00
         0.00000E+00
         0.00000E+00
         0.00000E+00
         0.00000E+00
         0.00000E+00
         0.00000E+00
         0.00000E+00
         0.00000E+00
         0.00000E+00
         0.00000E+00
         0.00000E+00
         0.00000E+00
         0.00000E+00
         0.00000E+00
         0.00000E+00
         0.00000E+00
         0.00000E+00
         0.00000E+00
         0.00000E+00
         0.00000E+00
         0.00000E+00
         0.00000E+00
         0.00000E+00
         0.00000E+00
         0.00000E+00
         0.00000E+00
         0.00000E+00
         0.00000E+00
         0.00000E+00
         0.00000E+00
         0.00000E+00
         0.00000E+00
         0.00000E+00
         0.00000E+00
         0.00000E+00
         0.00000E+00
         0.00000E+00
         0.00000E+00
         0.00000E+00
         0.00000E+00
         0.00000E+00
         0.00000E+00
         0.00000E+00
         0.00000E+00
         0.00000E+00
         0.00000E+00
         0.00000E+00
         0.00000E+00
         0.00000E+00
         0.00000E+00
         0.00000E+00
         0.00000E+00
         0.00000E+00
         0.00000E+00
         0.00000E+00
         0.00000E+00
         0.00000E+00
         0.00000E+00
         0.00000E+00
         0.00000E+00
         0.00000E+00
         0.00000E+00
         0.00000E+00
         0.00000E+00
         0.00000E+00
         0.00000E+00
         0.00000E+00
         0.00000E+00
         0.00000E+00
         0.00000E+00
         0.00000E+00
         0.00000E+00
         0.00000E+00
         0.00000E+00
         0.00000E+00
         0.00000E+00
         0.00000E+00
         0.00000E+00
         0.00000E+00
         0.00000E+00
         0.00000E+00
         0.00000E+00
         0.00000E+00
         0.00000E+00
         0.00000E+00
         0.00000E+00
         0.00000E+00
         0.00000E+00
         0.00000E+00
         0.00000E+00
         0.00000E+00
         0.00000E+00
         0.00000E+00
         0.00000E+00
         0.00000E+00
         0.00000E+00
         0.00000E+00
         0.00000E+00
         0.00000E+00
         0.00000E+00
         0.00000E+00
         0.00000E+00
         0.00000E+00
         0.00000E+00
         0.00000E+00
         0.00000E+00
         0.00000E+00
         0.00000E+00
         0.00000E+00
         0.00000E+00
         0.00000E+00
         0.00000E+00
         0.00000E+00
         0.00000E+00
         0.00000E+00
         0.00000E+00
         0.00000E+00
         0.00000E+00
         0.00000E+00
         0.00000E+00
         0.00000E+00
         0.00000E+00
         0.00000E+00
         0.00000E+00
         0.00000E+00
         0.00000E+00
         0.00000E+00
         0.00000E+00
         0.00000E+00
         0.00000E+00
         0.00000E+00
         0.00000E+00
         0.00000E+00
         0.00000E+00
         0.00000E+00
         0.00000E+00
         0.00000E+00
         0.00000E+00
         0.00000E+00
         0.00000E+00
         0.00000E+00
         0.00000E+00
         0.00000E+00
         0.00000E+00
         0.00000E+00
         0.00000E+00
         0.00000E+00
         0.00000E+00
         0.00000E+00
         0.00000E+00
         0.00000E+00
         0.00000E+00
         0.00000E+00
         0.00000E+00
         0.00000E+00
         0.00000E+00
         0.00000E+00
         0.00000E+00
         0.00000E+00
         0.00000E+00
         0.00000E+00
         0.00000E+00
         0.00000E+00
         0.00000E+00
         0.00000E+00
         0.00000E+00
         0.00000E+00
         0.00000E+00
         0.00000E+00
         0.00000E+00
         0.00000E+00
         0.00000E+00
         0.00000E+00
         0.00000E+00
         0.00000E+00
         0.00000E+00
         0.00000E+00
         0.00000E+00
         0.00000E+00
         0.00000E+00
         0.00000E+00
         0.00000E+00
         0.00000E+00
         0.00000E+00
         0.00000E+00
         0.00000E+00
         0.00000E+00
         0.00000E+00
         0.00000E+00
         0.00000E+00
         0.00000E+00
         0.00000E+00
         0.00000E+00
         0.00000E+00
         0.00000E+00
         0.00000E+00
         0.00000E+00
         0.00000E+00
         0.00000E+00
         0.00000E+00
         0.00000E+00
         0.00000E+00
         0.00000E+00
         0.00000E+00
         0.00000E+00
         0.00000E+00
         0.00000E+00
         0.00000E+00
         0.00000E+00
         0.00000E+00
         0.00000E+00
         0.00000E+00
         0.00000E+00
         0.00000E+00
         0.00000E+00
         0.00000E+00
         0.00000E+00
         0.00000E+00
         0.00000E+00
         0.00000E+00
         0.00000E+00
         0.00000E+00
         0.00000E+00
         0.00000E+00
         0.00000E+00
         0.00000E+00
         0.00000E+00
         0.00000E+00
         0.00000E+00
         0.00000E+00
         0.00000E+00
         0.00000E+00
         0.00000E+00
         0.00000E+00
         0.00000E+00
         0.00000E+00
         0.00000E+00
         0.00000E+00
         0.00000E+00
         0.00000E+00
         0.00000E+00
         0.00000E+00
         0.00000E+00
         0.00000E+00
         0.00000E+00
         0.00000E+00
         0.00000E+00
         0.00000E+00
         0.00000E+00
         0.00000E+00
         0.00000E+00
         0.00000E+00
         0.00000E+00
         0.00000E+00
         0.00000E+00
         0.00000E+00
         0.00000E+00
         0.00000E+00
         0.00000E+00
         0.00000E+00
         0.00000E+00
         0.00000E+00
         0.00000E+00
         0.00000E+00
         0.00000E+00
         0.00000E+00
         0.00000E+00
         0.00000E+00
         0.00000E+00
         0.00000E+00
         0.00000E+00
         0.00000E+00
         0.00000E+00
         0.00000E+00
         0.00000E+00
         0.00000E+00
         0.00000E+00
         0.00000E+00
         0.00000E+00
         0.00000E+00
         0.00000E+00
         0.00000E+00
         0.00000E+00
         0.00000E+00
         0.00000E+00
         0.00000E+00
         0.00000E+00
         0.00000E+00
         0.00000E+00
         0.00000E+00
         0.00000E+00
         0.00000E+00
         0.00000E+00
         0.00000E+00
         0.00000E+00
         0.00000E+00
         0.00000E+00
         0.00000E+00
         0.00000E+00
         0.00000E+00
         0.00000E+00
         0.00000E+00
         0.00000E+00
         0.00000E+00
         0.00000E+00
         0.00000E+00
         0.00000E+00
         0.00000E+00
         0.00000E+00
         0.00000E+00
         0.00000E+00
         0.00000E+00
         0.00000E+00
         0.00000E+00
         0.00000E+00
         0.00000E+00
         0.00000E+00
         0.00000E+00
         0.00000E+00
         0.00000E+00
         0.00000E+00
         0.00000E+00
         0.00000E+00
         0.00000E+00
         0.00000E+00
         0.00000E+00
         0.00000E+00
         0.00000E+00
         0.00000E+00
         0.00000E+00
         0.00000E+00
         0.00000E+00
         0.00000E+00
         0.00000E+00
         0.00000E+00
         0.00000E+00
         0.00000E+00
         0.00000E+00
         0.00000E+00
         0.00000E+00
         0.00000E+00
         0.00000E+00
         0.00000E+00
         0.00000E+00
         0.00000E+00
         0.00000E+00
         0.00000E+00
         0.00000E+00
         0.00000E+00
         0.00000E+00
         0.00000E+00
         0.00000E+00
         0.00000E+00
         0.00000E+00
         0.00000E+00
         0.00000E+00
         0.00000E+00
         0.00000E+00
         0.00000E+00
         0.00000E+00
         0.00000E+00
         0.00000E+00
         0.00000E+00
         0.00000E+00
         0.00000E+00
         0.00000E+00
         0.00000E+00
         0.00000E+00
         0.00000E+00
         0.00000E+00
         0.00000E+00
         0.00000E+00
         0.00000E+00
         0.00000E+00
         0.00000E+00
         0.00000E+00
         0.00000E+00
         0.00000E+00
         0.00000E+00
         0.00000E+00
         0.00000E+00
         0.00000E+00
         0.00000E+00
         0.00000E+00
         0.00000E+00
         0.00000E+00
         0.00000E+00
         0.00000E+00
         0.00000E+00
         0.00000E+00
         0.00000E+00
         0.00000E+00
         0.00000E+00
         0.00000E+00
         0.00000E+00
         0.00000E+00
         0.00000E+00
         0.00000E+00
         0.00000E+00
         0.00000E+00
         0.00000E+00
         0.00000E+00
         0.00000E+00
         0.00000E+00
         0.00000E+00
         0.00000E+00
         0.00000E+00
         0.00000E+00
         0.00000E+00
         0.00000E+00
         0.00000E+00
         0.00000E+00
         0.00000E+00
         0.00000E+00
         0.00000E+00
         0.00000E+00
         0.00000E+00
         0.00000E+00
         0.00000E+00
         0.00000E+00
         0.00000E+00
         0.00000E+00
         0.00000E+00
         0.00000E+00
         0.00000E+00
         0.00000E+00
         0.00000E+00
         0.00000E+00
         0.00000E+00
         0.00000E+00
         0.00000E+00
         0.00000E+00
         0.00000E+00
         0.00000E+00
         0.00000E+00
         0.00000E+00
         0.00000E+00
         0.00000E+00
         0.00000E+00
         0.00000E+00
         0.00000E+00
         0.00000E+00
         0.00000E+00
         0.00000E+00
         0.00000E+00
         0.00000E+00
         0.00000E+00
         0.00000E+00
         0.00000E+00
         0.00000E+00
         0.00000E+00
         0.00000E+00
         0.00000E+00
         0.00000E+00
         0.00000E+00
         0.00000E+00
         0.00000E+00
         0.00000E+00
         0.00000E+00
         0.00000E+00
         0.00000E+00
         0.00000E+00
         0.00000E+00
         0.00000E+00
         0.00000E+00
         0.00000E+00
         0.00000E+00
         0.00000E+00
         0.00000E+00
         0.00000E+00
         0.00000E+00
         0.00000E+00
         0.00000E+00
         0.00000E+00
         0.00000E+00
         0.00000E+00
         0.00000E+00
         0.00000E+00
         0.00000E+00
         0.00000E+00
         0.00000E+00
         0.00000E+00
         0.00000E+00
         0.00000E+00
         0.00000E+00
         0.00000E+00
         0.00000E+00
         0.00000E+00
         0.00000E+00
         0.00000E+00
         0.00000E+00
         0.00000E+00
         0.00000E+00
         0.00000E+00
         0.00000E+00
         0.00000E+00
         0.00000E+00
         0.00000E+00
         0.00000E+00
         0.00000E+00
         0.00000E+00
         0.00000E+00
         0.00000E+00
         0.00000E+00
         0.00000E+00
         0.00000E+00
         0.00000E+00
         0.00000E+00
         0.00000E+00
         0.00000E+00
         0.00000E+00
         0.00000E+00
         0.00000E+00
         0.00000E+00
         0.00000E+00
         0.00000E+00
         0.00000E+00
         0.00000E+00
         0.00000E+00
         0.00000E+00
         0.00000E+00
         0.00000E+00
         0.00000E+00
         0.00000E+00
         0.00000E+00
         0.00000E+00
         0.00000E+00
         0.00000E+00
         0.00000E+00
         0.00000E+00
         0.00000E+00
         0.00000E+00
         0.00000E+00
         0.00000E+00
         0.00000E+00
         0.00000E+00
         0.00000E+00
         0.00000E+00
         0.00000E+00
         0.00000E+00
         0.00000E+00
         0.00000E+00
         0.00000E+00
         0.00000E+00
         0.00000E+00
         0.00000E+00
         0.00000E+00
         0.00000E+00
         0.00000E+00
         0.00000E+00
         0.00000E+00
         0.00000E+00
         0.00000E+00
         0.00000E+00
         0.00000E+00
         0.00000E+00
         0.00000E+00
         0.00000E+00
         0.00000E+00
         0.00000E+00
         0.00000E+00
         0.00000E+00
         0.00000E+00
         0.00000E+00
         0.00000E+00
         0.00000E+00
         0.00000E+00
         0.00000E+00
         0.00000E+00
         0.00000E+00
         0.00000E+00
         0.00000E+00
         0.00000E+00
         0.00000E+00
         0.00000E+00
         0.00000E+00
         0.00000E+00
         0.00000E+00
         0.00000E+00
         0.00000E+00
         0.00000E+00
         0.00000E+00
         0.00000E+00
         0.00000E+00
         0.00000E+00
         0.00000E+00
         0.00000E+00
         0.00000E+00
         0.00000E+00
         0.00000E+00
         0.00000E+00
         0.00000E+00
         0.00000E+00
         0.00000E+00
         0.00000E+00
         0.00000E+00
         0.00000E+00
         0.00000E+00
         0.00000E+00
         0.00000E+00
         0.00000E+00
         0.00000E+00
         0.00000E+00
         0.00000E+00
         0.00000E+00
         0.00000E+00
         0.00000E+00
         0.00000E+00
         0.00000E+00
         0.00000E+00
         0.00000E+00
         0.00000E+00
         0.00000E+00
         0.00000E+00
         0.00000E+00
         0.00000E+00
         0.00000E+00
         0.00000E+00
         0.00000E+00
         0.00000E+00
         0.00000E+00
         0.00000E+00
         0.00000E+00
         0.00000E+00
         0.00000E+00
         0.00000E+00
         0.00000E+00
         0.00000E+00
         0.00000E+00
         0.00000E+00
         0.00000E+00
         0.00000E+00
         0.00000E+00
         0.00000E+00
         0.00000E+00
         0.00000E+00
         0.00000E+00
         0.00000E+00
         0.00000E+00
         0.00000E+00
         0.00000E+00
         0.00000E+00
         0.00000E+00
         0.00000E+00
         0.00000E+00
         0.00000E+00
         0.00000E+00
         0.00000E+00
         0.00000E+00
         0.00000E+00
         0.00000E+00
         0.00000E+00
         0.00000E+00
         0.00000E+00
         0.00000E+00
         0.00000E+00
         0.00000E+00
         0.00000E+00
         0.00000E+00
         0.00000E+00
         0.00000E+00
         0.00000E+00
         0.00000E+00
         0.00000E+00
         0.00000E+00
         0.00000E+00
         0.00000E+00
         0.00000E+00
         0.00000E+00
         0.00000E+00
         0.00000E+00
         0.00000E+00
         0.00000E+00
         0.00000E+00
         0.00000E+00
         0.00000E+00
         0.00000E+00
         0.00000E+00
         0.00000E+00
         0.00000E+00
         0.00000E+00
         0.00000E+00
         0.00000E+00
         0.00000E+00
         0.00000E+00
         0.00000E+00
         0.00000E+00
         0.00000E+00
         0.00000E+00
         0.00000E+00
         0.00000E+00
         0.00000E+00
         0.00000E+00
         0.00000E+00
         0.00000E+00
         0.00000E+00
         0.00000E+00
         0.00000E+00
         0.00000E+00
         0.00000E+00
         0.00000E+00
         0.00000E+00
         0.00000E+00
         0.00000E+00
         0.00000E+00
         0.00000E+00
         0.00000E+00
         0.00000E+00
         0.00000E+00
         0.00000E+00
         0.00000E+00
         0.00000E+00
         0.00000E+00
         0.00000E+00
         0.00000E+00
         0.00000E+00
         0.00000E+00
         0.00000E+00
         0.00000E+00
         0.00000E+00
         0.00000E+00
         0.00000E+00
         0.00000E+00
         0.00000E+00
         0.00000E+00
         0.00000E+00
         0.00000E+00
         0.00000E+00
         0.00000E+00
         0.00000E+00
         0.00000E+00
         0.00000E+00
         0.00000E+00
         0.00000E+00
         0.00000E+00
         0.00000E+00
         0.00000E+00
         0.00000E+00
         0.00000E+00
         0.00000E+00
         0.00000E+00
         0.00000E+00
         0.00000E+00
         0.00000E+00
         0.00000E+00
         0.00000E+00
         0.00000E+00
         0.00000E+00
         0.00000E+00
         0.00000E+00
         0.00000E+00
         0.00000E+00
         0.00000E+00
         0.00000E+00
         0.00000E+00
         0.00000E+00
         0.00000E+00
         0.00000E+00
         0.00000E+00
         0.00000E+00
         0.00000E+00
         0.00000E+00
         0.00000E+00
         0.00000E+00
         0.00000E+00
         0.00000E+00
         0.00000E+00
         0.00000E+00
         0.00000E+00
         0.00000E+00
         0.00000E+00
         0.00000E+00
         0.00000E+00
         0.00000E+00
         0.00000E+00
         0.00000E+00
         0.00000E+00
         0.00000E+00
         0.00000E+00
         0.00000E+00
         0.00000E+00
         0.00000E+00
         0.00000E+00
         0.00000E+00
         0.00000E+00
         0.00000E+00
         0.00000E+00
         0.00000E+00
         0.00000E+00
         0.00000E+00
         0.00000E+00
         0.00000E+00
         0.00000E+00
         0.00000E+00
         0.00000E+00
         0.00000E+00
         0.00000E+00
         0.00000E+00
         0.00000E+00
         0.00000E+00
         0.00000E+00
         0.00000E+00
         0.00000E+00
         0.00000E+00
         0.00000E+00
         0.00000E+00
         0.00000E+00
         0.00000E+00
         0.00000E+00
         0.00000E+00
         0.00000E+00
         0.00000E+00
         0.00000E+00
         0.00000E+00
         0.00000E+00
         0.00000E+00
         0.00000E+00
         0.00000E+00
         0.00000E+00
         0.00000E+00
         0.00000E+00
         0.00000E+00
         0.00000E+00
         0.00000E+00
         0.00000E+00
         0.00000E+00
         0.00000E+00
         0.00000E+00
         0.00000E+00
         0.00000E+00
         0.00000E+00
         0.00000E+00
         0.00000E+00
         0.00000E+00
         0.00000E+00
         0.00000E+00
         0.00000E+00
         0.00000E+00
         0.00000E+00
         0.00000E+00
         0.00000E+00
         0.00000E+00
         0.00000E+00
         0.00000E+00
         0.00000E+00
         0.00000E+00
         0.00000E+00
         0.00000E+00
         0.00000E+00
         0.00000E+00
         0.00000E+00
         0.00000E+00
         0.00000E+00
         0.00000E+00
         0.00000E+00
         0.00000E+00
         0.00000E+00
         0.00000E+00
         0.00000E+00
         0.00000E+00
         0.00000E+00
         0.00000E+00
         0.00000E+00
         0.00000E+00
         0.00000E+00
         0.00000E+00
         0.00000E+00
         0.00000E+00
         0.00000E+00
         0.00000E+00
         0.00000E+00
         0.00000E+00
         0.00000E+00
         0.00000E+00
         0.00000E+00
         0.00000E+00
         0.00000E+00
         0.00000E+00
         0.00000E+00
         0.00000E+00
         0.00000E+00
         0.00000E+00
         0.00000E+00
         0.00000E+00
         0.00000E+00
         0.00000E+00
         0.00000E+00
         0.00000E+00
         0.00000E+00
         0.00000E+00
         0.00000E+00
         0.00000E+00
         0.00000E+00
         0.00000E+00
         0.00000E+00
         0.00000E+00
         0.00000E+00
         0.00000E+00
         0.00000E+00
         0.00000E+00
         0.00000E+00
         0.00000E+00
         0.00000E+00
         0.00000E+00
         0.00000E+00
         0.00000E+00
         0.00000E+00
         0.00000E+00
         0.00000E+00
         0.00000E+00
         0.00000E+00
         0.00000E+00
         0.00000E+00
         0.00000E+00
         0.00000E+00
         0.00000E+00
         0.00000E+00
         0.00000E+00
         0.00000E+00
         0.00000E+00
         0.00000E+00
         0.00000E+00
         0.00000E+00
         0.00000E+00
         0.00000E+00
         0.00000E+00
         0.00000E+00
         0.00000E+00
         0.00000E+00
         0.00000E+00
         0.00000E+00
         0.00000E+00
         0.00000E+00
         0.00000E+00
         0.00000E+00
         0.00000E+00
         0.00000E+00
         0.00000E+00
         0.00000E+00
         0.00000E+00
         0.00000E+00
         0.00000E+00
         0.00000E+00
         0.00000E+00
         0.00000E+00
         0.00000E+00
         0.00000E+00
         0.00000E+00
         0.00000E+00
         0.00000E+00
         0.00000E+00
         0.00000E+00
         0.00000E+00
         0.00000E+00
         0.00000E+00
         0.00000E+00
         0.00000E+00
         0.00000E+00
         0.00000E+00
         0.00000E+00
         0.00000E+00
         0.00000E+00
         0.00000E+00
         0.00000E+00
         0.00000E+00
         0.00000E+00
         0.00000E+00
         0.00000E+00
         0.00000E+00
         0.00000E+00
         0.00000E+00
         0.00000E+00
         0.00000E+00
         0.00000E+00
         0.00000E+00
         0.00000E+00
         0.00000E+00
         0.00000E+00
         0.00000E+00
         0.00000E+00
         0.00000E+00
         0.00000E+00
         0.00000E+00
         0.00000E+00
         0.00000E+00
         0.00000E+00
         0.00000E+00
         0.00000E+00
         0.00000E+00
         0.00000E+00
         0.00000E+00
         0.00000E+00
         0.00000E+00
         0.00000E+00
         0.00000E+00
         0.00000E+00
         0.00000E+00
         0.00000E+00
         0.00000E+00
         0.00000E+00
         0.00000E+00
         0.00000E+00
         0.00000E+00
         0.00000E+00
         0.00000E+00
         0.00000E+00
         0.00000E+00
         0.00000E+00
         0.00000E+00
         0.00000E+00
         0.00000E+00
         0.00000E+00
         0.00000E+00
         0.00000E+00
         0.00000E+00
         0.00000E+00
         0.00000E+00
         0.00000E+00
         0.00000E+00
         0.00000E+00
         0.00000E+00
         0.00000E+00
         0.00000E+00
         0.00000E+00
         0.00000E+00
         0.00000E+00
         0.00000E+00
         0.00000E+00
         0.00000E+00
         0.00000E+00
         0.00000E+00
         0.00000E+00
         0.00000E+00
         0.00000E+00
         0.00000E+00
         0.00000E+00
         0.00000E+00
         0.00000E+00
         0.00000E+00
         0.00000E+00
         0.00000E+00
         0.00000E+00
         0.00000E+00
         0.00000E+00
         0.00000E+00
         0.00000E+00
         0.00000E+00
         0.00000E+00
         0.00000E+00
         0.00000E+00
         0.00000E+00
         0.00000E+00
         0.00000E+00
         0.00000E+00
         0.00000E+00
         0.00000E+00
         0.00000E+00
         0.00000E+00
         0.00000E+00
         0.00000E+00
         0.00000E+00
         0.00000E+00
         0.00000E+00
         0.00000E+00
         0.00000E+00
         0.00000E+00
         0.00000E+00
         0.00000E+00
         0.00000E+00
         0.00000E+00
         0.00000E+00
         0.00000E+00
         0.00000E+00
         0.00000E+00
         0.00000E+00
         0.00000E+00
         0.00000E+00
         0.00000E+00
         0.00000E+00
         0.00000E+00
         0.00000E+00
         0.00000E+00
         0.00000E+00
         0.00000E+00
         0.00000E+00
         0.00000E+00
         0.00000E+00
         0.00000E+00
         0.00000E+00
         0.00000E+00
         0.00000E+00
         0.00000E+00
         0.00000E+00
         0.00000E+00
         0.00000E+00
         0.00000E+00
         0.00000E+00
         0.00000E+00
         0.00000E+00
         0.00000E+00
         0.00000E+00
         0.00000E+00
         0.00000E+00
         0.00000E+00
         0.00000E+00
         0.00000E+00
         0.00000E+00
         0.00000E+00
         0.00000E+00
         0.00000E+00
         0.00000E+00
         0.00000E+00
         0.00000E+00
         0.00000E+00
         0.00000E+00
         0.00000E+00
         0.00000E+00
         0.00000E+00
         0.00000E+00
         0.00000E+00
         0.00000E+00
         0.00000E+00
         0.00000E+00
         0.00000E+00
         0.00000E+00
         0.00000E+00
         0.00000E+00
         0.00000E+00
         0.00000E+00
         0.00000E+00
         0.00000E+00
         0.00000E+00
         0.00000E+00
         0.00000E+00
         0.00000E+00
         0.00000E+00
         0.00000E+00
         0.00000E+00
         0.00000E+00
         0.00000E+00
         0.00000E+00
         0.00000E+00
         0.00000E+00
         0.00000E+00
         0.00000E+00
         0.00000E+00
         0.00000E+00
         0.00000E+00
         0.00000E+00
         0.00000E+00
         0.00000E+00
         0.00000E+00
         0.00000E+00
         0.00000E+00
         0.00000E+00
         0.00000E+00
         0.00000E+00
         0.00000E+00
         0.00000E+00
         0.00000E+00
         0.00000E+00
         0.00000E+00
         0.00000E+00
         0.00000E+00
         0.00000E+00
         0.00000E+00
         0.00000E+00
         0.00000E+00
         0.00000E+00
         0.00000E+00
         0.00000E+00
         0.00000E+00
         0.00000E+00
         0.00000E+00
         0.00000E+00
         0.00000E+00
         0.00000E+00
         0.00000E+00
         0.00000E+00
         0.00000E+00
         0.00000E+00
         0.00000E+00
         0.00000E+00
         0.00000E+00
         0.00000E+00
         0.00000E+00
         0.00000E+00
         0.00000E+00
         0.00000E+00
         0.00000E+00
         0.00000E+00
         0.00000E+00
         0.00000E+00
         0.00000E+00
         0.00000E+00
         0.00000E+00
         0.00000E+00
         0.00000E+00
         0.00000E+00
         0.00000E+00
         0.00000E+00
         0.00000E+00
         0.00000E+00
         0.00000E+00
         0.00000E+00
         0.00000E+00
         0.00000E+00
         0.00000E+00
         0.00000E+00
         0.00000E+00
         0.00000E+00
         0.00000E+00
         0.00000E+00
         0.00000E+00
         0.00000E+00
         0.00000E+00
         0.00000E+00
         0.00000E+00
         0.00000E+00
         0.00000E+00
         0.00000E+00
         0.00000E+00
         0.00000E+00
         0.00000E+00
         0.00000E+00
         0.00000E+00
         0.00000E+00
         0.00000E+00
         0.00000E+00
         0.00000E+00
         0.00000E+00
         0.00000E+00
         0.00000E+00
         0.00000E+00
         0.00000E+00
         0.00000E+00
         0.00000E+00
         0.00000E+00
         0.00000E+00
         0.00000E+00
         0.00000E+00
         0.00000E+00
         0.00000E+00
         0.00000E+00
         0.00000E+00
         0.00000E+00
         0.00000E+00
         0.00000E+00
         0.00000E+00
         0.00000E+00
         0.00000E+00
         0.00000E+00
         0.00000E+00
         0.00000E+00
         0.00000E+00
         0.00000E+00
         0.00000E+00
         0.00000E+00
         0.00000E+00
         0.00000E+00
         0.00000E+00
         0.00000E+00
         0.00000E+00
         0.00000E+00
         0.00000E+00
         0.00000E+00
         0.00000E+00
         0.00000E+00
         0.00000E+00
         0.00000E+00
         0.00000E+00
         0.00000E+00
         0.00000E+00
         0.00000E+00
         0.00000E+00
         0.00000E+00
         0.00000E+00
         0.00000E+00
         0.00000E+00
         0.00000E+00
         0.00000E+00
         0.00000E+00
         0.00000E+00
         0.00000E+00
         0.00000E+00
         0.00000E+00
         0.00000E+00
         0.00000E+00
         0.00000E+00
         0.00000E+00
         0.00000E+00
         0.00000E+00
         0.00000E+00
         0.00000E+00
         0.00000E+00
         0.00000E+00
         0.00000E+00
         0.00000E+00
         0.00000E+00
         0.00000E+00
         0.00000E+00
         0.00000E+00
         0.00000E+00
         0.00000E+00
         0.00000E+00
         0.00000E+00
         0.00000E+00
         0.00000E+00
         0.00000E+00
         0.00000E+00
         0.00000E+00
         0.00000E+00
         0.00000E+00
         0.00000E+00
         0.00000E+00
         0.00000E+00
         0.00000E+00
         0.00000E+00
         0.00000E+00
         0.00000E+00
         0.00000E+00
         0.00000E+00
         0.00000E+00
         0.00000E+00
         0.00000E+00
         0.00000E+00
         0.00000E+00
         0.00000E+00
         0.00000E+00
         0.00000E+00
         0.00000E+00
         0.00000E+00
         0.00000E+00
         0.00000E+00
         0.00000E+00
         0.00000E+00
         0.00000E+00
         0.00000E+00
         0.00000E+00
         0.00000E+00
         0.00000E+00
         0.00000E+00
         0.00000E+00
         0.00000E+00
         0.00000E+00
         0.00000E+00
         0.00000E+00
         0.00000E+00
         0.00000E+00
         0.00000E+00
         0.00000E+00
         0.00000E+00
         0.00000E+00
         0.00000E+00
         0.00000E+00
         0.00000E+00
         0.00000E+00
         0.00000E+00
         0.00000E+00
         0.00000E+00
         0.00000E+00
         0.00000E+00
         0.00000E+00
         0.00000E+00
         0.00000E+00
         0.00000E+00
         0.00000E+00
         0.00000E+00
         0.00000E+00
         0.00000E+00
         0.00000E+00
         0.00000E+00
         0.00000E+00
         0.00000E+00
         0.00000E+00
         0.00000E+00
         0.00000E+00
         0.00000E+00
         0.00000E+00
         0.00000E+00
         0.00000E+00
         0.00000E+00
         0.00000E+00
         0.00000E+00
         0.00000E+00
         0.00000E+00
         0.00000E+00
         0.00000E+00
         0.00000E+00
         0.00000E+00
         0.00000E+00
         0.00000E+00
         0.00000E+00
         0.00000E+00
         0.00000E+00
         0.00000E+00
         0.00000E+00
         0.00000E+00
         0.00000E+00
         0.00000E+00
         0.00000E+00
         0.00000E+00
         0.00000E+00
         0.00000E+00
         0.00000E+00
         0.00000E+00
         0.00000E+00
         0.00000E+00
         0.00000E+00
         0.00000E+00
         0.00000E+00
         0.00000E+00
         0.00000E+00
         0.00000E+00
         0.00000E+00
         0.00000E+00
         0.00000E+00
         0.00000E+00
         0.00000E+00
         0.00000E+00
         0.00000E+00
         0.00000E+00
         0.00000E+00
         0.00000E+00
         0.00000E+00
         0.00000E+00
         0.00000E+00
         0.00000E+00
         0.00000E+00
         0.00000E+00
         0.00000E+00
         0.00000E+00
         0.00000E+00
         0.00000E+00
         0.00000E+00
         0.00000E+00
         0.00000E+00
         0.00000E+00
         0.00000E+00
         0.00000E+00
         0.00000E+00
         0.00000E+00
         0.00000E+00
         0.00000E+00
         0.00000E+00
         0.00000E+00
         0.00000E+00
         0.00000E+00
         0.00000E+00
         0.00000E+00
         0.00000E+00
         0.00000E+00
         0.00000E+00
         0.00000E+00
         0.00000E+00
         0.00000E+00
         0.00000E+00
         0.00000E+00
         0.00000E+00
         0.00000E+00
         0.00000E+00
         0.00000E+00
         0.00000E+00
         0.00000E+00
         0.00000E+00
         0.00000E+00
         0.00000E+00
         0.00000E+00
         0.00000E+00
         0.00000E+00
         0.00000E+00
         0.00000E+00
         0.00000E+00
         0.00000E+00
         0.00000E+00
         0.00000E+00
         0.00000E+00
         0.00000E+00
         0.00000E+00
         0.00000E+00
         0.00000E+00
         0.00000E+00
         0.00000E+00
         0.00000E+00
         0.00000E+00
         0.00000E+00
         0.00000E+00
         0.00000E+00
         0.00000E+00
         0.00000E+00
         0.00000E+00
         0.00000E+00
         0.00000E+00
         0.00000E+00
         0.00000E+00
         0.00000E+00
         0.00000E+00
         0.00000E+00
         0.00000E+00
         0.00000E+00
         0.00000E+00
         0.00000E+00
         0.00000E+00
         0.00000E+00
         0.00000E+00
         0.00000E+00
         0.00000E+00
         0.00000E+00
         0.00000E+00
         0.00000E+00
  
SCALARS                init_velocity_z  double 1
LOOKUP_TABLE default
        -0.37300E+03
        -0.37300E+03
        -0.37300E+03
        -0.37300E+03
        -0.37300E+03
        -0.37300E+03
        -0.37300E+03
        -0.37300E+03
        -0.37300E+03
        -0.37300E+03
        -0.37300E+03
        -0.37300E+03
        -0.37300E+03
        -0.37300E+03
        -0.37300E+03
        -0.37300E+03
        -0.37300E+03
        -0.37300E+03
        -0.37300E+03
        -0.37300E+03
        -0.37300E+03
        -0.37300E+03
        -0.37300E+03
        -0.37300E+03
        -0.37300E+03
        -0.37300E+03
        -0.37300E+03
        -0.37300E+03
        -0.37300E+03
        -0.37300E+03
        -0.37300E+03
        -0.37300E+03
        -0.37300E+03
        -0.37300E+03
        -0.37300E+03
        -0.37300E+03
        -0.37300E+03
        -0.37300E+03
        -0.37300E+03
        -0.37300E+03
        -0.37300E+03
        -0.37300E+03
        -0.37300E+03
        -0.37300E+03
        -0.37300E+03
        -0.37300E+03
        -0.37300E+03
        -0.37300E+03
        -0.37300E+03
        -0.37300E+03
        -0.37300E+03
        -0.37300E+03
        -0.37300E+03
        -0.37300E+03
        -0.37300E+03
        -0.37300E+03
        -0.37300E+03
        -0.37300E+03
        -0.37300E+03
        -0.37300E+03
        -0.37300E+03
        -0.37300E+03
        -0.37300E+03
        -0.37300E+03
        -0.37300E+03
        -0.37300E+03
        -0.37300E+03
        -0.37300E+03
        -0.37300E+03
        -0.37300E+03
        -0.37300E+03
        -0.37300E+03
        -0.37300E+03
        -0.37300E+03
        -0.37300E+03
        -0.37300E+03
        -0.37300E+03
        -0.37300E+03
        -0.37300E+03
        -0.37300E+03
        -0.37300E+03
        -0.37300E+03
        -0.37300E+03
        -0.37300E+03
        -0.37300E+03
        -0.37300E+03
        -0.37300E+03
        -0.37300E+03
        -0.37300E+03
        -0.37300E+03
        -0.37300E+03
        -0.37300E+03
        -0.37300E+03
        -0.37300E+03
        -0.37300E+03
        -0.37300E+03
        -0.37300E+03
        -0.37300E+03
        -0.37300E+03
        -0.37300E+03
        -0.37300E+03
        -0.37300E+03
        -0.37300E+03
        -0.37300E+03
        -0.37300E+03
        -0.37300E+03
        -0.37300E+03
        -0.37300E+03
        -0.37300E+03
        -0.37300E+03
        -0.37300E+03
        -0.37300E+03
        -0.37300E+03
        -0.37300E+03
        -0.37300E+03
        -0.37300E+03
        -0.37300E+03
        -0.37300E+03
        -0.37300E+03
        -0.37300E+03
        -0.37300E+03
        -0.37300E+03
        -0.37300E+03
        -0.37300E+03
        -0.37300E+03
        -0.37300E+03
        -0.37300E+03
        -0.37300E+03
        -0.37300E+03
        -0.37300E+03
        -0.37300E+03
        -0.37300E+03
        -0.37300E+03
        -0.37300E+03
        -0.37300E+03
        -0.37300E+03
        -0.37300E+03
        -0.37300E+03
        -0.37300E+03
        -0.37300E+03
        -0.37300E+03
        -0.37300E+03
        -0.37300E+03
        -0.37300E+03
        -0.37300E+03
        -0.37300E+03
        -0.37300E+03
        -0.37300E+03
        -0.37300E+03
        -0.37300E+03
        -0.37300E+03
        -0.37300E+03
        -0.37300E+03
        -0.37300E+03
        -0.37300E+03
        -0.37300E+03
        -0.37300E+03
        -0.37300E+03
        -0.37300E+03
        -0.37300E+03
        -0.37300E+03
        -0.37300E+03
        -0.37300E+03
        -0.37300E+03
        -0.37300E+03
        -0.37300E+03
        -0.37300E+03
        -0.37300E+03
        -0.37300E+03
        -0.37300E+03
        -0.37300E+03
        -0.37300E+03
        -0.37300E+03
        -0.37300E+03
        -0.37300E+03
        -0.37300E+03
        -0.37300E+03
        -0.37300E+03
        -0.37300E+03
        -0.37300E+03
        -0.37300E+03
        -0.37300E+03
        -0.37300E+03
        -0.37300E+03
        -0.37300E+03
        -0.37300E+03
        -0.37300E+03
        -0.37300E+03
        -0.37300E+03
        -0.37300E+03
        -0.37300E+03
        -0.37300E+03
        -0.37300E+03
        -0.37300E+03
        -0.37300E+03
        -0.37300E+03
        -0.37300E+03
        -0.37300E+03
        -0.37300E+03
        -0.37300E+03
        -0.37300E+03
        -0.37300E+03
        -0.37300E+03
        -0.37300E+03
        -0.37300E+03
        -0.37300E+03
        -0.37300E+03
        -0.37300E+03
        -0.37300E+03
        -0.37300E+03
        -0.37300E+03
        -0.37300E+03
        -0.37300E+03
        -0.37300E+03
        -0.37300E+03
        -0.37300E+03
        -0.37300E+03
        -0.37300E+03
        -0.37300E+03
        -0.37300E+03
        -0.37300E+03
        -0.37300E+03
        -0.37300E+03
        -0.37300E+03
        -0.37300E+03
        -0.37300E+03
        -0.37300E+03
        -0.37300E+03
        -0.37300E+03
        -0.37300E+03
        -0.37300E+03
        -0.37300E+03
        -0.37300E+03
        -0.37300E+03
        -0.37300E+03
        -0.37300E+03
        -0.37300E+03
        -0.37300E+03
        -0.37300E+03
        -0.37300E+03
        -0.37300E+03
        -0.37300E+03
        -0.37300E+03
        -0.37300E+03
        -0.37300E+03
        -0.37300E+03
        -0.37300E+03
        -0.37300E+03
        -0.37300E+03
        -0.37300E+03
        -0.37300E+03
        -0.37300E+03
        -0.37300E+03
        -0.37300E+03
        -0.37300E+03
        -0.37300E+03
        -0.37300E+03
        -0.37300E+03
        -0.37300E+03
        -0.37300E+03
        -0.37300E+03
        -0.37300E+03
        -0.37300E+03
        -0.37300E+03
        -0.37300E+03
        -0.37300E+03
        -0.37300E+03
        -0.37300E+03
        -0.37300E+03
        -0.37300E+03
        -0.37300E+03
        -0.37300E+03
        -0.37300E+03
        -0.37300E+03
        -0.37300E+03
        -0.37300E+03
        -0.37300E+03
        -0.37300E+03
        -0.37300E+03
        -0.37300E+03
        -0.37300E+03
        -0.37300E+03
        -0.37300E+03
        -0.37300E+03
        -0.37300E+03
        -0.37300E+03
        -0.37300E+03
        -0.37300E+03
        -0.37300E+03
        -0.37300E+03
        -0.37300E+03
        -0.37300E+03
        -0.37300E+03
        -0.37300E+03
        -0.37300E+03
        -0.37300E+03
        -0.37300E+03
        -0.37300E+03
        -0.37300E+03
        -0.37300E+03
        -0.37300E+03
        -0.37300E+03
        -0.37300E+03
        -0.37300E+03
        -0.37300E+03
        -0.37300E+03
        -0.37300E+03
        -0.37300E+03
        -0.37300E+03
        -0.37300E+03
        -0.37300E+03
        -0.37300E+03
        -0.37300E+03
        -0.37300E+03
        -0.37300E+03
        -0.37300E+03
        -0.37300E+03
        -0.37300E+03
        -0.37300E+03
        -0.37300E+03
        -0.37300E+03
        -0.37300E+03
        -0.37300E+03
        -0.37300E+03
        -0.37300E+03
        -0.37300E+03
        -0.37300E+03
        -0.37300E+03
        -0.37300E+03
        -0.37300E+03
        -0.37300E+03
        -0.37300E+03
        -0.37300E+03
        -0.37300E+03
        -0.37300E+03
        -0.37300E+03
        -0.37300E+03
        -0.37300E+03
        -0.37300E+03
        -0.37300E+03
        -0.37300E+03
        -0.37300E+03
        -0.37300E+03
        -0.37300E+03
        -0.37300E+03
        -0.37300E+03
        -0.37300E+03
        -0.37300E+03
        -0.37300E+03
        -0.37300E+03
        -0.37300E+03
        -0.37300E+03
        -0.37300E+03
        -0.37300E+03
        -0.37300E+03
        -0.37300E+03
        -0.37300E+03
        -0.37300E+03
        -0.37300E+03
        -0.37300E+03
        -0.37300E+03
        -0.37300E+03
        -0.37300E+03
        -0.37300E+03
        -0.37300E+03
        -0.37300E+03
        -0.37300E+03
        -0.37300E+03
        -0.37300E+03
        -0.37300E+03
        -0.37300E+03
        -0.37300E+03
        -0.37300E+03
        -0.37300E+03
        -0.37300E+03
        -0.37300E+03
        -0.37300E+03
        -0.37300E+03
        -0.37300E+03
        -0.37300E+03
        -0.37300E+03
        -0.37300E+03
        -0.37300E+03
        -0.37300E+03
        -0.37300E+03
        -0.37300E+03
        -0.37300E+03
        -0.37300E+03
        -0.37300E+03
        -0.37300E+03
        -0.37300E+03
        -0.37300E+03
        -0.37300E+03
        -0.37300E+03
        -0.37300E+03
        -0.37300E+03
        -0.37300E+03
        -0.37300E+03
        -0.37300E+03
        -0.37300E+03
        -0.37300E+03
        -0.37300E+03
        -0.37300E+03
        -0.37300E+03
        -0.37300E+03
        -0.37300E+03
        -0.37300E+03
        -0.37300E+03
        -0.37300E+03
        -0.37300E+03
        -0.37300E+03
        -0.37300E+03
        -0.37300E+03
        -0.37300E+03
        -0.37300E+03
        -0.37300E+03
        -0.37300E+03
        -0.37300E+03
        -0.37300E+03
        -0.37300E+03
        -0.37300E+03
        -0.37300E+03
        -0.37300E+03
        -0.37300E+03
        -0.37300E+03
        -0.37300E+03
        -0.37300E+03
        -0.37300E+03
        -0.37300E+03
        -0.37300E+03
        -0.37300E+03
        -0.37300E+03
        -0.37300E+03
        -0.37300E+03
        -0.37300E+03
        -0.37300E+03
        -0.37300E+03
        -0.37300E+03
        -0.37300E+03
        -0.37300E+03
        -0.37300E+03
        -0.37300E+03
        -0.37300E+03
        -0.37300E+03
        -0.37300E+03
        -0.37300E+03
        -0.37300E+03
        -0.37300E+03
        -0.37300E+03
        -0.37300E+03
        -0.37300E+03
        -0.37300E+03
        -0.37300E+03
        -0.37300E+03
        -0.37300E+03
        -0.37300E+03
        -0.37300E+03
        -0.37300E+03
        -0.37300E+03
        -0.37300E+03
        -0.37300E+03
        -0.37300E+03
        -0.37300E+03
        -0.37300E+03
        -0.37300E+03
        -0.37300E+03
        -0.37300E+03
        -0.37300E+03
        -0.37300E+03
        -0.37300E+03
        -0.37300E+03
        -0.37300E+03
        -0.37300E+03
        -0.37300E+03
        -0.37300E+03
        -0.37300E+03
        -0.37300E+03
        -0.37300E+03
        -0.37300E+03
        -0.37300E+03
        -0.37300E+03
        -0.37300E+03
        -0.37300E+03
        -0.37300E+03
        -0.37300E+03
        -0.37300E+03
        -0.37300E+03
        -0.37300E+03
        -0.37300E+03
        -0.37300E+03
        -0.37300E+03
        -0.37300E+03
        -0.37300E+03
        -0.37300E+03
        -0.37300E+03
        -0.37300E+03
        -0.37300E+03
        -0.37300E+03
        -0.37300E+03
        -0.37300E+03
        -0.37300E+03
        -0.37300E+03
        -0.37300E+03
        -0.37300E+03
        -0.37300E+03
        -0.37300E+03
        -0.37300E+03
        -0.37300E+03
        -0.37300E+03
        -0.37300E+03
        -0.37300E+03
        -0.37300E+03
        -0.37300E+03
        -0.37300E+03
        -0.37300E+03
        -0.37300E+03
        -0.37300E+03
        -0.37300E+03
        -0.37300E+03
        -0.37300E+03
        -0.37300E+03
        -0.37300E+03
        -0.37300E+03
        -0.37300E+03
        -0.37300E+03
        -0.37300E+03
        -0.37300E+03
        -0.37300E+03
        -0.37300E+03
        -0.37300E+03
        -0.37300E+03
        -0.37300E+03
        -0.37300E+03
        -0.37300E+03
        -0.37300E+03
        -0.37300E+03
        -0.37300E+03
        -0.37300E+03
        -0.37300E+03
        -0.37300E+03
        -0.37300E+03
        -0.37300E+03
        -0.37300E+03
        -0.37300E+03
        -0.37300E+03
        -0.37300E+03
        -0.37300E+03
        -0.37300E+03
        -0.37300E+03
        -0.37300E+03
        -0.37300E+03
        -0.37300E+03
        -0.37300E+03
        -0.37300E+03
        -0.37300E+03
        -0.37300E+03
        -0.37300E+03
        -0.37300E+03
        -0.37300E+03
        -0.37300E+03
        -0.37300E+03
        -0.37300E+03
        -0.37300E+03
        -0.37300E+03
        -0.37300E+03
        -0.37300E+03
        -0.37300E+03
        -0.37300E+03
        -0.37300E+03
        -0.37300E+03
        -0.37300E+03
        -0.37300E+03
        -0.37300E+03
        -0.37300E+03
        -0.37300E+03
        -0.37300E+03
        -0.37300E+03
        -0.37300E+03
        -0.37300E+03
        -0.37300E+03
        -0.37300E+03
        -0.37300E+03
        -0.37300E+03
        -0.37300E+03
        -0.37300E+03
        -0.37300E+03
        -0.37300E+03
        -0.37300E+03
        -0.37300E+03
        -0.37300E+03
        -0.37300E+03
        -0.37300E+03
        -0.37300E+03
        -0.37300E+03
        -0.37300E+03
        -0.37300E+03
        -0.37300E+03
        -0.37300E+03
        -0.37300E+03
        -0.37300E+03
        -0.37300E+03
        -0.37300E+03
        -0.37300E+03
        -0.37300E+03
        -0.37300E+03
        -0.37300E+03
        -0.37300E+03
        -0.37300E+03
        -0.37300E+03
        -0.37300E+03
        -0.37300E+03
        -0.37300E+03
        -0.37300E+03
        -0.37300E+03
        -0.37300E+03
        -0.37300E+03
        -0.37300E+03
        -0.37300E+03
        -0.37300E+03
        -0.37300E+03
        -0.37300E+03
        -0.37300E+03
        -0.37300E+03
        -0.37300E+03
        -0.37300E+03
        -0.37300E+03
        -0.37300E+03
        -0.37300E+03
        -0.37300E+03
        -0.37300E+03
        -0.37300E+03
        -0.37300E+03
        -0.37300E+03
        -0.37300E+03
        -0.37300E+03
        -0.37300E+03
        -0.37300E+03
        -0.37300E+03
        -0.37300E+03
        -0.37300E+03
        -0.37300E+03
        -0.37300E+03
        -0.37300E+03
        -0.37300E+03
        -0.37300E+03
        -0.37300E+03
        -0.37300E+03
        -0.37300E+03
        -0.37300E+03
        -0.37300E+03
        -0.37300E+03
        -0.37300E+03
        -0.37300E+03
        -0.37300E+03
        -0.37300E+03
        -0.37300E+03
        -0.37300E+03
        -0.37300E+03
        -0.37300E+03
        -0.37300E+03
        -0.37300E+03
        -0.37300E+03
        -0.37300E+03
        -0.37300E+03
        -0.37300E+03
        -0.37300E+03
        -0.37300E+03
        -0.37300E+03
        -0.37300E+03
        -0.37300E+03
        -0.37300E+03
        -0.37300E+03
        -0.37300E+03
        -0.37300E+03
        -0.37300E+03
        -0.37300E+03
        -0.37300E+03
        -0.37300E+03
        -0.37300E+03
        -0.37300E+03
        -0.37300E+03
        -0.37300E+03
        -0.37300E+03
        -0.37300E+03
        -0.37300E+03
        -0.37300E+03
        -0.37300E+03
        -0.37300E+03
        -0.37300E+03
        -0.37300E+03
        -0.37300E+03
        -0.37300E+03
        -0.37300E+03
        -0.37300E+03
        -0.37300E+03
        -0.37300E+03
        -0.37300E+03
        -0.37300E+03
        -0.37300E+03
        -0.37300E+03
        -0.37300E+03
        -0.37300E+03
        -0.37300E+03
        -0.37300E+03
        -0.37300E+03
        -0.37300E+03
        -0.37300E+03
        -0.37300E+03
        -0.37300E+03
        -0.37300E+03
        -0.37300E+03
        -0.37300E+03
        -0.37300E+03
        -0.37300E+03
        -0.37300E+03
        -0.37300E+03
        -0.37300E+03
        -0.37300E+03
        -0.37300E+03
        -0.37300E+03
        -0.37300E+03
        -0.37300E+03
        -0.37300E+03
        -0.37300E+03
        -0.37300E+03
        -0.37300E+03
        -0.37300E+03
        -0.37300E+03
        -0.37300E+03
        -0.37300E+03
        -0.37300E+03
        -0.37300E+03
        -0.37300E+03
        -0.37300E+03
        -0.37300E+03
        -0.37300E+03
        -0.37300E+03
        -0.37300E+03
        -0.37300E+03
        -0.37300E+03
        -0.37300E+03
        -0.37300E+03
        -0.37300E+03
        -0.37300E+03
        -0.37300E+03
        -0.37300E+03
        -0.37300E+03
        -0.37300E+03
        -0.37300E+03
        -0.37300E+03
        -0.37300E+03
        -0.37300E+03
        -0.37300E+03
        -0.37300E+03
        -0.37300E+03
        -0.37300E+03
        -0.37300E+03
        -0.37300E+03
        -0.37300E+03
        -0.37300E+03
        -0.37300E+03
        -0.37300E+03
        -0.37300E+03
        -0.37300E+03
        -0.37300E+03
        -0.37300E+03
        -0.37300E+03
        -0.37300E+03
        -0.37300E+03
        -0.37300E+03
        -0.37300E+03
        -0.37300E+03
        -0.37300E+03
        -0.37300E+03
        -0.37300E+03
        -0.37300E+03
        -0.37300E+03
        -0.37300E+03
        -0.37300E+03
        -0.37300E+03
        -0.37300E+03
        -0.37300E+03
        -0.37300E+03
        -0.37300E+03
        -0.37300E+03
        -0.37300E+03
        -0.37300E+03
        -0.37300E+03
        -0.37300E+03
        -0.37300E+03
        -0.37300E+03
        -0.37300E+03
        -0.37300E+03
        -0.37300E+03
        -0.37300E+03
        -0.37300E+03
        -0.37300E+03
        -0.37300E+03
        -0.37300E+03
        -0.37300E+03
        -0.37300E+03
        -0.37300E+03
        -0.37300E+03
        -0.37300E+03
        -0.37300E+03
        -0.37300E+03
        -0.37300E+03
        -0.37300E+03
        -0.37300E+03
        -0.37300E+03
        -0.37300E+03
        -0.37300E+03
        -0.37300E+03
        -0.37300E+03
        -0.37300E+03
        -0.37300E+03
        -0.37300E+03
        -0.37300E+03
        -0.37300E+03
        -0.37300E+03
        -0.37300E+03
        -0.37300E+03
        -0.37300E+03
        -0.37300E+03
        -0.37300E+03
        -0.37300E+03
        -0.37300E+03
        -0.37300E+03
        -0.37300E+03
        -0.37300E+03
        -0.37300E+03
        -0.37300E+03
        -0.37300E+03
        -0.37300E+03
        -0.37300E+03
        -0.37300E+03
        -0.37300E+03
        -0.37300E+03
        -0.37300E+03
        -0.37300E+03
        -0.37300E+03
        -0.37300E+03
        -0.37300E+03
        -0.37300E+03
        -0.37300E+03
        -0.37300E+03
        -0.37300E+03
        -0.37300E+03
        -0.37300E+03
        -0.37300E+03
        -0.37300E+03
        -0.37300E+03
        -0.37300E+03
        -0.37300E+03
        -0.37300E+03
        -0.37300E+03
        -0.37300E+03
        -0.37300E+03
        -0.37300E+03
        -0.37300E+03
        -0.37300E+03
        -0.37300E+03
        -0.37300E+03
        -0.37300E+03
        -0.37300E+03
        -0.37300E+03
        -0.37300E+03
        -0.37300E+03
        -0.37300E+03
        -0.37300E+03
        -0.37300E+03
        -0.37300E+03
        -0.37300E+03
        -0.37300E+03
        -0.37300E+03
        -0.37300E+03
        -0.37300E+03
        -0.37300E+03
        -0.37300E+03
        -0.37300E+03
        -0.37300E+03
        -0.37300E+03
        -0.37300E+03
        -0.37300E+03
        -0.37300E+03
        -0.37300E+03
        -0.37300E+03
        -0.37300E+03
        -0.37300E+03
        -0.37300E+03
        -0.37300E+03
        -0.37300E+03
        -0.37300E+03
        -0.37300E+03
        -0.37300E+03
        -0.37300E+03
        -0.37300E+03
        -0.37300E+03
        -0.37300E+03
        -0.37300E+03
        -0.37300E+03
        -0.37300E+03
        -0.37300E+03
        -0.37300E+03
        -0.37300E+03
        -0.37300E+03
        -0.37300E+03
        -0.37300E+03
        -0.37300E+03
        -0.37300E+03
        -0.37300E+03
        -0.37300E+03
        -0.37300E+03
        -0.37300E+03
        -0.37300E+03
        -0.37300E+03
        -0.37300E+03
        -0.37300E+03
        -0.37300E+03
        -0.37300E+03
        -0.37300E+03
        -0.37300E+03
        -0.37300E+03
        -0.37300E+03
        -0.37300E+03
        -0.37300E+03
        -0.37300E+03
        -0.37300E+03
        -0.37300E+03
        -0.37300E+03
        -0.37300E+03
        -0.37300E+03
        -0.37300E+03
        -0.37300E+03
        -0.37300E+03
        -0.37300E+03
        -0.37300E+03
        -0.37300E+03
        -0.37300E+03
        -0.37300E+03
        -0.37300E+03
        -0.37300E+03
        -0.37300E+03
        -0.37300E+03
        -0.37300E+03
        -0.37300E+03
        -0.37300E+03
        -0.37300E+03
        -0.37300E+03
        -0.37300E+03
        -0.37300E+03
        -0.37300E+03
        -0.37300E+03
        -0.37300E+03
        -0.37300E+03
        -0.37300E+03
        -0.37300E+03
        -0.37300E+03
        -0.37300E+03
        -0.37300E+03
        -0.37300E+03
        -0.37300E+03
        -0.37300E+03
        -0.37300E+03
        -0.37300E+03
        -0.37300E+03
        -0.37300E+03
        -0.37300E+03
        -0.37300E+03
        -0.37300E+03
        -0.37300E+03
        -0.37300E+03
        -0.37300E+03
        -0.37300E+03
        -0.37300E+03
        -0.37300E+03
        -0.37300E+03
        -0.37300E+03
        -0.37300E+03
        -0.37300E+03
        -0.37300E+03
        -0.37300E+03
        -0.37300E+03
        -0.37300E+03
        -0.37300E+03
        -0.37300E+03
        -0.37300E+03
        -0.37300E+03
        -0.37300E+03
        -0.37300E+03
        -0.37300E+03
        -0.37300E+03
        -0.37300E+03
        -0.37300E+03
        -0.37300E+03
        -0.37300E+03
        -0.37300E+03
        -0.37300E+03
        -0.37300E+03
        -0.37300E+03
        -0.37300E+03
        -0.37300E+03
        -0.37300E+03
        -0.37300E+03
        -0.37300E+03
        -0.37300E+03
        -0.37300E+03
        -0.37300E+03
        -0.37300E+03
        -0.37300E+03
        -0.37300E+03
        -0.37300E+03
        -0.37300E+03
        -0.37300E+03
        -0.37300E+03
        -0.37300E+03
        -0.37300E+03
        -0.37300E+03
        -0.37300E+03
        -0.37300E+03
        -0.37300E+03
        -0.37300E+03
        -0.37300E+03
        -0.37300E+03
        -0.37300E+03
        -0.37300E+03
        -0.37300E+03
        -0.37300E+03
        -0.37300E+03
        -0.37300E+03
        -0.37300E+03
        -0.37300E+03
        -0.37300E+03
        -0.37300E+03
        -0.37300E+03
        -0.37300E+03
        -0.37300E+03
        -0.37300E+03
        -0.37300E+03
        -0.37300E+03
        -0.37300E+03
        -0.37300E+03
        -0.37300E+03
        -0.37300E+03
        -0.37300E+03
        -0.37300E+03
        -0.37300E+03
        -0.37300E+03
        -0.37300E+03
        -0.37300E+03
        -0.37300E+03
        -0.37300E+03
        -0.37300E+03
        -0.37300E+03
        -0.37300E+03
        -0.37300E+03
        -0.37300E+03
        -0.37300E+03
        -0.37300E+03
        -0.37300E+03
        -0.37300E+03
        -0.37300E+03
        -0.37300E+03
        -0.37300E+03
        -0.37300E+03
        -0.37300E+03
        -0.37300E+03
        -0.37300E+03
        -0.37300E+03
        -0.37300E+03
        -0.37300E+03
        -0.37300E+03
        -0.37300E+03
        -0.37300E+03
        -0.37300E+03
        -0.37300E+03
        -0.37300E+03
        -0.37300E+03
        -0.37300E+03
        -0.37300E+03
        -0.37300E+03
        -0.37300E+03
        -0.37300E+03
        -0.37300E+03
        -0.37300E+03
        -0.37300E+03
        -0.37300E+03
        -0.37300E+03
        -0.37300E+03
        -0.37300E+03
        -0.37300E+03
        -0.37300E+03
        -0.37300E+03
        -0.37300E+03
        -0.37300E+03
        -0.37300E+03
        -0.37300E+03
        -0.37300E+03
        -0.37300E+03
        -0.37300E+03
        -0.37300E+03
        -0.37300E+03
        -0.37300E+03
        -0.37300E+03
        -0.37300E+03
        -0.37300E+03
        -0.37300E+03
        -0.37300E+03
        -0.37300E+03
        -0.37300E+03
        -0.37300E+03
        -0.37300E+03
        -0.37300E+03
        -0.37300E+03
        -0.37300E+03
        -0.37300E+03
        -0.37300E+03
        -0.37300E+03
        -0.37300E+03
        -0.37300E+03
        -0.37300E+03
        -0.37300E+03
        -0.37300E+03
        -0.37300E+03
        -0.37300E+03
        -0.37300E+03
        -0.37300E+03
        -0.37300E+03
        -0.37300E+03
        -0.37300E+03
        -0.37300E+03
        -0.37300E+03
        -0.37300E+03
        -0.37300E+03
        -0.37300E+03
        -0.37300E+03
        -0.37300E+03
        -0.37300E+03
        -0.37300E+03
        -0.37300E+03
        -0.37300E+03
        -0.37300E+03
        -0.37300E+03
        -0.37300E+03
        -0.37300E+03
        -0.37300E+03
        -0.37300E+03
        -0.37300E+03
        -0.37300E+03
        -0.37300E+03
        -0.37300E+03
        -0.37300E+03
        -0.37300E+03
        -0.37300E+03
        -0.37300E+03
        -0.37300E+03
        -0.37300E+03
        -0.37300E+03
        -0.37300E+03
        -0.37300E+03
        -0.37300E+03
        -0.37300E+03
        -0.37300E+03
        -0.37300E+03
        -0.37300E+03
        -0.37300E+03
        -0.37300E+03
        -0.37300E+03
        -0.37300E+03
        -0.37300E+03
        -0.37300E+03
        -0.37300E+03
        -0.37300E+03
        -0.37300E+03
        -0.37300E+03
        -0.37300E+03
        -0.37300E+03
        -0.37300E+03
        -0.37300E+03
        -0.37300E+03
        -0.37300E+03
        -0.37300E+03
        -0.37300E+03
        -0.37300E+03
        -0.37300E+03
        -0.37300E+03
        -0.37300E+03
        -0.37300E+03
        -0.37300E+03
        -0.37300E+03
        -0.37300E+03
        -0.37300E+03
        -0.37300E+03
        -0.37300E+03
        -0.37300E+03
        -0.37300E+03
        -0.37300E+03
        -0.37300E+03
        -0.37300E+03
        -0.37300E+03
        -0.37300E+03
        -0.37300E+03
        -0.37300E+03
        -0.37300E+03
        -0.37300E+03
        -0.37300E+03
        -0.37300E+03
        -0.37300E+03
        -0.37300E+03
        -0.37300E+03
        -0.37300E+03
        -0.37300E+03
        -0.37300E+03
        -0.37300E+03
        -0.37300E+03
        -0.37300E+03
        -0.37300E+03
        -0.37300E+03
        -0.37300E+03
        -0.37300E+03
        -0.37300E+03
        -0.37300E+03
        -0.37300E+03
        -0.37300E+03
        -0.37300E+03
        -0.37300E+03
        -0.37300E+03
        -0.37300E+03
        -0.37300E+03
        -0.37300E+03
        -0.37300E+03
        -0.37300E+03
        -0.37300E+03
        -0.37300E+03
        -0.37300E+03
        -0.37300E+03
        -0.37300E+03
        -0.37300E+03
        -0.37300E+03
        -0.37300E+03
        -0.37300E+03
        -0.37300E+03
        -0.37300E+03
        -0.37300E+03
        -0.37300E+03
        -0.37300E+03
        -0.37300E+03
        -0.37300E+03
        -0.37300E+03
        -0.37300E+03
        -0.37300E+03
        -0.37300E+03
        -0.37300E+03
        -0.37300E+03
        -0.37300E+03
        -0.37300E+03
        -0.37300E+03
        -0.37300E+03
        -0.37300E+03
        -0.37300E+03
        -0.37300E+03
        -0.37300E+03
        -0.37300E+03
        -0.37300E+03
        -0.37300E+03
        -0.37300E+03
        -0.37300E+03
        -0.37300E+03
        -0.37300E+03
        -0.37300E+03
        -0.37300E+03
        -0.37300E+03
        -0.37300E+03
        -0.37300E+03
        -0.37300E+03
        -0.37300E+03
        -0.37300E+03
        -0.37300E+03
        -0.37300E+03
        -0.37300E+03
        -0.37300E+03
        -0.37300E+03
        -0.37300E+03
        -0.37300E+03
        -0.37300E+03
        -0.37300E+03
        -0.37300E+03
        -0.37300E+03
        -0.37300E+03
        -0.37300E+03
        -0.37300E+03
        -0.37300E+03
        -0.37300E+03
        -0.37300E+03
        -0.37300E+03
        -0.37300E+03
        -0.37300E+03
        -0.37300E+03
        -0.37300E+03
        -0.37300E+03
        -0.37300E+03
        -0.37300E+03
        -0.37300E+03
        -0.37300E+03
        -0.37300E+03
        -0.37300E+03
        -0.37300E+03
        -0.37300E+03
        -0.37300E+03
        -0.37300E+03
        -0.37300E+03
        -0.37300E+03
        -0.37300E+03
        -0.37300E+03
        -0.37300E+03
        -0.37300E+03
        -0.37300E+03
        -0.37300E+03
        -0.37300E+03
        -0.37300E+03
        -0.37300E+03
        -0.37300E+03
        -0.37300E+03
        -0.37300E+03
        -0.37300E+03
        -0.37300E+03
        -0.37300E+03
        -0.37300E+03
        -0.37300E+03
        -0.37300E+03
        -0.37300E+03
        -0.37300E+03
        -0.37300E+03
        -0.37300E+03
        -0.37300E+03
        -0.37300E+03
        -0.37300E+03
        -0.37300E+03
        -0.37300E+03
        -0.37300E+03
        -0.37300E+03
        -0.37300E+03
        -0.37300E+03
        -0.37300E+03
        -0.37300E+03
        -0.37300E+03
        -0.37300E+03
        -0.37300E+03
        -0.37300E+03
        -0.37300E+03
        -0.37300E+03
        -0.37300E+03
        -0.37300E+03
        -0.37300E+03
        -0.37300E+03
        -0.37300E+03
        -0.37300E+03
        -0.37300E+03
        -0.37300E+03
        -0.37300E+03
        -0.37300E+03
        -0.37300E+03
        -0.37300E+03
        -0.37300E+03
        -0.37300E+03
        -0.37300E+03
        -0.37300E+03
        -0.37300E+03
        -0.37300E+03
        -0.37300E+03
        -0.37300E+03
        -0.37300E+03
        -0.37300E+03
        -0.37300E+03
        -0.37300E+03
        -0.37300E+03
        -0.37300E+03
        -0.37300E+03
        -0.37300E+03
        -0.37300E+03
        -0.37300E+03
        -0.37300E+03
        -0.37300E+03
        -0.37300E+03
        -0.37300E+03
        -0.37300E+03
        -0.37300E+03
        -0.37300E+03
        -0.37300E+03
        -0.37300E+03
        -0.37300E+03
        -0.37300E+03
        -0.37300E+03
        -0.37300E+03
        -0.37300E+03
        -0.37300E+03
        -0.37300E+03
        -0.37300E+03
        -0.37300E+03
        -0.37300E+03
        -0.37300E+03
        -0.37300E+03
        -0.37300E+03
        -0.37300E+03
        -0.37300E+03
        -0.37300E+03
        -0.37300E+03
        -0.37300E+03
        -0.37300E+03
        -0.37300E+03
        -0.37300E+03
        -0.37300E+03
        -0.37300E+03
        -0.37300E+03
        -0.37300E+03
        -0.37300E+03
        -0.37300E+03
        -0.37300E+03
        -0.37300E+03
        -0.37300E+03
        -0.37300E+03
        -0.37300E+03
        -0.37300E+03
        -0.37300E+03
        -0.37300E+03
        -0.37300E+03
        -0.37300E+03
        -0.37300E+03
        -0.37300E+03
        -0.37300E+03
        -0.37300E+03
        -0.37300E+03
        -0.37300E+03
        -0.37300E+03
        -0.37300E+03
        -0.37300E+03
        -0.37300E+03
        -0.37300E+03
        -0.37300E+03
        -0.37300E+03
        -0.37300E+03
        -0.37300E+03
        -0.37300E+03
        -0.37300E+03
        -0.37300E+03
        -0.37300E+03
        -0.37300E+03
        -0.37300E+03
        -0.37300E+03
        -0.37300E+03
        -0.37300E+03
        -0.37300E+03
        -0.37300E+03
        -0.37300E+03
        -0.37300E+03
        -0.37300E+03
        -0.37300E+03
        -0.37300E+03
        -0.37300E+03
        -0.37300E+03
        -0.37300E+03
        -0.37300E+03
        -0.37300E+03
        -0.37300E+03
        -0.37300E+03
        -0.37300E+03
        -0.37300E+03
        -0.37300E+03
        -0.37300E+03
        -0.37300E+03
        -0.37300E+03
        -0.37300E+03
        -0.37300E+03
        -0.37300E+03
        -0.37300E+03
        -0.37300E+03
        -0.37300E+03
        -0.37300E+03
        -0.37300E+03
        -0.37300E+03
        -0.37300E+03
        -0.37300E+03
        -0.37300E+03
        -0.37300E+03
        -0.37300E+03
        -0.37300E+03
        -0.37300E+03
        -0.37300E+03
        -0.37300E+03
        -0.37300E+03
        -0.37300E+03
        -0.37300E+03
        -0.37300E+03
        -0.37300E+03
        -0.37300E+03
        -0.37300E+03
        -0.37300E+03
        -0.37300E+03
        -0.37300E+03
        -0.37300E+03
        -0.37300E+03
        -0.37300E+03
        -0.37300E+03
        -0.37300E+03
        -0.37300E+03
        -0.37300E+03
        -0.37300E+03
        -0.37300E+03
        -0.37300E+03
        -0.37300E+03
        -0.37300E+03
        -0.37300E+03
        -0.37300E+03
        -0.37300E+03
        -0.37300E+03
        -0.37300E+03
        -0.37300E+03
        -0.37300E+03
        -0.37300E+03
        -0.37300E+03
        -0.37300E+03
        -0.37300E+03
        -0.37300E+03
        -0.37300E+03
        -0.37300E+03
        -0.37300E+03
        -0.37300E+03
        -0.37300E+03
        -0.37300E+03
        -0.37300E+03
        -0.37300E+03
        -0.37300E+03
        -0.37300E+03
        -0.37300E+03
        -0.37300E+03
        -0.37300E+03
        -0.37300E+03
        -0.37300E+03
        -0.37300E+03
        -0.37300E+03
        -0.37300E+03
        -0.37300E+03
        -0.37300E+03
        -0.37300E+03
        -0.37300E+03
        -0.37300E+03
        -0.37300E+03
        -0.37300E+03
        -0.37300E+03
        -0.37300E+03
        -0.37300E+03
        -0.37300E+03
        -0.37300E+03
        -0.37300E+03
        -0.37300E+03
        -0.37300E+03
        -0.37300E+03
        -0.37300E+03
        -0.37300E+03
        -0.37300E+03
        -0.37300E+03
        -0.37300E+03
        -0.37300E+03
        -0.37300E+03
        -0.37300E+03
        -0.37300E+03
        -0.37300E+03
        -0.37300E+03
        -0.37300E+03
        -0.37300E+03
        -0.37300E+03
        -0.37300E+03
        -0.37300E+03
        -0.37300E+03
        -0.37300E+03
        -0.37300E+03
        -0.37300E+03
        -0.37300E+03
        -0.37300E+03
        -0.37300E+03
        -0.37300E+03
        -0.37300E+03
        -0.37300E+03
        -0.37300E+03
        -0.37300E+03
        -0.37300E+03
        -0.37300E+03
        -0.37300E+03
        -0.37300E+03
        -0.37300E+03
        -0.37300E+03
        -0.37300E+03
        -0.37300E+03
        -0.37300E+03
        -0.37300E+03
        -0.37300E+03
        -0.37300E+03
        -0.37300E+03
        -0.37300E+03
        -0.37300E+03
        -0.37300E+03
        -0.37300E+03
        -0.37300E+03
        -0.37300E+03
        -0.37300E+03
        -0.37300E+03
        -0.37300E+03
        -0.37300E+03
        -0.37300E+03
        -0.37300E+03
        -0.37300E+03
        -0.37300E+03
        -0.37300E+03
        -0.37300E+03
        -0.37300E+03
        -0.37300E+03
        -0.37300E+03
        -0.37300E+03
        -0.37300E+03
        -0.37300E+03
        -0.37300E+03
        -0.37300E+03
        -0.37300E+03
        -0.37300E+03
        -0.37300E+03
        -0.37300E+03
        -0.37300E+03
        -0.37300E+03
        -0.37300E+03
        -0.37300E+03
        -0.37300E+03
        -0.37300E+03
        -0.37300E+03
        -0.37300E+03
        -0.37300E+03
        -0.37300E+03
        -0.37300E+03
        -0.37300E+03
        -0.37300E+03
        -0.37300E+03
        -0.37300E+03
        -0.37300E+03
        -0.37300E+03
        -0.37300E+03
        -0.37300E+03
        -0.37300E+03
        -0.37300E+03
        -0.37300E+03
        -0.37300E+03
        -0.37300E+03
        -0.37300E+03
        -0.37300E+03
        -0.37300E+03
        -0.37300E+03
        -0.37300E+03
        -0.37300E+03
        -0.37300E+03
        -0.37300E+03
        -0.37300E+03
        -0.37300E+03
        -0.37300E+03
        -0.37300E+03
        -0.37300E+03
        -0.37300E+03
        -0.37300E+03
        -0.37300E+03
        -0.37300E+03
        -0.37300E+03
        -0.37300E+03
        -0.37300E+03
        -0.37300E+03
        -0.37300E+03
        -0.37300E+03
        -0.37300E+03
        -0.37300E+03
        -0.37300E+03
        -0.37300E+03
        -0.37300E+03
        -0.37300E+03
        -0.37300E+03
        -0.37300E+03
        -0.37300E+03
        -0.37300E+03
        -0.37300E+03
        -0.37300E+03
        -0.37300E+03
        -0.37300E+03
        -0.37300E+03
        -0.37300E+03
        -0.37300E+03
        -0.37300E+03
        -0.37300E+03
        -0.37300E+03
        -0.37300E+03
        -0.37300E+03
        -0.37300E+03
        -0.37300E+03
        -0.37300E+03
        -0.37300E+03
        -0.37300E+03
        -0.37300E+03
        -0.37300E+03
        -0.37300E+03
        -0.37300E+03
        -0.37300E+03
        -0.37300E+03
        -0.37300E+03
        -0.37300E+03
        -0.37300E+03
        -0.37300E+03
        -0.37300E+03
        -0.37300E+03
        -0.37300E+03
        -0.37300E+03
        -0.37300E+03
        -0.37300E+03
        -0.37300E+03
        -0.37300E+03
        -0.37300E+03
        -0.37300E+03
        -0.37300E+03
        -0.37300E+03
        -0.37300E+03
        -0.37300E+03
        -0.37300E+03
        -0.37300E+03
        -0.37300E+03
        -0.37300E+03
        -0.37300E+03
        -0.37300E+03
        -0.37300E+03
        -0.37300E+03
        -0.37300E+03
        -0.37300E+03
        -0.37300E+03
        -0.37300E+03
        -0.37300E+03
        -0.37300E+03
        -0.37300E+03
        -0.37300E+03
        -0.37300E+03
        -0.37300E+03
        -0.37300E+03
        -0.37300E+03
        -0.37300E+03
        -0.37300E+03
        -0.37300E+03
        -0.37300E+03
        -0.37300E+03
        -0.37300E+03
        -0.37300E+03
        -0.37300E+03
        -0.37300E+03
        -0.37300E+03
        -0.37300E+03
        -0.37300E+03
        -0.37300E+03
        -0.37300E+03
        -0.37300E+03
        -0.37300E+03
        -0.37300E+03
        -0.37300E+03
        -0.37300E+03
        -0.37300E+03
        -0.37300E+03
        -0.37300E+03
        -0.37300E+03
        -0.37300E+03
        -0.37300E+03
        -0.37300E+03
        -0.37300E+03
        -0.37300E+03
        -0.37300E+03
        -0.37300E+03
        -0.37300E+03
        -0.37300E+03
        -0.37300E+03
        -0.37300E+03
        -0.37300E+03
        -0.37300E+03
        -0.37300E+03
        -0.37300E+03
        -0.37300E+03
        -0.37300E+03
        -0.37300E+03
        -0.37300E+03
        -0.37300E+03
        -0.37300E+03
        -0.37300E+03
        -0.37300E+03
        -0.37300E+03
        -0.37300E+03
        -0.37300E+03
        -0.37300E+03
        -0.37300E+03
        -0.37300E+03
        -0.37300E+03
        -0.37300E+03
        -0.37300E+03
        -0.37300E+03
        -0.37300E+03
        -0.37300E+03
        -0.37300E+03
        -0.37300E+03
        -0.37300E+03
        -0.37300E+03
        -0.37300E+03
        -0.37300E+03
        -0.37300E+03
        -0.37300E+03
        -0.37300E+03
        -0.37300E+03
        -0.37300E+03
        -0.37300E+03
        -0.37300E+03
        -0.37300E+03
        -0.37300E+03
        -0.37300E+03
        -0.37300E+03
        -0.37300E+03
        -0.37300E+03
        -0.37300E+03
        -0.37300E+03
        -0.37300E+03
        -0.37300E+03
        -0.37300E+03
        -0.37300E+03
        -0.37300E+03
        -0.37300E+03
        -0.37300E+03
        -0.37300E+03
        -0.37300E+03
        -0.37300E+03
        -0.37300E+03
        -0.37300E+03
        -0.37300E+03
        -0.37300E+03
        -0.37300E+03
        -0.37300E+03
        -0.37300E+03
        -0.37300E+03
        -0.37300E+03
        -0.37300E+03
        -0.37300E+03
        -0.37300E+03
        -0.37300E+03
        -0.37300E+03
        -0.37300E+03
        -0.37300E+03
        -0.37300E+03
        -0.37300E+03
        -0.37300E+03
        -0.37300E+03
        -0.37300E+03
        -0.37300E+03
        -0.37300E+03
        -0.37300E+03
        -0.37300E+03
        -0.37300E+03
        -0.37300E+03
        -0.37300E+03
        -0.37300E+03
        -0.37300E+03
        -0.37300E+03
        -0.37300E+03
        -0.37300E+03
        -0.37300E+03
        -0.37300E+03
        -0.37300E+03
        -0.37300E+03
        -0.37300E+03
        -0.37300E+03
        -0.37300E+03
        -0.37300E+03
        -0.37300E+03
        -0.37300E+03
        -0.37300E+03
        -0.37300E+03
        -0.37300E+03
        -0.37300E+03
        -0.37300E+03
        -0.37300E+03
        -0.37300E+03
        -0.37300E+03
        -0.37300E+03
        -0.37300E+03
        -0.37300E+03
        -0.37300E+03
        -0.37300E+03
        -0.37300E+03
        -0.37300E+03
        -0.37300E+03
        -0.37300E+03
        -0.37300E+03
        -0.37300E+03
        -0.37300E+03
        -0.37300E+03
        -0.37300E+03
        -0.37300E+03
        -0.37300E+03
        -0.37300E+03
        -0.37300E+03
        -0.37300E+03
        -0.37300E+03
        -0.37300E+03
        -0.37300E+03
        -0.37300E+03
        -0.37300E+03
        -0.37300E+03
        -0.37300E+03
        -0.37300E+03
        -0.37300E+03
        -0.37300E+03
        -0.37300E+03
        -0.37300E+03
        -0.37300E+03
        -0.37300E+03
        -0.37300E+03
        -0.37300E+03
        -0.37300E+03
        -0.37300E+03
        -0.37300E+03
        -0.37300E+03
        -0.37300E+03
        -0.37300E+03
        -0.37300E+03
        -0.37300E+03
        -0.37300E+03
        -0.37300E+03
        -0.37300E+03
        -0.37300E+03
        -0.37300E+03
        -0.37300E+03
        -0.37300E+03
        -0.37300E+03
        -0.37300E+03
        -0.37300E+03
        -0.37300E+03
        -0.37300E+03
        -0.37300E+03
        -0.37300E+03
        -0.37300E+03
        -0.37300E+03
        -0.37300E+03
        -0.37300E+03
        -0.37300E+03
        -0.37300E+03
        -0.37300E+03
        -0.37300E+03
        -0.37300E+03
  
SCALARS              normalized_window  double 1
LOOKUP_TABLE default
         0.27500E+01
         0.27500E+01
         0.27500E+01
         0.27500E+01
         0.27500E+01
         0.27500E+01
         0.27500E+01
         0.27500E+01
         0.27500E+01
         0.27500E+01
         0.27500E+01
         0.27500E+01
         0.27500E+01
         0.27500E+01
         0.27500E+01
         0.27500E+01
         0.27500E+01
         0.27500E+01
         0.27500E+01
         0.27500E+01
         0.27500E+01
         0.27500E+01
         0.27500E+01
         0.27500E+01
         0.27500E+01
         0.27500E+01
         0.27500E+01
         0.27500E+01
         0.27500E+01
         0.27500E+01
         0.27500E+01
         0.27500E+01
         0.27500E+01
         0.27500E+01
         0.27500E+01
         0.27500E+01
         0.27500E+01
         0.27500E+01
         0.27500E+01
         0.27500E+01
         0.27500E+01
         0.27500E+01
         0.27500E+01
         0.27500E+01
         0.27500E+01
         0.27500E+01
         0.27500E+01
         0.27500E+01
         0.27500E+01
         0.27500E+01
         0.27500E+01
         0.27500E+01
         0.27500E+01
         0.27500E+01
         0.27500E+01
         0.27500E+01
         0.27500E+01
         0.27500E+01
         0.27500E+01
         0.27500E+01
         0.27500E+01
         0.27500E+01
         0.27500E+01
         0.27500E+01
         0.27500E+01
         0.27500E+01
         0.27500E+01
         0.27500E+01
         0.27500E+01
         0.27500E+01
         0.27500E+01
         0.27500E+01
         0.27500E+01
         0.27500E+01
         0.27500E+01
         0.27500E+01
         0.27500E+01
         0.27500E+01
         0.27500E+01
         0.27500E+01
         0.27500E+01
         0.27500E+01
         0.27500E+01
         0.27500E+01
         0.27500E+01
         0.27500E+01
         0.27500E+01
         0.27500E+01
         0.27500E+01
         0.27500E+01
         0.27500E+01
         0.27500E+01
         0.27500E+01
         0.27500E+01
         0.27500E+01
         0.27500E+01
         0.27500E+01
         0.27500E+01
         0.27500E+01
         0.27500E+01
         0.27500E+01
         0.27500E+01
         0.27500E+01
         0.27500E+01
         0.27500E+01
         0.27500E+01
         0.27500E+01
         0.27500E+01
         0.27500E+01
         0.27500E+01
         0.27500E+01
         0.27500E+01
         0.27500E+01
         0.27500E+01
         0.27500E+01
         0.27500E+01
         0.27500E+01
         0.27500E+01
         0.27500E+01
         0.27500E+01
         0.27500E+01
         0.27500E+01
         0.27500E+01
         0.27500E+01
         0.27500E+01
         0.27500E+01
         0.27500E+01
         0.27500E+01
         0.27500E+01
         0.27500E+01
         0.27500E+01
         0.27500E+01
         0.27500E+01
         0.27500E+01
         0.27500E+01
         0.27500E+01
         0.27500E+01
         0.27500E+01
         0.27500E+01
         0.27500E+01
         0.27500E+01
         0.27500E+01
         0.27500E+01
         0.27500E+01
         0.27500E+01
         0.27500E+01
         0.27500E+01
         0.27500E+01
         0.27500E+01
         0.27500E+01
         0.27500E+01
         0.27500E+01
         0.27500E+01
         0.27500E+01
         0.27500E+01
         0.27500E+01
         0.27500E+01
         0.27500E+01
         0.27500E+01
         0.27500E+01
         0.27500E+01
         0.27500E+01
         0.27500E+01
         0.27500E+01
         0.27500E+01
         0.27500E+01
         0.27500E+01
         0.27500E+01
         0.27500E+01
         0.27500E+01
         0.27500E+01
         0.27500E+01
         0.27500E+01
         0.27500E+01
         0.27500E+01
         0.27500E+01
         0.27500E+01
         0.27500E+01
         0.27500E+01
         0.27500E+01
         0.27500E+01
         0.27500E+01
         0.27500E+01
         0.27500E+01
         0.27500E+01
         0.27500E+01
         0.27500E+01
         0.27500E+01
         0.27500E+01
         0.27500E+01
         0.27500E+01
         0.27500E+01
         0.27500E+01
         0.27500E+01
         0.27500E+01
         0.27500E+01
         0.27500E+01
         0.27500E+01
         0.27500E+01
         0.27500E+01
         0.27500E+01
         0.27500E+01
         0.27500E+01
         0.27500E+01
         0.27500E+01
         0.27500E+01
         0.27500E+01
         0.27500E+01
         0.27500E+01
         0.27500E+01
         0.27500E+01
         0.27500E+01
         0.27500E+01
         0.27500E+01
         0.27500E+01
         0.27500E+01
         0.27500E+01
         0.27500E+01
         0.27500E+01
         0.27500E+01
         0.27500E+01
         0.27500E+01
         0.27500E+01
         0.27500E+01
         0.27500E+01
         0.27500E+01
         0.27500E+01
         0.27500E+01
         0.27500E+01
         0.27500E+01
         0.27500E+01
         0.27500E+01
         0.27500E+01
         0.27500E+01
         0.27500E+01
         0.27500E+01
         0.27500E+01
         0.27500E+01
         0.27500E+01
         0.27500E+01
         0.27500E+01
         0.27500E+01
         0.27500E+01
         0.27500E+01
         0.27500E+01
         0.27500E+01
         0.27500E+01
         0.27500E+01
         0.27500E+01
         0.27500E+01
         0.27500E+01
         0.27500E+01
         0.27500E+01
         0.27500E+01
         0.27500E+01
         0.27500E+01
         0.27500E+01
         0.27500E+01
         0.27500E+01
         0.27500E+01
         0.27500E+01
         0.27500E+01
         0.27500E+01
         0.27500E+01
         0.27500E+01
         0.27500E+01
         0.27500E+01
         0.27500E+01
         0.27500E+01
         0.27500E+01
         0.27500E+01
         0.27500E+01
         0.27500E+01
         0.27500E+01
         0.27500E+01
         0.27500E+01
         0.27500E+01
         0.27500E+01
         0.27500E+01
         0.27500E+01
         0.27500E+01
         0.27500E+01
         0.27500E+01
         0.27500E+01
         0.27500E+01
         0.27500E+01
         0.27500E+01
         0.27500E+01
         0.27500E+01
         0.27500E+01
         0.27500E+01
         0.27500E+01
         0.27500E+01
         0.27500E+01
         0.27500E+01
         0.27500E+01
         0.27500E+01
         0.27500E+01
         0.27500E+01
         0.27500E+01
         0.27500E+01
         0.27500E+01
         0.27500E+01
         0.27500E+01
         0.27500E+01
         0.27500E+01
         0.27500E+01
         0.27500E+01
         0.27500E+01
         0.27500E+01
         0.27500E+01
         0.27500E+01
         0.27500E+01
         0.27500E+01
         0.27500E+01
         0.27500E+01
         0.27500E+01
         0.27500E+01
         0.27500E+01
         0.27500E+01
         0.27500E+01
         0.27500E+01
         0.27500E+01
         0.27500E+01
         0.27500E+01
         0.27500E+01
         0.27500E+01
         0.27500E+01
         0.27500E+01
         0.27500E+01
         0.27500E+01
         0.27500E+01
         0.27500E+01
         0.27500E+01
         0.27500E+01
         0.27500E+01
         0.27500E+01
         0.27500E+01
         0.27500E+01
         0.27500E+01
         0.27500E+01
         0.27500E+01
         0.27500E+01
         0.27500E+01
         0.27500E+01
         0.27500E+01
         0.27500E+01
         0.27500E+01
         0.27500E+01
         0.27500E+01
         0.27500E+01
         0.27500E+01
         0.27500E+01
         0.27500E+01
         0.27500E+01
         0.27500E+01
         0.27500E+01
         0.27500E+01
         0.27500E+01
         0.27500E+01
         0.27500E+01
         0.27500E+01
         0.27500E+01
         0.27500E+01
         0.27500E+01
         0.27500E+01
         0.27500E+01
         0.27500E+01
         0.27500E+01
         0.27500E+01
         0.27500E+01
         0.27500E+01
         0.27500E+01
         0.27500E+01
         0.27500E+01
         0.27500E+01
         0.27500E+01
         0.27500E+01
         0.27500E+01
         0.27500E+01
         0.27500E+01
         0.27500E+01
         0.27500E+01
         0.27500E+01
         0.27500E+01
         0.27500E+01
         0.27500E+01
         0.27500E+01
         0.27500E+01
         0.27500E+01
         0.27500E+01
         0.27500E+01
         0.27500E+01
         0.27500E+01
         0.27500E+01
         0.27500E+01
         0.27500E+01
         0.27500E+01
         0.27500E+01
         0.27500E+01
         0.27500E+01
         0.27500E+01
         0.27500E+01
         0.27500E+01
         0.27500E+01
         0.27500E+01
         0.27500E+01
         0.27500E+01
         0.27500E+01
         0.27500E+01
         0.27500E+01
         0.27500E+01
         0.27500E+01
         0.27500E+01
         0.27500E+01
         0.27500E+01
         0.27500E+01
         0.27500E+01
         0.27500E+01
         0.27500E+01
         0.27500E+01
         0.27500E+01
         0.27500E+01
         0.27500E+01
         0.27500E+01
         0.27500E+01
         0.27500E+01
         0.27500E+01
         0.27500E+01
         0.27500E+01
         0.27500E+01
         0.27500E+01
         0.27500E+01
         0.27500E+01
         0.27500E+01
         0.27500E+01
         0.27500E+01
         0.27500E+01
         0.27500E+01
         0.27500E+01
         0.27500E+01
         0.27500E+01
         0.27500E+01
         0.27500E+01
         0.27500E+01
         0.27500E+01
         0.27500E+01
         0.27500E+01
         0.27500E+01
         0.27500E+01
         0.27500E+01
         0.27500E+01
         0.27500E+01
         0.27500E+01
         0.27500E+01
         0.27500E+01
         0.27500E+01
         0.27500E+01
         0.27500E+01
         0.27500E+01
         0.27500E+01
         0.27500E+01
         0.27500E+01
         0.27500E+01
         0.27500E+01
         0.27500E+01
         0.27500E+01
         0.27500E+01
         0.27500E+01
         0.27500E+01
         0.27500E+01
         0.27500E+01
         0.27500E+01
         0.27500E+01
         0.27500E+01
         0.27500E+01
         0.27500E+01
         0.27500E+01
         0.27500E+01
         0.27500E+01
         0.27500E+01
         0.27500E+01
         0.27500E+01
         0.27500E+01
         0.27500E+01
         0.27500E+01
         0.27500E+01
         0.27500E+01
         0.27500E+01
         0.27500E+01
         0.27500E+01
         0.27500E+01
         0.27500E+01
         0.27500E+01
         0.27500E+01
         0.27500E+01
         0.27500E+01
         0.27500E+01
         0.27500E+01
         0.27500E+01
         0.27500E+01
         0.27500E+01
         0.27500E+01
         0.27500E+01
         0.27500E+01
         0.27500E+01
         0.27500E+01
         0.27500E+01
         0.27500E+01
         0.27500E+01
         0.27500E+01
         0.27500E+01
         0.27500E+01
         0.27500E+01
         0.27500E+01
         0.27500E+01
         0.27500E+01
         0.27500E+01
         0.27500E+01
         0.27500E+01
         0.27500E+01
         0.27500E+01
         0.27500E+01
         0.27500E+01
         0.27500E+01
         0.27500E+01
         0.27500E+01
         0.27500E+01
         0.27500E+01
         0.27500E+01
         0.27500E+01
         0.27500E+01
         0.27500E+01
         0.27500E+01
         0.27500E+01
         0.27500E+01
         0.27500E+01
         0.27500E+01
         0.27500E+01
         0.27500E+01
         0.27500E+01
         0.27500E+01
         0.27500E+01
         0.27500E+01
         0.27500E+01
         0.27500E+01
         0.27500E+01
         0.27500E+01
         0.27500E+01
         0.27500E+01
         0.27500E+01
         0.27500E+01
         0.27500E+01
         0.27500E+01
         0.27500E+01
         0.27500E+01
         0.27500E+01
         0.27500E+01
         0.27500E+01
         0.27500E+01
         0.27500E+01
         0.27500E+01
         0.27500E+01
         0.27500E+01
         0.27500E+01
         0.27500E+01
         0.27500E+01
         0.27500E+01
         0.27500E+01
         0.27500E+01
         0.27500E+01
         0.27500E+01
         0.27500E+01
         0.27500E+01
         0.27500E+01
         0.27500E+01
         0.27500E+01
         0.27500E+01
         0.27500E+01
         0.27500E+01
         0.27500E+01
         0.27500E+01
         0.27500E+01
         0.27500E+01
         0.27500E+01
         0.27500E+01
         0.27500E+01
         0.27500E+01
         0.27500E+01
         0.27500E+01
         0.27500E+01
         0.27500E+01
         0.27500E+01
         0.27500E+01
         0.27500E+01
         0.27500E+01
         0.27500E+01
         0.27500E+01
         0.27500E+01
         0.27500E+01
         0.27500E+01
         0.27500E+01
         0.27500E+01
         0.27500E+01
         0.27500E+01
         0.27500E+01
         0.27500E+01
         0.27500E+01
         0.27500E+01
         0.27500E+01
         0.27500E+01
         0.27500E+01
         0.27500E+01
         0.27500E+01
         0.27500E+01
         0.27500E+01
         0.27500E+01
         0.27500E+01
         0.27500E+01
         0.27500E+01
         0.27500E+01
         0.27500E+01
         0.27500E+01
         0.27500E+01
         0.27500E+01
         0.27500E+01
         0.27500E+01
         0.27500E+01
         0.27500E+01
         0.27500E+01
         0.27500E+01
         0.27500E+01
         0.27500E+01
         0.27500E+01
         0.27500E+01
         0.27500E+01
         0.27500E+01
         0.27500E+01
         0.27500E+01
         0.27500E+01
         0.27500E+01
         0.27500E+01
         0.27500E+01
         0.27500E+01
         0.27500E+01
         0.27500E+01
         0.27500E+01
         0.27500E+01
         0.27500E+01
         0.27500E+01
         0.27500E+01
         0.27500E+01
         0.27500E+01
         0.27500E+01
         0.27500E+01
         0.27500E+01
         0.27500E+01
         0.27500E+01
         0.27500E+01
         0.27500E+01
         0.27500E+01
         0.27500E+01
         0.27500E+01
         0.27500E+01
         0.27500E+01
         0.27500E+01
         0.27500E+01
         0.27500E+01
         0.27500E+01
         0.27500E+01
         0.27500E+01
         0.27500E+01
         0.27500E+01
         0.27500E+01
         0.27500E+01
         0.27500E+01
         0.27500E+01
         0.27500E+01
         0.27500E+01
         0.27500E+01
         0.27500E+01
         0.27500E+01
         0.27500E+01
         0.27500E+01
         0.27500E+01
         0.27500E+01
         0.27500E+01
         0.27500E+01
         0.27500E+01
         0.27500E+01
         0.27500E+01
         0.27500E+01
         0.27500E+01
         0.27500E+01
         0.27500E+01
         0.27500E+01
         0.27500E+01
         0.27500E+01
         0.27500E+01
         0.27500E+01
         0.27500E+01
         0.27500E+01
         0.27500E+01
         0.27500E+01
         0.27500E+01
         0.27500E+01
         0.27500E+01
         0.27500E+01
         0.27500E+01
         0.27500E+01
         0.27500E+01
         0.27500E+01
         0.27500E+01
         0.27500E+01
         0.27500E+01
         0.27500E+01
         0.27500E+01
         0.27500E+01
         0.27500E+01
         0.27500E+01
         0.27500E+01
         0.27500E+01
         0.27500E+01
         0.27500E+01
         0.27500E+01
         0.27500E+01
         0.27500E+01
         0.27500E+01
         0.27500E+01
         0.27500E+01
         0.27500E+01
         0.27500E+01
         0.27500E+01
         0.27500E+01
         0.27500E+01
         0.27500E+01
         0.27500E+01
         0.27500E+01
         0.27500E+01
         0.27500E+01
         0.27500E+01
         0.27500E+01
         0.27500E+01
         0.27500E+01
         0.27500E+01
         0.27500E+01
         0.27500E+01
         0.27500E+01
         0.27500E+01
         0.27500E+01
         0.27500E+01
         0.27500E+01
         0.27500E+01
         0.27500E+01
         0.27500E+01
         0.27500E+01
         0.27500E+01
         0.27500E+01
         0.27500E+01
         0.27500E+01
         0.27500E+01
         0.27500E+01
         0.27500E+01
         0.27500E+01
         0.27500E+01
         0.27500E+01
         0.27500E+01
         0.27500E+01
         0.27500E+01
         0.27500E+01
         0.27500E+01
         0.27500E+01
         0.27500E+01
         0.27500E+01
         0.27500E+01
         0.27500E+01
         0.27500E+01
         0.27500E+01
         0.27500E+01
         0.27500E+01
         0.27500E+01
         0.27500E+01
         0.27500E+01
         0.27500E+01
         0.27500E+01
         0.27500E+01
         0.27500E+01
         0.27500E+01
         0.27500E+01
         0.27500E+01
         0.27500E+01
         0.27500E+01
         0.27500E+01
         0.27500E+01
         0.27500E+01
         0.27500E+01
         0.27500E+01
         0.27500E+01
         0.27500E+01
         0.27500E+01
         0.27500E+01
         0.27500E+01
         0.27500E+01
         0.27500E+01
         0.27500E+01
         0.27500E+01
         0.27500E+01
         0.27500E+01
         0.27500E+01
         0.27500E+01
         0.27500E+01
         0.27500E+01
         0.27500E+01
         0.27500E+01
         0.27500E+01
         0.27500E+01
         0.27500E+01
         0.27500E+01
         0.27500E+01
         0.27500E+01
         0.27500E+01
         0.27500E+01
         0.27500E+01
         0.27500E+01
         0.27500E+01
         0.27500E+01
         0.27500E+01
         0.27500E+01
         0.27500E+01
         0.27500E+01
         0.27500E+01
         0.27500E+01
         0.27500E+01
         0.27500E+01
         0.27500E+01
         0.27500E+01
         0.27500E+01
         0.27500E+01
         0.27500E+01
         0.27500E+01
         0.27500E+01
         0.27500E+01
         0.27500E+01
         0.27500E+01
         0.27500E+01
         0.27500E+01
         0.27500E+01
         0.27500E+01
         0.27500E+01
         0.27500E+01
         0.27500E+01
         0.27500E+01
         0.27500E+01
         0.27500E+01
         0.27500E+01
         0.27500E+01
         0.27500E+01
         0.27500E+01
         0.27500E+01
         0.27500E+01
         0.27500E+01
         0.27500E+01
         0.27500E+01
         0.27500E+01
         0.27500E+01
         0.27500E+01
         0.27500E+01
         0.27500E+01
         0.27500E+01
         0.27500E+01
         0.27500E+01
         0.27500E+01
         0.27500E+01
         0.27500E+01
         0.27500E+01
         0.27500E+01
         0.27500E+01
         0.27500E+01
         0.27500E+01
         0.27500E+01
         0.27500E+01
         0.27500E+01
         0.27500E+01
         0.27500E+01
         0.27500E+01
         0.27500E+01
         0.27500E+01
         0.27500E+01
         0.27500E+01
         0.27500E+01
         0.27500E+01
         0.27500E+01
         0.27500E+01
         0.27500E+01
         0.27500E+01
         0.27500E+01
         0.27500E+01
         0.27500E+01
         0.27500E+01
         0.27500E+01
         0.27500E+01
         0.27500E+01
         0.27500E+01
         0.27500E+01
         0.27500E+01
         0.27500E+01
         0.27500E+01
         0.27500E+01
         0.27500E+01
         0.27500E+01
         0.27500E+01
         0.27500E+01
         0.27500E+01
         0.27500E+01
         0.27500E+01
         0.27500E+01
         0.27500E+01
         0.27500E+01
         0.27500E+01
         0.27500E+01
         0.27500E+01
         0.27500E+01
         0.27500E+01
         0.27500E+01
         0.27500E+01
         0.27500E+01
         0.27500E+01
         0.27500E+01
         0.27500E+01
         0.27500E+01
         0.27500E+01
         0.27500E+01
         0.27500E+01
         0.27500E+01
         0.27500E+01
         0.27500E+01
         0.27500E+01
         0.27500E+01
         0.27500E+01
         0.27500E+01
         0.27500E+01
         0.27500E+01
         0.27500E+01
         0.27500E+01
         0.27500E+01
         0.27500E+01
         0.27500E+01
         0.27500E+01
         0.27500E+01
         0.27500E+01
         0.27500E+01
         0.27500E+01
         0.27500E+01
         0.27500E+01
         0.27500E+01
         0.27500E+01
         0.27500E+01
         0.27500E+01
         0.27500E+01
         0.27500E+01
         0.27500E+01
         0.27500E+01
         0.27500E+01
         0.27500E+01
         0.27500E+01
         0.27500E+01
         0.27500E+01
         0.27500E+01
         0.27500E+01
         0.27500E+01
         0.27500E+01
         0.27500E+01
         0.27500E+01
         0.27500E+01
         0.27500E+01
         0.27500E+01
         0.27500E+01
         0.27500E+01
         0.27500E+01
         0.27500E+01
         0.27500E+01
         0.27500E+01
         0.27500E+01
         0.27500E+01
         0.27500E+01
         0.27500E+01
         0.27500E+01
         0.27500E+01
         0.27500E+01
         0.27500E+01
         0.27500E+01
         0.27500E+01
         0.27500E+01
         0.27500E+01
         0.27500E+01
         0.27500E+01
         0.27500E+01
         0.27500E+01
         0.27500E+01
         0.27500E+01
         0.27500E+01
         0.27500E+01
         0.27500E+01
         0.27500E+01
         0.27500E+01
         0.27500E+01
         0.27500E+01
         0.27500E+01
         0.27500E+01
         0.27500E+01
         0.27500E+01
         0.27500E+01
         0.27500E+01
         0.27500E+01
         0.27500E+01
         0.27500E+01
         0.27500E+01
         0.27500E+01
         0.27500E+01
         0.27500E+01
         0.27500E+01
         0.27500E+01
         0.27500E+01
         0.27500E+01
         0.27500E+01
         0.27500E+01
         0.27500E+01
         0.27500E+01
         0.27500E+01
         0.27500E+01
         0.27500E+01
         0.27500E+01
         0.27500E+01
         0.27500E+01
         0.27500E+01
         0.27500E+01
         0.27500E+01
         0.27500E+01
         0.27500E+01
         0.27500E+01
         0.27500E+01
         0.27500E+01
         0.27500E+01
         0.27500E+01
         0.27500E+01
         0.27500E+01
         0.27500E+01
         0.27500E+01
         0.27500E+01
         0.27500E+01
         0.27500E+01
         0.27500E+01
         0.27500E+01
         0.27500E+01
         0.27500E+01
         0.27500E+01
         0.27500E+01
         0.27500E+01
         0.27500E+01
         0.27500E+01
         0.27500E+01
         0.27500E+01
         0.27500E+01
         0.27500E+01
         0.27500E+01
         0.27500E+01
         0.27500E+01
         0.27500E+01
         0.27500E+01
         0.27500E+01
         0.27500E+01
         0.27500E+01
         0.27500E+01
         0.27500E+01
         0.27500E+01
         0.27500E+01
         0.27500E+01
         0.27500E+01
         0.27500E+01
         0.27500E+01
         0.27500E+01
         0.27500E+01
         0.27500E+01
         0.27500E+01
         0.27500E+01
         0.27500E+01
         0.27500E+01
         0.27500E+01
         0.27500E+01
         0.27500E+01
         0.27500E+01
         0.27500E+01
         0.27500E+01
         0.27500E+01
         0.27500E+01
         0.27500E+01
         0.27500E+01
         0.27500E+01
         0.27500E+01
         0.27500E+01
         0.27500E+01
         0.27500E+01
         0.27500E+01
         0.27500E+01
         0.27500E+01
         0.27500E+01
         0.27500E+01
         0.27500E+01
         0.27500E+01
         0.27500E+01
         0.27500E+01
         0.27500E+01
         0.27500E+01
         0.27500E+01
         0.27500E+01
         0.27500E+01
         0.27500E+01
         0.27500E+01
         0.27500E+01
         0.27500E+01
         0.27500E+01
         0.27500E+01
         0.27500E+01
         0.27500E+01
         0.27500E+01
         0.27500E+01
         0.27500E+01
         0.27500E+01
         0.27500E+01
         0.27500E+01
         0.27500E+01
         0.27500E+01
         0.27500E+01
         0.27500E+01
         0.27500E+01
         0.27500E+01
         0.27500E+01
         0.27500E+01
         0.27500E+01
         0.27500E+01
         0.27500E+01
         0.27500E+01
         0.27500E+01
         0.27500E+01
         0.27500E+01
         0.27500E+01
         0.27500E+01
         0.27500E+01
         0.27500E+01
         0.27500E+01
         0.27500E+01
         0.27500E+01
         0.27500E+01
         0.27500E+01
         0.27500E+01
         0.27500E+01
         0.27500E+01
         0.27500E+01
         0.27500E+01
         0.27500E+01
         0.27500E+01
         0.27500E+01
         0.27500E+01
         0.27500E+01
         0.27500E+01
         0.27500E+01
         0.27500E+01
         0.27500E+01
         0.27500E+01
         0.27500E+01
         0.27500E+01
         0.27500E+01
         0.27500E+01
         0.27500E+01
         0.27500E+01
         0.27500E+01
         0.27500E+01
         0.27500E+01
         0.27500E+01
         0.27500E+01
         0.27500E+01
         0.27500E+01
         0.27500E+01
         0.27500E+01
         0.27500E+01
         0.27500E+01
         0.27500E+01
         0.27500E+01
         0.27500E+01
         0.27500E+01
         0.27500E+01
         0.27500E+01
         0.27500E+01
         0.27500E+01
         0.27500E+01
         0.27500E+01
         0.27500E+01
         0.27500E+01
         0.27500E+01
         0.27500E+01
         0.27500E+01
         0.27500E+01
         0.27500E+01
         0.27500E+01
         0.27500E+01
         0.27500E+01
         0.27500E+01
         0.27500E+01
         0.27500E+01
         0.27500E+01
         0.27500E+01
         0.27500E+01
         0.27500E+01
         0.27500E+01
         0.27500E+01
         0.27500E+01
         0.27500E+01
         0.27500E+01
         0.27500E+01
         0.27500E+01
         0.27500E+01
         0.27500E+01
         0.27500E+01
         0.27500E+01
         0.27500E+01
         0.27500E+01
         0.27500E+01
         0.27500E+01
         0.27500E+01
         0.27500E+01
         0.27500E+01
         0.27500E+01
         0.27500E+01
         0.27500E+01
         0.27500E+01
         0.27500E+01
         0.27500E+01
         0.27500E+01
         0.27500E+01
         0.27500E+01
         0.27500E+01
         0.27500E+01
         0.27500E+01
         0.27500E+01
         0.27500E+01
         0.27500E+01
         0.27500E+01
         0.27500E+01
         0.27500E+01
         0.27500E+01
         0.27500E+01
         0.27500E+01
         0.27500E+01
         0.27500E+01
         0.27500E+01
         0.27500E+01
         0.27500E+01
         0.27500E+01
         0.27500E+01
         0.27500E+01
         0.27500E+01
         0.27500E+01
         0.27500E+01
         0.27500E+01
         0.27500E+01
         0.27500E+01
         0.27500E+01
         0.27500E+01
         0.27500E+01
         0.27500E+01
         0.27500E+01
         0.27500E+01
         0.27500E+01
         0.27500E+01
         0.27500E+01
         0.27500E+01
         0.27500E+01
         0.27500E+01
         0.27500E+01
         0.27500E+01
         0.27500E+01
         0.27500E+01
         0.27500E+01
         0.27500E+01
         0.27500E+01
         0.27500E+01
         0.27500E+01
         0.27500E+01
         0.27500E+01
         0.27500E+01
         0.27500E+01
         0.27500E+01
         0.27500E+01
         0.27500E+01
         0.27500E+01
         0.27500E+01
         0.27500E+01
         0.27500E+01
         0.27500E+01
         0.27500E+01
         0.27500E+01
         0.27500E+01
         0.27500E+01
         0.27500E+01
         0.27500E+01
         0.27500E+01
         0.27500E+01
         0.27500E+01
         0.27500E+01
         0.27500E+01
         0.27500E+01
         0.27500E+01
         0.27500E+01
         0.27500E+01
         0.27500E+01
         0.27500E+01
         0.27500E+01
         0.27500E+01
         0.27500E+01
         0.27500E+01
         0.27500E+01
         0.27500E+01
         0.27500E+01
         0.27500E+01
         0.27500E+01
         0.27500E+01
         0.27500E+01
         0.27500E+01
         0.27500E+01
         0.27500E+01
         0.27500E+01
         0.27500E+01
         0.27500E+01
         0.27500E+01
         0.27500E+01
         0.27500E+01
         0.27500E+01
         0.27500E+01
         0.27500E+01
         0.27500E+01
         0.27500E+01
         0.27500E+01
         0.27500E+01
         0.27500E+01
         0.27500E+01
         0.27500E+01
         0.27500E+01
         0.27500E+01
         0.27500E+01
         0.27500E+01
         0.27500E+01
         0.27500E+01
         0.27500E+01
         0.27500E+01
         0.27500E+01
         0.27500E+01
         0.27500E+01
         0.27500E+01
         0.27500E+01
         0.27500E+01
         0.27500E+01
         0.27500E+01
         0.27500E+01
         0.27500E+01
         0.27500E+01
         0.27500E+01
         0.27500E+01
         0.27500E+01
         0.27500E+01
         0.27500E+01
         0.27500E+01
         0.27500E+01
         0.27500E+01
         0.27500E+01
         0.27500E+01
         0.27500E+01
         0.27500E+01
         0.27500E+01
         0.27500E+01
         0.27500E+01
         0.27500E+01
         0.27500E+01
         0.27500E+01
         0.27500E+01
         0.27500E+01
         0.27500E+01
         0.27500E+01
         0.27500E+01
         0.27500E+01
         0.27500E+01
         0.27500E+01
         0.27500E+01
         0.27500E+01
         0.27500E+01
         0.27500E+01
         0.27500E+01
         0.27500E+01
         0.27500E+01
         0.27500E+01
         0.27500E+01
         0.27500E+01
         0.27500E+01
         0.27500E+01
         0.27500E+01
         0.27500E+01
         0.27500E+01
         0.27500E+01
         0.27500E+01
         0.27500E+01
         0.27500E+01
         0.27500E+01
         0.27500E+01
         0.27500E+01
         0.27500E+01
         0.27500E+01
         0.27500E+01
         0.27500E+01
         0.27500E+01
         0.27500E+01
         0.27500E+01
         0.27500E+01
         0.27500E+01
         0.27500E+01
         0.27500E+01
         0.27500E+01
         0.27500E+01
         0.27500E+01
         0.27500E+01
         0.27500E+01
         0.27500E+01
         0.27500E+01
         0.27500E+01
         0.27500E+01
         0.27500E+01
         0.27500E+01
         0.27500E+01
         0.27500E+01
         0.27500E+01
         0.27500E+01
         0.27500E+01
         0.27500E+01
         0.27500E+01
         0.27500E+01
         0.27500E+01
         0.27500E+01
         0.27500E+01
         0.27500E+01
         0.27500E+01
         0.27500E+01
         0.27500E+01
         0.27500E+01
         0.27500E+01
         0.27500E+01
         0.27500E+01
         0.27500E+01
         0.27500E+01
         0.27500E+01
         0.27500E+01
         0.27500E+01
         0.27500E+01
         0.27500E+01
         0.27500E+01
         0.27500E+01
         0.27500E+01
         0.27500E+01
         0.27500E+01
         0.27500E+01
         0.27500E+01
         0.27500E+01
         0.27500E+01
         0.27500E+01
         0.27500E+01
         0.27500E+01
         0.27500E+01
         0.27500E+01
         0.27500E+01
         0.27500E+01
         0.27500E+01
         0.27500E+01
         0.27500E+01
         0.27500E+01
         0.27500E+01
         0.27500E+01
         0.27500E+01
         0.27500E+01
         0.27500E+01
         0.27500E+01
         0.27500E+01
         0.27500E+01
         0.27500E+01
         0.27500E+01
         0.27500E+01
         0.27500E+01
         0.27500E+01
         0.27500E+01
         0.27500E+01
         0.27500E+01
         0.27500E+01
         0.27500E+01
         0.27500E+01
         0.27500E+01
         0.27500E+01
         0.27500E+01
         0.27500E+01
         0.27500E+01
         0.27500E+01
         0.27500E+01
         0.27500E+01
         0.27500E+01
         0.27500E+01
         0.27500E+01
         0.27500E+01
         0.27500E+01
         0.27500E+01
         0.27500E+01
         0.27500E+01
         0.27500E+01
         0.27500E+01
         0.27500E+01
         0.27500E+01
         0.27500E+01
         0.27500E+01
         0.27500E+01
         0.27500E+01
         0.27500E+01
         0.27500E+01
         0.27500E+01
         0.27500E+01
         0.27500E+01
         0.27500E+01
         0.27500E+01
         0.27500E+01
         0.27500E+01
         0.27500E+01
         0.27500E+01
         0.27500E+01
         0.27500E+01
         0.27500E+01
         0.27500E+01
         0.27500E+01
         0.27500E+01
         0.27500E+01
         0.27500E+01
         0.27500E+01
         0.27500E+01
         0.27500E+01
         0.27500E+01
         0.27500E+01
         0.27500E+01
         0.27500E+01
         0.27500E+01
         0.27500E+01
         0.27500E+01
         0.27500E+01
         0.27500E+01
         0.27500E+01
         0.27500E+01
         0.27500E+01
         0.27500E+01
         0.27500E+01
         0.27500E+01
         0.27500E+01
         0.27500E+01
         0.27500E+01
         0.27500E+01
         0.27500E+01
         0.27500E+01
         0.27500E+01
         0.27500E+01
         0.27500E+01
         0.27500E+01
         0.27500E+01
         0.27500E+01
         0.27500E+01
         0.27500E+01
         0.27500E+01
         0.27500E+01
         0.27500E+01
         0.27500E+01
         0.27500E+01
         0.27500E+01
         0.27500E+01
         0.27500E+01
         0.27500E+01
         0.27500E+01
         0.27500E+01
         0.27500E+01
         0.27500E+01
         0.27500E+01
         0.27500E+01
         0.27500E+01
         0.27500E+01
         0.27500E+01
         0.27500E+01
         0.27500E+01
         0.27500E+01
         0.27500E+01
         0.27500E+01
         0.27500E+01
         0.27500E+01
         0.27500E+01
         0.27500E+01
         0.27500E+01
         0.27500E+01
         0.27500E+01
         0.27500E+01
         0.27500E+01
         0.27500E+01
         0.27500E+01
         0.27500E+01
         0.27500E+01
         0.27500E+01
         0.27500E+01
         0.27500E+01
         0.27500E+01
         0.27500E+01
         0.27500E+01
         0.27500E+01
         0.27500E+01
         0.27500E+01
         0.27500E+01
         0.27500E+01
         0.27500E+01
         0.27500E+01
         0.27500E+01
         0.27500E+01
         0.27500E+01
         0.27500E+01
         0.27500E+01
         0.27500E+01
         0.27500E+01
         0.27500E+01
         0.27500E+01
         0.27500E+01
         0.27500E+01
         0.27500E+01
         0.27500E+01
         0.27500E+01
         0.27500E+01
         0.27500E+01
         0.27500E+01
         0.27500E+01
         0.27500E+01
         0.27500E+01
         0.27500E+01
         0.27500E+01
         0.27500E+01
         0.27500E+01
         0.27500E+01
         0.27500E+01
         0.27500E+01
         0.27500E+01
         0.27500E+01
         0.27500E+01
         0.27500E+01
         0.27500E+01
         0.27500E+01
         0.27500E+01
         0.27500E+01
         0.27500E+01
         0.27500E+01
         0.27500E+01
         0.27500E+01
         0.27500E+01
         0.27500E+01
         0.27500E+01
         0.27500E+01
         0.27500E+01
         0.27500E+01
         0.27500E+01
         0.27500E+01
         0.27500E+01
         0.27500E+01
         0.27500E+01
         0.27500E+01
         0.27500E+01
         0.27500E+01
         0.27500E+01
         0.27500E+01
         0.27500E+01
         0.27500E+01
         0.27500E+01
         0.27500E+01
         0.27500E+01
         0.27500E+01
         0.27500E+01
         0.27500E+01
         0.27500E+01
         0.27500E+01
         0.27500E+01
         0.27500E+01
         0.27500E+01
         0.27500E+01
         0.27500E+01
         0.27500E+01
         0.27500E+01
         0.27500E+01
         0.27500E+01
         0.27500E+01
         0.27500E+01
         0.27500E+01
         0.27500E+01
         0.27500E+01
         0.27500E+01
         0.27500E+01
         0.27500E+01
         0.27500E+01
         0.27500E+01
         0.27500E+01
         0.27500E+01
         0.27500E+01
         0.27500E+01
         0.27500E+01
         0.27500E+01
         0.27500E+01
         0.27500E+01
         0.27500E+01
         0.27500E+01
         0.27500E+01
         0.27500E+01
         0.27500E+01
         0.27500E+01
         0.27500E+01
         0.27500E+01
         0.27500E+01
         0.27500E+01
         0.27500E+01
         0.27500E+01
         0.27500E+01
         0.27500E+01
         0.27500E+01
         0.27500E+01
         0.27500E+01
         0.27500E+01
         0.27500E+01
         0.27500E+01
         0.27500E+01
         0.27500E+01
         0.27500E+01
         0.27500E+01
         0.27500E+01
         0.27500E+01
         0.27500E+01
         0.27500E+01
         0.27500E+01
         0.27500E+01
         0.27500E+01
         0.27500E+01
         0.27500E+01
         0.27500E+01
         0.27500E+01
         0.27500E+01
         0.27500E+01
         0.27500E+01
         0.27500E+01
         0.27500E+01
         0.27500E+01
         0.27500E+01
         0.27500E+01
         0.27500E+01
         0.27500E+01
         0.27500E+01
         0.27500E+01
         0.27500E+01
         0.27500E+01
         0.27500E+01
         0.27500E+01
         0.27500E+01
         0.27500E+01
         0.27500E+01
         0.27500E+01
         0.27500E+01
         0.27500E+01
         0.27500E+01
         0.27500E+01
         0.27500E+01
         0.27500E+01
         0.27500E+01
         0.27500E+01
         0.27500E+01
         0.27500E+01
         0.27500E+01
         0.27500E+01
         0.27500E+01
         0.27500E+01
         0.27500E+01
         0.27500E+01
         0.27500E+01
         0.27500E+01
         0.27500E+01
         0.27500E+01
         0.27500E+01
         0.27500E+01
         0.27500E+01
         0.27500E+01
         0.27500E+01
         0.27500E+01
         0.27500E+01
         0.27500E+01
         0.27500E+01
         0.27500E+01
         0.27500E+01
         0.27500E+01
         0.27500E+01
         0.27500E+01
         0.27500E+01
         0.27500E+01
         0.27500E+01
         0.27500E+01
         0.27500E+01
         0.27500E+01
         0.27500E+01
         0.27500E+01
         0.27500E+01
         0.27500E+01
         0.27500E+01
         0.27500E+01
         0.27500E+01
         0.27500E+01
         0.27500E+01
         0.27500E+01
         0.27500E+01
         0.27500E+01
         0.27500E+01
         0.27500E+01
         0.27500E+01
         0.27500E+01
         0.27500E+01
         0.27500E+01
         0.27500E+01
         0.27500E+01
         0.27500E+01
         0.27500E+01
         0.27500E+01
         0.27500E+01
         0.27500E+01
         0.27500E+01
         0.27500E+01
         0.27500E+01
         0.27500E+01
         0.27500E+01
         0.27500E+01
         0.27500E+01
         0.27500E+01
         0.27500E+01
         0.27500E+01
         0.27500E+01
         0.27500E+01
         0.27500E+01
         0.27500E+01
         0.27500E+01
         0.27500E+01
         0.27500E+01
         0.27500E+01
         0.27500E+01
         0.27500E+01
         0.27500E+01
         0.27500E+01
         0.27500E+01
         0.27500E+01
         0.27500E+01
         0.27500E+01
         0.27500E+01
         0.27500E+01
         0.27500E+01
         0.27500E+01
         0.27500E+01
         0.27500E+01
         0.27500E+01
         0.27500E+01
         0.27500E+01
         0.27500E+01
         0.27500E+01
         0.27500E+01
         0.27500E+01
         0.27500E+01
         0.27500E+01
         0.27500E+01
         0.27500E+01
         0.27500E+01
         0.27500E+01
         0.27500E+01
         0.27500E+01
         0.27500E+01
         0.27500E+01
         0.27500E+01
         0.27500E+01
         0.27500E+01
         0.27500E+01
         0.27500E+01
         0.27500E+01
         0.27500E+01
         0.27500E+01
         0.27500E+01
         0.27500E+01
         0.27500E+01
         0.27500E+01
         0.27500E+01
         0.27500E+01
         0.27500E+01
         0.27500E+01
         0.27500E+01
         0.27500E+01
         0.27500E+01
         0.27500E+01
         0.27500E+01
         0.27500E+01
         0.27500E+01
         0.27500E+01
         0.27500E+01
         0.27500E+01
         0.27500E+01
         0.27500E+01
         0.27500E+01
         0.27500E+01
         0.27500E+01
         0.27500E+01
         0.27500E+01
         0.27500E+01
         0.27500E+01
         0.27500E+01
         0.27500E+01
         0.27500E+01
         0.27500E+01
         0.27500E+01
         0.27500E+01
         0.27500E+01
         0.27500E+01
         0.27500E+01
         0.27500E+01
         0.27500E+01
         0.27500E+01
         0.27500E+01
         0.27500E+01
         0.27500E+01
         0.27500E+01
         0.27500E+01
         0.27500E+01
         0.27500E+01
         0.27500E+01
         0.27500E+01
         0.27500E+01
         0.27500E+01
         0.27500E+01
         0.27500E+01
         0.27500E+01
         0.27500E+01
         0.27500E+01
         0.27500E+01
         0.27500E+01
  
SCALARS              physical_window_x  double 1
LOOKUP_TABLE default
         0.42419E-02
         0.35201E-02
         0.37624E-02
         0.42419E-02
         0.42417E-02
         0.35201E-02
         0.37618E-02
         0.42417E-02
         0.37624E-02
         0.37624E-02
         0.37618E-02
         0.37618E-02
         0.30086E-02
         0.32069E-02
         0.30084E-02
         0.32067E-02
         0.42419E-02
         0.32069E-02
         0.42417E-02
         0.32067E-02
         0.24180E-02
         0.29942E-02
         0.32396E-02
         0.24180E-02
         0.29933E-02
         0.32385E-02
         0.26608E-02
         0.27190E-02
         0.26608E-02
         0.27190E-02
         0.42687E-02
         0.36511E-02
         0.42687E-02
         0.42687E-02
         0.36511E-02
         0.42687E-02
         0.32069E-02
         0.29739E-02
         0.32066E-02
         0.29739E-02
         0.34652E-02
         0.32621E-02
         0.34652E-02
         0.32621E-02
         0.37123E-02
         0.32069E-02
         0.37123E-02
         0.32066E-02
         0.30844E-02
         0.30844E-02
         0.35191E-02
         0.35189E-02
         0.26925E-02
         0.26925E-02
         0.26925E-02
         0.26925E-02
         0.24643E-02
         0.27651E-02
         0.24643E-02
         0.27651E-02
         0.42687E-02
         0.35191E-02
         0.42687E-02
         0.35189E-02
         0.42687E-02
         0.42687E-02
         0.34658E-02
         0.34648E-02
         0.27274E-02
         0.31799E-02
         0.27273E-02
         0.31796E-02
         0.32396E-02
         0.32385E-02
         0.26964E-02
         0.26960E-02
         0.27828E-02
         0.27828E-02
         0.27828E-02
         0.27828E-02
         0.27004E-02
         0.31883E-02
         0.27003E-02
         0.31880E-02
         0.31883E-02
         0.31880E-02
         0.37123E-02
         0.37123E-02
         0.36245E-02
         0.36245E-02
         0.28253E-02
         0.31642E-02
         0.28253E-02
         0.31636E-02
         0.33485E-02
         0.33485E-02
         0.33485E-02
         0.33485E-02
         0.31978E-02
         0.31969E-02
         0.29849E-02
         0.32843E-02
         0.29849E-02
         0.32843E-02
         0.27274E-02
         0.31109E-02
         0.27273E-02
         0.31109E-02
         0.31799E-02
         0.31796E-02
         0.32396E-02
         0.32385E-02
         0.32396E-02
         0.32385E-02
         0.29942E-02
         0.29933E-02
         0.27190E-02
         0.27190E-02
         0.26964E-02
         0.26960E-02
         0.27828E-02
         0.27828E-02
         0.27828E-02
         0.27828E-02
         0.27004E-02
         0.27003E-02
         0.31883E-02
         0.31880E-02
         0.31883E-02
         0.31880E-02
         0.32621E-02
         0.32621E-02
         0.34652E-02
         0.34652E-02
         0.37123E-02
         0.37123E-02
         0.37123E-02
         0.37123E-02
         0.36245E-02
         0.36245E-02
         0.28253E-02
         0.28253E-02
         0.29097E-02
         0.29087E-02
         0.32389E-02
         0.32378E-02
         0.32389E-02
         0.32378E-02
         0.31978E-02
         0.31969E-02
         0.29849E-02
         0.29849E-02
         0.32843E-02
         0.32843E-02
         0.32843E-02
         0.32843E-02
         0.42420E-02
         0.35201E-02
         0.37629E-02
         0.42420E-02
         0.37629E-02
         0.37629E-02
         0.30087E-02
         0.32071E-02
         0.42420E-02
         0.32071E-02
         0.24178E-02
         0.29952E-02
         0.32407E-02
         0.26596E-02
         0.27191E-02
         0.42679E-02
         0.36502E-02
         0.42679E-02
         0.32071E-02
         0.29727E-02
         0.34648E-02
         0.32622E-02
         0.37119E-02
         0.32071E-02
         0.30833E-02
         0.35193E-02
         0.26910E-02
         0.26910E-02
         0.24638E-02
         0.27644E-02
         0.42679E-02
         0.35193E-02
         0.42679E-02
         0.34670E-02
         0.27274E-02
         0.31802E-02
         0.32407E-02
         0.26968E-02
         0.27828E-02
         0.27828E-02
         0.27005E-02
         0.31885E-02
         0.31885E-02
         0.37119E-02
         0.36244E-02
         0.28250E-02
         0.31647E-02
         0.33484E-02
         0.33484E-02
         0.31986E-02
         0.29848E-02
         0.32841E-02
         0.27274E-02
         0.31099E-02
         0.31802E-02
         0.32407E-02
         0.32407E-02
         0.29952E-02
         0.27191E-02
         0.26968E-02
         0.27828E-02
         0.27828E-02
         0.27005E-02
         0.31885E-02
         0.31885E-02
         0.32622E-02
         0.34648E-02
         0.37119E-02
         0.37119E-02
         0.36244E-02
         0.28250E-02
         0.29106E-02
         0.32401E-02
         0.32401E-02
         0.31986E-02
         0.29848E-02
         0.32841E-02
         0.32841E-02
         0.42421E-02
         0.35201E-02
         0.37634E-02
         0.42421E-02
         0.37634E-02
         0.37634E-02
         0.30089E-02
         0.32073E-02
         0.42421E-02
         0.32073E-02
         0.24177E-02
         0.29961E-02
         0.32418E-02
         0.26584E-02
         0.27191E-02
         0.42670E-02
         0.36493E-02
         0.42670E-02
         0.32073E-02
         0.29714E-02
         0.34644E-02
         0.32623E-02
         0.37115E-02
         0.32073E-02
         0.30822E-02
         0.35195E-02
         0.26896E-02
         0.26896E-02
         0.24633E-02
         0.27638E-02
         0.42670E-02
         0.35195E-02
         0.42670E-02
         0.34681E-02
         0.27275E-02
         0.31805E-02
         0.32418E-02
         0.26972E-02
         0.27828E-02
         0.27828E-02
         0.27006E-02
         0.31888E-02
         0.31888E-02
         0.37115E-02
         0.36243E-02
         0.28247E-02
         0.31652E-02
         0.33483E-02
         0.33483E-02
         0.31995E-02
         0.29847E-02
         0.32839E-02
         0.27275E-02
         0.31090E-02
         0.31805E-02
         0.32418E-02
         0.32418E-02
         0.29961E-02
         0.27191E-02
         0.26972E-02
         0.27828E-02
         0.27828E-02
         0.27006E-02
         0.31888E-02
         0.31888E-02
         0.32623E-02
         0.34644E-02
         0.37115E-02
         0.37115E-02
         0.36243E-02
         0.28247E-02
         0.29116E-02
         0.32412E-02
         0.32412E-02
         0.31995E-02
         0.29847E-02
         0.32839E-02
         0.32839E-02
         0.42423E-02
         0.35200E-02
         0.37639E-02
         0.42423E-02
         0.37639E-02
         0.37639E-02
         0.30091E-02
         0.32075E-02
         0.42423E-02
         0.32075E-02
         0.24176E-02
         0.29970E-02
         0.32428E-02
         0.26572E-02
         0.27192E-02
         0.42662E-02
         0.36483E-02
         0.42662E-02
         0.32075E-02
         0.29702E-02
         0.34639E-02
         0.32624E-02
         0.37111E-02
         0.32075E-02
         0.30811E-02
         0.35197E-02
         0.26881E-02
         0.26881E-02
         0.24628E-02
         0.27631E-02
         0.42662E-02
         0.35197E-02
         0.42662E-02
         0.34692E-02
         0.27276E-02
         0.31808E-02
         0.32428E-02
         0.26975E-02
         0.27828E-02
         0.27828E-02
         0.27007E-02
         0.31890E-02
         0.31890E-02
         0.37111E-02
         0.36242E-02
         0.28243E-02
         0.31658E-02
         0.33482E-02
         0.33482E-02
         0.32003E-02
         0.29846E-02
         0.32837E-02
         0.27276E-02
         0.31081E-02
         0.31808E-02
         0.32428E-02
         0.32428E-02
         0.29970E-02
         0.27192E-02
         0.26975E-02
         0.27828E-02
         0.27828E-02
         0.27007E-02
         0.31890E-02
         0.31890E-02
         0.32624E-02
         0.34639E-02
         0.37111E-02
         0.37111E-02
         0.36242E-02
         0.28243E-02
         0.29125E-02
         0.32423E-02
         0.32423E-02
         0.32003E-02
         0.29846E-02
         0.32837E-02
         0.32837E-02
         0.42424E-02
         0.35200E-02
         0.37644E-02
         0.42424E-02
         0.37644E-02
         0.37644E-02
         0.30093E-02
         0.32077E-02
         0.42424E-02
         0.32077E-02
         0.24174E-02
         0.29979E-02
         0.32439E-02
         0.26559E-02
         0.27192E-02
         0.42653E-02
         0.36474E-02
         0.42653E-02
         0.32077E-02
         0.29690E-02
         0.34635E-02
         0.32624E-02
         0.37108E-02
         0.32077E-02
         0.30799E-02
         0.35199E-02
         0.26867E-02
         0.26867E-02
         0.24623E-02
         0.27625E-02
         0.42653E-02
         0.35199E-02
         0.42653E-02
         0.34703E-02
         0.27276E-02
         0.31812E-02
         0.32439E-02
         0.26979E-02
         0.27828E-02
         0.27828E-02
         0.27008E-02
         0.31893E-02
         0.31893E-02
         0.37108E-02
         0.36241E-02
         0.28240E-02
         0.31663E-02
         0.33481E-02
         0.33481E-02
         0.32012E-02
         0.29844E-02
         0.32835E-02
         0.27276E-02
         0.31071E-02
         0.31812E-02
         0.32439E-02
         0.32439E-02
         0.29979E-02
         0.27192E-02
         0.26979E-02
         0.27828E-02
         0.27828E-02
         0.27008E-02
         0.31893E-02
         0.31893E-02
         0.32624E-02
         0.34635E-02
         0.37108E-02
         0.37108E-02
         0.36241E-02
         0.28240E-02
         0.29135E-02
         0.32434E-02
         0.32434E-02
         0.32012E-02
         0.29844E-02
         0.32835E-02
         0.32835E-02
         0.42425E-02
         0.35200E-02
         0.37649E-02
         0.42425E-02
         0.37649E-02
         0.37649E-02
         0.30095E-02
         0.32079E-02
         0.42425E-02
         0.32079E-02
         0.24173E-02
         0.29989E-02
         0.32450E-02
         0.26547E-02
         0.27193E-02
         0.42645E-02
         0.36465E-02
         0.42645E-02
         0.32079E-02
         0.29677E-02
         0.34631E-02
         0.32625E-02
         0.37104E-02
         0.32079E-02
         0.30788E-02
         0.35201E-02
         0.26852E-02
         0.26852E-02
         0.24618E-02
         0.27618E-02
         0.42645E-02
         0.35201E-02
         0.42645E-02
         0.34715E-02
         0.27277E-02
         0.31815E-02
         0.32450E-02
         0.26983E-02
         0.27828E-02
         0.27828E-02
         0.27009E-02
         0.31895E-02
         0.31895E-02
         0.37104E-02
         0.36239E-02
         0.28237E-02
         0.31668E-02
         0.33480E-02
         0.33480E-02
         0.32020E-02
         0.29843E-02
         0.32833E-02
         0.27277E-02
         0.31062E-02
         0.31815E-02
         0.32450E-02
         0.32450E-02
         0.29989E-02
         0.27193E-02
         0.26983E-02
         0.27828E-02
         0.27828E-02
         0.27009E-02
         0.31895E-02
         0.31895E-02
         0.32625E-02
         0.34631E-02
         0.37104E-02
         0.37104E-02
         0.36239E-02
         0.28237E-02
         0.29145E-02
         0.32445E-02
         0.32445E-02
         0.32020E-02
         0.29843E-02
         0.32833E-02
         0.32833E-02
         0.42427E-02
         0.35200E-02
         0.37654E-02
         0.42427E-02
         0.37654E-02
         0.37654E-02
         0.30097E-02
         0.32081E-02
         0.42427E-02
         0.32081E-02
         0.24171E-02
         0.29998E-02
         0.32461E-02
         0.26535E-02
         0.27193E-02
         0.42636E-02
         0.36455E-02
         0.42636E-02
         0.32081E-02
         0.29665E-02
         0.34626E-02
         0.32626E-02
         0.37100E-02
         0.32081E-02
         0.30777E-02
         0.35203E-02
         0.26838E-02
         0.26838E-02
         0.24613E-02
         0.27611E-02
         0.42636E-02
         0.35203E-02
         0.42636E-02
         0.34726E-02
         0.27278E-02
         0.31818E-02
         0.32461E-02
         0.26987E-02
         0.27827E-02
         0.27827E-02
         0.27010E-02
         0.31898E-02
         0.31898E-02
         0.37100E-02
         0.36238E-02
         0.28234E-02
         0.31673E-02
         0.33479E-02
         0.33479E-02
         0.32029E-02
         0.29842E-02
         0.32831E-02
         0.27278E-02
         0.31052E-02
         0.31818E-02
         0.32461E-02
         0.32461E-02
         0.29998E-02
         0.27193E-02
         0.26987E-02
         0.27827E-02
         0.27827E-02
         0.27010E-02
         0.31898E-02
         0.31898E-02
         0.32626E-02
         0.34626E-02
         0.37100E-02
         0.37100E-02
         0.36238E-02
         0.28234E-02
         0.29154E-02
         0.32457E-02
         0.32457E-02
         0.32029E-02
         0.29842E-02
         0.32831E-02
         0.32831E-02
         0.42428E-02
         0.35199E-02
         0.37660E-02
         0.42428E-02
         0.37660E-02
         0.37660E-02
         0.30099E-02
         0.32083E-02
         0.42428E-02
         0.32083E-02
         0.24170E-02
         0.30007E-02
         0.32471E-02
         0.26523E-02
         0.27194E-02
         0.42628E-02
         0.36446E-02
         0.42628E-02
         0.32083E-02
         0.29652E-02
         0.34622E-02
         0.32627E-02
         0.37096E-02
         0.32083E-02
         0.30766E-02
         0.35205E-02
         0.26823E-02
         0.26823E-02
         0.24608E-02
         0.27605E-02
         0.42628E-02
         0.35205E-02
         0.42628E-02
         0.34737E-02
         0.27279E-02
         0.31821E-02
         0.32471E-02
         0.26991E-02
         0.27827E-02
         0.27827E-02
         0.27011E-02
         0.31900E-02
         0.31900E-02
         0.37096E-02
         0.36237E-02
         0.28231E-02
         0.31679E-02
         0.33478E-02
         0.33478E-02
         0.32038E-02
         0.29841E-02
         0.32829E-02
         0.27279E-02
         0.31043E-02
         0.31821E-02
         0.32471E-02
         0.32471E-02
         0.30007E-02
         0.27194E-02
         0.26991E-02
         0.27827E-02
         0.27827E-02
         0.27011E-02
         0.31900E-02
         0.31900E-02
         0.32627E-02
         0.34622E-02
         0.37096E-02
         0.37096E-02
         0.36237E-02
         0.28231E-02
         0.29164E-02
         0.32468E-02
         0.32468E-02
         0.32038E-02
         0.29841E-02
         0.32829E-02
         0.32829E-02
         0.42429E-02
         0.35199E-02
         0.37665E-02
         0.42429E-02
         0.37665E-02
         0.37665E-02
         0.30101E-02
         0.32085E-02
         0.42429E-02
         0.32085E-02
         0.24168E-02
         0.30017E-02
         0.32482E-02
         0.26510E-02
         0.27194E-02
         0.42619E-02
         0.36437E-02
         0.42619E-02
         0.32085E-02
         0.29640E-02
         0.34618E-02
         0.32627E-02
         0.37092E-02
         0.32085E-02
         0.30755E-02
         0.35207E-02
         0.26808E-02
         0.26808E-02
         0.24603E-02
         0.27599E-02
         0.42619E-02
         0.35207E-02
         0.42619E-02
         0.34748E-02
         0.27279E-02
         0.31824E-02
         0.32482E-02
         0.26994E-02
         0.27827E-02
         0.27827E-02
         0.27012E-02
         0.31902E-02
         0.31902E-02
         0.37092E-02
         0.36236E-02
         0.28227E-02
         0.31684E-02
         0.33477E-02
         0.33477E-02
         0.32046E-02
         0.29840E-02
         0.32827E-02
         0.27279E-02
         0.31034E-02
         0.31824E-02
         0.32482E-02
         0.32482E-02
         0.30017E-02
         0.27194E-02
         0.26994E-02
         0.27827E-02
         0.27827E-02
         0.27012E-02
         0.31902E-02
         0.31902E-02
         0.32627E-02
         0.34618E-02
         0.37092E-02
         0.37092E-02
         0.36236E-02
         0.28227E-02
         0.29173E-02
         0.32479E-02
         0.32479E-02
         0.32046E-02
         0.29840E-02
         0.32827E-02
         0.32827E-02
         0.42431E-02
         0.35199E-02
         0.37670E-02
         0.42431E-02
         0.37670E-02
         0.37670E-02
         0.30102E-02
         0.32087E-02
         0.42431E-02
         0.32087E-02
         0.24167E-02
         0.30026E-02
         0.32493E-02
         0.26498E-02
         0.27194E-02
         0.42611E-02
         0.36427E-02
         0.42611E-02
         0.32087E-02
         0.29628E-02
         0.34613E-02
         0.32628E-02
         0.37089E-02
         0.32087E-02
         0.30744E-02
         0.35209E-02
         0.26794E-02
         0.26794E-02
         0.24598E-02
         0.27592E-02
         0.42611E-02
         0.35209E-02
         0.42611E-02
         0.34759E-02
         0.27280E-02
         0.31827E-02
         0.32493E-02
         0.26998E-02
         0.27827E-02
         0.27827E-02
         0.27013E-02
         0.31905E-02
         0.31905E-02
         0.37089E-02
         0.36235E-02
         0.28224E-02
         0.31689E-02
         0.33476E-02
         0.33476E-02
         0.32055E-02
         0.29839E-02
         0.32825E-02
         0.27280E-02
         0.31024E-02
         0.31827E-02
         0.32493E-02
         0.32493E-02
         0.30026E-02
         0.27194E-02
         0.26998E-02
         0.27827E-02
         0.27827E-02
         0.27013E-02
         0.31905E-02
         0.31905E-02
         0.32628E-02
         0.34613E-02
         0.37089E-02
         0.37089E-02
         0.36235E-02
         0.28224E-02
         0.29183E-02
         0.32490E-02
         0.32490E-02
         0.32055E-02
         0.29839E-02
         0.32825E-02
         0.32825E-02
         0.42432E-02
         0.35199E-02
         0.37675E-02
         0.42432E-02
         0.37675E-02
         0.37675E-02
         0.30104E-02
         0.32089E-02
         0.42432E-02
         0.32089E-02
         0.24166E-02
         0.30035E-02
         0.32504E-02
         0.26486E-02
         0.27195E-02
         0.42603E-02
         0.36418E-02
         0.42603E-02
         0.32089E-02
         0.29615E-02
         0.34609E-02
         0.32629E-02
         0.37085E-02
         0.32089E-02
         0.30732E-02
         0.35211E-02
         0.26779E-02
         0.26779E-02
         0.24593E-02
         0.27585E-02
         0.42603E-02
         0.35211E-02
         0.42603E-02
         0.34771E-02
         0.27281E-02
         0.31830E-02
         0.32504E-02
         0.27002E-02
         0.27827E-02
         0.27827E-02
         0.27014E-02
         0.31907E-02
         0.31907E-02
         0.37085E-02
         0.36233E-02
         0.28221E-02
         0.31694E-02
         0.33475E-02
         0.33475E-02
         0.32063E-02
         0.29838E-02
         0.32823E-02
         0.27281E-02
         0.31015E-02
         0.31830E-02
         0.32504E-02
         0.32504E-02
         0.30035E-02
         0.27195E-02
         0.27002E-02
         0.27827E-02
         0.27827E-02
         0.27014E-02
         0.31907E-02
         0.31907E-02
         0.32629E-02
         0.34609E-02
         0.37085E-02
         0.37085E-02
         0.36233E-02
         0.28221E-02
         0.29193E-02
         0.32501E-02
         0.32501E-02
         0.32063E-02
         0.29838E-02
         0.32823E-02
         0.32823E-02
         0.42433E-02
         0.35199E-02
         0.37680E-02
         0.42433E-02
         0.37680E-02
         0.37680E-02
         0.30106E-02
         0.32091E-02
         0.42433E-02
         0.32091E-02
         0.24164E-02
         0.30045E-02
         0.32514E-02
         0.26474E-02
         0.27195E-02
         0.42594E-02
         0.36409E-02
         0.42594E-02
         0.32091E-02
         0.29603E-02
         0.34605E-02
         0.32630E-02
         0.37081E-02
         0.32091E-02
         0.30721E-02
         0.35213E-02
         0.26765E-02
         0.26765E-02
         0.24588E-02
         0.27579E-02
         0.42594E-02
         0.35213E-02
         0.42594E-02
         0.34782E-02
         0.27281E-02
         0.31833E-02
         0.32514E-02
         0.27006E-02
         0.27826E-02
         0.27826E-02
         0.27015E-02
         0.31910E-02
         0.31910E-02
         0.37081E-02
         0.36232E-02
         0.28218E-02
         0.31700E-02
         0.33474E-02
         0.33474E-02
         0.32072E-02
         0.29836E-02
         0.32821E-02
         0.27281E-02
         0.31005E-02
         0.31833E-02
         0.32514E-02
         0.32514E-02
         0.30045E-02
         0.27195E-02
         0.27006E-02
         0.27826E-02
         0.27826E-02
         0.27015E-02
         0.31910E-02
         0.31910E-02
         0.32630E-02
         0.34605E-02
         0.37081E-02
         0.37081E-02
         0.36232E-02
         0.28218E-02
         0.29202E-02
         0.32512E-02
         0.32512E-02
         0.32072E-02
         0.29836E-02
         0.32821E-02
         0.32821E-02
         0.42435E-02
         0.35199E-02
         0.37685E-02
         0.42435E-02
         0.37685E-02
         0.37685E-02
         0.30108E-02
         0.32093E-02
         0.42435E-02
         0.32093E-02
         0.24163E-02
         0.30054E-02
         0.32525E-02
         0.26461E-02
         0.27196E-02
         0.42586E-02
         0.36399E-02
         0.42586E-02
         0.32093E-02
         0.29591E-02
         0.34601E-02
         0.32630E-02
         0.37077E-02
         0.32093E-02
         0.30710E-02
         0.35215E-02
         0.26750E-02
         0.26750E-02
         0.24583E-02
         0.27572E-02
         0.42586E-02
         0.35215E-02
         0.42586E-02
         0.34793E-02
         0.27282E-02
         0.31836E-02
         0.32525E-02
         0.27010E-02
         0.27826E-02
         0.27826E-02
         0.27016E-02
         0.31912E-02
         0.31912E-02
         0.37077E-02
         0.36231E-02
         0.28215E-02
         0.31705E-02
         0.33473E-02
         0.33473E-02
         0.32080E-02
         0.29835E-02
         0.32819E-02
         0.27282E-02
         0.30996E-02
         0.31836E-02
         0.32525E-02
         0.32525E-02
         0.30054E-02
         0.27196E-02
         0.27010E-02
         0.27826E-02
         0.27826E-02
         0.27016E-02
         0.31912E-02
         0.31912E-02
         0.32630E-02
         0.34601E-02
         0.37077E-02
         0.37077E-02
         0.36231E-02
         0.28215E-02
         0.29212E-02
         0.32524E-02
         0.32524E-02
         0.32080E-02
         0.29835E-02
         0.32819E-02
         0.32819E-02
         0.42436E-02
         0.35198E-02
         0.37690E-02
         0.42436E-02
         0.37690E-02
         0.37690E-02
         0.30110E-02
         0.32095E-02
         0.42436E-02
         0.32095E-02
         0.24162E-02
         0.30064E-02
         0.32536E-02
         0.26449E-02
         0.27196E-02
         0.42577E-02
         0.36390E-02
         0.42577E-02
         0.32096E-02
         0.29578E-02
         0.34596E-02
         0.32631E-02
         0.37074E-02
         0.32096E-02
         0.30699E-02
         0.35217E-02
         0.26735E-02
         0.26735E-02
         0.24578E-02
         0.27566E-02
         0.42577E-02
         0.35217E-02
         0.42577E-02
         0.34804E-02
         0.27283E-02
         0.31839E-02
         0.32536E-02
         0.27013E-02
         0.27826E-02
         0.27826E-02
         0.27017E-02
         0.31915E-02
         0.31915E-02
         0.37074E-02
         0.36230E-02
         0.28211E-02
         0.31710E-02
         0.33472E-02
         0.33472E-02
         0.32089E-02
         0.29834E-02
         0.32817E-02
         0.27283E-02
         0.30986E-02
         0.31839E-02
         0.32536E-02
         0.32536E-02
         0.30064E-02
         0.27196E-02
         0.27013E-02
         0.27826E-02
         0.27826E-02
         0.27017E-02
         0.31915E-02
         0.31915E-02
         0.32631E-02
         0.34596E-02
         0.37074E-02
         0.37074E-02
         0.36230E-02
         0.28211E-02
         0.29221E-02
         0.32535E-02
         0.32535E-02
         0.32089E-02
         0.29834E-02
         0.32817E-02
         0.32817E-02
         0.42437E-02
         0.35198E-02
         0.37695E-02
         0.42437E-02
         0.37695E-02
         0.37695E-02
         0.30112E-02
         0.32097E-02
         0.42437E-02
         0.32097E-02
         0.24160E-02
         0.30073E-02
         0.32547E-02
         0.26437E-02
         0.27197E-02
         0.42569E-02
         0.36381E-02
         0.42569E-02
         0.32098E-02
         0.29566E-02
         0.34592E-02
         0.32632E-02
         0.37070E-02
         0.32098E-02
         0.30688E-02
         0.35219E-02
         0.26721E-02
         0.26721E-02
         0.24573E-02
         0.27560E-02
         0.42569E-02
         0.35219E-02
         0.42569E-02
         0.34815E-02
         0.27284E-02
         0.31843E-02
         0.32547E-02
         0.27017E-02
         0.27826E-02
         0.27826E-02
         0.27018E-02
         0.31917E-02
         0.31917E-02
         0.37070E-02
         0.36229E-02
         0.28208E-02
         0.31716E-02
         0.33471E-02
         0.33471E-02
         0.32097E-02
         0.29833E-02
         0.32815E-02
         0.27284E-02
         0.30977E-02
         0.31843E-02
         0.32547E-02
         0.32547E-02
         0.30073E-02
         0.27197E-02
         0.27017E-02
         0.27826E-02
         0.27826E-02
         0.27018E-02
         0.31917E-02
         0.31917E-02
         0.32632E-02
         0.34592E-02
         0.37070E-02
         0.37070E-02
         0.36229E-02
         0.28208E-02
         0.29231E-02
         0.32546E-02
         0.32546E-02
         0.32097E-02
         0.29833E-02
         0.32815E-02
         0.32815E-02
         0.42439E-02
         0.35198E-02
         0.37701E-02
         0.42439E-02
         0.37701E-02
         0.37701E-02
         0.30113E-02
         0.32099E-02
         0.42439E-02
         0.32099E-02
         0.24159E-02
         0.30082E-02
         0.32558E-02
         0.26425E-02
         0.27197E-02
         0.42560E-02
         0.36371E-02
         0.42560E-02
         0.32100E-02
         0.29554E-02
         0.34588E-02
         0.32633E-02
         0.37066E-02
         0.32100E-02
         0.30677E-02
         0.35221E-02
         0.26706E-02
         0.26706E-02
         0.24568E-02
         0.27553E-02
         0.42560E-02
         0.35221E-02
         0.42560E-02
         0.34827E-02
         0.27284E-02
         0.31846E-02
         0.32558E-02
         0.27021E-02
         0.27826E-02
         0.27826E-02
         0.27019E-02
         0.31920E-02
         0.31920E-02
         0.37066E-02
         0.36227E-02
         0.28205E-02
         0.31721E-02
         0.33470E-02
         0.33470E-02
         0.32106E-02
         0.29831E-02
         0.32813E-02
         0.27284E-02
         0.30968E-02
         0.31846E-02
         0.32558E-02
         0.32558E-02
         0.30082E-02
         0.27197E-02
         0.27021E-02
         0.27826E-02
         0.27826E-02
         0.27019E-02
         0.31920E-02
         0.31920E-02
         0.32633E-02
         0.34588E-02
         0.37066E-02
         0.37066E-02
         0.36227E-02
         0.28205E-02
         0.29241E-02
         0.32557E-02
         0.32557E-02
         0.32106E-02
         0.29831E-02
         0.32813E-02
         0.32813E-02
         0.42440E-02
         0.35198E-02
         0.37706E-02
         0.42440E-02
         0.37706E-02
         0.37706E-02
         0.30115E-02
         0.32101E-02
         0.42440E-02
         0.32101E-02
         0.24158E-02
         0.30091E-02
         0.32568E-02
         0.26412E-02
         0.27198E-02
         0.42552E-02
         0.36362E-02
         0.42552E-02
         0.32102E-02
         0.29541E-02
         0.34583E-02
         0.32633E-02
         0.37062E-02
         0.32102E-02
         0.30665E-02
         0.35223E-02
         0.26692E-02
         0.26692E-02
         0.24563E-02
         0.27546E-02
         0.42552E-02
         0.35223E-02
         0.42552E-02
         0.34838E-02
         0.27285E-02
         0.31849E-02
         0.32568E-02
         0.27025E-02
         0.27826E-02
         0.27826E-02
         0.27020E-02
         0.31922E-02
         0.31922E-02
         0.37062E-02
         0.36226E-02
         0.28202E-02
         0.31726E-02
         0.33469E-02
         0.33469E-02
         0.32114E-02
         0.29830E-02
         0.32811E-02
         0.27285E-02
         0.30958E-02
         0.31849E-02
         0.32568E-02
         0.32568E-02
         0.30091E-02
         0.27198E-02
         0.27025E-02
         0.27826E-02
         0.27826E-02
         0.27020E-02
         0.31922E-02
         0.31922E-02
         0.32633E-02
         0.34583E-02
         0.37062E-02
         0.37062E-02
         0.36226E-02
         0.28202E-02
         0.29250E-02
         0.32568E-02
         0.32568E-02
         0.32114E-02
         0.29830E-02
         0.32811E-02
         0.32811E-02
         0.42441E-02
         0.35198E-02
         0.37711E-02
         0.42441E-02
         0.37711E-02
         0.37711E-02
         0.30117E-02
         0.32103E-02
         0.42441E-02
         0.32103E-02
         0.24156E-02
         0.30101E-02
         0.32579E-02
         0.26400E-02
         0.27198E-02
         0.42543E-02
         0.36353E-02
         0.42543E-02
         0.32104E-02
         0.29529E-02
         0.34579E-02
         0.32634E-02
         0.37058E-02
         0.32104E-02
         0.30654E-02
         0.35225E-02
         0.26677E-02
         0.26677E-02
         0.24558E-02
         0.27540E-02
         0.42543E-02
         0.35225E-02
         0.42543E-02
         0.34849E-02
         0.27286E-02
         0.31852E-02
         0.32579E-02
         0.27029E-02
         0.27826E-02
         0.27826E-02
         0.27021E-02
         0.31924E-02
         0.31924E-02
         0.37058E-02
         0.36225E-02
         0.28198E-02
         0.31731E-02
         0.33468E-02
         0.33468E-02
         0.32123E-02
         0.29829E-02
         0.32809E-02
         0.27286E-02
         0.30949E-02
         0.31852E-02
         0.32579E-02
         0.32579E-02
         0.30101E-02
         0.27198E-02
         0.27029E-02
         0.27826E-02
         0.27826E-02
         0.27021E-02
         0.31924E-02
         0.31924E-02
         0.32634E-02
         0.34579E-02
         0.37058E-02
         0.37058E-02
         0.36225E-02
         0.28198E-02
         0.29260E-02
         0.32579E-02
         0.32579E-02
         0.32123E-02
         0.29829E-02
         0.32809E-02
         0.32809E-02
         0.42443E-02
         0.35197E-02
         0.37716E-02
         0.42443E-02
         0.37716E-02
         0.37716E-02
         0.30119E-02
         0.32105E-02
         0.42443E-02
         0.32105E-02
         0.24155E-02
         0.30110E-02
         0.32590E-02
         0.26388E-02
         0.27199E-02
         0.42535E-02
         0.36343E-02
         0.42535E-02
         0.32106E-02
         0.29517E-02
         0.34575E-02
         0.32635E-02
         0.37055E-02
         0.32106E-02
         0.30643E-02
         0.35227E-02
         0.26663E-02
         0.26663E-02
         0.24553E-02
         0.27533E-02
         0.42535E-02
         0.35227E-02
         0.42535E-02
         0.34860E-02
         0.27286E-02
         0.31855E-02
         0.32590E-02
         0.27032E-02
         0.27826E-02
         0.27826E-02
         0.27022E-02
         0.31927E-02
         0.31927E-02
         0.37055E-02
         0.36224E-02
         0.28195E-02
         0.31737E-02
         0.33467E-02
         0.33467E-02
         0.32132E-02
         0.29828E-02
         0.32807E-02
         0.27286E-02
         0.30939E-02
         0.31855E-02
         0.32590E-02
         0.32590E-02
         0.30110E-02
         0.27199E-02
         0.27032E-02
         0.27826E-02
         0.27826E-02
         0.27022E-02
         0.31927E-02
         0.31927E-02
         0.32635E-02
         0.34575E-02
         0.37055E-02
         0.37055E-02
         0.36224E-02
         0.28195E-02
         0.29269E-02
         0.32591E-02
         0.32591E-02
         0.32132E-02
         0.29828E-02
         0.32807E-02
         0.32807E-02
         0.42444E-02
         0.35197E-02
         0.37721E-02
         0.42444E-02
         0.37721E-02
         0.37721E-02
         0.30121E-02
         0.32107E-02
         0.42444E-02
         0.32107E-02
         0.24154E-02
         0.30119E-02
         0.32601E-02
         0.26376E-02
         0.27199E-02
         0.42527E-02
         0.36334E-02
         0.42527E-02
         0.32108E-02
         0.29504E-02
         0.34571E-02
         0.32636E-02
         0.37051E-02
         0.32108E-02
         0.30632E-02
         0.35229E-02
         0.26648E-02
         0.26648E-02
         0.24552E-02
         0.27527E-02
         0.42527E-02
         0.35229E-02
         0.42527E-02
         0.34871E-02
         0.27287E-02
         0.31858E-02
         0.32601E-02
         0.27036E-02
         0.27825E-02
         0.27825E-02
         0.27023E-02
         0.31929E-02
         0.31929E-02
         0.37051E-02
         0.36223E-02
         0.28192E-02
         0.31742E-02
         0.33466E-02
         0.33466E-02
         0.32140E-02
         0.29827E-02
         0.32805E-02
         0.27287E-02
         0.30930E-02
         0.31858E-02
         0.32601E-02
         0.32601E-02
         0.30119E-02
         0.27199E-02
         0.27036E-02
         0.27825E-02
         0.27825E-02
         0.27023E-02
         0.31929E-02
         0.31929E-02
         0.32636E-02
         0.34571E-02
         0.37051E-02
         0.37051E-02
         0.36223E-02
         0.28192E-02
         0.29279E-02
         0.32602E-02
         0.32602E-02
         0.32140E-02
         0.29827E-02
         0.32805E-02
         0.32805E-02
         0.42445E-02
         0.35197E-02
         0.37726E-02
         0.42445E-02
         0.37726E-02
         0.37726E-02
         0.30123E-02
         0.32108E-02
         0.42445E-02
         0.32108E-02
         0.24152E-02
         0.30129E-02
         0.32611E-02
         0.26363E-02
         0.27200E-02
         0.42518E-02
         0.36325E-02
         0.42518E-02
         0.32110E-02
         0.29492E-02
         0.34566E-02
         0.32636E-02
         0.37047E-02
         0.32110E-02
         0.30621E-02
         0.35231E-02
         0.26633E-02
         0.26633E-02
         0.24554E-02
         0.27520E-02
         0.42518E-02
         0.35231E-02
         0.42518E-02
         0.34882E-02
         0.27288E-02
         0.31861E-02
         0.32611E-02
         0.27040E-02
         0.27825E-02
         0.27825E-02
         0.27024E-02
         0.31932E-02
         0.31932E-02
         0.37047E-02
         0.36222E-02
         0.28189E-02
         0.31747E-02
         0.33465E-02
         0.33465E-02
         0.32149E-02
         0.29826E-02
         0.32803E-02
         0.27288E-02
         0.30921E-02
         0.31861E-02
         0.32611E-02
         0.32611E-02
         0.30129E-02
         0.27200E-02
         0.27040E-02
         0.27825E-02
         0.27825E-02
         0.27024E-02
         0.31932E-02
         0.31932E-02
         0.32636E-02
         0.34566E-02
         0.37047E-02
         0.37047E-02
         0.36222E-02
         0.28189E-02
         0.29289E-02
         0.32613E-02
         0.32613E-02
         0.32149E-02
         0.29826E-02
         0.32803E-02
         0.32803E-02
         0.42447E-02
         0.35196E-02
         0.37732E-02
         0.42447E-02
         0.37732E-02
         0.37732E-02
         0.30125E-02
         0.32111E-02
         0.42447E-02
         0.32111E-02
         0.24151E-02
         0.30138E-02
         0.32622E-02
         0.26351E-02
         0.27200E-02
         0.42510E-02
         0.36315E-02
         0.42510E-02
         0.32112E-02
         0.29480E-02
         0.34562E-02
         0.32637E-02
         0.37043E-02
         0.32112E-02
         0.30610E-02
         0.35233E-02
         0.26619E-02
         0.26619E-02
         0.24557E-02
         0.27514E-02
         0.42510E-02
         0.35233E-02
         0.42510E-02
         0.34894E-02
         0.27289E-02
         0.31864E-02
         0.32622E-02
         0.27044E-02
         0.27825E-02
         0.27825E-02
         0.27025E-02
         0.31934E-02
         0.31934E-02
         0.37043E-02
         0.36220E-02
         0.28186E-02
         0.31753E-02
         0.33464E-02
         0.33464E-02
         0.32157E-02
         0.29824E-02
         0.32801E-02
         0.27289E-02
         0.30911E-02
         0.31864E-02
         0.32622E-02
         0.32622E-02
         0.30138E-02
         0.27200E-02
         0.27044E-02
         0.27825E-02
         0.27825E-02
         0.27025E-02
         0.31934E-02
         0.31934E-02
         0.32637E-02
         0.34562E-02
         0.37043E-02
         0.37043E-02
         0.36220E-02
         0.28186E-02
         0.29298E-02
         0.32624E-02
         0.32624E-02
         0.32157E-02
         0.29824E-02
         0.32801E-02
         0.32801E-02
         0.42448E-02
         0.35196E-02
         0.37737E-02
         0.42448E-02
         0.37737E-02
         0.37737E-02
         0.30126E-02
         0.32112E-02
         0.42448E-02
         0.32112E-02
         0.24150E-02
         0.30147E-02
         0.32633E-02
         0.26339E-02
         0.27200E-02
         0.42501E-02
         0.36306E-02
         0.42501E-02
         0.32114E-02
         0.29467E-02
         0.34558E-02
         0.32638E-02
         0.37039E-02
         0.32114E-02
         0.30598E-02
         0.35235E-02
         0.26604E-02
         0.26604E-02
         0.24559E-02
         0.27507E-02
         0.42501E-02
         0.35235E-02
         0.42501E-02
         0.34905E-02
         0.27289E-02
         0.31867E-02
         0.32633E-02
         0.27048E-02
         0.27825E-02
         0.27825E-02
         0.27026E-02
         0.31937E-02
         0.31937E-02
         0.37039E-02
         0.36219E-02
         0.28183E-02
         0.31758E-02
         0.33463E-02
         0.33463E-02
         0.32166E-02
         0.29823E-02
         0.32799E-02
         0.27289E-02
         0.30902E-02
         0.31867E-02
         0.32633E-02
         0.32633E-02
         0.30147E-02
         0.27200E-02
         0.27048E-02
         0.27825E-02
         0.27825E-02
         0.27026E-02
         0.31937E-02
         0.31937E-02
         0.32638E-02
         0.34558E-02
         0.37039E-02
         0.37039E-02
         0.36219E-02
         0.28183E-02
         0.29308E-02
         0.32635E-02
         0.32635E-02
         0.32166E-02
         0.29823E-02
         0.32799E-02
         0.32799E-02
         0.42448E-02
         0.35196E-02
         0.37737E-02
         0.42448E-02
         0.37737E-02
         0.37737E-02
         0.30126E-02
         0.32112E-02
         0.42448E-02
         0.32112E-02
         0.24148E-02
         0.30147E-02
         0.32633E-02
         0.26327E-02
         0.27200E-02
         0.42493E-02
         0.36297E-02
         0.42493E-02
         0.32114E-02
         0.29455E-02
         0.34553E-02
         0.32638E-02
         0.37036E-02
         0.32114E-02
         0.30587E-02
         0.35235E-02
         0.26590E-02
         0.26590E-02
         0.24559E-02
         0.27501E-02
         0.42493E-02
         0.35235E-02
         0.42493E-02
         0.34905E-02
         0.27289E-02
         0.31867E-02
         0.32633E-02
         0.27048E-02
         0.27825E-02
         0.27825E-02
         0.27026E-02
         0.31937E-02
         0.31937E-02
         0.37036E-02
         0.36218E-02
         0.28180E-02
         0.31758E-02
         0.33462E-02
         0.33462E-02
         0.32166E-02
         0.29822E-02
         0.32797E-02
         0.27289E-02
         0.30892E-02
         0.31867E-02
         0.32633E-02
         0.32633E-02
         0.30147E-02
         0.27200E-02
         0.27048E-02
         0.27825E-02
         0.27825E-02
         0.27026E-02
         0.31937E-02
         0.31937E-02
         0.32638E-02
         0.34553E-02
         0.37036E-02
         0.37036E-02
         0.36218E-02
         0.28180E-02
         0.29308E-02
         0.32635E-02
         0.32635E-02
         0.32166E-02
         0.29822E-02
         0.32797E-02
         0.32797E-02
  
SCALARS              physical_window_y  double 1
LOOKUP_TABLE default
         0.43155E-02
         0.43155E-02
         0.43155E-02
         0.43155E-02
         0.43155E-02
         0.43155E-02
         0.43155E-02
         0.43155E-02
         0.34883E-02
         0.34883E-02
         0.34882E-02
         0.34882E-02
         0.32826E-02
         0.32142E-02
         0.32826E-02
         0.32142E-02
         0.37863E-02
         0.31884E-02
         0.37863E-02
         0.31884E-02
         0.27172E-02
         0.33887E-02
         0.37164E-02
         0.27172E-02
         0.33887E-02
         0.37164E-02
         0.27582E-02
         0.28966E-02
         0.27582E-02
         0.28954E-02
         0.37007E-02
         0.35859E-02
         0.37863E-02
         0.37007E-02
         0.35824E-02
         0.37863E-02
         0.29875E-02
         0.29875E-02
         0.29867E-02
         0.29867E-02
         0.28561E-02
         0.26860E-02
         0.28556E-02
         0.26852E-02
         0.29518E-02
         0.28068E-02
         0.29517E-02
         0.28066E-02
         0.29975E-02
         0.29949E-02
         0.37007E-02
         0.37007E-02
         0.28693E-02
         0.28693E-02
         0.28693E-02
         0.28693E-02
         0.27602E-02
         0.26193E-02
         0.27602E-02
         0.26193E-02
         0.37007E-02
         0.37007E-02
         0.37007E-02
         0.37007E-02
         0.37685E-02
         0.37665E-02
         0.37685E-02
         0.37665E-02
         0.30230E-02
         0.37003E-02
         0.30229E-02
         0.37003E-02
         0.37164E-02
         0.37164E-02
         0.31934E-02
         0.31921E-02
         0.32777E-02
         0.32771E-02
         0.32777E-02
         0.32771E-02
         0.27006E-02
         0.25920E-02
         0.27006E-02
         0.25920E-02
         0.25916E-02
         0.25916E-02
         0.29715E-02
         0.29715E-02
         0.29715E-02
         0.29715E-02
         0.26477E-02
         0.29102E-02
         0.26477E-02
         0.29102E-02
         0.34085E-02
         0.34085E-02
         0.35350E-02
         0.35350E-02
         0.35350E-02
         0.35350E-02
         0.29766E-02
         0.32272E-02
         0.29763E-02
         0.32254E-02
         0.29087E-02
         0.29835E-02
         0.29087E-02
         0.29825E-02
         0.37003E-02
         0.37003E-02
         0.37164E-02
         0.37164E-02
         0.37164E-02
         0.37164E-02
         0.33887E-02
         0.33887E-02
         0.28966E-02
         0.28954E-02
         0.31934E-02
         0.31921E-02
         0.32777E-02
         0.32771E-02
         0.32777E-02
         0.32771E-02
         0.27006E-02
         0.27006E-02
         0.25920E-02
         0.25920E-02
         0.25916E-02
         0.25916E-02
         0.26860E-02
         0.26852E-02
         0.28561E-02
         0.28556E-02
         0.29518E-02
         0.29517E-02
         0.29715E-02
         0.29715E-02
         0.29715E-02
         0.29715E-02
         0.26477E-02
         0.26477E-02
         0.27685E-02
         0.27685E-02
         0.34085E-02
         0.34085E-02
         0.35350E-02
         0.35350E-02
         0.35350E-02
         0.35350E-02
         0.29766E-02
         0.29763E-02
         0.31381E-02
         0.31368E-02
         0.31381E-02
         0.31368E-02
         0.43153E-02
         0.43153E-02
         0.43153E-02
         0.43153E-02
         0.34883E-02
         0.34883E-02
         0.32812E-02
         0.32132E-02
         0.37858E-02
         0.31880E-02
         0.27155E-02
         0.33883E-02
         0.37163E-02
         0.27535E-02
         0.28978E-02
         0.37004E-02
         0.35894E-02
         0.37858E-02
         0.29882E-02
         0.29882E-02
         0.28566E-02
         0.26867E-02
         0.29519E-02
         0.28071E-02
         0.30001E-02
         0.37004E-02
         0.28667E-02
         0.28667E-02
         0.27589E-02
         0.26183E-02
         0.37004E-02
         0.37004E-02
         0.37706E-02
         0.37706E-02
         0.30232E-02
         0.36991E-02
         0.37163E-02
         0.31947E-02
         0.32784E-02
         0.32784E-02
         0.27006E-02
         0.25920E-02
         0.25909E-02
         0.29715E-02
         0.29715E-02
         0.26476E-02
         0.29101E-02
         0.34078E-02
         0.35344E-02
         0.35344E-02
         0.29769E-02
         0.32290E-02
         0.29059E-02
         0.29845E-02
         0.36991E-02
         0.37163E-02
         0.37163E-02
         0.33883E-02
         0.28978E-02
         0.31947E-02
         0.32784E-02
         0.32784E-02
         0.27006E-02
         0.25920E-02
         0.25909E-02
         0.26867E-02
         0.28566E-02
         0.29519E-02
         0.29715E-02
         0.29715E-02
         0.26476E-02
         0.27685E-02
         0.34078E-02
         0.35344E-02
         0.35344E-02
         0.29769E-02
         0.31395E-02
         0.31395E-02
         0.43150E-02
         0.43150E-02
         0.43150E-02
         0.43150E-02
         0.34884E-02
         0.34884E-02
         0.32798E-02
         0.32122E-02
         0.37853E-02
         0.31876E-02
         0.27137E-02
         0.33879E-02
         0.37162E-02
         0.27488E-02
         0.28990E-02
         0.37001E-02
         0.35930E-02
         0.37853E-02
         0.29889E-02
         0.29889E-02
         0.28571E-02
         0.26875E-02
         0.29521E-02
         0.28074E-02
         0.30027E-02
         0.37001E-02
         0.28641E-02
         0.28641E-02
         0.27576E-02
         0.26173E-02
         0.37001E-02
         0.37001E-02
         0.37727E-02
         0.37727E-02
         0.30234E-02
         0.36979E-02
         0.37162E-02
         0.31960E-02
         0.32790E-02
         0.32790E-02
         0.27006E-02
         0.25920E-02
         0.25902E-02
         0.29715E-02
         0.29715E-02
         0.26476E-02
         0.29100E-02
         0.34071E-02
         0.35339E-02
         0.35339E-02
         0.29772E-02
         0.32307E-02
         0.29032E-02
         0.29855E-02
         0.36979E-02
         0.37162E-02
         0.37162E-02
         0.33879E-02
         0.28990E-02
         0.31960E-02
         0.32790E-02
         0.32790E-02
         0.27006E-02
         0.25920E-02
         0.25902E-02
         0.26875E-02
         0.28571E-02
         0.29521E-02
         0.29715E-02
         0.29715E-02
         0.26476E-02
         0.27684E-02
         0.34071E-02
         0.35339E-02
         0.35339E-02
         0.29772E-02
         0.31408E-02
         0.31408E-02
         0.43148E-02
         0.43148E-02
         0.43148E-02
         0.43148E-02
         0.34885E-02
         0.34885E-02
         0.32783E-02
         0.32112E-02
         0.37849E-02
         0.31872E-02
         0.27120E-02
         0.33875E-02
         0.37161E-02
         0.27441E-02
         0.29003E-02
         0.36998E-02
         0.35965E-02
         0.37849E-02
         0.29896E-02
         0.29896E-02
         0.28575E-02
         0.26882E-02
         0.29522E-02
         0.28077E-02
         0.30053E-02
         0.36998E-02
         0.28615E-02
         0.28615E-02
         0.27563E-02
         0.26163E-02
         0.36998E-02
         0.36998E-02
         0.37747E-02
         0.37747E-02
         0.30236E-02
         0.36967E-02
         0.37161E-02
         0.31973E-02
         0.32796E-02
         0.32796E-02
         0.27006E-02
         0.25920E-02
         0.25895E-02
         0.29714E-02
         0.29714E-02
         0.26475E-02
         0.29099E-02
         0.34063E-02
         0.35333E-02
         0.35333E-02
         0.29775E-02
         0.32325E-02
         0.29004E-02
         0.29865E-02
         0.36967E-02
         0.37161E-02
         0.37161E-02
         0.33875E-02
         0.29003E-02
         0.31973E-02
         0.32796E-02
         0.32796E-02
         0.27006E-02
         0.25920E-02
         0.25895E-02
         0.26882E-02
         0.28575E-02
         0.29522E-02
         0.29714E-02
         0.29714E-02
         0.26475E-02
         0.27684E-02
         0.34063E-02
         0.35333E-02
         0.35333E-02
         0.29775E-02
         0.31422E-02
         0.31422E-02
         0.43145E-02
         0.43145E-02
         0.43145E-02
         0.43145E-02
         0.34886E-02
         0.34886E-02
         0.32769E-02
         0.32102E-02
         0.37844E-02
         0.31868E-02
         0.27103E-02
         0.33871E-02
         0.37160E-02
         0.27394E-02
         0.29015E-02
         0.36995E-02
         0.36000E-02
         0.37844E-02
         0.29903E-02
         0.29903E-02
         0.28580E-02
         0.26890E-02
         0.29523E-02
         0.28079E-02
         0.30079E-02
         0.36995E-02
         0.28589E-02
         0.28589E-02
         0.27550E-02
         0.26152E-02
         0.36995E-02
         0.36995E-02
         0.37768E-02
         0.37768E-02
         0.30238E-02
         0.36956E-02
         0.37160E-02
         0.31986E-02
         0.32802E-02
         0.32802E-02
         0.27006E-02
         0.25920E-02
         0.25887E-02
         0.29714E-02
         0.29714E-02
         0.26475E-02
         0.29098E-02
         0.34056E-02
         0.35327E-02
         0.35327E-02
         0.29778E-02
         0.32342E-02
         0.28977E-02
         0.29875E-02
         0.36956E-02
         0.37160E-02
         0.37160E-02
         0.33871E-02
         0.29015E-02
         0.31986E-02
         0.32802E-02
         0.32802E-02
         0.27006E-02
         0.25920E-02
         0.25887E-02
         0.26890E-02
         0.28580E-02
         0.29523E-02
         0.29714E-02
         0.29714E-02
         0.26475E-02
         0.27683E-02
         0.34056E-02
         0.35327E-02
         0.35327E-02
         0.29778E-02
         0.31435E-02
         0.31435E-02
         0.43143E-02
         0.43143E-02
         0.43143E-02
         0.43143E-02
         0.34887E-02
         0.34887E-02
         0.32755E-02
         0.32091E-02
         0.37839E-02
         0.31864E-02
         0.27086E-02
         0.33867E-02
         0.37159E-02
         0.27347E-02
         0.29027E-02
         0.36991E-02
         0.36036E-02
         0.37839E-02
         0.29920E-02
         0.29920E-02
         0.28585E-02
         0.26897E-02
         0.29525E-02
         0.28082E-02
         0.30105E-02
         0.36991E-02
         0.28563E-02
         0.28563E-02
         0.27537E-02
         0.26142E-02
         0.36991E-02
         0.36991E-02
         0.37789E-02
         0.37789E-02
         0.30240E-02
         0.36944E-02
         0.37159E-02
         0.31999E-02
         0.32808E-02
         0.32808E-02
         0.27006E-02
         0.25920E-02
         0.25880E-02
         0.29714E-02
         0.29714E-02
         0.26474E-02
         0.29097E-02
         0.34049E-02
         0.35322E-02
         0.35322E-02
         0.29781E-02
         0.32360E-02
         0.28949E-02
         0.29885E-02
         0.36944E-02
         0.37159E-02
         0.37159E-02
         0.33867E-02
         0.29027E-02
         0.31999E-02
         0.32808E-02
         0.32808E-02
         0.27006E-02
         0.25920E-02
         0.25880E-02
         0.26897E-02
         0.28585E-02
         0.29525E-02
         0.29714E-02
         0.29714E-02
         0.26474E-02
         0.27683E-02
         0.34049E-02
         0.35322E-02
         0.35322E-02
         0.29781E-02
         0.31449E-02
         0.31449E-02
         0.43140E-02
         0.43140E-02
         0.43140E-02
         0.43140E-02
         0.34888E-02
         0.34888E-02
         0.32740E-02
         0.32081E-02
         0.37834E-02
         0.31860E-02
         0.27069E-02
         0.33863E-02
         0.37158E-02
         0.27299E-02
         0.29039E-02
         0.36988E-02
         0.36071E-02
         0.37834E-02
         0.29946E-02
         0.29946E-02
         0.28589E-02
         0.26905E-02
         0.29526E-02
         0.28085E-02
         0.30131E-02
         0.36988E-02
         0.28538E-02
         0.28538E-02
         0.27524E-02
         0.26132E-02
         0.36988E-02
         0.36988E-02
         0.37809E-02
         0.37809E-02
         0.30241E-02
         0.36932E-02
         0.37158E-02
         0.32012E-02
         0.32814E-02
         0.32814E-02
         0.27006E-02
         0.25920E-02
         0.25873E-02
         0.29714E-02
         0.29714E-02
         0.26473E-02
         0.29097E-02
         0.34041E-02
         0.35316E-02
         0.35316E-02
         0.29784E-02
         0.32378E-02
         0.28921E-02
         0.29895E-02
         0.36932E-02
         0.37158E-02
         0.37158E-02
         0.33863E-02
         0.29039E-02
         0.32012E-02
         0.32814E-02
         0.32814E-02
         0.27006E-02
         0.25920E-02
         0.25873E-02
         0.26905E-02
         0.28589E-02
         0.29526E-02
         0.29714E-02
         0.29714E-02
         0.26473E-02
         0.27683E-02
         0.34041E-02
         0.35316E-02
         0.35316E-02
         0.29784E-02
         0.31463E-02
         0.31463E-02
         0.43138E-02
         0.43138E-02
         0.43138E-02
         0.43138E-02
         0.34888E-02
         0.34888E-02
         0.32726E-02
         0.32071E-02
         0.37830E-02
         0.31856E-02
         0.27051E-02
         0.33859E-02
         0.37157E-02
         0.27252E-02
         0.29051E-02
         0.36985E-02
         0.36106E-02
         0.37830E-02
         0.29972E-02
         0.29972E-02
         0.28594E-02
         0.26912E-02
         0.29528E-02
         0.28087E-02
         0.30156E-02
         0.36985E-02
         0.28512E-02
         0.28512E-02
         0.27512E-02
         0.26122E-02
         0.36985E-02
         0.36985E-02
         0.37830E-02
         0.37830E-02
         0.30243E-02
         0.36920E-02
         0.37157E-02
         0.32025E-02
         0.32821E-02
         0.32821E-02
         0.27006E-02
         0.25920E-02
         0.25866E-02
         0.29714E-02
         0.29714E-02
         0.26473E-02
         0.29096E-02
         0.34034E-02
         0.35310E-02
         0.35310E-02
         0.29787E-02
         0.32396E-02
         0.28894E-02
         0.29905E-02
         0.36920E-02
         0.37157E-02
         0.37157E-02
         0.33859E-02
         0.29051E-02
         0.32025E-02
         0.32821E-02
         0.32821E-02
         0.27006E-02
         0.25920E-02
         0.25866E-02
         0.26912E-02
         0.28594E-02
         0.29528E-02
         0.29714E-02
         0.29714E-02
         0.26473E-02
         0.27682E-02
         0.34034E-02
         0.35310E-02
         0.35310E-02
         0.29787E-02
         0.31476E-02
         0.31476E-02
         0.43135E-02
         0.43135E-02
         0.43135E-02
         0.43135E-02
         0.34889E-02
         0.34889E-02
         0.32712E-02
         0.32061E-02
         0.37825E-02
         0.31852E-02
         0.27034E-02
         0.33856E-02
         0.37156E-02
         0.27205E-02
         0.29063E-02
         0.36982E-02
         0.36142E-02
         0.37851E-02
         0.29998E-02
         0.29998E-02
         0.28599E-02
         0.26920E-02
         0.29529E-02
         0.28090E-02
         0.30182E-02
         0.36982E-02
         0.28486E-02
         0.28486E-02
         0.27499E-02
         0.26112E-02
         0.36982E-02
         0.36982E-02
         0.37851E-02
         0.37851E-02
         0.30245E-02
         0.36908E-02
         0.37156E-02
         0.32038E-02
         0.32827E-02
         0.32827E-02
         0.27006E-02
         0.25920E-02
         0.25859E-02
         0.29714E-02
         0.29714E-02
         0.26472E-02
         0.29095E-02
         0.34027E-02
         0.35304E-02
         0.35304E-02
         0.29790E-02
         0.32413E-02
         0.28866E-02
         0.29915E-02
         0.36908E-02
         0.37156E-02
         0.37156E-02
         0.33856E-02
         0.29063E-02
         0.32038E-02
         0.32827E-02
         0.32827E-02
         0.27006E-02
         0.25920E-02
         0.25859E-02
         0.26920E-02
         0.28599E-02
         0.29529E-02
         0.29714E-02
         0.29714E-02
         0.26472E-02
         0.27682E-02
         0.34027E-02
         0.35304E-02
         0.35304E-02
         0.29790E-02
         0.31490E-02
         0.31490E-02
         0.43133E-02
         0.43133E-02
         0.43133E-02
         0.43133E-02
         0.34890E-02
         0.34890E-02
         0.32698E-02
         0.32051E-02
         0.37820E-02
         0.31848E-02
         0.27017E-02
         0.33851E-02
         0.37155E-02
         0.27158E-02
         0.29075E-02
         0.36979E-02
         0.36177E-02
         0.37871E-02
         0.30024E-02
         0.30024E-02
         0.28603E-02
         0.26927E-02
         0.29530E-02
         0.28093E-02
         0.30208E-02
         0.36979E-02
         0.28460E-02
         0.28460E-02
         0.27486E-02
         0.26101E-02
         0.36979E-02
         0.36979E-02
         0.37871E-02
         0.37871E-02
         0.30247E-02
         0.36896E-02
         0.37155E-02
         0.32051E-02
         0.32833E-02
         0.32833E-02
         0.27006E-02
         0.25920E-02
         0.25851E-02
         0.29714E-02
         0.29714E-02
         0.26472E-02
         0.29094E-02
         0.34019E-02
         0.35299E-02
         0.35299E-02
         0.29793E-02
         0.32431E-02
         0.28838E-02
         0.29925E-02
         0.36896E-02
         0.37155E-02
         0.37155E-02
         0.33851E-02
         0.29075E-02
         0.32051E-02
         0.32833E-02
         0.32833E-02
         0.27006E-02
         0.25920E-02
         0.25851E-02
         0.26927E-02
         0.28603E-02
         0.29530E-02
         0.29714E-02
         0.29714E-02
         0.26472E-02
         0.27681E-02
         0.34019E-02
         0.35299E-02
         0.35299E-02
         0.29793E-02
         0.31503E-02
         0.31503E-02
         0.43130E-02
         0.43130E-02
         0.43130E-02
         0.43130E-02
         0.34891E-02
         0.34891E-02
         0.32683E-02
         0.32041E-02
         0.37816E-02
         0.31844E-02
         0.27000E-02
         0.33848E-02
         0.37154E-02
         0.27111E-02
         0.29087E-02
         0.36976E-02
         0.36213E-02
         0.37892E-02
         0.30050E-02
         0.30050E-02
         0.28608E-02
         0.26935E-02
         0.29532E-02
         0.28096E-02
         0.30234E-02
         0.36976E-02
         0.28434E-02
         0.28434E-02
         0.27472E-02
         0.26091E-02
         0.36976E-02
         0.36976E-02
         0.37892E-02
         0.37892E-02
         0.30249E-02
         0.36885E-02
         0.37154E-02
         0.32064E-02
         0.32839E-02
         0.32839E-02
         0.27006E-02
         0.25920E-02
         0.25844E-02
         0.29714E-02
         0.29714E-02
         0.26471E-02
         0.29094E-02
         0.34012E-02
         0.35293E-02
         0.35293E-02
         0.29797E-02
         0.32449E-02
         0.28811E-02
         0.29935E-02
         0.36885E-02
         0.37154E-02
         0.37154E-02
         0.33848E-02
         0.29087E-02
         0.32064E-02
         0.32839E-02
         0.32839E-02
         0.27006E-02
         0.25920E-02
         0.25844E-02
         0.26935E-02
         0.28608E-02
         0.29532E-02
         0.29714E-02
         0.29714E-02
         0.26471E-02
         0.27681E-02
         0.34012E-02
         0.35293E-02
         0.35293E-02
         0.29797E-02
         0.31517E-02
         0.31517E-02
         0.43128E-02
         0.43128E-02
         0.43128E-02
         0.43128E-02
         0.34892E-02
         0.34892E-02
         0.32669E-02
         0.32031E-02
         0.37811E-02
         0.31840E-02
         0.26982E-02
         0.33844E-02
         0.37152E-02
         0.27063E-02
         0.29099E-02
         0.36973E-02
         0.36248E-02
         0.37913E-02
         0.30076E-02
         0.30076E-02
         0.28613E-02
         0.26942E-02
         0.29533E-02
         0.28099E-02
         0.30260E-02
         0.36973E-02
         0.28408E-02
         0.28408E-02
         0.27460E-02
         0.26081E-02
         0.36973E-02
         0.36973E-02
         0.37913E-02
         0.37913E-02
         0.30250E-02
         0.36873E-02
         0.37152E-02
         0.32077E-02
         0.32845E-02
         0.32845E-02
         0.27006E-02
         0.25920E-02
         0.25837E-02
         0.29714E-02
         0.29714E-02
         0.26471E-02
         0.29093E-02
         0.34005E-02
         0.35287E-02
         0.35287E-02
         0.29800E-02
         0.32467E-02
         0.28783E-02
         0.29945E-02
         0.36873E-02
         0.37152E-02
         0.37152E-02
         0.33844E-02
         0.29099E-02
         0.32077E-02
         0.32845E-02
         0.32845E-02
         0.27006E-02
         0.25920E-02
         0.25837E-02
         0.26942E-02
         0.28613E-02
         0.29533E-02
         0.29714E-02
         0.29714E-02
         0.26471E-02
         0.27681E-02
         0.34005E-02
         0.35287E-02
         0.35287E-02
         0.29800E-02
         0.31530E-02
         0.31530E-02
         0.43125E-02
         0.43125E-02
         0.43125E-02
         0.43125E-02
         0.34893E-02
         0.34893E-02
         0.32655E-02
         0.32021E-02
         0.37806E-02
         0.31836E-02
         0.26965E-02
         0.33840E-02
         0.37151E-02
         0.27016E-02
         0.29111E-02
         0.36969E-02
         0.36283E-02
         0.37933E-02
         0.30102E-02
         0.30102E-02
         0.28617E-02
         0.26950E-02
         0.29535E-02
         0.28101E-02
         0.30286E-02
         0.36969E-02
         0.28382E-02
         0.28382E-02
         0.27447E-02
         0.26071E-02
         0.36969E-02
         0.36969E-02
         0.37933E-02
         0.37933E-02
         0.30252E-02
         0.36861E-02
         0.37151E-02
         0.32090E-02
         0.32852E-02
         0.32852E-02
         0.27006E-02
         0.25920E-02
         0.25830E-02
         0.29714E-02
         0.29714E-02
         0.26470E-02
         0.29092E-02
         0.33997E-02
         0.35282E-02
         0.35282E-02
         0.29803E-02
         0.32484E-02
         0.28755E-02
         0.29955E-02
         0.36861E-02
         0.37151E-02
         0.37151E-02
         0.33840E-02
         0.29111E-02
         0.32090E-02
         0.32852E-02
         0.32852E-02
         0.27006E-02
         0.25920E-02
         0.25830E-02
         0.26950E-02
         0.28617E-02
         0.29535E-02
         0.29714E-02
         0.29714E-02
         0.26470E-02
         0.27680E-02
         0.33997E-02
         0.35282E-02
         0.35282E-02
         0.29803E-02
         0.31544E-02
         0.31544E-02
         0.43123E-02
         0.43123E-02
         0.43123E-02
         0.43123E-02
         0.34893E-02
         0.34893E-02
         0.32640E-02
         0.32011E-02
         0.37801E-02
         0.31832E-02
         0.26948E-02
         0.33836E-02
         0.37150E-02
         0.26969E-02
         0.29123E-02
         0.36966E-02
         0.36319E-02
         0.37954E-02
         0.30128E-02
         0.30128E-02
         0.28622E-02
         0.26957E-02
         0.29536E-02
         0.28104E-02
         0.30312E-02
         0.36966E-02
         0.28357E-02
         0.28357E-02
         0.27434E-02
         0.26061E-02
         0.36966E-02
         0.36966E-02
         0.37954E-02
         0.37954E-02
         0.30254E-02
         0.36849E-02
         0.37150E-02
         0.32103E-02
         0.32858E-02
         0.32858E-02
         0.27006E-02
         0.25920E-02
         0.25823E-02
         0.29714E-02
         0.29714E-02
         0.26470E-02
         0.29091E-02
         0.33990E-02
         0.35276E-02
         0.35276E-02
         0.29806E-02
         0.32502E-02
         0.28728E-02
         0.29965E-02
         0.36849E-02
         0.37150E-02
         0.37150E-02
         0.33836E-02
         0.29123E-02
         0.32103E-02
         0.32858E-02
         0.32858E-02
         0.27006E-02
         0.25920E-02
         0.25823E-02
         0.26957E-02
         0.28622E-02
         0.29536E-02
         0.29714E-02
         0.29714E-02
         0.26470E-02
         0.27680E-02
         0.33990E-02
         0.35276E-02
         0.35276E-02
         0.29806E-02
         0.31557E-02
         0.31557E-02
         0.43120E-02
         0.43120E-02
         0.43120E-02
         0.43120E-02
         0.34894E-02
         0.34894E-02
         0.32626E-02
         0.32001E-02
         0.37797E-02
         0.31828E-02
         0.26931E-02
         0.33832E-02
         0.37149E-02
         0.26922E-02
         0.29135E-02
         0.36963E-02
         0.36354E-02
         0.37975E-02
         0.30154E-02
         0.30154E-02
         0.28627E-02
         0.26965E-02
         0.29537E-02
         0.28107E-02
         0.30338E-02
         0.36963E-02
         0.28331E-02
         0.28331E-02
         0.27421E-02
         0.26051E-02
         0.36963E-02
         0.36963E-02
         0.37975E-02
         0.37975E-02
         0.30256E-02
         0.36838E-02
         0.37149E-02
         0.32116E-02
         0.32864E-02
         0.32864E-02
         0.27006E-02
         0.25920E-02
         0.25815E-02
         0.29714E-02
         0.29714E-02
         0.26469E-02
         0.29090E-02
         0.33983E-02
         0.35270E-02
         0.35270E-02
         0.29809E-02
         0.32519E-02
         0.28700E-02
         0.29975E-02
         0.36838E-02
         0.37149E-02
         0.37149E-02
         0.33832E-02
         0.29135E-02
         0.32116E-02
         0.32864E-02
         0.32864E-02
         0.27006E-02
         0.25920E-02
         0.25815E-02
         0.26965E-02
         0.28627E-02
         0.29537E-02
         0.29714E-02
         0.29714E-02
         0.26469E-02
         0.27680E-02
         0.33983E-02
         0.35270E-02
         0.35270E-02
         0.29809E-02
         0.31571E-02
         0.31571E-02
         0.43118E-02
         0.43118E-02
         0.43118E-02
         0.43118E-02
         0.34895E-02
         0.34895E-02
         0.32612E-02
         0.31990E-02
         0.37792E-02
         0.31824E-02
         0.26913E-02
         0.33828E-02
         0.37148E-02
         0.26875E-02
         0.29148E-02
         0.36960E-02
         0.36390E-02
         0.37995E-02
         0.30180E-02
         0.30180E-02
         0.28631E-02
         0.26972E-02
         0.29539E-02
         0.28110E-02
         0.30364E-02
         0.36960E-02
         0.28305E-02
         0.28305E-02
         0.27408E-02
         0.26040E-02
         0.36960E-02
         0.36960E-02
         0.37995E-02
         0.37995E-02
         0.30258E-02
         0.36826E-02
         0.37148E-02
         0.32129E-02
         0.32870E-02
         0.32870E-02
         0.27006E-02
         0.25920E-02
         0.25808E-02
         0.29713E-02
         0.29713E-02
         0.26468E-02
         0.29089E-02
         0.33975E-02
         0.35264E-02
         0.35264E-02
         0.29812E-02
         0.32537E-02
         0.28672E-02
         0.29985E-02
         0.36826E-02
         0.37148E-02
         0.37148E-02
         0.33828E-02
         0.29148E-02
         0.32129E-02
         0.32870E-02
         0.32870E-02
         0.27006E-02
         0.25920E-02
         0.25808E-02
         0.26972E-02
         0.28631E-02
         0.29539E-02
         0.29713E-02
         0.29713E-02
         0.26468E-02
         0.27679E-02
         0.33975E-02
         0.35264E-02
         0.35264E-02
         0.29812E-02
         0.31585E-02
         0.31585E-02
         0.43115E-02
         0.43115E-02
         0.43115E-02
         0.43115E-02
         0.34896E-02
         0.34896E-02
         0.32597E-02
         0.31980E-02
         0.37787E-02
         0.31820E-02
         0.26896E-02
         0.33824E-02
         0.37147E-02
         0.26827E-02
         0.29160E-02
         0.36957E-02
         0.36425E-02
         0.38016E-02
         0.30206E-02
         0.30206E-02
         0.28636E-02
         0.26980E-02
         0.29540E-02
         0.28112E-02
         0.30390E-02
         0.36957E-02
         0.28279E-02
         0.28279E-02
         0.27395E-02
         0.26030E-02
         0.36957E-02
         0.36957E-02
         0.38016E-02
         0.38016E-02
         0.30260E-02
         0.36814E-02
         0.37147E-02
         0.32141E-02
         0.32876E-02
         0.32876E-02
         0.27006E-02
         0.25920E-02
         0.25801E-02
         0.29713E-02
         0.29713E-02
         0.26468E-02
         0.29089E-02
         0.33968E-02
         0.35259E-02
         0.35259E-02
         0.29815E-02
         0.32555E-02
         0.28645E-02
         0.29995E-02
         0.36814E-02
         0.37147E-02
         0.37147E-02
         0.33824E-02
         0.29160E-02
         0.32141E-02
         0.32876E-02
         0.32876E-02
         0.27006E-02
         0.25920E-02
         0.25801E-02
         0.26980E-02
         0.28636E-02
         0.29540E-02
         0.29713E-02
         0.29713E-02
         0.26468E-02
         0.27679E-02
         0.33968E-02
         0.35259E-02
         0.35259E-02
         0.29815E-02
         0.31598E-02
         0.31598E-02
         0.43113E-02
         0.43113E-02
         0.43113E-02
         0.43113E-02
         0.34897E-02
         0.34897E-02
         0.32583E-02
         0.31970E-02
         0.37783E-02
         0.31816E-02
         0.26879E-02
         0.33820E-02
         0.37146E-02
         0.26780E-02
         0.29172E-02
         0.36954E-02
         0.36460E-02
         0.38037E-02
         0.30232E-02
         0.30232E-02
         0.28641E-02
         0.26987E-02
         0.29542E-02
         0.28115E-02
         0.30416E-02
         0.36954E-02
         0.28253E-02
         0.28253E-02
         0.27382E-02
         0.26020E-02
         0.36954E-02
         0.36954E-02
         0.38037E-02
         0.38037E-02
         0.30261E-02
         0.36802E-02
         0.37146E-02
         0.32154E-02
         0.32882E-02
         0.32882E-02
         0.27006E-02
         0.25921E-02
         0.25794E-02
         0.29713E-02
         0.29713E-02
         0.26467E-02
         0.29088E-02
         0.33961E-02
         0.35253E-02
         0.35253E-02
         0.29818E-02
         0.32573E-02
         0.28617E-02
         0.30005E-02
         0.36802E-02
         0.37146E-02
         0.37146E-02
         0.33820E-02
         0.29172E-02
         0.32154E-02
         0.32882E-02
         0.32882E-02
         0.27006E-02
         0.25921E-02
         0.25794E-02
         0.26987E-02
         0.28641E-02
         0.29542E-02
         0.29713E-02
         0.29713E-02
         0.26467E-02
         0.27678E-02
         0.33961E-02
         0.35253E-02
         0.35253E-02
         0.29818E-02
         0.31612E-02
         0.31612E-02
         0.43110E-02
         0.43110E-02
         0.43110E-02
         0.43110E-02
         0.34898E-02
         0.34898E-02
         0.32569E-02
         0.31960E-02
         0.37778E-02
         0.31812E-02
         0.26862E-02
         0.33816E-02
         0.37145E-02
         0.26733E-02
         0.29184E-02
         0.36950E-02
         0.36495E-02
         0.38057E-02
         0.30258E-02
         0.30258E-02
         0.28645E-02
         0.26995E-02
         0.29543E-02
         0.28118E-02
         0.30442E-02
         0.36950E-02
         0.28227E-02
         0.28227E-02
         0.27369E-02
         0.26010E-02
         0.36950E-02
         0.36950E-02
         0.38057E-02
         0.38057E-02
         0.30263E-02
         0.36790E-02
         0.37145E-02
         0.32167E-02
         0.32889E-02
         0.32889E-02
         0.27006E-02
         0.25921E-02
         0.25787E-02
         0.29713E-02
         0.29713E-02
         0.26467E-02
         0.29087E-02
         0.33953E-02
         0.35247E-02
         0.35247E-02
         0.29821E-02
         0.32590E-02
         0.28589E-02
         0.30015E-02
         0.36790E-02
         0.37145E-02
         0.37145E-02
         0.33816E-02
         0.29184E-02
         0.32167E-02
         0.32889E-02
         0.32889E-02
         0.27006E-02
         0.25921E-02
         0.25787E-02
         0.26995E-02
         0.28645E-02
         0.29543E-02
         0.29713E-02
         0.29713E-02
         0.26467E-02
         0.27678E-02
         0.33953E-02
         0.35247E-02
         0.35247E-02
         0.29821E-02
         0.31625E-02
         0.31625E-02
         0.43108E-02
         0.43108E-02
         0.43108E-02
         0.43108E-02
         0.34898E-02
         0.34898E-02
         0.32555E-02
         0.31950E-02
         0.37773E-02
         0.31808E-02
         0.26845E-02
         0.33812E-02
         0.37144E-02
         0.26686E-02
         0.29196E-02
         0.36948E-02
         0.36531E-02
         0.38078E-02
         0.30285E-02
         0.30285E-02
         0.28650E-02
         0.27002E-02
         0.29544E-02
         0.28120E-02
         0.30467E-02
         0.36948E-02
         0.28201E-02
         0.28201E-02
         0.27356E-02
         0.26000E-02
         0.36948E-02
         0.36948E-02
         0.38078E-02
         0.38078E-02
         0.30265E-02
         0.36779E-02
         0.37144E-02
         0.32181E-02
         0.32895E-02
         0.32895E-02
         0.27006E-02
         0.25921E-02
         0.25779E-02
         0.29713E-02
         0.29713E-02
         0.26466E-02
         0.29086E-02
         0.33946E-02
         0.35242E-02
         0.35242E-02
         0.29824E-02
         0.32608E-02
         0.28562E-02
         0.30025E-02
         0.36779E-02
         0.37144E-02
         0.37144E-02
         0.33812E-02
         0.29196E-02
         0.32181E-02
         0.32895E-02
         0.32895E-02
         0.27006E-02
         0.25921E-02
         0.25779E-02
         0.27002E-02
         0.28650E-02
         0.29544E-02
         0.29713E-02
         0.29713E-02
         0.26466E-02
         0.27678E-02
         0.33946E-02
         0.35242E-02
         0.35242E-02
         0.29824E-02
         0.31639E-02
         0.31639E-02
         0.43105E-02
         0.43105E-02
         0.43105E-02
         0.43105E-02
         0.34899E-02
         0.34899E-02
         0.32540E-02
         0.31940E-02
         0.37768E-02
         0.31804E-02
         0.26827E-02
         0.33808E-02
         0.37143E-02
         0.26639E-02
         0.29208E-02
         0.36944E-02
         0.36566E-02
         0.38099E-02
         0.30311E-02
         0.30311E-02
         0.28655E-02
         0.27010E-02
         0.29546E-02
         0.28123E-02
         0.30493E-02
         0.36944E-02
         0.28175E-02
         0.28175E-02
         0.27343E-02
         0.25990E-02
         0.36944E-02
         0.36944E-02
         0.38099E-02
         0.38099E-02
         0.30267E-02
         0.36767E-02
         0.37143E-02
         0.32193E-02
         0.32901E-02
         0.32901E-02
         0.27006E-02
         0.25921E-02
         0.25772E-02
         0.29713E-02
         0.29713E-02
         0.26466E-02
         0.29085E-02
         0.33939E-02
         0.35236E-02
         0.35236E-02
         0.29827E-02
         0.32626E-02
         0.28534E-02
         0.30035E-02
         0.36767E-02
         0.37143E-02
         0.37143E-02
         0.33808E-02
         0.29208E-02
         0.32193E-02
         0.32901E-02
         0.32901E-02
         0.27006E-02
         0.25921E-02
         0.25772E-02
         0.27010E-02
         0.28655E-02
         0.29546E-02
         0.29713E-02
         0.29713E-02
         0.26466E-02
         0.27677E-02
         0.33939E-02
         0.35236E-02
         0.35236E-02
         0.29827E-02
         0.31652E-02
         0.31652E-02
         0.43103E-02
         0.43103E-02
         0.43103E-02
         0.43103E-02
         0.34900E-02
         0.34900E-02
         0.32526E-02
         0.31930E-02
         0.37764E-02
         0.31800E-02
         0.26810E-02
         0.33804E-02
         0.37142E-02
         0.26591E-02
         0.29220E-02
         0.36941E-02
         0.36602E-02
         0.38119E-02
         0.30337E-02
         0.30337E-02
         0.28660E-02
         0.27017E-02
         0.29547E-02
         0.28126E-02
         0.30519E-02
         0.36941E-02
         0.28150E-02
         0.28150E-02
         0.27330E-02
         0.25979E-02
         0.36941E-02
         0.36941E-02
         0.38119E-02
         0.38119E-02
         0.30269E-02
         0.36755E-02
         0.37142E-02
         0.32206E-02
         0.32907E-02
         0.32907E-02
         0.27006E-02
         0.25921E-02
         0.25765E-02
         0.29713E-02
         0.29713E-02
         0.26465E-02
         0.29085E-02
         0.33931E-02
         0.35230E-02
         0.35230E-02
         0.29830E-02
         0.32643E-02
         0.28507E-02
         0.30045E-02
         0.36755E-02
         0.37142E-02
         0.37142E-02
         0.33804E-02
         0.29220E-02
         0.32206E-02
         0.32907E-02
         0.32907E-02
         0.27006E-02
         0.25921E-02
         0.25765E-02
         0.27017E-02
         0.28660E-02
         0.29547E-02
         0.29713E-02
         0.29713E-02
         0.26465E-02
         0.27677E-02
         0.33931E-02
         0.35230E-02
         0.35230E-02
         0.29830E-02
         0.31666E-02
         0.31666E-02
         0.43100E-02
         0.43100E-02
         0.43100E-02
         0.43100E-02
         0.34901E-02
         0.34901E-02
         0.32512E-02
         0.31920E-02
         0.37759E-02
         0.31796E-02
         0.26793E-02
         0.33800E-02
         0.37141E-02
         0.26544E-02
         0.29232E-02
         0.36938E-02
         0.36637E-02
         0.38140E-02
         0.30363E-02
         0.30363E-02
         0.28664E-02
         0.27025E-02
         0.29548E-02
         0.28129E-02
         0.30545E-02
         0.36938E-02
         0.28124E-02
         0.28124E-02
         0.27317E-02
         0.25969E-02
         0.36938E-02
         0.36938E-02
         0.38140E-02
         0.38140E-02
         0.30271E-02
         0.36743E-02
         0.37141E-02
         0.32219E-02
         0.32913E-02
         0.32913E-02
         0.27006E-02
         0.25921E-02
         0.25758E-02
         0.29713E-02
         0.29713E-02
         0.26465E-02
         0.29084E-02
         0.33924E-02
         0.35224E-02
         0.35224E-02
         0.29833E-02
         0.32661E-02
         0.28479E-02
         0.30055E-02
         0.36743E-02
         0.37141E-02
         0.37141E-02
         0.33800E-02
         0.29232E-02
         0.32219E-02
         0.32913E-02
         0.32913E-02
         0.27006E-02
         0.25921E-02
         0.25758E-02
         0.27025E-02
         0.28664E-02
         0.29548E-02
         0.29713E-02
         0.29713E-02
         0.26465E-02
         0.27677E-02
         0.33924E-02
         0.35224E-02
         0.35224E-02
         0.29833E-02
         0.31680E-02
         0.31680E-02
         0.43098E-02
         0.43098E-02
         0.43098E-02
         0.43098E-02
         0.34901E-02
         0.34901E-02
         0.32498E-02
         0.31910E-02
         0.37754E-02
         0.31792E-02
         0.26776E-02
         0.33796E-02
         0.37140E-02
         0.26497E-02
         0.29232E-02
         0.36935E-02
         0.36637E-02
         0.38140E-02
         0.30363E-02
         0.30363E-02
         0.28664E-02
         0.27025E-02
         0.29548E-02
         0.28129E-02
         0.30545E-02
         0.36935E-02
         0.28098E-02
         0.28098E-02
         0.27304E-02
         0.25959E-02
         0.36935E-02
         0.36935E-02
         0.38140E-02
         0.38140E-02
         0.30271E-02
         0.36731E-02
         0.37140E-02
         0.32219E-02
         0.32913E-02
         0.32913E-02
         0.27006E-02
         0.25921E-02
         0.25751E-02
         0.29713E-02
         0.29713E-02
         0.26464E-02
         0.29083E-02
         0.33916E-02
         0.35219E-02
         0.35219E-02
         0.29833E-02
         0.32661E-02
         0.28451E-02
         0.30055E-02
         0.36731E-02
         0.37140E-02
         0.37140E-02
         0.33796E-02
         0.29232E-02
         0.32219E-02
         0.32913E-02
         0.32913E-02
         0.27006E-02
         0.25921E-02
         0.25751E-02
         0.27025E-02
         0.28664E-02
         0.29548E-02
         0.29713E-02
         0.29713E-02
         0.26464E-02
         0.27676E-02
         0.33916E-02
         0.35219E-02
         0.35219E-02
         0.29833E-02
         0.31680E-02
         0.31680E-02
  
SCALARS              physical_window_z  double 1
LOOKUP_TABLE default
         0.26928E-02
         0.26928E-02
         0.26928E-02
         0.26928E-02
         0.26928E-02
         0.26928E-02
         0.26928E-02
         0.26928E-02
         0.26928E-02
         0.26928E-02
         0.26928E-02
         0.26928E-02
         0.26928E-02
         0.26928E-02
         0.26928E-02
         0.26928E-02
         0.26928E-02
         0.26928E-02
         0.26928E-02
         0.26928E-02
         0.26928E-02
         0.26928E-02
         0.26928E-02
         0.26928E-02
         0.26928E-02
         0.26928E-02
         0.26928E-02
         0.26928E-02
         0.26928E-02
         0.26928E-02
         0.26928E-02
         0.26928E-02
         0.26928E-02
         0.26928E-02
         0.26928E-02
         0.26928E-02
         0.26928E-02
         0.26928E-02
         0.26928E-02
         0.26928E-02
         0.26928E-02
         0.26928E-02
         0.26928E-02
         0.26928E-02
         0.26928E-02
         0.26928E-02
         0.26928E-02
         0.26928E-02
         0.26928E-02
         0.26928E-02
         0.26928E-02
         0.26928E-02
         0.26928E-02
         0.26928E-02
         0.26928E-02
         0.26928E-02
         0.26928E-02
         0.26928E-02
         0.26928E-02
         0.26928E-02
         0.26928E-02
         0.26928E-02
         0.26928E-02
         0.26928E-02
         0.26928E-02
         0.26928E-02
         0.26928E-02
         0.26928E-02
         0.26928E-02
         0.26928E-02
         0.26928E-02
         0.26928E-02
         0.26928E-02
         0.26928E-02
         0.26928E-02
         0.26928E-02
         0.26928E-02
         0.26928E-02
         0.26928E-02
         0.26928E-02
         0.26928E-02
         0.26928E-02
         0.26928E-02
         0.26928E-02
         0.26928E-02
         0.26928E-02
         0.26928E-02
         0.26928E-02
         0.26928E-02
         0.26928E-02
         0.26928E-02
         0.26928E-02
         0.26928E-02
         0.26928E-02
         0.26928E-02
         0.26928E-02
         0.26928E-02
         0.26928E-02
         0.26928E-02
         0.26928E-02
         0.26928E-02
         0.26928E-02
         0.26928E-02
         0.26928E-02
         0.26928E-02
         0.26928E-02
         0.26928E-02
         0.26928E-02
         0.26928E-02
         0.26928E-02
         0.26928E-02
         0.26928E-02
         0.26928E-02
         0.26928E-02
         0.26928E-02
         0.26928E-02
         0.26928E-02
         0.26928E-02
         0.26928E-02
         0.26928E-02
         0.26928E-02
         0.26928E-02
         0.26928E-02
         0.26928E-02
         0.26928E-02
         0.26928E-02
         0.26928E-02
         0.26928E-02
         0.26928E-02
         0.26928E-02
         0.26928E-02
         0.26928E-02
         0.26928E-02
         0.26928E-02
         0.26928E-02
         0.26928E-02
         0.26928E-02
         0.26928E-02
         0.26928E-02
         0.26928E-02
         0.26928E-02
         0.26928E-02
         0.26928E-02
         0.26928E-02
         0.26928E-02
         0.26928E-02
         0.26928E-02
         0.26928E-02
         0.26928E-02
         0.26928E-02
         0.26928E-02
         0.26928E-02
         0.26928E-02
         0.26928E-02
         0.26928E-02
         0.26928E-02
         0.26927E-02
         0.26927E-02
         0.26927E-02
         0.26927E-02
         0.26927E-02
         0.26927E-02
         0.26927E-02
         0.26927E-02
         0.26927E-02
         0.26927E-02
         0.26927E-02
         0.26927E-02
         0.26927E-02
         0.26927E-02
         0.26927E-02
         0.26927E-02
         0.26927E-02
         0.26927E-02
         0.26927E-02
         0.26927E-02
         0.26927E-02
         0.26927E-02
         0.26927E-02
         0.26927E-02
         0.26927E-02
         0.26927E-02
         0.26927E-02
         0.26927E-02
         0.26927E-02
         0.26927E-02
         0.26927E-02
         0.26927E-02
         0.26927E-02
         0.26927E-02
         0.26927E-02
         0.26927E-02
         0.26927E-02
         0.26927E-02
         0.26927E-02
         0.26927E-02
         0.26927E-02
         0.26927E-02
         0.26927E-02
         0.26927E-02
         0.26927E-02
         0.26927E-02
         0.26927E-02
         0.26927E-02
         0.26927E-02
         0.26927E-02
         0.26927E-02
         0.26927E-02
         0.26927E-02
         0.26927E-02
         0.26927E-02
         0.26927E-02
         0.26927E-02
         0.26927E-02
         0.26927E-02
         0.26927E-02
         0.26927E-02
         0.26927E-02
         0.26927E-02
         0.26927E-02
         0.26927E-02
         0.26927E-02
         0.26927E-02
         0.26927E-02
         0.26927E-02
         0.26927E-02
         0.26927E-02
         0.26927E-02
         0.26927E-02
         0.26927E-02
         0.26927E-02
         0.26927E-02
         0.26927E-02
         0.26927E-02
         0.26927E-02
         0.26927E-02
         0.26927E-02
         0.26927E-02
         0.26927E-02
         0.26927E-02
         0.26927E-02
         0.26927E-02
         0.26927E-02
         0.26927E-02
         0.26927E-02
         0.26927E-02
         0.26927E-02
         0.26927E-02
         0.26927E-02
         0.26927E-02
         0.26927E-02
         0.26927E-02
         0.26927E-02
         0.26927E-02
         0.26927E-02
         0.26927E-02
         0.26927E-02
         0.26927E-02
         0.26927E-02
         0.26927E-02
         0.26927E-02
         0.26927E-02
         0.26927E-02
         0.26927E-02
         0.26927E-02
         0.26927E-02
         0.26927E-02
         0.26927E-02
         0.26927E-02
         0.26927E-02
         0.26927E-02
         0.26927E-02
         0.26927E-02
         0.26927E-02
         0.26927E-02
         0.26927E-02
         0.26927E-02
         0.26927E-02
         0.26927E-02
         0.26927E-02
         0.26927E-02
         0.26927E-02
         0.26927E-02
         0.26927E-02
         0.26927E-02
         0.26927E-02
         0.26927E-02
         0.26927E-02
         0.26927E-02
         0.26927E-02
         0.26927E-02
         0.26927E-02
         0.26927E-02
         0.26927E-02
         0.26927E-02
         0.26927E-02
         0.26927E-02
         0.26927E-02
         0.26927E-02
         0.26927E-02
         0.26927E-02
         0.26927E-02
         0.26927E-02
         0.26927E-02
         0.26927E-02
         0.26927E-02
         0.26927E-02
         0.26927E-02
         0.26927E-02
         0.26927E-02
         0.26927E-02
         0.26927E-02
         0.26927E-02
         0.26927E-02
         0.26927E-02
         0.26927E-02
         0.26927E-02
         0.26927E-02
         0.26927E-02
         0.26927E-02
         0.26927E-02
         0.26927E-02
         0.26927E-02
         0.26927E-02
         0.26927E-02
         0.26927E-02
         0.26927E-02
         0.26927E-02
         0.26927E-02
         0.26927E-02
         0.26927E-02
         0.26927E-02
         0.26927E-02
         0.26927E-02
         0.26927E-02
         0.26927E-02
         0.26927E-02
         0.26927E-02
         0.26927E-02
         0.26927E-02
         0.26927E-02
         0.26927E-02
         0.26927E-02
         0.26927E-02
         0.26927E-02
         0.26927E-02
         0.26927E-02
         0.26927E-02
         0.26927E-02
         0.26927E-02
         0.26927E-02
         0.26927E-02
         0.26927E-02
         0.26927E-02
         0.26927E-02
         0.26927E-02
         0.26927E-02
         0.26927E-02
         0.26927E-02
         0.26927E-02
         0.26927E-02
         0.26927E-02
         0.26927E-02
         0.26927E-02
         0.26927E-02
         0.26927E-02
         0.26927E-02
         0.26927E-02
         0.26927E-02
         0.26927E-02
         0.26927E-02
         0.26927E-02
         0.26927E-02
         0.26927E-02
         0.26927E-02
         0.26927E-02
         0.26927E-02
         0.26927E-02
         0.26927E-02
         0.26927E-02
         0.26927E-02
         0.26927E-02
         0.26927E-02
         0.26927E-02
         0.26927E-02
         0.26927E-02
         0.26927E-02
         0.26927E-02
         0.26927E-02
         0.26927E-02
         0.26927E-02
         0.26927E-02
         0.26927E-02
         0.26927E-02
         0.26927E-02
         0.26927E-02
         0.26927E-02
         0.26927E-02
         0.26927E-02
         0.26927E-02
         0.26927E-02
         0.26927E-02
         0.26927E-02
         0.26927E-02
         0.26927E-02
         0.26927E-02
         0.26927E-02
         0.26927E-02
         0.26927E-02
         0.26927E-02
         0.26927E-02
         0.26927E-02
         0.26927E-02
         0.26927E-02
         0.26927E-02
         0.26927E-02
         0.26927E-02
         0.26927E-02
         0.26927E-02
         0.26927E-02
         0.26927E-02
         0.26927E-02
         0.26927E-02
         0.26927E-02
         0.26927E-02
         0.26927E-02
         0.26927E-02
         0.26927E-02
         0.26927E-02
         0.26927E-02
         0.26927E-02
         0.26927E-02
         0.26927E-02
         0.26927E-02
         0.26927E-02
         0.26927E-02
         0.26927E-02
         0.26927E-02
         0.26927E-02
         0.26927E-02
         0.26927E-02
         0.26927E-02
         0.26927E-02
         0.26927E-02
         0.26927E-02
         0.26927E-02
         0.26927E-02
         0.26927E-02
         0.26927E-02
         0.26927E-02
         0.26927E-02
         0.26927E-02
         0.26927E-02
         0.26927E-02
         0.26927E-02
         0.26927E-02
         0.26927E-02
         0.26927E-02
         0.26927E-02
         0.26927E-02
         0.26927E-02
         0.26927E-02
         0.26927E-02
         0.26927E-02
         0.26927E-02
         0.26927E-02
         0.26927E-02
         0.26927E-02
         0.26927E-02
         0.26927E-02
         0.26927E-02
         0.26927E-02
         0.26927E-02
         0.26927E-02
         0.26927E-02
         0.26927E-02
         0.26927E-02
         0.26927E-02
         0.26927E-02
         0.26927E-02
         0.26927E-02
         0.26927E-02
         0.26927E-02
         0.26927E-02
         0.26927E-02
         0.26927E-02
         0.26927E-02
         0.26927E-02
         0.26927E-02
         0.26927E-02
         0.26927E-02
         0.26927E-02
         0.26927E-02
         0.26927E-02
         0.26927E-02
         0.26927E-02
         0.26927E-02
         0.26927E-02
         0.26927E-02
         0.26927E-02
         0.26927E-02
         0.26927E-02
         0.26927E-02
         0.26927E-02
         0.26927E-02
         0.26927E-02
         0.26927E-02
         0.26927E-02
         0.26927E-02
         0.26927E-02
         0.26927E-02
         0.26927E-02
         0.26927E-02
         0.26927E-02
         0.26927E-02
         0.26927E-02
         0.26927E-02
         0.26927E-02
         0.26927E-02
         0.26927E-02
         0.26927E-02
         0.26927E-02
         0.26927E-02
         0.26927E-02
         0.26927E-02
         0.26927E-02
         0.26927E-02
         0.26927E-02
         0.26927E-02
         0.26927E-02
         0.26927E-02
         0.26927E-02
         0.26927E-02
         0.26927E-02
         0.26927E-02
         0.26927E-02
         0.26927E-02
         0.26927E-02
         0.26927E-02
         0.26927E-02
         0.26927E-02
         0.26927E-02
         0.26927E-02
         0.26927E-02
         0.26927E-02
         0.26927E-02
         0.26927E-02
         0.26927E-02
         0.26927E-02
         0.26927E-02
         0.26927E-02
         0.26927E-02
         0.26927E-02
         0.26927E-02
         0.26927E-02
         0.26927E-02
         0.26927E-02
         0.26927E-02
         0.26927E-02
         0.26927E-02
         0.26927E-02
         0.26927E-02
         0.26927E-02
         0.26927E-02
         0.26927E-02
         0.26927E-02
         0.26927E-02
         0.26927E-02
         0.26927E-02
         0.26927E-02
         0.26927E-02
         0.26927E-02
         0.26927E-02
         0.26927E-02
         0.26927E-02
         0.26927E-02
         0.26927E-02
         0.26927E-02
         0.26927E-02
         0.26927E-02
         0.26927E-02
         0.26927E-02
         0.26927E-02
         0.26927E-02
         0.26927E-02
         0.26927E-02
         0.26927E-02
         0.26927E-02
         0.26927E-02
         0.26927E-02
         0.26927E-02
         0.26927E-02
         0.26927E-02
         0.26927E-02
         0.26927E-02
         0.26927E-02
         0.26927E-02
         0.26927E-02
         0.26927E-02
         0.26927E-02
         0.26927E-02
         0.26927E-02
         0.26927E-02
         0.26927E-02
         0.26927E-02
         0.26927E-02
         0.26927E-02
         0.26927E-02
         0.26927E-02
         0.26927E-02
         0.26927E-02
         0.26927E-02
         0.26927E-02
         0.26927E-02
         0.26927E-02
         0.26927E-02
         0.26927E-02
         0.26927E-02
         0.26927E-02
         0.26927E-02
         0.26927E-02
         0.26927E-02
         0.26927E-02
         0.26927E-02
         0.26927E-02
         0.26927E-02
         0.26927E-02
         0.26927E-02
         0.26927E-02
         0.26927E-02
         0.26927E-02
         0.26927E-02
         0.26927E-02
         0.26927E-02
         0.26927E-02
         0.26927E-02
         0.26927E-02
         0.26927E-02
         0.26927E-02
         0.26927E-02
         0.26927E-02
         0.26927E-02
         0.26927E-02
         0.26927E-02
         0.26927E-02
         0.26927E-02
         0.26927E-02
         0.26927E-02
         0.26927E-02
         0.26927E-02
         0.26927E-02
         0.26927E-02
         0.26927E-02
         0.26927E-02
         0.26927E-02
         0.26927E-02
         0.26927E-02
         0.26927E-02
         0.26927E-02
         0.26927E-02
         0.26927E-02
         0.26927E-02
         0.26927E-02
         0.26927E-02
         0.26927E-02
         0.26927E-02
         0.26927E-02
         0.26927E-02
         0.26927E-02
         0.26927E-02
         0.26927E-02
         0.26927E-02
         0.26927E-02
         0.26927E-02
         0.26927E-02
         0.26927E-02
         0.26927E-02
         0.26927E-02
         0.26927E-02
         0.26927E-02
         0.26927E-02
         0.26927E-02
         0.26927E-02
         0.26927E-02
         0.26927E-02
         0.26927E-02
         0.26927E-02
         0.26927E-02
         0.26927E-02
         0.26927E-02
         0.26927E-02
         0.26927E-02
         0.26927E-02
         0.26927E-02
         0.26927E-02
         0.26927E-02
         0.26927E-02
         0.26927E-02
         0.26927E-02
         0.26927E-02
         0.26927E-02
         0.26927E-02
         0.26927E-02
         0.26927E-02
         0.26927E-02
         0.26927E-02
         0.26927E-02
         0.26927E-02
         0.26927E-02
         0.26927E-02
         0.26927E-02
         0.26927E-02
         0.26927E-02
         0.26927E-02
         0.26927E-02
         0.26927E-02
         0.26927E-02
         0.26927E-02
         0.26927E-02
         0.26927E-02
         0.26927E-02
         0.26927E-02
         0.26927E-02
         0.26927E-02
         0.26927E-02
         0.26927E-02
         0.26927E-02
         0.26927E-02
         0.26927E-02
         0.26927E-02
         0.26927E-02
         0.26927E-02
         0.26927E-02
         0.26927E-02
         0.26927E-02
         0.26927E-02
         0.26927E-02
         0.26927E-02
         0.26927E-02
         0.26927E-02
         0.26927E-02
         0.26927E-02
         0.26927E-02
         0.26927E-02
         0.26927E-02
         0.26927E-02
         0.26927E-02
         0.26927E-02
         0.26927E-02
         0.26927E-02
         0.26927E-02
         0.26927E-02
         0.26927E-02
         0.26927E-02
         0.26927E-02
         0.26927E-02
         0.26927E-02
         0.26927E-02
         0.26927E-02
         0.26927E-02
         0.26927E-02
         0.26927E-02
         0.26927E-02
         0.26927E-02
         0.26927E-02
         0.26927E-02
         0.26927E-02
         0.26927E-02
         0.26927E-02
         0.26927E-02
         0.26927E-02
         0.26927E-02
         0.26927E-02
         0.26927E-02
         0.26927E-02
         0.26927E-02
         0.26927E-02
         0.26927E-02
         0.26927E-02
         0.26927E-02
         0.26927E-02
         0.26927E-02
         0.26927E-02
         0.26927E-02
         0.26927E-02
         0.26927E-02
         0.26927E-02
         0.26927E-02
         0.26927E-02
         0.26927E-02
         0.26927E-02
         0.26927E-02
         0.26927E-02
         0.26927E-02
         0.26927E-02
         0.26927E-02
         0.26927E-02
         0.26927E-02
         0.26927E-02
         0.26927E-02
         0.26927E-02
         0.26927E-02
         0.26927E-02
         0.26927E-02
         0.26927E-02
         0.26927E-02
         0.26927E-02
         0.26927E-02
         0.26927E-02
         0.26927E-02
         0.26927E-02
         0.26927E-02
         0.26927E-02
         0.26927E-02
         0.26927E-02
         0.26927E-02
         0.26927E-02
         0.26927E-02
         0.26927E-02
         0.26927E-02
         0.26927E-02
         0.26927E-02
         0.26927E-02
         0.26927E-02
         0.26927E-02
         0.26927E-02
         0.26927E-02
         0.26927E-02
         0.26927E-02
         0.26927E-02
         0.26927E-02
         0.26927E-02
         0.26927E-02
         0.26927E-02
         0.26927E-02
         0.26927E-02
         0.26927E-02
         0.26927E-02
         0.26927E-02
         0.26927E-02
         0.26927E-02
         0.26927E-02
         0.26927E-02
         0.26927E-02
         0.26927E-02
         0.26927E-02
         0.26927E-02
         0.26927E-02
         0.26927E-02
         0.26927E-02
         0.26927E-02
         0.26927E-02
         0.26927E-02
         0.26927E-02
         0.26927E-02
         0.26927E-02
         0.26927E-02
         0.26927E-02
         0.26927E-02
         0.26927E-02
         0.26927E-02
         0.26927E-02
         0.26927E-02
         0.26927E-02
         0.26927E-02
         0.26927E-02
         0.26927E-02
         0.26927E-02
         0.26927E-02
         0.26927E-02
         0.26927E-02
         0.26927E-02
         0.26927E-02
         0.26927E-02
         0.26927E-02
         0.26927E-02
         0.26927E-02
         0.26927E-02
         0.26927E-02
         0.26927E-02
         0.26927E-02
         0.26927E-02
         0.26927E-02
         0.26927E-02
         0.26927E-02
         0.26927E-02
         0.26927E-02
         0.26927E-02
         0.26927E-02
         0.26927E-02
         0.26927E-02
         0.26927E-02
         0.26927E-02
         0.26927E-02
         0.26927E-02
         0.26927E-02
         0.26927E-02
         0.26927E-02
         0.26927E-02
         0.26927E-02
         0.26927E-02
         0.26927E-02
         0.26927E-02
         0.26927E-02
         0.26927E-02
         0.26927E-02
         0.26927E-02
         0.26927E-02
         0.26927E-02
         0.26927E-02
         0.26927E-02
         0.26927E-02
         0.26927E-02
         0.26927E-02
         0.26927E-02
         0.26927E-02
         0.26927E-02
         0.26927E-02
         0.26927E-02
         0.26927E-02
         0.26927E-02
         0.26927E-02
         0.26927E-02
         0.26927E-02
         0.26927E-02
         0.26927E-02
         0.26927E-02
         0.26927E-02
         0.26927E-02
         0.26927E-02
         0.26927E-02
         0.26927E-02
         0.26927E-02
         0.26927E-02
         0.26927E-02
         0.26927E-02
         0.26927E-02
         0.26927E-02
         0.26927E-02
         0.26927E-02
         0.26927E-02
         0.26927E-02
         0.26927E-02
         0.26927E-02
         0.26927E-02
         0.26927E-02
         0.26927E-02
         0.26927E-02
         0.26927E-02
         0.26927E-02
         0.26927E-02
         0.26927E-02
         0.26927E-02
         0.26927E-02
         0.26927E-02
         0.26927E-02
         0.26927E-02
         0.26927E-02
         0.26927E-02
         0.26927E-02
         0.26927E-02
         0.26927E-02
         0.26927E-02
         0.26927E-02
         0.26927E-02
         0.26927E-02
         0.26927E-02
         0.26927E-02
         0.26927E-02
         0.26927E-02
         0.26927E-02
         0.26927E-02
         0.26927E-02
         0.26927E-02
         0.26927E-02
         0.26927E-02
         0.26927E-02
         0.26927E-02
         0.26927E-02
         0.26927E-02
         0.26927E-02
         0.26927E-02
         0.26927E-02
         0.26927E-02
         0.26927E-02
         0.26927E-02
         0.26927E-02
         0.26927E-02
         0.26927E-02
         0.26927E-02
         0.26927E-02
         0.26927E-02
         0.26927E-02
         0.26927E-02
         0.26927E-02
         0.26927E-02
         0.26927E-02
         0.26927E-02
         0.26927E-02
         0.26927E-02
         0.26927E-02
         0.26927E-02
         0.26927E-02
         0.26927E-02
         0.26927E-02
         0.26927E-02
         0.26927E-02
         0.26927E-02
         0.26927E-02
         0.26927E-02
         0.26927E-02
         0.26927E-02
         0.26927E-02
         0.26927E-02
         0.26927E-02
         0.26927E-02
         0.26927E-02
         0.26927E-02
         0.26927E-02
         0.26927E-02
         0.26927E-02
         0.26927E-02
         0.26927E-02
         0.26927E-02
         0.26927E-02
         0.26927E-02
         0.26927E-02
         0.26927E-02
         0.26927E-02
         0.26927E-02
         0.26927E-02
         0.26927E-02
         0.26927E-02
         0.26927E-02
         0.26927E-02
         0.26927E-02
         0.26927E-02
         0.26927E-02
         0.26927E-02
         0.26927E-02
         0.26927E-02
         0.26927E-02
         0.26927E-02
         0.26927E-02
         0.26927E-02
         0.26927E-02
         0.26927E-02
         0.26927E-02
         0.26927E-02
         0.26927E-02
         0.26927E-02
         0.26927E-02
         0.26927E-02
         0.26927E-02
         0.26927E-02
         0.26927E-02
         0.26927E-02
         0.26927E-02
         0.26927E-02
         0.26927E-02
         0.26927E-02
         0.26927E-02
         0.26927E-02
         0.26927E-02
         0.26927E-02
         0.26927E-02
         0.26927E-02
         0.26927E-02
         0.26927E-02
         0.26927E-02
         0.26927E-02
         0.26927E-02
         0.26927E-02
         0.26927E-02
         0.26927E-02
         0.26927E-02
         0.26927E-02
         0.26927E-02
         0.26927E-02
         0.26927E-02
         0.26927E-02
         0.26927E-02
         0.26927E-02
         0.26927E-02
         0.26927E-02
         0.26927E-02
         0.26927E-02
         0.26927E-02
         0.26927E-02
         0.26927E-02
         0.26927E-02
         0.26927E-02
         0.26927E-02
         0.26927E-02
         0.26927E-02
         0.26927E-02
         0.26927E-02
         0.26927E-02
         0.26927E-02
         0.26927E-02
         0.26927E-02
         0.26927E-02
         0.26927E-02
         0.26927E-02
         0.26927E-02
         0.26927E-02
         0.26927E-02
         0.26927E-02
         0.26927E-02
         0.26927E-02
         0.26927E-02
         0.26927E-02
         0.26927E-02
         0.26927E-02
         0.26927E-02
         0.26927E-02
         0.26927E-02
         0.26927E-02
         0.26927E-02
         0.26927E-02
         0.26927E-02
         0.26927E-02
         0.26927E-02
         0.26927E-02
         0.26927E-02
         0.26927E-02
         0.26927E-02
         0.26927E-02
         0.26927E-02
         0.26927E-02
         0.26927E-02
         0.26927E-02
         0.26927E-02
         0.26927E-02
         0.26927E-02
         0.26927E-02
         0.26927E-02
         0.26927E-02
         0.26927E-02
         0.26927E-02
         0.26927E-02
         0.26927E-02
         0.26927E-02
         0.26927E-02
         0.26927E-02
         0.26927E-02
         0.26927E-02
         0.26927E-02
         0.26927E-02
         0.26927E-02
         0.26927E-02
         0.26927E-02
         0.26927E-02
         0.26927E-02
         0.26927E-02
         0.26927E-02
         0.26927E-02
         0.26927E-02
         0.26927E-02
         0.26927E-02
         0.26927E-02
         0.26927E-02
         0.26927E-02
         0.26927E-02
         0.26927E-02
         0.26927E-02
         0.26927E-02
         0.26927E-02
         0.26927E-02
         0.26927E-02
         0.26927E-02
         0.26927E-02
         0.26927E-02
         0.26927E-02
         0.26927E-02
         0.26927E-02
         0.26927E-02
         0.26927E-02
         0.26927E-02
         0.26927E-02
         0.26927E-02
         0.26927E-02
         0.26927E-02
         0.26927E-02
         0.26927E-02
         0.26927E-02
         0.26927E-02
         0.26927E-02
         0.26927E-02
         0.26927E-02
         0.26927E-02
         0.26927E-02
         0.26927E-02
         0.26927E-02
         0.26927E-02
         0.26927E-02
         0.26927E-02
         0.26927E-02
         0.26927E-02
         0.26927E-02
         0.26927E-02
         0.26927E-02
         0.26927E-02
         0.26927E-02
         0.26927E-02
         0.26927E-02
         0.26927E-02
         0.26927E-02
         0.26927E-02
         0.26927E-02
         0.26927E-02
         0.26927E-02
         0.26927E-02
         0.26927E-02
         0.26927E-02
         0.26927E-02
         0.26927E-02
         0.26927E-02
         0.26927E-02
         0.26927E-02
         0.26927E-02
         0.26927E-02
         0.26927E-02
         0.26927E-02
         0.26927E-02
         0.26927E-02
         0.26927E-02
         0.26927E-02
         0.26927E-02
         0.26927E-02
         0.26927E-02
         0.26927E-02
         0.26927E-02
         0.26927E-02
         0.26927E-02
         0.26927E-02
         0.26927E-02
         0.26927E-02
         0.26927E-02
         0.26927E-02
         0.26927E-02
         0.26927E-02
         0.26927E-02
         0.26927E-02
         0.26927E-02
         0.26927E-02
         0.26927E-02
         0.26927E-02
         0.26927E-02
         0.26927E-02
         0.26927E-02
         0.26927E-02
         0.26927E-02
         0.26927E-02
         0.26927E-02
         0.26927E-02
         0.26927E-02
         0.26927E-02
         0.26927E-02
         0.26927E-02
         0.26927E-02
         0.26927E-02
         0.26927E-02
         0.26927E-02
         0.26927E-02
         0.26927E-02
         0.26927E-02
         0.26927E-02
         0.26927E-02
         0.26927E-02
         0.26927E-02
         0.26927E-02
         0.26927E-02
         0.26927E-02
         0.26927E-02
         0.26927E-02
         0.26927E-02
         0.26927E-02
         0.26927E-02
         0.26927E-02
         0.26927E-02
         0.26927E-02
         0.26927E-02
         0.26927E-02
         0.26927E-02
         0.26927E-02
         0.26927E-02
         0.26927E-02
         0.26927E-02
         0.26927E-02
         0.26927E-02
         0.26927E-02
         0.26927E-02
         0.26927E-02
         0.26927E-02
         0.26927E-02
         0.26927E-02
         0.26927E-02
         0.26927E-02
         0.26927E-02
         0.26927E-02
         0.26927E-02
         0.26927E-02
         0.26927E-02
         0.26927E-02
         0.26927E-02
         0.26927E-02
         0.26927E-02
         0.26927E-02
         0.26927E-02
         0.26927E-02
         0.26927E-02
         0.26927E-02
         0.26927E-02
         0.26927E-02
         0.26927E-02
         0.26927E-02
         0.26927E-02
         0.26927E-02
         0.26927E-02
         0.26927E-02
         0.26927E-02
         0.26927E-02
         0.26927E-02
         0.26927E-02
         0.26927E-02
         0.26927E-02
         0.26927E-02
         0.26927E-02
         0.26927E-02
         0.26927E-02
         0.26927E-02
         0.26927E-02
         0.26927E-02
         0.26927E-02
         0.26927E-02
         0.26927E-02
         0.26927E-02
         0.26927E-02
         0.26927E-02
         0.26927E-02
         0.26927E-02
         0.26927E-02
         0.26927E-02
         0.26927E-02
         0.26927E-02
         0.26927E-02
         0.26927E-02
         0.26927E-02
         0.26927E-02
         0.26927E-02
         0.26927E-02
         0.26927E-02
         0.26927E-02
         0.26927E-02
         0.26927E-02
         0.26927E-02
         0.26927E-02
         0.26927E-02
         0.26927E-02
         0.26927E-02
         0.26927E-02
         0.26927E-02
         0.26927E-02
         0.26927E-02
         0.26927E-02
         0.26927E-02
         0.26927E-02
         0.26927E-02
         0.26927E-02
         0.26927E-02
         0.26927E-02
         0.26927E-02
         0.26927E-02
         0.26927E-02
         0.26927E-02
         0.26927E-02
         0.26927E-02
         0.26927E-02
         0.26927E-02
         0.26927E-02
         0.26927E-02
         0.26927E-02
         0.26927E-02
         0.26927E-02
         0.26927E-02
         0.26927E-02
         0.26927E-02
         0.26927E-02
         0.26927E-02
         0.26927E-02
         0.26927E-02
         0.26927E-02
         0.26927E-02
         0.26927E-02
         0.26927E-02
         0.26927E-02
         0.26927E-02
         0.26927E-02
         0.26927E-02
         0.26927E-02
         0.26927E-02
         0.26927E-02
         0.26927E-02
         0.26927E-02
         0.26927E-02
         0.26927E-02
         0.26927E-02
         0.26927E-02
         0.26927E-02
         0.26927E-02
         0.26927E-02
         0.26927E-02
         0.26927E-02
         0.26927E-02
         0.26927E-02
         0.26927E-02
         0.26927E-02
         0.26927E-02
         0.26927E-02
         0.26927E-02
         0.26927E-02
         0.26927E-02
         0.26927E-02
         0.26927E-02
         0.26927E-02
         0.26927E-02
         0.26927E-02
         0.26927E-02
         0.26927E-02
         0.26927E-02
         0.26927E-02
         0.26927E-02
         0.26927E-02
         0.26927E-02
         0.26927E-02
         0.26927E-02
         0.26927E-02
         0.26927E-02
         0.26927E-02
         0.26927E-02
         0.26927E-02
         0.26927E-02
         0.26927E-02
         0.26927E-02
         0.26927E-02
         0.26927E-02
         0.26927E-02
         0.26927E-02
         0.26927E-02
         0.26927E-02
         0.26927E-02
         0.26927E-02
         0.26927E-02
         0.26927E-02
         0.26927E-02
         0.26927E-02
         0.26927E-02
         0.26927E-02
         0.26927E-02
         0.26927E-02
         0.26927E-02
         0.26927E-02
         0.26927E-02
         0.26927E-02
         0.26927E-02
         0.26927E-02
         0.26927E-02
         0.26927E-02
         0.26927E-02
         0.26927E-02
         0.26927E-02
         0.26927E-02
         0.26927E-02
         0.26927E-02
         0.26927E-02
         0.26927E-02
         0.26927E-02
         0.26927E-02
         0.26927E-02
         0.26927E-02
         0.26927E-02
         0.26927E-02
         0.26927E-02
         0.26927E-02
         0.26927E-02
         0.26927E-02
         0.26927E-02
         0.26927E-02
         0.26927E-02
         0.26927E-02
         0.26927E-02
         0.26927E-02
         0.26927E-02
         0.26927E-02
         0.26927E-02
         0.26927E-02
         0.26927E-02
         0.26927E-02
         0.26927E-02
         0.26927E-02
         0.26927E-02
         0.26927E-02
         0.26927E-02
         0.26927E-02
         0.26927E-02
         0.26927E-02
         0.26927E-02
         0.26927E-02
         0.26927E-02
         0.26927E-02
         0.26927E-02
         0.26927E-02
         0.26927E-02
         0.26927E-02
         0.26927E-02
         0.26927E-02
         0.26927E-02
         0.26927E-02
         0.26927E-02
         0.26927E-02
         0.26927E-02
         0.26927E-02
         0.26927E-02
         0.26927E-02
         0.26927E-02
         0.26927E-02
         0.26927E-02
         0.26927E-02
         0.26927E-02
         0.26927E-02
         0.26927E-02
         0.26927E-02
         0.26927E-02
         0.26927E-02
         0.26927E-02
         0.26927E-02
         0.26927E-02
         0.26927E-02
         0.26927E-02
         0.26927E-02
         0.26927E-02
         0.26927E-02
         0.26927E-02
         0.26927E-02
         0.26927E-02
         0.26927E-02
         0.26927E-02
         0.26927E-02
         0.26927E-02
         0.26927E-02
         0.26927E-02
         0.26927E-02
         0.26927E-02
         0.26927E-02
         0.26927E-02
         0.26927E-02
         0.26927E-02
         0.26927E-02
         0.26927E-02
         0.26927E-02
         0.26927E-02
         0.26927E-02
         0.26927E-02
         0.26927E-02
         0.26927E-02
         0.26927E-02
         0.26927E-02
         0.26927E-02
         0.26927E-02
         0.26927E-02
         0.26927E-02
         0.26927E-02
         0.26927E-02
         0.26927E-02
         0.26927E-02
         0.26927E-02
         0.26927E-02
         0.26927E-02
         0.26927E-02
         0.26927E-02
         0.26927E-02
         0.26927E-02
         0.26927E-02
         0.26927E-02
         0.26927E-02
         0.26927E-02
         0.26927E-02
         0.26927E-02
         0.26927E-02
         0.26927E-02
         0.26927E-02
         0.26927E-02
         0.26927E-02
         0.26927E-02
         0.26927E-02
         0.26927E-02
         0.26927E-02
         0.26927E-02
         0.26927E-02
         0.26927E-02
         0.26927E-02
         0.26927E-02
         0.26927E-02
         0.26927E-02
         0.26927E-02
         0.26927E-02
         0.26927E-02
         0.26927E-02
         0.26927E-02
         0.26927E-02
         0.26927E-02
         0.26927E-02
         0.26927E-02
         0.26927E-02
         0.26927E-02
         0.26927E-02
         0.26927E-02
         0.26927E-02
         0.26927E-02
         0.26927E-02
         0.26927E-02
         0.26927E-02
         0.26927E-02
         0.26927E-02
         0.26927E-02
         0.26927E-02
         0.26927E-02
         0.26927E-02
         0.26927E-02
         0.26927E-02
         0.26927E-02
         0.26927E-02
         0.26927E-02
         0.26927E-02
         0.26927E-02
         0.26927E-02
         0.26927E-02
         0.26927E-02
         0.26927E-02
         0.26927E-02
         0.26927E-02
         0.26927E-02
         0.26927E-02
         0.26927E-02
         0.26927E-02
         0.26927E-02
         0.26927E-02
         0.26927E-02
         0.26927E-02
         0.26927E-02
         0.26927E-02
         0.26927E-02
         0.26927E-02
         0.26927E-02
         0.26927E-02
         0.26927E-02
         0.26927E-02
         0.26927E-02
         0.26927E-02
         0.26927E-02
         0.26927E-02
         0.26927E-02
         0.26927E-02
         0.26927E-02
         0.26927E-02
         0.26927E-02
         0.26927E-02
         0.26927E-02
         0.26927E-02
         0.26927E-02
         0.26927E-02
         0.26927E-02
         0.26927E-02
         0.26927E-02
         0.26927E-02
         0.26927E-02
         0.26927E-02
         0.26927E-02
         0.26927E-02
         0.26927E-02
         0.26927E-02
         0.26927E-02
         0.26927E-02
         0.26927E-02
         0.26927E-02
         0.26927E-02
         0.26927E-02
         0.26927E-02
         0.26927E-02
         0.26927E-02
         0.26927E-02
         0.26927E-02
         0.26927E-02
         0.26927E-02
         0.26927E-02
         0.26927E-02
         0.26927E-02
         0.26927E-02
         0.26927E-02
         0.26927E-02
         0.26927E-02
         0.26927E-02
         0.26927E-02
         0.26927E-02
         0.26927E-02
         0.26927E-02
         0.26927E-02
         0.26927E-02
         0.26927E-02
         0.26927E-02
         0.26927E-02
         0.26927E-02
         0.26927E-02
         0.26927E-02
         0.26927E-02
         0.26927E-02
         0.26927E-02
         0.26927E-02
         0.26927E-02
         0.26927E-02
         0.26927E-02
         0.26927E-02
         0.26927E-02
         0.26927E-02
         0.26927E-02
         0.26927E-02
         0.26927E-02
         0.26927E-02
         0.26927E-02
         0.26927E-02
         0.26927E-02
         0.26927E-02
         0.26927E-02
         0.26927E-02
         0.26927E-02
         0.26927E-02
         0.26927E-02
         0.26927E-02
         0.26927E-02
         0.26927E-02
         0.26927E-02
         0.26927E-02
         0.26927E-02
         0.26927E-02
         0.26927E-02
         0.26927E-02
         0.26927E-02
         0.26927E-02
         0.26927E-02
         0.26927E-02
         0.26927E-02
         0.26927E-02
         0.26927E-02
         0.26927E-02
         0.26927E-02
         0.26927E-02
         0.26927E-02
         0.26927E-02
         0.26927E-02
         0.26927E-02
         0.26927E-02
         0.26927E-02
         0.26927E-02
         0.26927E-02
         0.26927E-02
         0.26927E-02
         0.26927E-02
         0.26927E-02
         0.26927E-02
         0.26927E-02
         0.26927E-02
         0.26927E-02
         0.26927E-02
         0.26927E-02
         0.26927E-02
         0.26927E-02
         0.26927E-02
         0.26927E-02
         0.26927E-02
         0.26927E-02
         0.26927E-02
         0.26927E-02
         0.26927E-02
         0.26927E-02
         0.26927E-02
         0.26927E-02
         0.26927E-02
         0.26927E-02
         0.26927E-02
         0.26927E-02
         0.26927E-02
         0.26927E-02
         0.26927E-02
         0.26928E-02
         0.26928E-02
         0.26928E-02
         0.26928E-02
         0.26928E-02
         0.26928E-02
         0.26928E-02
         0.26928E-02
         0.26928E-02
         0.26928E-02
         0.26928E-02
         0.26928E-02
         0.26928E-02
         0.26928E-02
         0.26928E-02
         0.26928E-02
         0.26928E-02
         0.26928E-02
         0.26928E-02
         0.26928E-02
         0.26928E-02
         0.26928E-02
         0.26928E-02
         0.26928E-02
         0.26928E-02
         0.26928E-02
         0.26928E-02
         0.26928E-02
         0.26928E-02
         0.26928E-02
         0.26928E-02
         0.26928E-02
         0.26928E-02
         0.26928E-02
         0.26928E-02
         0.26928E-02
         0.26928E-02
         0.26928E-02
         0.26928E-02
         0.26928E-02
         0.26928E-02
         0.26928E-02
         0.26928E-02
         0.26928E-02
         0.26928E-02
         0.26928E-02
         0.26928E-02
         0.26928E-02
         0.26928E-02
         0.26928E-02
         0.26928E-02
         0.26928E-02
         0.26928E-02
         0.26928E-02
         0.26928E-02
         0.26928E-02
         0.26928E-02
         0.26928E-02
         0.26928E-02
         0.26928E-02
         0.26928E-02
         0.26928E-02
         0.26928E-02
         0.26928E-02
         0.26928E-02
         0.26928E-02
         0.26928E-02
         0.26928E-02
         0.26928E-02
         0.26928E-02
         0.26928E-02
         0.26928E-02
         0.26928E-02
         0.26928E-02
         0.26928E-02
         0.26928E-02
         0.26928E-02
         0.26928E-02
         0.26928E-02
         0.26928E-02
         0.26928E-02
         0.26928E-02
         0.26928E-02
         0.26928E-02
         0.26928E-02
         0.26928E-02
         0.26928E-02
         0.26928E-02
         0.26928E-02
         0.26928E-02
         0.26928E-02
         0.26928E-02
         0.26928E-02
         0.26928E-02
         0.26928E-02
         0.26928E-02
         0.26928E-02
         0.26928E-02
         0.26928E-02
         0.26928E-02
         0.26928E-02
         0.26928E-02
         0.26928E-02
         0.26928E-02
         0.26928E-02
         0.26928E-02
         0.26928E-02
         0.26928E-02
         0.26928E-02
         0.26928E-02
         0.26928E-02
         0.26928E-02
         0.26928E-02
         0.26928E-02
         0.26928E-02
         0.26928E-02
         0.26928E-02
         0.26928E-02
         0.26928E-02
         0.26928E-02
         0.26928E-02
         0.26928E-02
         0.26928E-02
         0.26928E-02
         0.26928E-02
         0.26928E-02
         0.26928E-02
         0.26928E-02
         0.26928E-02
         0.26928E-02
         0.26928E-02
         0.26928E-02
         0.26928E-02
         0.26928E-02
         0.26928E-02
         0.26928E-02
         0.26928E-02
         0.26928E-02
         0.26928E-02
         0.26928E-02
         0.26928E-02
         0.26928E-02
         0.26928E-02
         0.26928E-02
         0.26928E-02
         0.26928E-02
         0.26928E-02
         0.26928E-02
         0.26928E-02
         0.26928E-02
         0.26928E-02
         0.26928E-02
         0.26928E-02
         0.26928E-02
         0.26928E-02
         0.26928E-02
  
SCALARS                   nodal_volume  double 1
LOOKUP_TABLE default
         0.91140E-09
         0.72412E-09
         0.77574E-09
         0.13316E-08
         0.45570E-09
         0.36211E-09
         0.38787E-09
         0.66566E-09
         0.71537E-09
         0.91211E-09
         0.35767E-09
         0.45600E-09
         0.51195E-09
         0.61532E-09
         0.25605E-09
         0.30776E-09
         0.10101E-08
         0.74536E-09
         0.50500E-09
         0.37281E-09
         0.30273E-09
         0.57012E-09
         0.62699E-09
         0.15144E-09
         0.28509E-09
         0.31352E-09
         0.51329E-09
         0.64933E-09
         0.25683E-09
         0.32471E-09
         0.12026E-08
         0.93909E-09
         0.11935E-08
         0.60122E-09
         0.46945E-09
         0.59663E-09
         0.70296E-09
         0.80270E-09
         0.35149E-09
         0.40134E-09
         0.75859E-09
         0.84013E-09
         0.37932E-09
         0.42007E-09
         0.64542E-09
         0.40086E-09
         0.32274E-09
         0.20045E-09
         0.76288E-09
         0.38153E-09
         0.63346E-09
         0.31675E-09
         0.66583E-09
         0.33318E-09
         0.68008E-09
         0.34022E-09
         0.58930E-09
         0.71738E-09
         0.29472E-09
         0.35874E-09
         0.90938E-09
         0.64302E-09
         0.45469E-09
         0.32154E-09
         0.10152E-08
         0.50747E-09
         0.88120E-09
         0.44042E-09
         0.40077E-09
         0.61872E-09
         0.20039E-09
         0.30940E-09
         0.70206E-09
         0.35106E-09
         0.74172E-09
         0.37089E-09
         0.71539E-09
         0.35770E-09
         0.56226E-09
         0.28113E-09
         0.35349E-09
         0.58452E-09
         0.17675E-09
         0.29229E-09
         0.77354E-09
         0.38679E-09
         0.62469E-09
         0.31238E-09
         0.54957E-09
         0.27483E-09
         0.36009E-09
         0.61365E-09
         0.18007E-09
         0.30685E-09
         0.83268E-09
         0.41635E-09
         0.87287E-09
         0.43642E-09
         0.70438E-09
         0.35217E-09
         0.43365E-09
         0.74413E-09
         0.21683E-09
         0.37198E-09
         0.27660E-09
         0.35144E-09
         0.13833E-09
         0.17573E-09
         0.32921E-09
         0.16465E-09
         0.38764E-09
         0.19382E-09
         0.37797E-09
         0.18897E-09
         0.36707E-09
         0.18352E-09
         0.39112E-09
         0.19552E-09
         0.41268E-09
         0.20627E-09
         0.38876E-09
         0.19433E-09
         0.30402E-09
         0.15200E-09
         0.24796E-09
         0.12398E-09
         0.31999E-09
         0.16000E-09
         0.42608E-09
         0.21303E-09
         0.46805E-09
         0.23401E-09
         0.44933E-09
         0.22466E-09
         0.40550E-09
         0.20276E-09
         0.36826E-09
         0.18414E-09
         0.29911E-09
         0.14956E-09
         0.25178E-09
         0.12591E-09
         0.32888E-09
         0.16445E-09
         0.43529E-09
         0.21765E-09
         0.44963E-09
         0.22482E-09
         0.36384E-09
         0.18194E-09
         0.29543E-09
         0.14774E-09
         0.36126E-09
         0.18063E-09
         0.42771E-09
         0.21386E-09
         0.91143E-09
         0.72396E-09
         0.77579E-09
         0.13322E-08
         0.71547E-09
         0.91237E-09
         0.51167E-09
         0.61494E-09
         0.10105E-08
         0.74486E-09
         0.30244E-09
         0.57001E-09
         0.62694E-09
         0.51257E-09
         0.64918E-09
         0.12029E-08
         0.93950E-09
         0.11941E-08
         0.70298E-09
         0.80279E-09
         0.75855E-09
         0.84015E-09
         0.64535E-09
         0.40081E-09
         0.76254E-09
         0.63339E-09
         0.66483E-09
         0.67941E-09
         0.58904E-09
         0.71721E-09
         0.90946E-09
         0.64293E-09
         0.10157E-08
         0.88199E-09
         0.40076E-09
         0.61859E-09
         0.70195E-09
         0.74166E-09
         0.71543E-09
         0.56228E-09
         0.35349E-09
         0.58443E-09
         0.77349E-09
         0.62459E-09
         0.54943E-09
         0.35999E-09
         0.61359E-09
         0.83268E-09
         0.87299E-09
         0.70451E-09
         0.43366E-09
         0.74449E-09
         0.27651E-09
         0.35143E-09
         0.32904E-09
         0.38765E-09
         0.37805E-09
         0.36714E-09
         0.39129E-09
         0.41297E-09
         0.38899E-09
         0.30408E-09
         0.24798E-09
         0.31999E-09
         0.42613E-09
         0.46815E-09
         0.44938E-09
         0.40548E-09
         0.36823E-09
         0.29908E-09
         0.25174E-09
         0.32885E-09
         0.43527E-09
         0.44962E-09
         0.36376E-09
         0.29536E-09
         0.36130E-09
         0.42769E-09
         0.91151E-09
         0.72383E-09
         0.77587E-09
         0.13329E-08
         0.71560E-09
         0.91267E-09
         0.51142E-09
         0.61459E-09
         0.10109E-08
         0.74439E-09
         0.30216E-09
         0.56992E-09
         0.62691E-09
         0.51187E-09
         0.64906E-09
         0.12033E-08
         0.93995E-09
         0.11947E-08
         0.70302E-09
         0.80291E-09
         0.75853E-09
         0.84020E-09
         0.64530E-09
         0.40078E-09
         0.76223E-09
         0.63335E-09
         0.66385E-09
         0.67875E-09
         0.58880E-09
         0.71706E-09
         0.90957E-09
         0.64286E-09
         0.10162E-08
         0.88281E-09
         0.40076E-09
         0.61849E-09
         0.70188E-09
         0.74162E-09
         0.71550E-09
         0.56232E-09
         0.35350E-09
         0.58436E-09
         0.77347E-09
         0.62452E-09
         0.54931E-09
         0.35990E-09
         0.61355E-09
         0.83270E-09
         0.87315E-09
         0.70467E-09
         0.43368E-09
         0.74487E-09
         0.27643E-09
         0.35143E-09
         0.32889E-09
         0.38767E-09
         0.37814E-09
         0.36723E-09
         0.39147E-09
         0.41328E-09
         0.38923E-09
         0.30416E-09
         0.24800E-09
         0.32001E-09
         0.42620E-09
         0.46826E-09
         0.44944E-09
         0.40548E-09
         0.36821E-09
         0.29906E-09
         0.25171E-09
         0.32883E-09
         0.43527E-09
         0.44963E-09
         0.36369E-09
         0.29530E-09
         0.36135E-09
         0.42769E-09
         0.91156E-09
         0.72368E-09
         0.77594E-09
         0.13335E-08
         0.71571E-09
         0.91295E-09
         0.51115E-09
         0.61422E-09
         0.10112E-08
         0.74389E-09
         0.30187E-09
         0.56982E-09
         0.62686E-09
         0.51116E-09
         0.64892E-09
         0.12036E-08
         0.94038E-09
         0.11953E-08
         0.70304E-09
         0.80300E-09
         0.75850E-09
         0.84023E-09
         0.64523E-09
         0.40073E-09
         0.76190E-09
         0.63330E-09
         0.66285E-09
         0.67809E-09
         0.58855E-09
         0.71689E-09
         0.90966E-09
         0.64278E-09
         0.10168E-08
         0.88361E-09
         0.40076E-09
         0.61837E-09
         0.70178E-09
         0.74156E-09
         0.71554E-09
         0.56234E-09
         0.35350E-09
         0.58428E-09
         0.77343E-09
         0.62442E-09
         0.54918E-09
         0.35981E-09
         0.61349E-09
         0.83271E-09
         0.87328E-09
         0.70481E-09
         0.43369E-09
         0.74524E-09
         0.27634E-09
         0.35142E-09
         0.32873E-09
         0.38768E-09
         0.37823E-09
         0.36731E-09
         0.39163E-09
         0.41358E-09
         0.38945E-09
         0.30422E-09
         0.24802E-09
         0.32001E-09
         0.42625E-09
         0.46837E-09
         0.44949E-09
         0.40546E-09
         0.36819E-09
         0.29904E-09
         0.25167E-09
         0.32881E-09
         0.43526E-09
         0.44963E-09
         0.36362E-09
         0.29523E-09
         0.36139E-09
         0.42768E-09
         0.91161E-09
         0.72353E-09
         0.77600E-09
         0.13341E-08
         0.71583E-09
         0.91323E-09
         0.51088E-09
         0.61386E-09
         0.10116E-08
         0.74341E-09
         0.30158E-09
         0.56972E-09
         0.62682E-09
         0.51045E-09
         0.64879E-09
         0.12040E-08
         0.94081E-09
         0.11959E-08
         0.70307E-09
         0.80310E-09
         0.75847E-09
         0.84027E-09
         0.64517E-09
         0.40069E-09
         0.76158E-09
         0.63325E-09
         0.66186E-09
         0.67742E-09
         0.58831E-09
         0.71673E-09
         0.90975E-09
         0.64270E-09
         0.10173E-08
         0.88441E-09
         0.40075E-09
         0.61825E-09
         0.70169E-09
         0.74151E-09
         0.71559E-09
         0.56237E-09
         0.35350E-09
         0.58420E-09
         0.77339E-09
         0.62433E-09
         0.54905E-09
         0.35972E-09
         0.61344E-09
         0.83272E-09
         0.87341E-09
         0.70496E-09
         0.43370E-09
         0.74562E-09
         0.27626E-09
         0.35142E-09
         0.32857E-09
         0.38770E-09
         0.37832E-09
         0.36739E-09
         0.39181E-09
         0.41387E-09
         0.38968E-09
         0.30429E-09
         0.24804E-09
         0.32002E-09
         0.42631E-09
         0.46847E-09
         0.44954E-09
         0.40545E-09
         0.36816E-09
         0.29901E-09
         0.25163E-09
         0.32878E-09
         0.43525E-09
         0.44963E-09
         0.36354E-09
         0.29517E-09
         0.36144E-09
         0.42766E-09
         0.91167E-09
         0.72338E-09
         0.77607E-09
         0.13348E-08
         0.71594E-09
         0.91351E-09
         0.51062E-09
         0.61349E-09
         0.10119E-08
         0.74292E-09
         0.30129E-09
         0.56962E-09
         0.62678E-09
         0.50974E-09
         0.64865E-09
         0.12044E-08
         0.94125E-09
         0.11965E-08
         0.70310E-09
         0.80321E-09
         0.75844E-09
         0.84031E-09
         0.64511E-09
         0.40065E-09
         0.76125E-09
         0.63320E-09
         0.66087E-09
         0.67676E-09
         0.58806E-09
         0.71657E-09
         0.90984E-09
         0.64263E-09
         0.10179E-08
         0.88522E-09
         0.40075E-09
         0.61813E-09
         0.70160E-09
         0.74146E-09
         0.71564E-09
         0.56240E-09
         0.35350E-09
         0.58412E-09
         0.77336E-09
         0.62425E-09
         0.54892E-09
         0.35963E-09
         0.61339E-09
         0.83274E-09
         0.87355E-09
         0.70511E-09
         0.43371E-09
         0.74599E-09
         0.27618E-09
         0.35141E-09
         0.32841E-09
         0.38771E-09
         0.37841E-09
         0.36747E-09
         0.39198E-09
         0.41417E-09
         0.38992E-09
         0.30436E-09
         0.24806E-09
         0.32003E-09
         0.42637E-09
         0.46858E-09
         0.44960E-09
         0.40544E-09
         0.36814E-09
         0.29899E-09
         0.25159E-09
         0.32876E-09
         0.43525E-09
         0.44963E-09
         0.36347E-09
         0.29511E-09
         0.36148E-09
         0.42766E-09
         0.91171E-09
         0.72323E-09
         0.77613E-09
         0.13354E-08
         0.71606E-09
         0.91379E-09
         0.51035E-09
         0.61313E-09
         0.10123E-08
         0.74243E-09
         0.30101E-09
         0.56952E-09
         0.62674E-09
         0.50903E-09
         0.64851E-09
         0.12047E-08
         0.94167E-09
         0.11971E-08
         0.70312E-09
         0.80331E-09
         0.75840E-09
         0.84034E-09
         0.64504E-09
         0.40061E-09
         0.76092E-09
         0.63314E-09
         0.65988E-09
         0.67609E-09
         0.58781E-09
         0.71641E-09
         0.90993E-09
         0.64255E-09
         0.10184E-08
         0.88601E-09
         0.40075E-09
         0.61801E-09
         0.70151E-09
         0.74140E-09
         0.71569E-09
         0.56243E-09
         0.35350E-09
         0.58404E-09
         0.77332E-09
         0.62416E-09
         0.54879E-09
         0.35953E-09
         0.61334E-09
         0.83274E-09
         0.87368E-09
         0.70525E-09
         0.43372E-09
         0.74636E-09
         0.27609E-09
         0.35141E-09
         0.32825E-09
         0.38772E-09
         0.37849E-09
         0.36754E-09
         0.39215E-09
         0.41447E-09
         0.39014E-09
         0.30443E-09
         0.24808E-09
         0.32004E-09
         0.42642E-09
         0.46868E-09
         0.44965E-09
         0.40543E-09
         0.36812E-09
         0.29897E-09
         0.25155E-09
         0.32874E-09
         0.43524E-09
         0.44963E-09
         0.36340E-09
         0.29504E-09
         0.36153E-09
         0.42764E-09
         0.91176E-09
         0.72308E-09
         0.77620E-09
         0.13360E-08
         0.71617E-09
         0.91407E-09
         0.51008E-09
         0.61276E-09
         0.10126E-08
         0.74195E-09
         0.30072E-09
         0.56942E-09
         0.62670E-09
         0.50832E-09
         0.64838E-09
         0.12051E-08
         0.94210E-09
         0.11977E-08
         0.70314E-09
         0.80341E-09
         0.75837E-09
         0.84038E-09
         0.64498E-09
         0.40056E-09
         0.76060E-09
         0.63309E-09
         0.65888E-09
         0.67542E-09
         0.58756E-09
         0.71624E-09
         0.91002E-09
         0.64247E-09
         0.10189E-08
         0.88682E-09
         0.40074E-09
         0.61790E-09
         0.70142E-09
         0.74135E-09
         0.71574E-09
         0.56245E-09
         0.35351E-09
         0.58396E-09
         0.77328E-09
         0.62407E-09
         0.54866E-09
         0.35944E-09
         0.61329E-09
         0.83275E-09
         0.87382E-09
         0.70539E-09
         0.43373E-09
         0.74673E-09
         0.27601E-09
         0.35140E-09
         0.32809E-09
         0.38774E-09
         0.37858E-09
         0.36762E-09
         0.39232E-09
         0.41477E-09
         0.39037E-09
         0.30450E-09
         0.24810E-09
         0.32005E-09
         0.42648E-09
         0.46879E-09
         0.44970E-09
         0.40541E-09
         0.36809E-09
         0.29894E-09
         0.25151E-09
         0.32871E-09
         0.43523E-09
         0.44963E-09
         0.36333E-09
         0.29497E-09
         0.36157E-09
         0.42763E-09
         0.91182E-09
         0.72293E-09
         0.77627E-09
         0.13367E-08
         0.71629E-09
         0.91436E-09
         0.50982E-09
         0.61240E-09
         0.10130E-08
         0.74146E-09
         0.30043E-09
         0.56932E-09
         0.62666E-09
         0.50762E-09
         0.64825E-09
         0.12054E-08
         0.94253E-09
         0.11983E-08
         0.70317E-09
         0.80351E-09
         0.75834E-09
         0.84041E-09
         0.64491E-09
         0.40053E-09
         0.76028E-09
         0.63304E-09
         0.65790E-09
         0.67476E-09
         0.58731E-09
         0.71609E-09
         0.91012E-09
         0.64239E-09
         0.10195E-08
         0.88762E-09
         0.40074E-09
         0.61778E-09
         0.70133E-09
         0.74130E-09
         0.71579E-09
         0.56249E-09
         0.35351E-09
         0.58388E-09
         0.77324E-09
         0.62398E-09
         0.54853E-09
         0.35935E-09
         0.61324E-09
         0.83277E-09
         0.87396E-09
         0.70554E-09
         0.43375E-09
         0.74711E-09
         0.27592E-09
         0.35140E-09
         0.32793E-09
         0.38775E-09
         0.37867E-09
         0.36770E-09
         0.39249E-09
         0.41507E-09
         0.39061E-09
         0.30457E-09
         0.24812E-09
         0.32006E-09
         0.42654E-09
         0.46890E-09
         0.44975E-09
         0.40540E-09
         0.36807E-09
         0.29892E-09
         0.25148E-09
         0.32869E-09
         0.43522E-09
         0.44963E-09
         0.36325E-09
         0.29491E-09
         0.36162E-09
         0.42762E-09
         0.91187E-09
         0.72278E-09
         0.77633E-09
         0.13373E-08
         0.71640E-09
         0.91463E-09
         0.50955E-09
         0.61204E-09
         0.10134E-08
         0.74098E-09
         0.30015E-09
         0.56922E-09
         0.62662E-09
         0.50691E-09
         0.64811E-09
         0.12058E-08
         0.94296E-09
         0.11989E-08
         0.70320E-09
         0.80361E-09
         0.75831E-09
         0.84045E-09
         0.64485E-09
         0.40048E-09
         0.75995E-09
         0.63298E-09
         0.65690E-09
         0.67409E-09
         0.58706E-09
         0.71592E-09
         0.91020E-09
         0.64231E-09
         0.10200E-08
         0.88843E-09
         0.40074E-09
         0.61766E-09
         0.70124E-09
         0.74124E-09
         0.71584E-09
         0.56251E-09
         0.35351E-09
         0.58380E-09
         0.77320E-09
         0.62389E-09
         0.54840E-09
         0.35926E-09
         0.61318E-09
         0.83277E-09
         0.87409E-09
         0.70568E-09
         0.43376E-09
         0.74748E-09
         0.27584E-09
         0.35139E-09
         0.32777E-09
         0.38777E-09
         0.37876E-09
         0.36778E-09
         0.39266E-09
         0.41536E-09
         0.39084E-09
         0.30464E-09
         0.24814E-09
         0.32006E-09
         0.42659E-09
         0.46900E-09
         0.44980E-09
         0.40539E-09
         0.36805E-09
         0.29890E-09
         0.25144E-09
         0.32867E-09
         0.43521E-09
         0.44963E-09
         0.36318E-09
         0.29485E-09
         0.36166E-09
         0.42761E-09
         0.91192E-09
         0.72263E-09
         0.77640E-09
         0.13380E-08
         0.71652E-09
         0.91491E-09
         0.50928E-09
         0.61167E-09
         0.10137E-08
         0.74049E-09
         0.29986E-09
         0.56912E-09
         0.62657E-09
         0.50620E-09
         0.64797E-09
         0.12061E-08
         0.94339E-09
         0.11995E-08
         0.70322E-09
         0.80371E-09
         0.75827E-09
         0.84048E-09
         0.64478E-09
         0.40044E-09
         0.75962E-09
         0.63293E-09
         0.65591E-09
         0.67343E-09
         0.58681E-09
         0.71576E-09
         0.91029E-09
         0.64223E-09
         0.10205E-08
         0.88923E-09
         0.40073E-09
         0.61754E-09
         0.70114E-09
         0.74119E-09
         0.71588E-09
         0.56254E-09
         0.35351E-09
         0.58372E-09
         0.77316E-09
         0.62380E-09
         0.54827E-09
         0.35917E-09
         0.61313E-09
         0.83278E-09
         0.87422E-09
         0.70582E-09
         0.43377E-09
         0.74785E-09
         0.27575E-09
         0.35138E-09
         0.32761E-09
         0.38778E-09
         0.37885E-09
         0.36786E-09
         0.39283E-09
         0.41566E-09
         0.39107E-09
         0.30470E-09
         0.24816E-09
         0.32007E-09
         0.42665E-09
         0.46911E-09
         0.44985E-09
         0.40538E-09
         0.36802E-09
         0.29887E-09
         0.25140E-09
         0.32864E-09
         0.43520E-09
         0.44963E-09
         0.36310E-09
         0.29478E-09
         0.36170E-09
         0.42760E-09
         0.91198E-09
         0.72248E-09
         0.77646E-09
         0.13386E-08
         0.71663E-09
         0.91520E-09
         0.50901E-09
         0.61131E-09
         0.10141E-08
         0.74000E-09
         0.29957E-09
         0.56902E-09
         0.62653E-09
         0.50549E-09
         0.64784E-09
         0.12065E-08
         0.94382E-09
         0.12002E-08
         0.70325E-09
         0.80381E-09
         0.75824E-09
         0.84052E-09
         0.64472E-09
         0.40040E-09
         0.75929E-09
         0.63288E-09
         0.65492E-09
         0.67276E-09
         0.58657E-09
         0.71560E-09
         0.91038E-09
         0.64216E-09
         0.10211E-08
         0.89003E-09
         0.40073E-09
         0.61742E-09
         0.70105E-09
         0.74114E-09
         0.71593E-09
         0.56257E-09
         0.35351E-09
         0.58364E-09
         0.77313E-09
         0.62371E-09
         0.54814E-09
         0.35908E-09
         0.61308E-09
         0.83280E-09
         0.87436E-09
         0.70597E-09
         0.43378E-09
         0.74823E-09
         0.27567E-09
         0.35138E-09
         0.32745E-09
         0.38779E-09
         0.37893E-09
         0.36794E-09
         0.39300E-09
         0.41596E-09
         0.39130E-09
         0.30477E-09
         0.24818E-09
         0.32008E-09
         0.42671E-09
         0.46921E-09
         0.44991E-09
         0.40537E-09
         0.36800E-09
         0.29885E-09
         0.25136E-09
         0.32862E-09
         0.43520E-09
         0.44963E-09
         0.36303E-09
         0.29472E-09
         0.36175E-09
         0.42759E-09
         0.91203E-09
         0.72233E-09
         0.77653E-09
         0.13392E-08
         0.71675E-09
         0.91547E-09
         0.50875E-09
         0.61094E-09
         0.10144E-08
         0.73952E-09
         0.29928E-09
         0.56892E-09
         0.62649E-09
         0.50478E-09
         0.64770E-09
         0.12068E-08
         0.94424E-09
         0.12008E-08
         0.70327E-09
         0.80391E-09
         0.75821E-09
         0.84055E-09
         0.64465E-09
         0.40035E-09
         0.75896E-09
         0.63282E-09
         0.65393E-09
         0.67210E-09
         0.58632E-09
         0.71543E-09
         0.91047E-09
         0.64208E-09
         0.10216E-08
         0.89084E-09
         0.40073E-09
         0.61730E-09
         0.70096E-09
         0.74108E-09
         0.71598E-09
         0.56259E-09
         0.35351E-09
         0.58356E-09
         0.77309E-09
         0.62362E-09
         0.54801E-09
         0.35898E-09
         0.61303E-09
         0.83281E-09
         0.87449E-09
         0.70611E-09
         0.43379E-09
         0.74860E-09
         0.27558E-09
         0.35137E-09
         0.32729E-09
         0.38781E-09
         0.37902E-09
         0.36802E-09
         0.39317E-09
         0.41625E-09
         0.39153E-09
         0.30484E-09
         0.24820E-09
         0.32009E-09
         0.42677E-09
         0.46932E-09
         0.44996E-09
         0.40536E-09
         0.36798E-09
         0.29883E-09
         0.25132E-09
         0.32859E-09
         0.43519E-09
         0.44963E-09
         0.36296E-09
         0.29465E-09
         0.36179E-09
         0.42758E-09
         0.91208E-09
         0.72218E-09
         0.77659E-09
         0.13399E-08
         0.71686E-09
         0.91576E-09
         0.50848E-09
         0.61058E-09
         0.10148E-08
         0.73903E-09
         0.29900E-09
         0.56882E-09
         0.62645E-09
         0.50408E-09
         0.64757E-09
         0.12072E-08
         0.94467E-09
         0.12014E-08
         0.70330E-09
         0.80401E-09
         0.75818E-09
         0.84059E-09
         0.64459E-09
         0.40031E-09
         0.75864E-09
         0.63277E-09
         0.65294E-09
         0.67143E-09
         0.58607E-09
         0.71527E-09
         0.91057E-09
         0.64200E-09
         0.10221E-08
         0.89164E-09
         0.40072E-09
         0.61719E-09
         0.70087E-09
         0.74103E-09
         0.71603E-09
         0.56262E-09
         0.35352E-09
         0.58348E-09
         0.77305E-09
         0.62354E-09
         0.54788E-09
         0.35889E-09
         0.61298E-09
         0.83282E-09
         0.87463E-09
         0.70626E-09
         0.43380E-09
         0.74897E-09
         0.27550E-09
         0.35137E-09
         0.32713E-09
         0.38782E-09
         0.37911E-09
         0.36810E-09
         0.39334E-09
         0.41655E-09
         0.39176E-09
         0.30491E-09
         0.24822E-09
         0.32010E-09
         0.42682E-09
         0.46942E-09
         0.45001E-09
         0.40534E-09
         0.36796E-09
         0.29881E-09
         0.25128E-09
         0.32857E-09
         0.43518E-09
         0.44963E-09
         0.36288E-09
         0.29459E-09
         0.36184E-09
         0.42757E-09
         0.91214E-09
         0.72204E-09
         0.77666E-09
         0.13405E-08
         0.71698E-09
         0.91604E-09
         0.50822E-09
         0.61022E-09
         0.10151E-08
         0.73855E-09
         0.29871E-09
         0.56872E-09
         0.62641E-09
         0.50337E-09
         0.64743E-09
         0.12075E-08
         0.94510E-09
         0.12020E-08
         0.70333E-09
         0.80411E-09
         0.75815E-09
         0.84063E-09
         0.64453E-09
         0.40027E-09
         0.75831E-09
         0.63272E-09
         0.65196E-09
         0.67077E-09
         0.58582E-09
         0.71511E-09
         0.91066E-09
         0.64192E-09
         0.10227E-08
         0.89245E-09
         0.40072E-09
         0.61707E-09
         0.70078E-09
         0.74098E-09
         0.71608E-09
         0.56265E-09
         0.35352E-09
         0.58340E-09
         0.77301E-09
         0.62345E-09
         0.54775E-09
         0.35880E-09
         0.61293E-09
         0.83283E-09
         0.87476E-09
         0.70641E-09
         0.43382E-09
         0.74935E-09
         0.27541E-09
         0.35136E-09
         0.32697E-09
         0.38784E-09
         0.37920E-09
         0.36818E-09
         0.39352E-09
         0.41685E-09
         0.39199E-09
         0.30498E-09
         0.24824E-09
         0.32011E-09
         0.42688E-09
         0.46953E-09
         0.45007E-09
         0.40533E-09
         0.36793E-09
         0.29878E-09
         0.25124E-09
         0.32855E-09
         0.43517E-09
         0.44963E-09
         0.36281E-09
         0.29452E-09
         0.36188E-09
         0.42756E-09
         0.91219E-09
         0.72188E-09
         0.77672E-09
         0.13412E-08
         0.71709E-09
         0.91632E-09
         0.50795E-09
         0.60986E-09
         0.10155E-08
         0.73806E-09
         0.29842E-09
         0.56862E-09
         0.62636E-09
         0.50266E-09
         0.64730E-09
         0.12079E-08
         0.94552E-09
         0.12026E-08
         0.70335E-09
         0.80421E-09
         0.75811E-09
         0.84066E-09
         0.64446E-09
         0.40023E-09
         0.75798E-09
         0.63267E-09
         0.65096E-09
         0.67010E-09
         0.58557E-09
         0.71494E-09
         0.91074E-09
         0.64184E-09
         0.10232E-08
         0.89325E-09
         0.40072E-09
         0.61695E-09
         0.70069E-09
         0.74092E-09
         0.71612E-09
         0.56268E-09
         0.35352E-09
         0.58332E-09
         0.77297E-09
         0.62336E-09
         0.54762E-09
         0.35871E-09
         0.61287E-09
         0.83284E-09
         0.87489E-09
         0.70655E-09
         0.43383E-09
         0.74972E-09
         0.27533E-09
         0.35136E-09
         0.32681E-09
         0.38785E-09
         0.37929E-09
         0.36825E-09
         0.39369E-09
         0.41715E-09
         0.39222E-09
         0.30505E-09
         0.24826E-09
         0.32011E-09
         0.42694E-09
         0.46963E-09
         0.45011E-09
         0.40532E-09
         0.36791E-09
         0.29876E-09
         0.25120E-09
         0.32853E-09
         0.43516E-09
         0.44962E-09
         0.36274E-09
         0.29445E-09
         0.36192E-09
         0.42755E-09
         0.91224E-09
         0.72173E-09
         0.77679E-09
         0.13418E-08
         0.71720E-09
         0.91660E-09
         0.50768E-09
         0.60949E-09
         0.10158E-08
         0.73758E-09
         0.29814E-09
         0.56852E-09
         0.62632E-09
         0.50195E-09
         0.64716E-09
         0.12082E-08
         0.94595E-09
         0.12032E-08
         0.70337E-09
         0.80431E-09
         0.75808E-09
         0.84069E-09
         0.64440E-09
         0.40018E-09
         0.75766E-09
         0.63262E-09
         0.64998E-09
         0.66943E-09
         0.58532E-09
         0.71478E-09
         0.91083E-09
         0.64176E-09
         0.10238E-08
         0.89406E-09
         0.40071E-09
         0.61683E-09
         0.70059E-09
         0.74087E-09
         0.71617E-09
         0.56270E-09
         0.35352E-09
         0.58324E-09
         0.77294E-09
         0.62327E-09
         0.54749E-09
         0.35861E-09
         0.61282E-09
         0.83284E-09
         0.87503E-09
         0.70669E-09
         0.43384E-09
         0.75009E-09
         0.27524E-09
         0.35135E-09
         0.32665E-09
         0.38786E-09
         0.37937E-09
         0.36833E-09
         0.39386E-09
         0.41745E-09
         0.39245E-09
         0.30512E-09
         0.24828E-09
         0.32012E-09
         0.42699E-09
         0.46974E-09
         0.45017E-09
         0.40531E-09
         0.36788E-09
         0.29873E-09
         0.25117E-09
         0.32850E-09
         0.43515E-09
         0.44962E-09
         0.36266E-09
         0.29439E-09
         0.36197E-09
         0.42754E-09
         0.91230E-09
         0.72159E-09
         0.77686E-09
         0.13425E-08
         0.71732E-09
         0.91688E-09
         0.50742E-09
         0.60913E-09
         0.10162E-08
         0.73710E-09
         0.29785E-09
         0.56842E-09
         0.62628E-09
         0.50125E-09
         0.64703E-09
         0.12086E-08
         0.94638E-09
         0.12038E-08
         0.70340E-09
         0.80441E-09
         0.75805E-09
         0.84073E-09
         0.64433E-09
         0.40014E-09
         0.75733E-09
         0.63257E-09
         0.64899E-09
         0.66877E-09
         0.58508E-09
         0.71462E-09
         0.91093E-09
         0.64169E-09
         0.10243E-08
         0.89487E-09
         0.40071E-09
         0.61671E-09
         0.70051E-09
         0.74082E-09
         0.71622E-09
         0.56273E-09
         0.35352E-09
         0.58316E-09
         0.77290E-09
         0.62318E-09
         0.54737E-09
         0.35852E-09
         0.61277E-09
         0.83286E-09
         0.87517E-09
         0.70684E-09
         0.43385E-09
         0.75047E-09
         0.27516E-09
         0.35135E-09
         0.32649E-09
         0.38788E-09
         0.37946E-09
         0.36841E-09
         0.39403E-09
         0.41775E-09
         0.39268E-09
         0.30519E-09
         0.24830E-09
         0.32013E-09
         0.42705E-09
         0.46985E-09
         0.45022E-09
         0.40530E-09
         0.36786E-09
         0.29871E-09
         0.25113E-09
         0.32848E-09
         0.43515E-09
         0.44962E-09
         0.36259E-09
         0.29433E-09
         0.36201E-09
         0.42753E-09
         0.91235E-09
         0.72143E-09
         0.77692E-09
         0.13431E-08
         0.71743E-09
         0.91716E-09
         0.50715E-09
         0.60877E-09
         0.10165E-08
         0.73661E-09
         0.29757E-09
         0.56832E-09
         0.62624E-09
         0.50054E-09
         0.64689E-09
         0.12089E-08
         0.94680E-09
         0.12044E-08
         0.70342E-09
         0.80450E-09
         0.75802E-09
         0.84076E-09
         0.64427E-09
         0.40010E-09
         0.75700E-09
         0.63251E-09
         0.64800E-09
         0.66810E-09
         0.58482E-09
         0.71445E-09
         0.91101E-09
         0.64161E-09
         0.10248E-08
         0.89567E-09
         0.40071E-09
         0.61659E-09
         0.70041E-09
         0.74077E-09
         0.71627E-09
         0.56276E-09
         0.35352E-09
         0.58308E-09
         0.77286E-09
         0.62309E-09
         0.54723E-09
         0.35843E-09
         0.61272E-09
         0.83287E-09
         0.87530E-09
         0.70698E-09
         0.43386E-09
         0.75084E-09
         0.27507E-09
         0.35134E-09
         0.32633E-09
         0.38789E-09
         0.37955E-09
         0.36849E-09
         0.39420E-09
         0.41804E-09
         0.39291E-09
         0.30525E-09
         0.24832E-09
         0.32014E-09
         0.42711E-09
         0.46995E-09
         0.45027E-09
         0.40528E-09
         0.36784E-09
         0.29869E-09
         0.25109E-09
         0.32845E-09
         0.43514E-09
         0.44962E-09
         0.36252E-09
         0.29426E-09
         0.36206E-09
         0.42751E-09
         0.91240E-09
         0.72128E-09
         0.77698E-09
         0.13437E-08
         0.71755E-09
         0.91744E-09
         0.50688E-09
         0.60841E-09
         0.10169E-08
         0.73612E-09
         0.29728E-09
         0.56822E-09
         0.62619E-09
         0.49984E-09
         0.64676E-09
         0.12093E-08
         0.94723E-09
         0.12050E-08
         0.70345E-09
         0.80460E-09
         0.75798E-09
         0.84080E-09
         0.64420E-09
         0.40006E-09
         0.75667E-09
         0.63246E-09
         0.64701E-09
         0.66744E-09
         0.58457E-09
         0.71429E-09
         0.91110E-09
         0.64153E-09
         0.10254E-08
         0.89648E-09
         0.40070E-09
         0.61647E-09
         0.70032E-09
         0.74071E-09
         0.71632E-09
         0.56279E-09
         0.35353E-09
         0.58300E-09
         0.77282E-09
         0.62300E-09
         0.54710E-09
         0.35834E-09
         0.61266E-09
         0.83288E-09
         0.87543E-09
         0.70713E-09
         0.43387E-09
         0.75122E-09
         0.27499E-09
         0.35133E-09
         0.32617E-09
         0.38790E-09
         0.37964E-09
         0.36857E-09
         0.39437E-09
         0.41834E-09
         0.39314E-09
         0.30532E-09
         0.24834E-09
         0.32014E-09
         0.42716E-09
         0.47005E-09
         0.45032E-09
         0.40527E-09
         0.36781E-09
         0.29866E-09
         0.25105E-09
         0.32843E-09
         0.43513E-09
         0.44962E-09
         0.36244E-09
         0.29419E-09
         0.36210E-09
         0.42750E-09
         0.91246E-09
         0.72114E-09
         0.77705E-09
         0.13444E-08
         0.71767E-09
         0.91773E-09
         0.50662E-09
         0.60805E-09
         0.10173E-08
         0.73564E-09
         0.29700E-09
         0.56812E-09
         0.62616E-09
         0.49914E-09
         0.64663E-09
         0.12097E-08
         0.94766E-09
         0.12056E-08
         0.70348E-09
         0.80471E-09
         0.75796E-09
         0.84084E-09
         0.64414E-09
         0.40002E-09
         0.75635E-09
         0.63241E-09
         0.64603E-09
         0.66678E-09
         0.58433E-09
         0.71413E-09
         0.91120E-09
         0.64146E-09
         0.10259E-08
         0.89729E-09
         0.40070E-09
         0.61636E-09
         0.70023E-09
         0.74067E-09
         0.71637E-09
         0.56282E-09
         0.35353E-09
         0.58293E-09
         0.77279E-09
         0.62291E-09
         0.54698E-09
         0.35825E-09
         0.61261E-09
         0.83289E-09
         0.87557E-09
         0.70728E-09
         0.43389E-09
         0.75160E-09
         0.27491E-09
         0.35133E-09
         0.32601E-09
         0.38792E-09
         0.37972E-09
         0.36865E-09
         0.39454E-09
         0.41864E-09
         0.39337E-09
         0.30539E-09
         0.24836E-09
         0.32015E-09
         0.42722E-09
         0.47016E-09
         0.45038E-09
         0.40526E-09
         0.36779E-09
         0.29864E-09
         0.25101E-09
         0.32841E-09
         0.43512E-09
         0.44962E-09
         0.36237E-09
         0.29413E-09
         0.36215E-09
         0.42750E-09
         0.91249E-09
         0.72097E-09
         0.77710E-09
         0.13450E-08
         0.71777E-09
         0.91799E-09
         0.50634E-09
         0.60767E-09
         0.10176E-08
         0.73514E-09
         0.29670E-09
         0.56801E-09
         0.62610E-09
         0.49842E-09
         0.64648E-09
         0.12100E-08
         0.94806E-09
         0.12062E-08
         0.70349E-09
         0.80479E-09
         0.75791E-09
         0.84086E-09
         0.64406E-09
         0.39997E-09
         0.75600E-09
         0.63234E-09
         0.64503E-09
         0.66610E-09
         0.58407E-09
         0.71395E-09
         0.91127E-09
         0.64136E-09
         0.10264E-08
         0.89808E-09
         0.40069E-09
         0.61622E-09
         0.70012E-09
         0.74060E-09
         0.71641E-09
         0.56283E-09
         0.35352E-09
         0.58283E-09
         0.77273E-09
         0.62281E-09
         0.54684E-09
         0.35815E-09
         0.61255E-09
         0.83288E-09
         0.87569E-09
         0.70741E-09
         0.43389E-09
         0.75195E-09
         0.27482E-09
         0.35132E-09
         0.32584E-09
         0.38793E-09
         0.37980E-09
         0.36872E-09
         0.39470E-09
         0.41893E-09
         0.39360E-09
         0.30545E-09
         0.24837E-09
         0.32016E-09
         0.42727E-09
         0.47026E-09
         0.45042E-09
         0.40524E-09
         0.36776E-09
         0.29861E-09
         0.25097E-09
         0.32838E-09
         0.43510E-09
         0.44961E-09
         0.36229E-09
         0.29406E-09
         0.36218E-09
         0.42748E-09
         0.91256E-09
         0.72083E-09
         0.77718E-09
         0.13457E-08
         0.71789E-09
         0.91829E-09
         0.50608E-09
         0.60732E-09
         0.10180E-08
         0.73467E-09
         0.29642E-09
         0.56792E-09
         0.62607E-09
         0.49772E-09
         0.64636E-09
         0.12103E-08
         0.94850E-09
         0.12068E-08
         0.70352E-09
         0.80490E-09
         0.75789E-09
         0.84091E-09
         0.64401E-09
         0.39993E-09
         0.75569E-09
         0.63230E-09
         0.64405E-09
         0.66544E-09
         0.58382E-09
         0.71379E-09
         0.91137E-09
         0.64129E-09
         0.10270E-08
         0.89890E-09
         0.40069E-09
         0.61611E-09
         0.70004E-09
         0.74056E-09
         0.71646E-09
         0.56287E-09
         0.35353E-09
         0.58276E-09
         0.77271E-09
         0.62273E-09
         0.54672E-09
         0.35806E-09
         0.61251E-09
         0.83291E-09
         0.87583E-09
         0.70756E-09
         0.43391E-09
         0.75234E-09
         0.27474E-09
         0.35132E-09
         0.32569E-09
         0.38794E-09
         0.37990E-09
         0.36881E-09
         0.39488E-09
         0.41923E-09
         0.39383E-09
         0.30553E-09
         0.24840E-09
         0.32017E-09
         0.42734E-09
         0.47037E-09
         0.45048E-09
         0.40524E-09
         0.36774E-09
         0.29859E-09
         0.25093E-09
         0.32836E-09
         0.43510E-09
         0.44962E-09
         0.36222E-09
         0.29400E-09
         0.36223E-09
         0.42747E-09
         0.45631E-09
         0.36039E-09
         0.38862E-09
         0.67302E-09
         0.35899E-09
         0.45923E-09
         0.25298E-09
         0.30358E-09
         0.50909E-09
         0.36723E-09
         0.14815E-09
         0.28394E-09
         0.31303E-09
         0.24869E-09
         0.32316E-09
         0.60528E-09
         0.47437E-09
         0.60357E-09
         0.35178E-09
         0.40249E-09
         0.37895E-09
         0.42048E-09
         0.32200E-09
         0.19996E-09
         0.37777E-09
         0.31615E-09
         0.32179E-09
         0.33257E-09
         0.29186E-09
         0.35687E-09
         0.45572E-09
         0.32064E-09
         0.51365E-09
         0.44967E-09
         0.20035E-09
         0.30804E-09
         0.35001E-09
         0.37028E-09
         0.35826E-09
         0.28145E-09
         0.17677E-09
         0.29137E-09
         0.38636E-09
         0.31135E-09
         0.27333E-09
         0.17901E-09
         0.30625E-09
         0.41647E-09
         0.43797E-09
         0.35383E-09
         0.21697E-09
         0.37628E-09
         0.13735E-09
         0.17566E-09
         0.16281E-09
         0.19398E-09
         0.18998E-09
         0.18443E-09
         0.19749E-09
         0.20970E-09
         0.19698E-09
         0.15279E-09
         0.12421E-09
         0.16009E-09
         0.21369E-09
         0.23522E-09
         0.22526E-09
         0.20262E-09
         0.18387E-09
         0.14930E-09
         0.12546E-09
         0.16418E-09
         0.21756E-09
         0.22482E-09
         0.18110E-09
         0.14699E-09
         0.18113E-09
         0.21374E-09
  
SCALARS               pre_disp_force_x  double 1
LOOKUP_TABLE default
         0.00000E+00
         0.00000E+00
         0.00000E+00
         0.00000E+00
         0.00000E+00
         0.00000E+00
         0.00000E+00
         0.00000E+00
         0.00000E+00
         0.00000E+00
         0.00000E+00
         0.00000E+00
         0.00000E+00
         0.00000E+00
         0.00000E+00
         0.00000E+00
         0.00000E+00
         0.00000E+00
         0.00000E+00
         0.00000E+00
         0.00000E+00
         0.00000E+00
         0.00000E+00
         0.00000E+00
         0.00000E+00
         0.00000E+00
         0.00000E+00
         0.00000E+00
         0.00000E+00
         0.00000E+00
         0.00000E+00
         0.00000E+00
         0.00000E+00
         0.00000E+00
         0.00000E+00
         0.00000E+00
         0.00000E+00
         0.00000E+00
         0.00000E+00
         0.00000E+00
         0.00000E+00
         0.00000E+00
         0.00000E+00
         0.00000E+00
         0.00000E+00
         0.00000E+00
         0.00000E+00
         0.00000E+00
         0.00000E+00
         0.00000E+00
         0.00000E+00
         0.00000E+00
         0.00000E+00
         0.00000E+00
         0.00000E+00
         0.00000E+00
         0.00000E+00
         0.00000E+00
         0.00000E+00
         0.00000E+00
         0.00000E+00
         0.00000E+00
         0.00000E+00
         0.00000E+00
         0.00000E+00
         0.00000E+00
         0.00000E+00
         0.00000E+00
         0.00000E+00
         0.00000E+00
         0.00000E+00
         0.00000E+00
         0.00000E+00
         0.00000E+00
         0.00000E+00
         0.00000E+00
         0.00000E+00
         0.00000E+00
         0.00000E+00
         0.00000E+00
         0.00000E+00
         0.00000E+00
         0.00000E+00
         0.00000E+00
         0.00000E+00
         0.00000E+00
         0.00000E+00
         0.00000E+00
         0.00000E+00
         0.00000E+00
         0.00000E+00
         0.00000E+00
         0.00000E+00
         0.00000E+00
         0.00000E+00
         0.00000E+00
         0.00000E+00
         0.00000E+00
         0.00000E+00
         0.00000E+00
         0.00000E+00
         0.00000E+00
         0.00000E+00
         0.00000E+00
         0.00000E+00
         0.00000E+00
         0.00000E+00
         0.00000E+00
         0.00000E+00
         0.00000E+00
         0.00000E+00
         0.00000E+00
         0.00000E+00
         0.00000E+00
         0.00000E+00
         0.00000E+00
         0.00000E+00
         0.00000E+00
         0.00000E+00
         0.00000E+00
         0.00000E+00
         0.00000E+00
         0.00000E+00
         0.00000E+00
         0.00000E+00
         0.00000E+00
         0.00000E+00
         0.00000E+00
         0.00000E+00
         0.00000E+00
         0.00000E+00
         0.00000E+00
         0.00000E+00
         0.00000E+00
         0.00000E+00
         0.00000E+00
         0.00000E+00
         0.00000E+00
         0.00000E+00
         0.00000E+00
         0.00000E+00
         0.00000E+00
         0.00000E+00
         0.00000E+00
         0.00000E+00
         0.00000E+00
         0.00000E+00
         0.00000E+00
         0.00000E+00
         0.00000E+00
         0.00000E+00
         0.00000E+00
         0.00000E+00
         0.00000E+00
         0.00000E+00
         0.00000E+00
         0.00000E+00
         0.00000E+00
         0.00000E+00
         0.00000E+00
         0.00000E+00
         0.00000E+00
         0.00000E+00
         0.00000E+00
         0.00000E+00
         0.00000E+00
         0.00000E+00
         0.00000E+00
         0.00000E+00
         0.00000E+00
         0.00000E+00
         0.00000E+00
         0.00000E+00
         0.00000E+00
         0.00000E+00
         0.00000E+00
         0.00000E+00
         0.00000E+00
         0.00000E+00
         0.00000E+00
         0.00000E+00
         0.00000E+00
         0.00000E+00
         0.00000E+00
         0.00000E+00
         0.00000E+00
         0.00000E+00
         0.00000E+00
         0.00000E+00
         0.00000E+00
         0.00000E+00
         0.00000E+00
         0.00000E+00
         0.00000E+00
         0.00000E+00
         0.00000E+00
         0.00000E+00
         0.00000E+00
         0.00000E+00
         0.00000E+00
         0.00000E+00
         0.00000E+00
         0.00000E+00
         0.00000E+00
         0.00000E+00
         0.00000E+00
         0.00000E+00
         0.00000E+00
         0.00000E+00
         0.00000E+00
         0.00000E+00
         0.00000E+00
         0.00000E+00
         0.00000E+00
         0.00000E+00
         0.00000E+00
         0.00000E+00
         0.00000E+00
         0.00000E+00
         0.00000E+00
         0.00000E+00
         0.00000E+00
         0.00000E+00
         0.00000E+00
         0.00000E+00
         0.00000E+00
         0.00000E+00
         0.00000E+00
         0.00000E+00
         0.00000E+00
         0.00000E+00
         0.00000E+00
         0.00000E+00
         0.00000E+00
         0.00000E+00
         0.00000E+00
         0.00000E+00
         0.00000E+00
         0.00000E+00
         0.00000E+00
         0.00000E+00
         0.00000E+00
         0.00000E+00
         0.00000E+00
         0.00000E+00
         0.00000E+00
         0.00000E+00
         0.00000E+00
         0.00000E+00
         0.00000E+00
         0.00000E+00
         0.00000E+00
         0.00000E+00
         0.00000E+00
         0.00000E+00
         0.00000E+00
         0.00000E+00
         0.00000E+00
         0.00000E+00
         0.00000E+00
         0.00000E+00
         0.00000E+00
         0.00000E+00
         0.00000E+00
         0.00000E+00
         0.00000E+00
         0.00000E+00
         0.00000E+00
         0.00000E+00
         0.00000E+00
         0.00000E+00
         0.00000E+00
         0.00000E+00
         0.00000E+00
         0.00000E+00
         0.00000E+00
         0.00000E+00
         0.00000E+00
         0.00000E+00
         0.00000E+00
         0.00000E+00
         0.00000E+00
         0.00000E+00
         0.00000E+00
         0.00000E+00
         0.00000E+00
         0.00000E+00
         0.00000E+00
         0.00000E+00
         0.00000E+00
         0.00000E+00
         0.00000E+00
         0.00000E+00
         0.00000E+00
         0.00000E+00
         0.00000E+00
         0.00000E+00
         0.00000E+00
         0.00000E+00
         0.00000E+00
         0.00000E+00
         0.00000E+00
         0.00000E+00
         0.00000E+00
         0.00000E+00
         0.00000E+00
         0.00000E+00
         0.00000E+00
         0.00000E+00
         0.00000E+00
         0.00000E+00
         0.00000E+00
         0.00000E+00
         0.00000E+00
         0.00000E+00
         0.00000E+00
         0.00000E+00
         0.00000E+00
         0.00000E+00
         0.00000E+00
         0.00000E+00
         0.00000E+00
         0.00000E+00
         0.00000E+00
         0.00000E+00
         0.00000E+00
         0.00000E+00
         0.00000E+00
         0.00000E+00
         0.00000E+00
         0.00000E+00
         0.00000E+00
         0.00000E+00
         0.00000E+00
         0.00000E+00
         0.00000E+00
         0.00000E+00
         0.00000E+00
         0.00000E+00
         0.00000E+00
         0.00000E+00
         0.00000E+00
         0.00000E+00
         0.00000E+00
         0.00000E+00
         0.00000E+00
         0.00000E+00
         0.00000E+00
         0.00000E+00
         0.00000E+00
         0.00000E+00
         0.00000E+00
         0.00000E+00
         0.00000E+00
         0.00000E+00
         0.00000E+00
         0.00000E+00
         0.00000E+00
         0.00000E+00
         0.00000E+00
         0.00000E+00
         0.00000E+00
         0.00000E+00
         0.00000E+00
         0.00000E+00
         0.00000E+00
         0.00000E+00
         0.00000E+00
         0.00000E+00
         0.00000E+00
         0.00000E+00
         0.00000E+00
         0.00000E+00
         0.00000E+00
         0.00000E+00
         0.00000E+00
         0.00000E+00
         0.00000E+00
         0.00000E+00
         0.00000E+00
         0.00000E+00
         0.00000E+00
         0.00000E+00
         0.00000E+00
         0.00000E+00
         0.00000E+00
         0.00000E+00
         0.00000E+00
         0.00000E+00
         0.00000E+00
         0.00000E+00
         0.00000E+00
         0.00000E+00
         0.00000E+00
         0.00000E+00
         0.00000E+00
         0.00000E+00
         0.00000E+00
         0.00000E+00
         0.00000E+00
         0.00000E+00
         0.00000E+00
         0.00000E+00
         0.00000E+00
         0.00000E+00
         0.00000E+00
         0.00000E+00
         0.00000E+00
         0.00000E+00
         0.00000E+00
         0.00000E+00
         0.00000E+00
         0.00000E+00
         0.00000E+00
         0.00000E+00
         0.00000E+00
         0.00000E+00
         0.00000E+00
         0.00000E+00
         0.00000E+00
         0.00000E+00
         0.00000E+00
         0.00000E+00
         0.00000E+00
         0.00000E+00
         0.00000E+00
         0.00000E+00
         0.00000E+00
         0.00000E+00
         0.00000E+00
         0.00000E+00
         0.00000E+00
         0.00000E+00
         0.00000E+00
         0.00000E+00
         0.00000E+00
         0.00000E+00
         0.00000E+00
         0.00000E+00
         0.00000E+00
         0.00000E+00
         0.00000E+00
         0.00000E+00
         0.00000E+00
         0.00000E+00
         0.00000E+00
         0.00000E+00
         0.00000E+00
         0.00000E+00
         0.00000E+00
         0.00000E+00
         0.00000E+00
         0.00000E+00
         0.00000E+00
         0.00000E+00
         0.00000E+00
         0.00000E+00
         0.00000E+00
         0.00000E+00
         0.00000E+00
         0.00000E+00
         0.00000E+00
         0.00000E+00
         0.00000E+00
         0.00000E+00
         0.00000E+00
         0.00000E+00
         0.00000E+00
         0.00000E+00
         0.00000E+00
         0.00000E+00
         0.00000E+00
         0.00000E+00
         0.00000E+00
         0.00000E+00
         0.00000E+00
         0.00000E+00
         0.00000E+00
         0.00000E+00
         0.00000E+00
         0.00000E+00
         0.00000E+00
         0.00000E+00
         0.00000E+00
         0.00000E+00
         0.00000E+00
         0.00000E+00
         0.00000E+00
         0.00000E+00
         0.00000E+00
         0.00000E+00
         0.00000E+00
         0.00000E+00
         0.00000E+00
         0.00000E+00
         0.00000E+00
         0.00000E+00
         0.00000E+00
         0.00000E+00
         0.00000E+00
         0.00000E+00
         0.00000E+00
         0.00000E+00
         0.00000E+00
         0.00000E+00
         0.00000E+00
         0.00000E+00
         0.00000E+00
         0.00000E+00
         0.00000E+00
         0.00000E+00
         0.00000E+00
         0.00000E+00
         0.00000E+00
         0.00000E+00
         0.00000E+00
         0.00000E+00
         0.00000E+00
         0.00000E+00
         0.00000E+00
         0.00000E+00
         0.00000E+00
         0.00000E+00
         0.00000E+00
         0.00000E+00
         0.00000E+00
         0.00000E+00
         0.00000E+00
         0.00000E+00
         0.00000E+00
         0.00000E+00
         0.00000E+00
         0.00000E+00
         0.00000E+00
         0.00000E+00
         0.00000E+00
         0.00000E+00
         0.00000E+00
         0.00000E+00
         0.00000E+00
         0.00000E+00
         0.00000E+00
         0.00000E+00
         0.00000E+00
         0.00000E+00
         0.00000E+00
         0.00000E+00
         0.00000E+00
         0.00000E+00
         0.00000E+00
         0.00000E+00
         0.00000E+00
         0.00000E+00
         0.00000E+00
         0.00000E+00
         0.00000E+00
         0.00000E+00
         0.00000E+00
         0.00000E+00
         0.00000E+00
         0.00000E+00
         0.00000E+00
         0.00000E+00
         0.00000E+00
         0.00000E+00
         0.00000E+00
         0.00000E+00
         0.00000E+00
         0.00000E+00
         0.00000E+00
         0.00000E+00
         0.00000E+00
         0.00000E+00
         0.00000E+00
         0.00000E+00
         0.00000E+00
         0.00000E+00
         0.00000E+00
         0.00000E+00
         0.00000E+00
         0.00000E+00
         0.00000E+00
         0.00000E+00
         0.00000E+00
         0.00000E+00
         0.00000E+00
         0.00000E+00
         0.00000E+00
         0.00000E+00
         0.00000E+00
         0.00000E+00
         0.00000E+00
         0.00000E+00
         0.00000E+00
         0.00000E+00
         0.00000E+00
         0.00000E+00
         0.00000E+00
         0.00000E+00
         0.00000E+00
         0.00000E+00
         0.00000E+00
         0.00000E+00
         0.00000E+00
         0.00000E+00
         0.00000E+00
         0.00000E+00
         0.00000E+00
         0.00000E+00
         0.00000E+00
         0.00000E+00
         0.00000E+00
         0.00000E+00
         0.00000E+00
         0.00000E+00
         0.00000E+00
         0.00000E+00
         0.00000E+00
         0.00000E+00
         0.00000E+00
         0.00000E+00
         0.00000E+00
         0.00000E+00
         0.00000E+00
         0.00000E+00
         0.00000E+00
         0.00000E+00
         0.00000E+00
         0.00000E+00
         0.00000E+00
         0.00000E+00
         0.00000E+00
         0.00000E+00
         0.00000E+00
         0.00000E+00
         0.00000E+00
         0.00000E+00
         0.00000E+00
         0.00000E+00
         0.00000E+00
         0.00000E+00
         0.00000E+00
         0.00000E+00
         0.00000E+00
         0.00000E+00
         0.00000E+00
         0.00000E+00
         0.00000E+00
         0.00000E+00
         0.00000E+00
         0.00000E+00
         0.00000E+00
         0.00000E+00
         0.00000E+00
         0.00000E+00
         0.00000E+00
         0.00000E+00
         0.00000E+00
         0.00000E+00
         0.00000E+00
         0.00000E+00
         0.00000E+00
         0.00000E+00
         0.00000E+00
         0.00000E+00
         0.00000E+00
         0.00000E+00
         0.00000E+00
         0.00000E+00
         0.00000E+00
         0.00000E+00
         0.00000E+00
         0.00000E+00
         0.00000E+00
         0.00000E+00
         0.00000E+00
         0.00000E+00
         0.00000E+00
         0.00000E+00
         0.00000E+00
         0.00000E+00
         0.00000E+00
         0.00000E+00
         0.00000E+00
         0.00000E+00
         0.00000E+00
         0.00000E+00
         0.00000E+00
         0.00000E+00
         0.00000E+00
         0.00000E+00
         0.00000E+00
         0.00000E+00
         0.00000E+00
         0.00000E+00
         0.00000E+00
         0.00000E+00
         0.00000E+00
         0.00000E+00
         0.00000E+00
         0.00000E+00
         0.00000E+00
         0.00000E+00
         0.00000E+00
         0.00000E+00
         0.00000E+00
         0.00000E+00
         0.00000E+00
         0.00000E+00
         0.00000E+00
         0.00000E+00
         0.00000E+00
         0.00000E+00
         0.00000E+00
         0.00000E+00
         0.00000E+00
         0.00000E+00
         0.00000E+00
         0.00000E+00
         0.00000E+00
         0.00000E+00
         0.00000E+00
         0.00000E+00
         0.00000E+00
         0.00000E+00
         0.00000E+00
         0.00000E+00
         0.00000E+00
         0.00000E+00
         0.00000E+00
         0.00000E+00
         0.00000E+00
         0.00000E+00
         0.00000E+00
         0.00000E+00
         0.00000E+00
         0.00000E+00
         0.00000E+00
         0.00000E+00
         0.00000E+00
         0.00000E+00
         0.00000E+00
         0.00000E+00
         0.00000E+00
         0.00000E+00
         0.00000E+00
         0.00000E+00
         0.00000E+00
         0.00000E+00
         0.00000E+00
         0.00000E+00
         0.00000E+00
         0.00000E+00
         0.00000E+00
         0.00000E+00
         0.00000E+00
         0.00000E+00
         0.00000E+00
         0.00000E+00
         0.00000E+00
         0.00000E+00
         0.00000E+00
         0.00000E+00
         0.00000E+00
         0.00000E+00
         0.00000E+00
         0.00000E+00
         0.00000E+00
         0.00000E+00
         0.00000E+00
         0.00000E+00
         0.00000E+00
         0.00000E+00
         0.00000E+00
         0.00000E+00
         0.00000E+00
         0.00000E+00
         0.00000E+00
         0.00000E+00
         0.00000E+00
         0.00000E+00
         0.00000E+00
         0.00000E+00
         0.00000E+00
         0.00000E+00
         0.00000E+00
         0.00000E+00
         0.00000E+00
         0.00000E+00
         0.00000E+00
         0.00000E+00
         0.00000E+00
         0.00000E+00
         0.00000E+00
         0.00000E+00
         0.00000E+00
         0.00000E+00
         0.00000E+00
         0.00000E+00
         0.00000E+00
         0.00000E+00
         0.00000E+00
         0.00000E+00
         0.00000E+00
         0.00000E+00
         0.00000E+00
         0.00000E+00
         0.00000E+00
         0.00000E+00
         0.00000E+00
         0.00000E+00
         0.00000E+00
         0.00000E+00
         0.00000E+00
         0.00000E+00
         0.00000E+00
         0.00000E+00
         0.00000E+00
         0.00000E+00
         0.00000E+00
         0.00000E+00
         0.00000E+00
         0.00000E+00
         0.00000E+00
         0.00000E+00
         0.00000E+00
         0.00000E+00
         0.00000E+00
         0.00000E+00
         0.00000E+00
         0.00000E+00
         0.00000E+00
         0.00000E+00
         0.00000E+00
         0.00000E+00
         0.00000E+00
         0.00000E+00
         0.00000E+00
         0.00000E+00
         0.00000E+00
         0.00000E+00
         0.00000E+00
         0.00000E+00
         0.00000E+00
         0.00000E+00
         0.00000E+00
         0.00000E+00
         0.00000E+00
         0.00000E+00
         0.00000E+00
         0.00000E+00
         0.00000E+00
         0.00000E+00
         0.00000E+00
         0.00000E+00
         0.00000E+00
         0.00000E+00
         0.00000E+00
         0.00000E+00
         0.00000E+00
         0.00000E+00
         0.00000E+00
         0.00000E+00
         0.00000E+00
         0.00000E+00
         0.00000E+00
         0.00000E+00
         0.00000E+00
         0.00000E+00
         0.00000E+00
         0.00000E+00
         0.00000E+00
         0.00000E+00
         0.00000E+00
         0.00000E+00
         0.00000E+00
         0.00000E+00
         0.00000E+00
         0.00000E+00
         0.00000E+00
         0.00000E+00
         0.00000E+00
         0.00000E+00
         0.00000E+00
         0.00000E+00
         0.00000E+00
         0.00000E+00
         0.00000E+00
         0.00000E+00
         0.00000E+00
         0.00000E+00
         0.00000E+00
         0.00000E+00
         0.00000E+00
         0.00000E+00
         0.00000E+00
         0.00000E+00
         0.00000E+00
         0.00000E+00
         0.00000E+00
         0.00000E+00
         0.00000E+00
         0.00000E+00
         0.00000E+00
         0.00000E+00
         0.00000E+00
         0.00000E+00
         0.00000E+00
         0.00000E+00
         0.00000E+00
         0.00000E+00
         0.00000E+00
         0.00000E+00
         0.00000E+00
         0.00000E+00
         0.00000E+00
         0.00000E+00
         0.00000E+00
         0.00000E+00
         0.00000E+00
         0.00000E+00
         0.00000E+00
         0.00000E+00
         0.00000E+00
         0.00000E+00
         0.00000E+00
         0.00000E+00
         0.00000E+00
         0.00000E+00
         0.00000E+00
         0.00000E+00
         0.00000E+00
         0.00000E+00
         0.00000E+00
         0.00000E+00
         0.00000E+00
         0.00000E+00
         0.00000E+00
         0.00000E+00
         0.00000E+00
         0.00000E+00
         0.00000E+00
         0.00000E+00
         0.00000E+00
         0.00000E+00
         0.00000E+00
         0.00000E+00
         0.00000E+00
         0.00000E+00
         0.00000E+00
         0.00000E+00
         0.00000E+00
         0.00000E+00
         0.00000E+00
         0.00000E+00
         0.00000E+00
         0.00000E+00
         0.00000E+00
         0.00000E+00
         0.00000E+00
         0.00000E+00
         0.00000E+00
         0.00000E+00
         0.00000E+00
         0.00000E+00
         0.00000E+00
         0.00000E+00
         0.00000E+00
         0.00000E+00
         0.00000E+00
         0.00000E+00
         0.00000E+00
         0.00000E+00
         0.00000E+00
         0.00000E+00
         0.00000E+00
         0.00000E+00
         0.00000E+00
         0.00000E+00
         0.00000E+00
         0.00000E+00
         0.00000E+00
         0.00000E+00
         0.00000E+00
         0.00000E+00
         0.00000E+00
         0.00000E+00
         0.00000E+00
         0.00000E+00
         0.00000E+00
         0.00000E+00
         0.00000E+00
         0.00000E+00
         0.00000E+00
         0.00000E+00
         0.00000E+00
         0.00000E+00
         0.00000E+00
         0.00000E+00
         0.00000E+00
         0.00000E+00
         0.00000E+00
         0.00000E+00
         0.00000E+00
         0.00000E+00
         0.00000E+00
         0.00000E+00
         0.00000E+00
         0.00000E+00
         0.00000E+00
         0.00000E+00
         0.00000E+00
         0.00000E+00
         0.00000E+00
         0.00000E+00
         0.00000E+00
         0.00000E+00
         0.00000E+00
         0.00000E+00
         0.00000E+00
         0.00000E+00
         0.00000E+00
         0.00000E+00
         0.00000E+00
         0.00000E+00
         0.00000E+00
         0.00000E+00
         0.00000E+00
         0.00000E+00
         0.00000E+00
         0.00000E+00
         0.00000E+00
         0.00000E+00
         0.00000E+00
         0.00000E+00
         0.00000E+00
         0.00000E+00
         0.00000E+00
         0.00000E+00
         0.00000E+00
         0.00000E+00
         0.00000E+00
         0.00000E+00
         0.00000E+00
         0.00000E+00
         0.00000E+00
         0.00000E+00
         0.00000E+00
         0.00000E+00
         0.00000E+00
         0.00000E+00
         0.00000E+00
         0.00000E+00
         0.00000E+00
         0.00000E+00
         0.00000E+00
         0.00000E+00
         0.00000E+00
         0.00000E+00
         0.00000E+00
         0.00000E+00
         0.00000E+00
         0.00000E+00
         0.00000E+00
         0.00000E+00
         0.00000E+00
         0.00000E+00
         0.00000E+00
         0.00000E+00
         0.00000E+00
         0.00000E+00
         0.00000E+00
         0.00000E+00
         0.00000E+00
         0.00000E+00
         0.00000E+00
         0.00000E+00
         0.00000E+00
         0.00000E+00
         0.00000E+00
         0.00000E+00
         0.00000E+00
         0.00000E+00
         0.00000E+00
         0.00000E+00
         0.00000E+00
         0.00000E+00
         0.00000E+00
         0.00000E+00
         0.00000E+00
         0.00000E+00
         0.00000E+00
         0.00000E+00
         0.00000E+00
         0.00000E+00
         0.00000E+00
         0.00000E+00
         0.00000E+00
         0.00000E+00
         0.00000E+00
         0.00000E+00
         0.00000E+00
         0.00000E+00
         0.00000E+00
         0.00000E+00
         0.00000E+00
         0.00000E+00
         0.00000E+00
         0.00000E+00
         0.00000E+00
         0.00000E+00
         0.00000E+00
         0.00000E+00
         0.00000E+00
         0.00000E+00
         0.00000E+00
         0.00000E+00
         0.00000E+00
         0.00000E+00
         0.00000E+00
         0.00000E+00
         0.00000E+00
         0.00000E+00
         0.00000E+00
         0.00000E+00
         0.00000E+00
         0.00000E+00
         0.00000E+00
         0.00000E+00
         0.00000E+00
         0.00000E+00
         0.00000E+00
         0.00000E+00
         0.00000E+00
         0.00000E+00
         0.00000E+00
         0.00000E+00
         0.00000E+00
         0.00000E+00
         0.00000E+00
         0.00000E+00
         0.00000E+00
         0.00000E+00
         0.00000E+00
         0.00000E+00
         0.00000E+00
         0.00000E+00
         0.00000E+00
         0.00000E+00
         0.00000E+00
         0.00000E+00
         0.00000E+00
         0.00000E+00
         0.00000E+00
         0.00000E+00
         0.00000E+00
         0.00000E+00
         0.00000E+00
         0.00000E+00
         0.00000E+00
         0.00000E+00
         0.00000E+00
         0.00000E+00
         0.00000E+00
         0.00000E+00
         0.00000E+00
         0.00000E+00
         0.00000E+00
         0.00000E+00
         0.00000E+00
         0.00000E+00
         0.00000E+00
         0.00000E+00
         0.00000E+00
         0.00000E+00
         0.00000E+00
         0.00000E+00
         0.00000E+00
         0.00000E+00
         0.00000E+00
         0.00000E+00
         0.00000E+00
         0.00000E+00
         0.00000E+00
         0.00000E+00
         0.00000E+00
         0.00000E+00
         0.00000E+00
         0.00000E+00
         0.00000E+00
         0.00000E+00
         0.00000E+00
         0.00000E+00
         0.00000E+00
         0.00000E+00
         0.00000E+00
         0.00000E+00
         0.00000E+00
         0.00000E+00
         0.00000E+00
         0.00000E+00
         0.00000E+00
         0.00000E+00
         0.00000E+00
         0.00000E+00
         0.00000E+00
         0.00000E+00
         0.00000E+00
         0.00000E+00
         0.00000E+00
         0.00000E+00
         0.00000E+00
         0.00000E+00
         0.00000E+00
         0.00000E+00
         0.00000E+00
         0.00000E+00
         0.00000E+00
         0.00000E+00
         0.00000E+00
         0.00000E+00
         0.00000E+00
         0.00000E+00
         0.00000E+00
         0.00000E+00
         0.00000E+00
         0.00000E+00
         0.00000E+00
         0.00000E+00
         0.00000E+00
         0.00000E+00
         0.00000E+00
         0.00000E+00
         0.00000E+00
         0.00000E+00
         0.00000E+00
         0.00000E+00
         0.00000E+00
         0.00000E+00
         0.00000E+00
         0.00000E+00
         0.00000E+00
         0.00000E+00
         0.00000E+00
         0.00000E+00
         0.00000E+00
         0.00000E+00
         0.00000E+00
         0.00000E+00
         0.00000E+00
         0.00000E+00
         0.00000E+00
         0.00000E+00
         0.00000E+00
         0.00000E+00
         0.00000E+00
         0.00000E+00
         0.00000E+00
         0.00000E+00
         0.00000E+00
         0.00000E+00
         0.00000E+00
         0.00000E+00
         0.00000E+00
         0.00000E+00
         0.00000E+00
         0.00000E+00
         0.00000E+00
         0.00000E+00
         0.00000E+00
         0.00000E+00
         0.00000E+00
         0.00000E+00
         0.00000E+00
         0.00000E+00
         0.00000E+00
         0.00000E+00
         0.00000E+00
         0.00000E+00
         0.00000E+00
         0.00000E+00
         0.00000E+00
         0.00000E+00
         0.00000E+00
         0.00000E+00
         0.00000E+00
         0.00000E+00
         0.00000E+00
         0.00000E+00
         0.00000E+00
         0.00000E+00
         0.00000E+00
         0.00000E+00
         0.00000E+00
         0.00000E+00
         0.00000E+00
         0.00000E+00
         0.00000E+00
         0.00000E+00
         0.00000E+00
         0.00000E+00
         0.00000E+00
         0.00000E+00
         0.00000E+00
         0.00000E+00
         0.00000E+00
         0.00000E+00
         0.00000E+00
         0.00000E+00
         0.00000E+00
         0.00000E+00
         0.00000E+00
         0.00000E+00
         0.00000E+00
         0.00000E+00
         0.00000E+00
         0.00000E+00
         0.00000E+00
         0.00000E+00
         0.00000E+00
         0.00000E+00
         0.00000E+00
         0.00000E+00
         0.00000E+00
         0.00000E+00
         0.00000E+00
         0.00000E+00
         0.00000E+00
         0.00000E+00
         0.00000E+00
         0.00000E+00
         0.00000E+00
         0.00000E+00
         0.00000E+00
         0.00000E+00
         0.00000E+00
         0.00000E+00
         0.00000E+00
         0.00000E+00
         0.00000E+00
         0.00000E+00
         0.00000E+00
         0.00000E+00
         0.00000E+00
         0.00000E+00
         0.00000E+00
         0.00000E+00
         0.00000E+00
         0.00000E+00
         0.00000E+00
         0.00000E+00
         0.00000E+00
         0.00000E+00
         0.00000E+00
         0.00000E+00
         0.00000E+00
         0.00000E+00
         0.00000E+00
         0.00000E+00
         0.00000E+00
         0.00000E+00
         0.00000E+00
         0.00000E+00
         0.00000E+00
         0.00000E+00
         0.00000E+00
         0.00000E+00
         0.00000E+00
         0.00000E+00
         0.00000E+00
         0.00000E+00
         0.00000E+00
         0.00000E+00
         0.00000E+00
         0.00000E+00
         0.00000E+00
         0.00000E+00
         0.00000E+00
         0.00000E+00
         0.00000E+00
         0.00000E+00
         0.00000E+00
         0.00000E+00
         0.00000E+00
         0.00000E+00
         0.00000E+00
         0.00000E+00
         0.00000E+00
         0.00000E+00
         0.00000E+00
         0.00000E+00
         0.00000E+00
         0.00000E+00
         0.00000E+00
         0.00000E+00
         0.00000E+00
         0.00000E+00
         0.00000E+00
         0.00000E+00
         0.00000E+00
         0.00000E+00
         0.00000E+00
         0.00000E+00
         0.00000E+00
         0.00000E+00
         0.00000E+00
         0.00000E+00
         0.00000E+00
         0.00000E+00
         0.00000E+00
         0.00000E+00
         0.00000E+00
         0.00000E+00
         0.00000E+00
         0.00000E+00
         0.00000E+00
         0.00000E+00
         0.00000E+00
         0.00000E+00
         0.00000E+00
         0.00000E+00
         0.00000E+00
         0.00000E+00
         0.00000E+00
         0.00000E+00
         0.00000E+00
         0.00000E+00
         0.00000E+00
         0.00000E+00
         0.00000E+00
         0.00000E+00
         0.00000E+00
         0.00000E+00
         0.00000E+00
         0.00000E+00
         0.00000E+00
         0.00000E+00
         0.00000E+00
         0.00000E+00
         0.00000E+00
         0.00000E+00
         0.00000E+00
         0.00000E+00
         0.00000E+00
         0.00000E+00
         0.00000E+00
         0.00000E+00
         0.00000E+00
         0.00000E+00
         0.00000E+00
         0.00000E+00
         0.00000E+00
         0.00000E+00
         0.00000E+00
         0.00000E+00
         0.00000E+00
         0.00000E+00
         0.00000E+00
         0.00000E+00
         0.00000E+00
         0.00000E+00
         0.00000E+00
         0.00000E+00
         0.00000E+00
         0.00000E+00
         0.00000E+00
         0.00000E+00
         0.00000E+00
         0.00000E+00
         0.00000E+00
         0.00000E+00
         0.00000E+00
         0.00000E+00
         0.00000E+00
         0.00000E+00
         0.00000E+00
         0.00000E+00
         0.00000E+00
         0.00000E+00
         0.00000E+00
         0.00000E+00
         0.00000E+00
         0.00000E+00
         0.00000E+00
         0.00000E+00
         0.00000E+00
         0.00000E+00
         0.00000E+00
         0.00000E+00
         0.00000E+00
         0.00000E+00
         0.00000E+00
         0.00000E+00
         0.00000E+00
         0.00000E+00
         0.00000E+00
         0.00000E+00
         0.00000E+00
         0.00000E+00
         0.00000E+00
         0.00000E+00
         0.00000E+00
         0.00000E+00
         0.00000E+00
         0.00000E+00
         0.00000E+00
         0.00000E+00
         0.00000E+00
         0.00000E+00
         0.00000E+00
         0.00000E+00
         0.00000E+00
         0.00000E+00
         0.00000E+00
         0.00000E+00
         0.00000E+00
         0.00000E+00
         0.00000E+00
         0.00000E+00
         0.00000E+00
         0.00000E+00
         0.00000E+00
         0.00000E+00
         0.00000E+00
         0.00000E+00
         0.00000E+00
         0.00000E+00
         0.00000E+00
         0.00000E+00
         0.00000E+00
         0.00000E+00
         0.00000E+00
         0.00000E+00
         0.00000E+00
         0.00000E+00
         0.00000E+00
         0.00000E+00
         0.00000E+00
         0.00000E+00
         0.00000E+00
         0.00000E+00
         0.00000E+00
         0.00000E+00
         0.00000E+00
         0.00000E+00
         0.00000E+00
         0.00000E+00
         0.00000E+00
         0.00000E+00
         0.00000E+00
         0.00000E+00
         0.00000E+00
         0.00000E+00
         0.00000E+00
         0.00000E+00
         0.00000E+00
         0.00000E+00
         0.00000E+00
         0.00000E+00
         0.00000E+00
         0.00000E+00
         0.00000E+00
         0.00000E+00
         0.00000E+00
         0.00000E+00
         0.00000E+00
         0.00000E+00
         0.00000E+00
         0.00000E+00
         0.00000E+00
         0.00000E+00
         0.00000E+00
         0.00000E+00
         0.00000E+00
         0.00000E+00
         0.00000E+00
         0.00000E+00
         0.00000E+00
         0.00000E+00
         0.00000E+00
         0.00000E+00
         0.00000E+00
         0.00000E+00
         0.00000E+00
         0.00000E+00
         0.00000E+00
         0.00000E+00
         0.00000E+00
         0.00000E+00
         0.00000E+00
         0.00000E+00
         0.00000E+00
         0.00000E+00
         0.00000E+00
         0.00000E+00
         0.00000E+00
         0.00000E+00
         0.00000E+00
         0.00000E+00
         0.00000E+00
         0.00000E+00
         0.00000E+00
         0.00000E+00
         0.00000E+00
         0.00000E+00
         0.00000E+00
         0.00000E+00
         0.00000E+00
         0.00000E+00
         0.00000E+00
         0.00000E+00
         0.00000E+00
         0.00000E+00
         0.00000E+00
         0.00000E+00
         0.00000E+00
         0.00000E+00
         0.00000E+00
         0.00000E+00
         0.00000E+00
         0.00000E+00
         0.00000E+00
         0.00000E+00
         0.00000E+00
         0.00000E+00
         0.00000E+00
         0.00000E+00
         0.00000E+00
         0.00000E+00
         0.00000E+00
         0.00000E+00
         0.00000E+00
         0.00000E+00
         0.00000E+00
         0.00000E+00
         0.00000E+00
         0.00000E+00
         0.00000E+00
         0.00000E+00
         0.00000E+00
         0.00000E+00
         0.00000E+00
         0.00000E+00
         0.00000E+00
         0.00000E+00
         0.00000E+00
         0.00000E+00
         0.00000E+00
         0.00000E+00
         0.00000E+00
         0.00000E+00
         0.00000E+00
         0.00000E+00
         0.00000E+00
         0.00000E+00
         0.00000E+00
         0.00000E+00
         0.00000E+00
         0.00000E+00
         0.00000E+00
         0.00000E+00
         0.00000E+00
         0.00000E+00
         0.00000E+00
         0.00000E+00
         0.00000E+00
         0.00000E+00
         0.00000E+00
         0.00000E+00
         0.00000E+00
         0.00000E+00
         0.00000E+00
         0.00000E+00
         0.00000E+00
         0.00000E+00
         0.00000E+00
         0.00000E+00
         0.00000E+00
         0.00000E+00
         0.00000E+00
         0.00000E+00
         0.00000E+00
         0.00000E+00
         0.00000E+00
         0.00000E+00
         0.00000E+00
         0.00000E+00
         0.00000E+00
         0.00000E+00
         0.00000E+00
         0.00000E+00
         0.00000E+00
         0.00000E+00
         0.00000E+00
         0.00000E+00
         0.00000E+00
         0.00000E+00
         0.00000E+00
         0.00000E+00
         0.00000E+00
         0.00000E+00
         0.00000E+00
         0.00000E+00
         0.00000E+00
         0.00000E+00
         0.00000E+00
         0.00000E+00
         0.00000E+00
         0.00000E+00
         0.00000E+00
         0.00000E+00
         0.00000E+00
         0.00000E+00
         0.00000E+00
         0.00000E+00
         0.00000E+00
         0.00000E+00
         0.00000E+00
         0.00000E+00
         0.00000E+00
         0.00000E+00
         0.00000E+00
         0.00000E+00
         0.00000E+00
         0.00000E+00
         0.00000E+00
         0.00000E+00
         0.00000E+00
         0.00000E+00
         0.00000E+00
         0.00000E+00
         0.00000E+00
         0.00000E+00
         0.00000E+00
         0.00000E+00
         0.00000E+00
         0.00000E+00
         0.00000E+00
         0.00000E+00
         0.00000E+00
         0.00000E+00
         0.00000E+00
         0.00000E+00
         0.00000E+00
         0.00000E+00
         0.00000E+00
         0.00000E+00
         0.00000E+00
         0.00000E+00
         0.00000E+00
         0.00000E+00
         0.00000E+00
         0.00000E+00
         0.00000E+00
         0.00000E+00
         0.00000E+00
         0.00000E+00
         0.00000E+00
         0.00000E+00
         0.00000E+00
         0.00000E+00
         0.00000E+00
         0.00000E+00
         0.00000E+00
         0.00000E+00
         0.00000E+00
         0.00000E+00
         0.00000E+00
         0.00000E+00
         0.00000E+00
         0.00000E+00
         0.00000E+00
         0.00000E+00
         0.00000E+00
         0.00000E+00
         0.00000E+00
         0.00000E+00
         0.00000E+00
         0.00000E+00
         0.00000E+00
         0.00000E+00
         0.00000E+00
         0.00000E+00
         0.00000E+00
         0.00000E+00
         0.00000E+00
         0.00000E+00
         0.00000E+00
         0.00000E+00
         0.00000E+00
         0.00000E+00
         0.00000E+00
         0.00000E+00
         0.00000E+00
         0.00000E+00
         0.00000E+00
         0.00000E+00
         0.00000E+00
         0.00000E+00
         0.00000E+00
         0.00000E+00
         0.00000E+00
         0.00000E+00
         0.00000E+00
         0.00000E+00
         0.00000E+00
         0.00000E+00
         0.00000E+00
         0.00000E+00
         0.00000E+00
         0.00000E+00
         0.00000E+00
         0.00000E+00
         0.00000E+00
         0.00000E+00
         0.00000E+00
         0.00000E+00
         0.00000E+00
         0.00000E+00
         0.00000E+00
         0.00000E+00
         0.00000E+00
         0.00000E+00
         0.00000E+00
         0.00000E+00
         0.00000E+00
         0.00000E+00
         0.00000E+00
         0.00000E+00
         0.00000E+00
         0.00000E+00
         0.00000E+00
         0.00000E+00
         0.00000E+00
         0.00000E+00
         0.00000E+00
         0.00000E+00
         0.00000E+00
         0.00000E+00
         0.00000E+00
         0.00000E+00
         0.00000E+00
         0.00000E+00
         0.00000E+00
         0.00000E+00
         0.00000E+00
         0.00000E+00
         0.00000E+00
         0.00000E+00
         0.00000E+00
         0.00000E+00
         0.00000E+00
         0.00000E+00
         0.00000E+00
         0.00000E+00
         0.00000E+00
         0.00000E+00
         0.00000E+00
         0.00000E+00
         0.00000E+00
         0.00000E+00
         0.00000E+00
         0.00000E+00
         0.00000E+00
         0.00000E+00
         0.00000E+00
         0.00000E+00
         0.00000E+00
         0.00000E+00
         0.00000E+00
         0.00000E+00
         0.00000E+00
         0.00000E+00
         0.00000E+00
         0.00000E+00
         0.00000E+00
         0.00000E+00
         0.00000E+00
         0.00000E+00
         0.00000E+00
         0.00000E+00
         0.00000E+00
         0.00000E+00
         0.00000E+00
         0.00000E+00
         0.00000E+00
         0.00000E+00
         0.00000E+00
         0.00000E+00
         0.00000E+00
         0.00000E+00
         0.00000E+00
         0.00000E+00
         0.00000E+00
         0.00000E+00
         0.00000E+00
         0.00000E+00
         0.00000E+00
         0.00000E+00
         0.00000E+00
         0.00000E+00
         0.00000E+00
         0.00000E+00
         0.00000E+00
         0.00000E+00
         0.00000E+00
         0.00000E+00
         0.00000E+00
         0.00000E+00
         0.00000E+00
         0.00000E+00
         0.00000E+00
         0.00000E+00
         0.00000E+00
         0.00000E+00
         0.00000E+00
         0.00000E+00
         0.00000E+00
         0.00000E+00
         0.00000E+00
         0.00000E+00
         0.00000E+00
         0.00000E+00
         0.00000E+00
         0.00000E+00
         0.00000E+00
         0.00000E+00
         0.00000E+00
         0.00000E+00
         0.00000E+00
         0.00000E+00
         0.00000E+00
         0.00000E+00
         0.00000E+00
         0.00000E+00
         0.00000E+00
         0.00000E+00
         0.00000E+00
         0.00000E+00
         0.00000E+00
         0.00000E+00
         0.00000E+00
         0.00000E+00
         0.00000E+00
         0.00000E+00
         0.00000E+00
         0.00000E+00
         0.00000E+00
         0.00000E+00
         0.00000E+00
  
SCALARS               pre_disp_force_y  double 1
LOOKUP_TABLE default
         0.00000E+00
         0.00000E+00
         0.00000E+00
         0.00000E+00
         0.00000E+00
         0.00000E+00
         0.00000E+00
         0.00000E+00
         0.00000E+00
         0.00000E+00
         0.00000E+00
         0.00000E+00
         0.00000E+00
         0.00000E+00
         0.00000E+00
         0.00000E+00
         0.00000E+00
         0.00000E+00
         0.00000E+00
         0.00000E+00
         0.00000E+00
         0.00000E+00
         0.00000E+00
         0.00000E+00
         0.00000E+00
         0.00000E+00
         0.00000E+00
         0.00000E+00
         0.00000E+00
         0.00000E+00
         0.00000E+00
         0.00000E+00
         0.00000E+00
         0.00000E+00
         0.00000E+00
         0.00000E+00
         0.00000E+00
         0.00000E+00
         0.00000E+00
         0.00000E+00
         0.00000E+00
         0.00000E+00
         0.00000E+00
         0.00000E+00
         0.00000E+00
         0.00000E+00
         0.00000E+00
         0.00000E+00
         0.00000E+00
         0.00000E+00
         0.00000E+00
         0.00000E+00
         0.00000E+00
         0.00000E+00
         0.00000E+00
         0.00000E+00
         0.00000E+00
         0.00000E+00
         0.00000E+00
         0.00000E+00
         0.00000E+00
         0.00000E+00
         0.00000E+00
         0.00000E+00
         0.00000E+00
         0.00000E+00
         0.00000E+00
         0.00000E+00
         0.00000E+00
         0.00000E+00
         0.00000E+00
         0.00000E+00
         0.00000E+00
         0.00000E+00
         0.00000E+00
         0.00000E+00
         0.00000E+00
         0.00000E+00
         0.00000E+00
         0.00000E+00
         0.00000E+00
         0.00000E+00
         0.00000E+00
         0.00000E+00
         0.00000E+00
         0.00000E+00
         0.00000E+00
         0.00000E+00
         0.00000E+00
         0.00000E+00
         0.00000E+00
         0.00000E+00
         0.00000E+00
         0.00000E+00
         0.00000E+00
         0.00000E+00
         0.00000E+00
         0.00000E+00
         0.00000E+00
         0.00000E+00
         0.00000E+00
         0.00000E+00
         0.00000E+00
         0.00000E+00
         0.00000E+00
         0.00000E+00
         0.00000E+00
         0.00000E+00
         0.00000E+00
         0.00000E+00
         0.00000E+00
         0.00000E+00
         0.00000E+00
         0.00000E+00
         0.00000E+00
         0.00000E+00
         0.00000E+00
         0.00000E+00
         0.00000E+00
         0.00000E+00
         0.00000E+00
         0.00000E+00
         0.00000E+00
         0.00000E+00
         0.00000E+00
         0.00000E+00
         0.00000E+00
         0.00000E+00
         0.00000E+00
         0.00000E+00
         0.00000E+00
         0.00000E+00
         0.00000E+00
         0.00000E+00
         0.00000E+00
         0.00000E+00
         0.00000E+00
         0.00000E+00
         0.00000E+00
         0.00000E+00
         0.00000E+00
         0.00000E+00
         0.00000E+00
         0.00000E+00
         0.00000E+00
         0.00000E+00
         0.00000E+00
         0.00000E+00
         0.00000E+00
         0.00000E+00
         0.00000E+00
         0.00000E+00
         0.00000E+00
         0.00000E+00
         0.00000E+00
         0.00000E+00
         0.00000E+00
         0.00000E+00
         0.00000E+00
         0.00000E+00
         0.00000E+00
         0.00000E+00
         0.00000E+00
         0.00000E+00
         0.00000E+00
         0.00000E+00
         0.00000E+00
         0.00000E+00
         0.00000E+00
         0.00000E+00
         0.00000E+00
         0.00000E+00
         0.00000E+00
         0.00000E+00
         0.00000E+00
         0.00000E+00
         0.00000E+00
         0.00000E+00
         0.00000E+00
         0.00000E+00
         0.00000E+00
         0.00000E+00
         0.00000E+00
         0.00000E+00
         0.00000E+00
         0.00000E+00
         0.00000E+00
         0.00000E+00
         0.00000E+00
         0.00000E+00
         0.00000E+00
         0.00000E+00
         0.00000E+00
         0.00000E+00
         0.00000E+00
         0.00000E+00
         0.00000E+00
         0.00000E+00
         0.00000E+00
         0.00000E+00
         0.00000E+00
         0.00000E+00
         0.00000E+00
         0.00000E+00
         0.00000E+00
         0.00000E+00
         0.00000E+00
         0.00000E+00
         0.00000E+00
         0.00000E+00
         0.00000E+00
         0.00000E+00
         0.00000E+00
         0.00000E+00
         0.00000E+00
         0.00000E+00
         0.00000E+00
         0.00000E+00
         0.00000E+00
         0.00000E+00
         0.00000E+00
         0.00000E+00
         0.00000E+00
         0.00000E+00
         0.00000E+00
         0.00000E+00
         0.00000E+00
         0.00000E+00
         0.00000E+00
         0.00000E+00
         0.00000E+00
         0.00000E+00
         0.00000E+00
         0.00000E+00
         0.00000E+00
         0.00000E+00
         0.00000E+00
         0.00000E+00
         0.00000E+00
         0.00000E+00
         0.00000E+00
         0.00000E+00
         0.00000E+00
         0.00000E+00
         0.00000E+00
         0.00000E+00
         0.00000E+00
         0.00000E+00
         0.00000E+00
         0.00000E+00
         0.00000E+00
         0.00000E+00
         0.00000E+00
         0.00000E+00
         0.00000E+00
         0.00000E+00
         0.00000E+00
         0.00000E+00
         0.00000E+00
         0.00000E+00
         0.00000E+00
         0.00000E+00
         0.00000E+00
         0.00000E+00
         0.00000E+00
         0.00000E+00
         0.00000E+00
         0.00000E+00
         0.00000E+00
         0.00000E+00
         0.00000E+00
         0.00000E+00
         0.00000E+00
         0.00000E+00
         0.00000E+00
         0.00000E+00
         0.00000E+00
         0.00000E+00
         0.00000E+00
         0.00000E+00
         0.00000E+00
         0.00000E+00
         0.00000E+00
         0.00000E+00
         0.00000E+00
         0.00000E+00
         0.00000E+00
         0.00000E+00
         0.00000E+00
         0.00000E+00
         0.00000E+00
         0.00000E+00
         0.00000E+00
         0.00000E+00
         0.00000E+00
         0.00000E+00
         0.00000E+00
         0.00000E+00
         0.00000E+00
         0.00000E+00
         0.00000E+00
         0.00000E+00
         0.00000E+00
         0.00000E+00
         0.00000E+00
         0.00000E+00
         0.00000E+00
         0.00000E+00
         0.00000E+00
         0.00000E+00
         0.00000E+00
         0.00000E+00
         0.00000E+00
         0.00000E+00
         0.00000E+00
         0.00000E+00
         0.00000E+00
         0.00000E+00
         0.00000E+00
         0.00000E+00
         0.00000E+00
         0.00000E+00
         0.00000E+00
         0.00000E+00
         0.00000E+00
         0.00000E+00
         0.00000E+00
         0.00000E+00
         0.00000E+00
         0.00000E+00
         0.00000E+00
         0.00000E+00
         0.00000E+00
         0.00000E+00
         0.00000E+00
         0.00000E+00
         0.00000E+00
         0.00000E+00
         0.00000E+00
         0.00000E+00
         0.00000E+00
         0.00000E+00
         0.00000E+00
         0.00000E+00
         0.00000E+00
         0.00000E+00
         0.00000E+00
         0.00000E+00
         0.00000E+00
         0.00000E+00
         0.00000E+00
         0.00000E+00
         0.00000E+00
         0.00000E+00
         0.00000E+00
         0.00000E+00
         0.00000E+00
         0.00000E+00
         0.00000E+00
         0.00000E+00
         0.00000E+00
         0.00000E+00
         0.00000E+00
         0.00000E+00
         0.00000E+00
         0.00000E+00
         0.00000E+00
         0.00000E+00
         0.00000E+00
         0.00000E+00
         0.00000E+00
         0.00000E+00
         0.00000E+00
         0.00000E+00
         0.00000E+00
         0.00000E+00
         0.00000E+00
         0.00000E+00
         0.00000E+00
         0.00000E+00
         0.00000E+00
         0.00000E+00
         0.00000E+00
         0.00000E+00
         0.00000E+00
         0.00000E+00
         0.00000E+00
         0.00000E+00
         0.00000E+00
         0.00000E+00
         0.00000E+00
         0.00000E+00
         0.00000E+00
         0.00000E+00
         0.00000E+00
         0.00000E+00
         0.00000E+00
         0.00000E+00
         0.00000E+00
         0.00000E+00
         0.00000E+00
         0.00000E+00
         0.00000E+00
         0.00000E+00
         0.00000E+00
         0.00000E+00
         0.00000E+00
         0.00000E+00
         0.00000E+00
         0.00000E+00
         0.00000E+00
         0.00000E+00
         0.00000E+00
         0.00000E+00
         0.00000E+00
         0.00000E+00
         0.00000E+00
         0.00000E+00
         0.00000E+00
         0.00000E+00
         0.00000E+00
         0.00000E+00
         0.00000E+00
         0.00000E+00
         0.00000E+00
         0.00000E+00
         0.00000E+00
         0.00000E+00
         0.00000E+00
         0.00000E+00
         0.00000E+00
         0.00000E+00
         0.00000E+00
         0.00000E+00
         0.00000E+00
         0.00000E+00
         0.00000E+00
         0.00000E+00
         0.00000E+00
         0.00000E+00
         0.00000E+00
         0.00000E+00
         0.00000E+00
         0.00000E+00
         0.00000E+00
         0.00000E+00
         0.00000E+00
         0.00000E+00
         0.00000E+00
         0.00000E+00
         0.00000E+00
         0.00000E+00
         0.00000E+00
         0.00000E+00
         0.00000E+00
         0.00000E+00
         0.00000E+00
         0.00000E+00
         0.00000E+00
         0.00000E+00
         0.00000E+00
         0.00000E+00
         0.00000E+00
         0.00000E+00
         0.00000E+00
         0.00000E+00
         0.00000E+00
         0.00000E+00
         0.00000E+00
         0.00000E+00
         0.00000E+00
         0.00000E+00
         0.00000E+00
         0.00000E+00
         0.00000E+00
         0.00000E+00
         0.00000E+00
         0.00000E+00
         0.00000E+00
         0.00000E+00
         0.00000E+00
         0.00000E+00
         0.00000E+00
         0.00000E+00
         0.00000E+00
         0.00000E+00
         0.00000E+00
         0.00000E+00
         0.00000E+00
         0.00000E+00
         0.00000E+00
         0.00000E+00
         0.00000E+00
         0.00000E+00
         0.00000E+00
         0.00000E+00
         0.00000E+00
         0.00000E+00
         0.00000E+00
         0.00000E+00
         0.00000E+00
         0.00000E+00
         0.00000E+00
         0.00000E+00
         0.00000E+00
         0.00000E+00
         0.00000E+00
         0.00000E+00
         0.00000E+00
         0.00000E+00
         0.00000E+00
         0.00000E+00
         0.00000E+00
         0.00000E+00
         0.00000E+00
         0.00000E+00
         0.00000E+00
         0.00000E+00
         0.00000E+00
         0.00000E+00
         0.00000E+00
         0.00000E+00
         0.00000E+00
         0.00000E+00
         0.00000E+00
         0.00000E+00
         0.00000E+00
         0.00000E+00
         0.00000E+00
         0.00000E+00
         0.00000E+00
         0.00000E+00
         0.00000E+00
         0.00000E+00
         0.00000E+00
         0.00000E+00
         0.00000E+00
         0.00000E+00
         0.00000E+00
         0.00000E+00
         0.00000E+00
         0.00000E+00
         0.00000E+00
         0.00000E+00
         0.00000E+00
         0.00000E+00
         0.00000E+00
         0.00000E+00
         0.00000E+00
         0.00000E+00
         0.00000E+00
         0.00000E+00
         0.00000E+00
         0.00000E+00
         0.00000E+00
         0.00000E+00
         0.00000E+00
         0.00000E+00
         0.00000E+00
         0.00000E+00
         0.00000E+00
         0.00000E+00
         0.00000E+00
         0.00000E+00
         0.00000E+00
         0.00000E+00
         0.00000E+00
         0.00000E+00
         0.00000E+00
         0.00000E+00
         0.00000E+00
         0.00000E+00
         0.00000E+00
         0.00000E+00
         0.00000E+00
         0.00000E+00
         0.00000E+00
         0.00000E+00
         0.00000E+00
         0.00000E+00
         0.00000E+00
         0.00000E+00
         0.00000E+00
         0.00000E+00
         0.00000E+00
         0.00000E+00
         0.00000E+00
         0.00000E+00
         0.00000E+00
         0.00000E+00
         0.00000E+00
         0.00000E+00
         0.00000E+00
         0.00000E+00
         0.00000E+00
         0.00000E+00
         0.00000E+00
         0.00000E+00
         0.00000E+00
         0.00000E+00
         0.00000E+00
         0.00000E+00
         0.00000E+00
         0.00000E+00
         0.00000E+00
         0.00000E+00
         0.00000E+00
         0.00000E+00
         0.00000E+00
         0.00000E+00
         0.00000E+00
         0.00000E+00
         0.00000E+00
         0.00000E+00
         0.00000E+00
         0.00000E+00
         0.00000E+00
         0.00000E+00
         0.00000E+00
         0.00000E+00
         0.00000E+00
         0.00000E+00
         0.00000E+00
         0.00000E+00
         0.00000E+00
         0.00000E+00
         0.00000E+00
         0.00000E+00
         0.00000E+00
         0.00000E+00
         0.00000E+00
         0.00000E+00
         0.00000E+00
         0.00000E+00
         0.00000E+00
         0.00000E+00
         0.00000E+00
         0.00000E+00
         0.00000E+00
         0.00000E+00
         0.00000E+00
         0.00000E+00
         0.00000E+00
         0.00000E+00
         0.00000E+00
         0.00000E+00
         0.00000E+00
         0.00000E+00
         0.00000E+00
         0.00000E+00
         0.00000E+00
         0.00000E+00
         0.00000E+00
         0.00000E+00
         0.00000E+00
         0.00000E+00
         0.00000E+00
         0.00000E+00
         0.00000E+00
         0.00000E+00
         0.00000E+00
         0.00000E+00
         0.00000E+00
         0.00000E+00
         0.00000E+00
         0.00000E+00
         0.00000E+00
         0.00000E+00
         0.00000E+00
         0.00000E+00
         0.00000E+00
         0.00000E+00
         0.00000E+00
         0.00000E+00
         0.00000E+00
         0.00000E+00
         0.00000E+00
         0.00000E+00
         0.00000E+00
         0.00000E+00
         0.00000E+00
         0.00000E+00
         0.00000E+00
         0.00000E+00
         0.00000E+00
         0.00000E+00
         0.00000E+00
         0.00000E+00
         0.00000E+00
         0.00000E+00
         0.00000E+00
         0.00000E+00
         0.00000E+00
         0.00000E+00
         0.00000E+00
         0.00000E+00
         0.00000E+00
         0.00000E+00
         0.00000E+00
         0.00000E+00
         0.00000E+00
         0.00000E+00
         0.00000E+00
         0.00000E+00
         0.00000E+00
         0.00000E+00
         0.00000E+00
         0.00000E+00
         0.00000E+00
         0.00000E+00
         0.00000E+00
         0.00000E+00
         0.00000E+00
         0.00000E+00
         0.00000E+00
         0.00000E+00
         0.00000E+00
         0.00000E+00
         0.00000E+00
         0.00000E+00
         0.00000E+00
         0.00000E+00
         0.00000E+00
         0.00000E+00
         0.00000E+00
         0.00000E+00
         0.00000E+00
         0.00000E+00
         0.00000E+00
         0.00000E+00
         0.00000E+00
         0.00000E+00
         0.00000E+00
         0.00000E+00
         0.00000E+00
         0.00000E+00
         0.00000E+00
         0.00000E+00
         0.00000E+00
         0.00000E+00
         0.00000E+00
         0.00000E+00
         0.00000E+00
         0.00000E+00
         0.00000E+00
         0.00000E+00
         0.00000E+00
         0.00000E+00
         0.00000E+00
         0.00000E+00
         0.00000E+00
         0.00000E+00
         0.00000E+00
         0.00000E+00
         0.00000E+00
         0.00000E+00
         0.00000E+00
         0.00000E+00
         0.00000E+00
         0.00000E+00
         0.00000E+00
         0.00000E+00
         0.00000E+00
         0.00000E+00
         0.00000E+00
         0.00000E+00
         0.00000E+00
         0.00000E+00
         0.00000E+00
         0.00000E+00
         0.00000E+00
         0.00000E+00
         0.00000E+00
         0.00000E+00
         0.00000E+00
         0.00000E+00
         0.00000E+00
         0.00000E+00
         0.00000E+00
         0.00000E+00
         0.00000E+00
         0.00000E+00
         0.00000E+00
         0.00000E+00
         0.00000E+00
         0.00000E+00
         0.00000E+00
         0.00000E+00
         0.00000E+00
         0.00000E+00
         0.00000E+00
         0.00000E+00
         0.00000E+00
         0.00000E+00
         0.00000E+00
         0.00000E+00
         0.00000E+00
         0.00000E+00
         0.00000E+00
         0.00000E+00
         0.00000E+00
         0.00000E+00
         0.00000E+00
         0.00000E+00
         0.00000E+00
         0.00000E+00
         0.00000E+00
         0.00000E+00
         0.00000E+00
         0.00000E+00
         0.00000E+00
         0.00000E+00
         0.00000E+00
         0.00000E+00
         0.00000E+00
         0.00000E+00
         0.00000E+00
         0.00000E+00
         0.00000E+00
         0.00000E+00
         0.00000E+00
         0.00000E+00
         0.00000E+00
         0.00000E+00
         0.00000E+00
         0.00000E+00
         0.00000E+00
         0.00000E+00
         0.00000E+00
         0.00000E+00
         0.00000E+00
         0.00000E+00
         0.00000E+00
         0.00000E+00
         0.00000E+00
         0.00000E+00
         0.00000E+00
         0.00000E+00
         0.00000E+00
         0.00000E+00
         0.00000E+00
         0.00000E+00
         0.00000E+00
         0.00000E+00
         0.00000E+00
         0.00000E+00
         0.00000E+00
         0.00000E+00
         0.00000E+00
         0.00000E+00
         0.00000E+00
         0.00000E+00
         0.00000E+00
         0.00000E+00
         0.00000E+00
         0.00000E+00
         0.00000E+00
         0.00000E+00
         0.00000E+00
         0.00000E+00
         0.00000E+00
         0.00000E+00
         0.00000E+00
         0.00000E+00
         0.00000E+00
         0.00000E+00
         0.00000E+00
         0.00000E+00
         0.00000E+00
         0.00000E+00
         0.00000E+00
         0.00000E+00
         0.00000E+00
         0.00000E+00
         0.00000E+00
         0.00000E+00
         0.00000E+00
         0.00000E+00
         0.00000E+00
         0.00000E+00
         0.00000E+00
         0.00000E+00
         0.00000E+00
         0.00000E+00
         0.00000E+00
         0.00000E+00
         0.00000E+00
         0.00000E+00
         0.00000E+00
         0.00000E+00
         0.00000E+00
         0.00000E+00
         0.00000E+00
         0.00000E+00
         0.00000E+00
         0.00000E+00
         0.00000E+00
         0.00000E+00
         0.00000E+00
         0.00000E+00
         0.00000E+00
         0.00000E+00
         0.00000E+00
         0.00000E+00
         0.00000E+00
         0.00000E+00
         0.00000E+00
         0.00000E+00
         0.00000E+00
         0.00000E+00
         0.00000E+00
         0.00000E+00
         0.00000E+00
         0.00000E+00
         0.00000E+00
         0.00000E+00
         0.00000E+00
         0.00000E+00
         0.00000E+00
         0.00000E+00
         0.00000E+00
         0.00000E+00
         0.00000E+00
         0.00000E+00
         0.00000E+00
         0.00000E+00
         0.00000E+00
         0.00000E+00
         0.00000E+00
         0.00000E+00
         0.00000E+00
         0.00000E+00
         0.00000E+00
         0.00000E+00
         0.00000E+00
         0.00000E+00
         0.00000E+00
         0.00000E+00
         0.00000E+00
         0.00000E+00
         0.00000E+00
         0.00000E+00
         0.00000E+00
         0.00000E+00
         0.00000E+00
         0.00000E+00
         0.00000E+00
         0.00000E+00
         0.00000E+00
         0.00000E+00
         0.00000E+00
         0.00000E+00
         0.00000E+00
         0.00000E+00
         0.00000E+00
         0.00000E+00
         0.00000E+00
         0.00000E+00
         0.00000E+00
         0.00000E+00
         0.00000E+00
         0.00000E+00
         0.00000E+00
         0.00000E+00
         0.00000E+00
         0.00000E+00
         0.00000E+00
         0.00000E+00
         0.00000E+00
         0.00000E+00
         0.00000E+00
         0.00000E+00
         0.00000E+00
         0.00000E+00
         0.00000E+00
         0.00000E+00
         0.00000E+00
         0.00000E+00
         0.00000E+00
         0.00000E+00
         0.00000E+00
         0.00000E+00
         0.00000E+00
         0.00000E+00
         0.00000E+00
         0.00000E+00
         0.00000E+00
         0.00000E+00
         0.00000E+00
         0.00000E+00
         0.00000E+00
         0.00000E+00
         0.00000E+00
         0.00000E+00
         0.00000E+00
         0.00000E+00
         0.00000E+00
         0.00000E+00
         0.00000E+00
         0.00000E+00
         0.00000E+00
         0.00000E+00
         0.00000E+00
         0.00000E+00
         0.00000E+00
         0.00000E+00
         0.00000E+00
         0.00000E+00
         0.00000E+00
         0.00000E+00
         0.00000E+00
         0.00000E+00
         0.00000E+00
         0.00000E+00
         0.00000E+00
         0.00000E+00
         0.00000E+00
         0.00000E+00
         0.00000E+00
         0.00000E+00
         0.00000E+00
         0.00000E+00
         0.00000E+00
         0.00000E+00
         0.00000E+00
         0.00000E+00
         0.00000E+00
         0.00000E+00
         0.00000E+00
         0.00000E+00
         0.00000E+00
         0.00000E+00
         0.00000E+00
         0.00000E+00
         0.00000E+00
         0.00000E+00
         0.00000E+00
         0.00000E+00
         0.00000E+00
         0.00000E+00
         0.00000E+00
         0.00000E+00
         0.00000E+00
         0.00000E+00
         0.00000E+00
         0.00000E+00
         0.00000E+00
         0.00000E+00
         0.00000E+00
         0.00000E+00
         0.00000E+00
         0.00000E+00
         0.00000E+00
         0.00000E+00
         0.00000E+00
         0.00000E+00
         0.00000E+00
         0.00000E+00
         0.00000E+00
         0.00000E+00
         0.00000E+00
         0.00000E+00
         0.00000E+00
         0.00000E+00
         0.00000E+00
         0.00000E+00
         0.00000E+00
         0.00000E+00
         0.00000E+00
         0.00000E+00
         0.00000E+00
         0.00000E+00
         0.00000E+00
         0.00000E+00
         0.00000E+00
         0.00000E+00
         0.00000E+00
         0.00000E+00
         0.00000E+00
         0.00000E+00
         0.00000E+00
         0.00000E+00
         0.00000E+00
         0.00000E+00
         0.00000E+00
         0.00000E+00
         0.00000E+00
         0.00000E+00
         0.00000E+00
         0.00000E+00
         0.00000E+00
         0.00000E+00
         0.00000E+00
         0.00000E+00
         0.00000E+00
         0.00000E+00
         0.00000E+00
         0.00000E+00
         0.00000E+00
         0.00000E+00
         0.00000E+00
         0.00000E+00
         0.00000E+00
         0.00000E+00
         0.00000E+00
         0.00000E+00
         0.00000E+00
         0.00000E+00
         0.00000E+00
         0.00000E+00
         0.00000E+00
         0.00000E+00
         0.00000E+00
         0.00000E+00
         0.00000E+00
         0.00000E+00
         0.00000E+00
         0.00000E+00
         0.00000E+00
         0.00000E+00
         0.00000E+00
         0.00000E+00
         0.00000E+00
         0.00000E+00
         0.00000E+00
         0.00000E+00
         0.00000E+00
         0.00000E+00
         0.00000E+00
         0.00000E+00
         0.00000E+00
         0.00000E+00
         0.00000E+00
         0.00000E+00
         0.00000E+00
         0.00000E+00
         0.00000E+00
         0.00000E+00
         0.00000E+00
         0.00000E+00
         0.00000E+00
         0.00000E+00
         0.00000E+00
         0.00000E+00
         0.00000E+00
         0.00000E+00
         0.00000E+00
         0.00000E+00
         0.00000E+00
         0.00000E+00
         0.00000E+00
         0.00000E+00
         0.00000E+00
         0.00000E+00
         0.00000E+00
         0.00000E+00
         0.00000E+00
         0.00000E+00
         0.00000E+00
         0.00000E+00
         0.00000E+00
         0.00000E+00
         0.00000E+00
         0.00000E+00
         0.00000E+00
         0.00000E+00
         0.00000E+00
         0.00000E+00
         0.00000E+00
         0.00000E+00
         0.00000E+00
         0.00000E+00
         0.00000E+00
         0.00000E+00
         0.00000E+00
         0.00000E+00
         0.00000E+00
         0.00000E+00
         0.00000E+00
         0.00000E+00
         0.00000E+00
         0.00000E+00
         0.00000E+00
         0.00000E+00
         0.00000E+00
         0.00000E+00
         0.00000E+00
         0.00000E+00
         0.00000E+00
         0.00000E+00
         0.00000E+00
         0.00000E+00
         0.00000E+00
         0.00000E+00
         0.00000E+00
         0.00000E+00
         0.00000E+00
         0.00000E+00
         0.00000E+00
         0.00000E+00
         0.00000E+00
         0.00000E+00
         0.00000E+00
         0.00000E+00
         0.00000E+00
         0.00000E+00
         0.00000E+00
         0.00000E+00
         0.00000E+00
         0.00000E+00
         0.00000E+00
         0.00000E+00
         0.00000E+00
         0.00000E+00
         0.00000E+00
         0.00000E+00
         0.00000E+00
         0.00000E+00
         0.00000E+00
         0.00000E+00
         0.00000E+00
         0.00000E+00
         0.00000E+00
         0.00000E+00
         0.00000E+00
         0.00000E+00
         0.00000E+00
         0.00000E+00
         0.00000E+00
         0.00000E+00
         0.00000E+00
         0.00000E+00
         0.00000E+00
         0.00000E+00
         0.00000E+00
         0.00000E+00
         0.00000E+00
         0.00000E+00
         0.00000E+00
         0.00000E+00
         0.00000E+00
         0.00000E+00
         0.00000E+00
         0.00000E+00
         0.00000E+00
         0.00000E+00
         0.00000E+00
         0.00000E+00
         0.00000E+00
         0.00000E+00
         0.00000E+00
         0.00000E+00
         0.00000E+00
         0.00000E+00
         0.00000E+00
         0.00000E+00
         0.00000E+00
         0.00000E+00
         0.00000E+00
         0.00000E+00
         0.00000E+00
         0.00000E+00
         0.00000E+00
         0.00000E+00
         0.00000E+00
         0.00000E+00
         0.00000E+00
         0.00000E+00
         0.00000E+00
         0.00000E+00
         0.00000E+00
         0.00000E+00
         0.00000E+00
         0.00000E+00
         0.00000E+00
         0.00000E+00
         0.00000E+00
         0.00000E+00
         0.00000E+00
         0.00000E+00
         0.00000E+00
         0.00000E+00
         0.00000E+00
         0.00000E+00
         0.00000E+00
         0.00000E+00
         0.00000E+00
         0.00000E+00
         0.00000E+00
         0.00000E+00
         0.00000E+00
         0.00000E+00
         0.00000E+00
         0.00000E+00
         0.00000E+00
         0.00000E+00
         0.00000E+00
         0.00000E+00
         0.00000E+00
         0.00000E+00
         0.00000E+00
         0.00000E+00
         0.00000E+00
         0.00000E+00
         0.00000E+00
         0.00000E+00
         0.00000E+00
         0.00000E+00
         0.00000E+00
         0.00000E+00
         0.00000E+00
         0.00000E+00
         0.00000E+00
         0.00000E+00
         0.00000E+00
         0.00000E+00
         0.00000E+00
         0.00000E+00
         0.00000E+00
         0.00000E+00
         0.00000E+00
         0.00000E+00
         0.00000E+00
         0.00000E+00
         0.00000E+00
         0.00000E+00
         0.00000E+00
         0.00000E+00
         0.00000E+00
         0.00000E+00
         0.00000E+00
         0.00000E+00
         0.00000E+00
         0.00000E+00
         0.00000E+00
         0.00000E+00
         0.00000E+00
         0.00000E+00
         0.00000E+00
         0.00000E+00
         0.00000E+00
         0.00000E+00
         0.00000E+00
         0.00000E+00
         0.00000E+00
         0.00000E+00
         0.00000E+00
         0.00000E+00
         0.00000E+00
         0.00000E+00
         0.00000E+00
         0.00000E+00
         0.00000E+00
         0.00000E+00
         0.00000E+00
         0.00000E+00
         0.00000E+00
         0.00000E+00
         0.00000E+00
         0.00000E+00
         0.00000E+00
         0.00000E+00
         0.00000E+00
         0.00000E+00
         0.00000E+00
         0.00000E+00
         0.00000E+00
         0.00000E+00
         0.00000E+00
         0.00000E+00
         0.00000E+00
         0.00000E+00
         0.00000E+00
         0.00000E+00
         0.00000E+00
         0.00000E+00
         0.00000E+00
         0.00000E+00
         0.00000E+00
         0.00000E+00
         0.00000E+00
         0.00000E+00
         0.00000E+00
         0.00000E+00
         0.00000E+00
         0.00000E+00
         0.00000E+00
         0.00000E+00
         0.00000E+00
         0.00000E+00
         0.00000E+00
         0.00000E+00
         0.00000E+00
         0.00000E+00
         0.00000E+00
         0.00000E+00
         0.00000E+00
         0.00000E+00
         0.00000E+00
         0.00000E+00
         0.00000E+00
         0.00000E+00
         0.00000E+00
         0.00000E+00
         0.00000E+00
         0.00000E+00
         0.00000E+00
         0.00000E+00
         0.00000E+00
         0.00000E+00
         0.00000E+00
         0.00000E+00
         0.00000E+00
         0.00000E+00
         0.00000E+00
         0.00000E+00
         0.00000E+00
         0.00000E+00
         0.00000E+00
         0.00000E+00
         0.00000E+00
         0.00000E+00
         0.00000E+00
         0.00000E+00
         0.00000E+00
         0.00000E+00
         0.00000E+00
         0.00000E+00
         0.00000E+00
         0.00000E+00
         0.00000E+00
         0.00000E+00
         0.00000E+00
         0.00000E+00
         0.00000E+00
         0.00000E+00
         0.00000E+00
         0.00000E+00
         0.00000E+00
         0.00000E+00
         0.00000E+00
         0.00000E+00
         0.00000E+00
         0.00000E+00
         0.00000E+00
         0.00000E+00
         0.00000E+00
         0.00000E+00
         0.00000E+00
         0.00000E+00
         0.00000E+00
         0.00000E+00
         0.00000E+00
         0.00000E+00
         0.00000E+00
         0.00000E+00
         0.00000E+00
         0.00000E+00
         0.00000E+00
         0.00000E+00
         0.00000E+00
         0.00000E+00
         0.00000E+00
         0.00000E+00
         0.00000E+00
         0.00000E+00
         0.00000E+00
         0.00000E+00
         0.00000E+00
         0.00000E+00
         0.00000E+00
         0.00000E+00
         0.00000E+00
         0.00000E+00
         0.00000E+00
         0.00000E+00
         0.00000E+00
         0.00000E+00
         0.00000E+00
         0.00000E+00
         0.00000E+00
         0.00000E+00
         0.00000E+00
         0.00000E+00
         0.00000E+00
         0.00000E+00
         0.00000E+00
         0.00000E+00
         0.00000E+00
         0.00000E+00
         0.00000E+00
         0.00000E+00
         0.00000E+00
         0.00000E+00
         0.00000E+00
         0.00000E+00
         0.00000E+00
         0.00000E+00
         0.00000E+00
         0.00000E+00
         0.00000E+00
         0.00000E+00
         0.00000E+00
         0.00000E+00
         0.00000E+00
         0.00000E+00
         0.00000E+00
         0.00000E+00
         0.00000E+00
         0.00000E+00
         0.00000E+00
         0.00000E+00
         0.00000E+00
         0.00000E+00
         0.00000E+00
         0.00000E+00
         0.00000E+00
         0.00000E+00
         0.00000E+00
         0.00000E+00
         0.00000E+00
         0.00000E+00
         0.00000E+00
         0.00000E+00
         0.00000E+00
         0.00000E+00
         0.00000E+00
         0.00000E+00
         0.00000E+00
         0.00000E+00
         0.00000E+00
         0.00000E+00
         0.00000E+00
         0.00000E+00
         0.00000E+00
         0.00000E+00
         0.00000E+00
         0.00000E+00
         0.00000E+00
         0.00000E+00
         0.00000E+00
         0.00000E+00
         0.00000E+00
         0.00000E+00
         0.00000E+00
         0.00000E+00
         0.00000E+00
         0.00000E+00
         0.00000E+00
         0.00000E+00
         0.00000E+00
         0.00000E+00
         0.00000E+00
         0.00000E+00
         0.00000E+00
         0.00000E+00
         0.00000E+00
         0.00000E+00
         0.00000E+00
         0.00000E+00
         0.00000E+00
         0.00000E+00
         0.00000E+00
         0.00000E+00
         0.00000E+00
         0.00000E+00
         0.00000E+00
         0.00000E+00
         0.00000E+00
         0.00000E+00
         0.00000E+00
         0.00000E+00
         0.00000E+00
         0.00000E+00
         0.00000E+00
         0.00000E+00
         0.00000E+00
         0.00000E+00
         0.00000E+00
         0.00000E+00
         0.00000E+00
         0.00000E+00
         0.00000E+00
         0.00000E+00
         0.00000E+00
         0.00000E+00
         0.00000E+00
         0.00000E+00
         0.00000E+00
         0.00000E+00
         0.00000E+00
         0.00000E+00
         0.00000E+00
         0.00000E+00
         0.00000E+00
         0.00000E+00
         0.00000E+00
         0.00000E+00
         0.00000E+00
         0.00000E+00
         0.00000E+00
         0.00000E+00
         0.00000E+00
         0.00000E+00
         0.00000E+00
         0.00000E+00
         0.00000E+00
         0.00000E+00
         0.00000E+00
         0.00000E+00
         0.00000E+00
         0.00000E+00
         0.00000E+00
         0.00000E+00
         0.00000E+00
         0.00000E+00
         0.00000E+00
         0.00000E+00
         0.00000E+00
         0.00000E+00
         0.00000E+00
         0.00000E+00
         0.00000E+00
         0.00000E+00
         0.00000E+00
         0.00000E+00
         0.00000E+00
         0.00000E+00
         0.00000E+00
         0.00000E+00
         0.00000E+00
         0.00000E+00
         0.00000E+00
         0.00000E+00
         0.00000E+00
         0.00000E+00
         0.00000E+00
         0.00000E+00
         0.00000E+00
         0.00000E+00
         0.00000E+00
         0.00000E+00
         0.00000E+00
         0.00000E+00
         0.00000E+00
         0.00000E+00
         0.00000E+00
         0.00000E+00
         0.00000E+00
         0.00000E+00
         0.00000E+00
         0.00000E+00
         0.00000E+00
         0.00000E+00
         0.00000E+00
         0.00000E+00
         0.00000E+00
         0.00000E+00
         0.00000E+00
         0.00000E+00
         0.00000E+00
         0.00000E+00
         0.00000E+00
         0.00000E+00
         0.00000E+00
         0.00000E+00
         0.00000E+00
         0.00000E+00
         0.00000E+00
         0.00000E+00
         0.00000E+00
         0.00000E+00
         0.00000E+00
         0.00000E+00
         0.00000E+00
         0.00000E+00
         0.00000E+00
         0.00000E+00
         0.00000E+00
         0.00000E+00
         0.00000E+00
         0.00000E+00
         0.00000E+00
         0.00000E+00
         0.00000E+00
         0.00000E+00
         0.00000E+00
         0.00000E+00
         0.00000E+00
         0.00000E+00
         0.00000E+00
         0.00000E+00
         0.00000E+00
         0.00000E+00
         0.00000E+00
         0.00000E+00
         0.00000E+00
         0.00000E+00
         0.00000E+00
         0.00000E+00
         0.00000E+00
         0.00000E+00
         0.00000E+00
         0.00000E+00
         0.00000E+00
         0.00000E+00
         0.00000E+00
         0.00000E+00
         0.00000E+00
         0.00000E+00
         0.00000E+00
         0.00000E+00
         0.00000E+00
         0.00000E+00
         0.00000E+00
         0.00000E+00
         0.00000E+00
         0.00000E+00
         0.00000E+00
         0.00000E+00
         0.00000E+00
         0.00000E+00
         0.00000E+00
         0.00000E+00
         0.00000E+00
         0.00000E+00
         0.00000E+00
         0.00000E+00
         0.00000E+00
         0.00000E+00
         0.00000E+00
         0.00000E+00
         0.00000E+00
         0.00000E+00
         0.00000E+00
         0.00000E+00
         0.00000E+00
         0.00000E+00
         0.00000E+00
         0.00000E+00
         0.00000E+00
         0.00000E+00
         0.00000E+00
         0.00000E+00
         0.00000E+00
         0.00000E+00
         0.00000E+00
         0.00000E+00
         0.00000E+00
         0.00000E+00
         0.00000E+00
         0.00000E+00
         0.00000E+00
         0.00000E+00
         0.00000E+00
         0.00000E+00
         0.00000E+00
         0.00000E+00
         0.00000E+00
         0.00000E+00
         0.00000E+00
         0.00000E+00
         0.00000E+00
         0.00000E+00
         0.00000E+00
         0.00000E+00
         0.00000E+00
         0.00000E+00
         0.00000E+00
         0.00000E+00
         0.00000E+00
         0.00000E+00
         0.00000E+00
         0.00000E+00
         0.00000E+00
         0.00000E+00
         0.00000E+00
         0.00000E+00
         0.00000E+00
         0.00000E+00
         0.00000E+00
         0.00000E+00
         0.00000E+00
         0.00000E+00
         0.00000E+00
         0.00000E+00
         0.00000E+00
         0.00000E+00
         0.00000E+00
         0.00000E+00
         0.00000E+00
         0.00000E+00
         0.00000E+00
         0.00000E+00
         0.00000E+00
         0.00000E+00
         0.00000E+00
         0.00000E+00
         0.00000E+00
         0.00000E+00
         0.00000E+00
         0.00000E+00
         0.00000E+00
         0.00000E+00
         0.00000E+00
         0.00000E+00
         0.00000E+00
         0.00000E+00
         0.00000E+00
         0.00000E+00
         0.00000E+00
         0.00000E+00
         0.00000E+00
         0.00000E+00
         0.00000E+00
         0.00000E+00
         0.00000E+00
         0.00000E+00
         0.00000E+00
         0.00000E+00
         0.00000E+00
         0.00000E+00
         0.00000E+00
         0.00000E+00
         0.00000E+00
         0.00000E+00
         0.00000E+00
         0.00000E+00
         0.00000E+00
         0.00000E+00
         0.00000E+00
         0.00000E+00
         0.00000E+00
         0.00000E+00
         0.00000E+00
         0.00000E+00
         0.00000E+00
         0.00000E+00
         0.00000E+00
         0.00000E+00
         0.00000E+00
         0.00000E+00
         0.00000E+00
         0.00000E+00
         0.00000E+00
         0.00000E+00
         0.00000E+00
         0.00000E+00
         0.00000E+00
         0.00000E+00
         0.00000E+00
         0.00000E+00
         0.00000E+00
         0.00000E+00
         0.00000E+00
         0.00000E+00
         0.00000E+00
         0.00000E+00
         0.00000E+00
         0.00000E+00
         0.00000E+00
         0.00000E+00
         0.00000E+00
         0.00000E+00
         0.00000E+00
         0.00000E+00
         0.00000E+00
         0.00000E+00
         0.00000E+00
         0.00000E+00
         0.00000E+00
         0.00000E+00
         0.00000E+00
         0.00000E+00
         0.00000E+00
         0.00000E+00
         0.00000E+00
         0.00000E+00
         0.00000E+00
         0.00000E+00
         0.00000E+00
         0.00000E+00
         0.00000E+00
         0.00000E+00
         0.00000E+00
         0.00000E+00
         0.00000E+00
         0.00000E+00
         0.00000E+00
         0.00000E+00
         0.00000E+00
         0.00000E+00
         0.00000E+00
         0.00000E+00
         0.00000E+00
         0.00000E+00
         0.00000E+00
         0.00000E+00
         0.00000E+00
         0.00000E+00
         0.00000E+00
         0.00000E+00
         0.00000E+00
         0.00000E+00
         0.00000E+00
         0.00000E+00
         0.00000E+00
         0.00000E+00
         0.00000E+00
         0.00000E+00
         0.00000E+00
         0.00000E+00
         0.00000E+00
         0.00000E+00
         0.00000E+00
         0.00000E+00
         0.00000E+00
         0.00000E+00
         0.00000E+00
         0.00000E+00
         0.00000E+00
         0.00000E+00
         0.00000E+00
         0.00000E+00
         0.00000E+00
         0.00000E+00
         0.00000E+00
         0.00000E+00
         0.00000E+00
         0.00000E+00
         0.00000E+00
         0.00000E+00
         0.00000E+00
         0.00000E+00
         0.00000E+00
         0.00000E+00
         0.00000E+00
         0.00000E+00
         0.00000E+00
         0.00000E+00
         0.00000E+00
         0.00000E+00
         0.00000E+00
         0.00000E+00
         0.00000E+00
         0.00000E+00
         0.00000E+00
         0.00000E+00
         0.00000E+00
         0.00000E+00
  
SCALARS               pre_disp_force_z  double 1
LOOKUP_TABLE default
         0.00000E+00
         0.00000E+00
         0.00000E+00
         0.00000E+00
        -0.00000E+00
        -0.00000E+00
        -0.00000E+00
        -0.00000E+00
         0.00000E+00
         0.00000E+00
        -0.00000E+00
        -0.00000E+00
         0.00000E+00
         0.00000E+00
        -0.00000E+00
        -0.00000E+00
         0.00000E+00
         0.00000E+00
        -0.00000E+00
        -0.00000E+00
         0.00000E+00
         0.00000E+00
         0.00000E+00
        -0.00000E+00
        -0.00000E+00
        -0.00000E+00
         0.00000E+00
         0.00000E+00
        -0.00000E+00
        -0.00000E+00
         0.00000E+00
         0.00000E+00
         0.00000E+00
        -0.00000E+00
        -0.00000E+00
        -0.00000E+00
         0.00000E+00
         0.00000E+00
        -0.00000E+00
        -0.00000E+00
         0.00000E+00
         0.00000E+00
        -0.00000E+00
        -0.00000E+00
         0.00000E+00
         0.00000E+00
        -0.00000E+00
        -0.00000E+00
         0.00000E+00
        -0.00000E+00
         0.00000E+00
        -0.00000E+00
         0.00000E+00
        -0.00000E+00
         0.00000E+00
        -0.00000E+00
         0.00000E+00
         0.00000E+00
        -0.00000E+00
        -0.00000E+00
         0.00000E+00
         0.00000E+00
        -0.00000E+00
        -0.00000E+00
         0.00000E+00
        -0.00000E+00
         0.00000E+00
        -0.00000E+00
         0.00000E+00
         0.00000E+00
        -0.00000E+00
        -0.00000E+00
         0.00000E+00
        -0.00000E+00
         0.00000E+00
        -0.00000E+00
         0.00000E+00
        -0.00000E+00
         0.00000E+00
        -0.00000E+00
         0.00000E+00
         0.00000E+00
        -0.00000E+00
        -0.00000E+00
         0.00000E+00
        -0.00000E+00
         0.00000E+00
        -0.00000E+00
         0.00000E+00
        -0.00000E+00
         0.00000E+00
         0.00000E+00
        -0.00000E+00
        -0.00000E+00
         0.00000E+00
        -0.00000E+00
         0.00000E+00
        -0.00000E+00
         0.00000E+00
        -0.00000E+00
         0.00000E+00
         0.00000E+00
        -0.00000E+00
        -0.00000E+00
         0.00000E+00
         0.00000E+00
        -0.00000E+00
        -0.00000E+00
         0.00000E+00
        -0.00000E+00
         0.00000E+00
        -0.00000E+00
         0.00000E+00
        -0.00000E+00
         0.00000E+00
        -0.00000E+00
         0.00000E+00
        -0.00000E+00
         0.00000E+00
        -0.00000E+00
         0.00000E+00
        -0.00000E+00
         0.00000E+00
        -0.00000E+00
         0.00000E+00
        -0.00000E+00
         0.00000E+00
        -0.00000E+00
         0.00000E+00
        -0.00000E+00
         0.00000E+00
        -0.00000E+00
         0.00000E+00
        -0.00000E+00
         0.00000E+00
        -0.00000E+00
         0.00000E+00
        -0.00000E+00
         0.00000E+00
        -0.00000E+00
         0.00000E+00
        -0.00000E+00
         0.00000E+00
        -0.00000E+00
         0.00000E+00
        -0.00000E+00
         0.00000E+00
        -0.00000E+00
         0.00000E+00
        -0.00000E+00
         0.00000E+00
        -0.00000E+00
         0.00000E+00
        -0.00000E+00
         0.00000E+00
        -0.00000E+00
         0.00000E+00
         0.00000E+00
         0.00000E+00
         0.00000E+00
         0.00000E+00
         0.00000E+00
         0.00000E+00
         0.00000E+00
         0.00000E+00
         0.00000E+00
         0.00000E+00
         0.00000E+00
         0.00000E+00
         0.00000E+00
         0.00000E+00
         0.00000E+00
         0.00000E+00
         0.00000E+00
         0.00000E+00
         0.00000E+00
         0.00000E+00
         0.00000E+00
         0.00000E+00
         0.00000E+00
         0.00000E+00
         0.00000E+00
         0.00000E+00
         0.00000E+00
         0.00000E+00
         0.00000E+00
         0.00000E+00
         0.00000E+00
         0.00000E+00
         0.00000E+00
         0.00000E+00
         0.00000E+00
         0.00000E+00
         0.00000E+00
         0.00000E+00
         0.00000E+00
         0.00000E+00
         0.00000E+00
         0.00000E+00
         0.00000E+00
         0.00000E+00
         0.00000E+00
         0.00000E+00
         0.00000E+00
         0.00000E+00
         0.00000E+00
         0.00000E+00
         0.00000E+00
         0.00000E+00
         0.00000E+00
         0.00000E+00
         0.00000E+00
         0.00000E+00
         0.00000E+00
         0.00000E+00
         0.00000E+00
         0.00000E+00
         0.00000E+00
         0.00000E+00
         0.00000E+00
         0.00000E+00
         0.00000E+00
         0.00000E+00
         0.00000E+00
         0.00000E+00
         0.00000E+00
         0.00000E+00
         0.00000E+00
         0.00000E+00
         0.00000E+00
         0.00000E+00
         0.00000E+00
         0.00000E+00
         0.00000E+00
         0.00000E+00
         0.00000E+00
         0.00000E+00
         0.00000E+00
         0.00000E+00
         0.00000E+00
         0.00000E+00
         0.00000E+00
         0.00000E+00
         0.00000E+00
         0.00000E+00
         0.00000E+00
         0.00000E+00
         0.00000E+00
         0.00000E+00
         0.00000E+00
         0.00000E+00
         0.00000E+00
         0.00000E+00
         0.00000E+00
         0.00000E+00
         0.00000E+00
         0.00000E+00
         0.00000E+00
         0.00000E+00
         0.00000E+00
         0.00000E+00
         0.00000E+00
         0.00000E+00
         0.00000E+00
         0.00000E+00
         0.00000E+00
         0.00000E+00
         0.00000E+00
         0.00000E+00
         0.00000E+00
         0.00000E+00
         0.00000E+00
         0.00000E+00
         0.00000E+00
         0.00000E+00
         0.00000E+00
         0.00000E+00
         0.00000E+00
         0.00000E+00
         0.00000E+00
         0.00000E+00
         0.00000E+00
         0.00000E+00
         0.00000E+00
         0.00000E+00
         0.00000E+00
         0.00000E+00
         0.00000E+00
         0.00000E+00
         0.00000E+00
         0.00000E+00
         0.00000E+00
         0.00000E+00
         0.00000E+00
         0.00000E+00
         0.00000E+00
         0.00000E+00
         0.00000E+00
         0.00000E+00
         0.00000E+00
         0.00000E+00
         0.00000E+00
         0.00000E+00
         0.00000E+00
         0.00000E+00
         0.00000E+00
         0.00000E+00
         0.00000E+00
         0.00000E+00
         0.00000E+00
         0.00000E+00
         0.00000E+00
         0.00000E+00
         0.00000E+00
         0.00000E+00
         0.00000E+00
         0.00000E+00
         0.00000E+00
         0.00000E+00
         0.00000E+00
         0.00000E+00
         0.00000E+00
         0.00000E+00
         0.00000E+00
         0.00000E+00
         0.00000E+00
         0.00000E+00
         0.00000E+00
         0.00000E+00
         0.00000E+00
         0.00000E+00
         0.00000E+00
         0.00000E+00
         0.00000E+00
         0.00000E+00
         0.00000E+00
         0.00000E+00
         0.00000E+00
         0.00000E+00
         0.00000E+00
         0.00000E+00
         0.00000E+00
         0.00000E+00
         0.00000E+00
         0.00000E+00
         0.00000E+00
         0.00000E+00
         0.00000E+00
         0.00000E+00
         0.00000E+00
         0.00000E+00
         0.00000E+00
         0.00000E+00
         0.00000E+00
         0.00000E+00
         0.00000E+00
         0.00000E+00
         0.00000E+00
         0.00000E+00
         0.00000E+00
         0.00000E+00
         0.00000E+00
         0.00000E+00
         0.00000E+00
         0.00000E+00
         0.00000E+00
         0.00000E+00
         0.00000E+00
         0.00000E+00
         0.00000E+00
         0.00000E+00
         0.00000E+00
         0.00000E+00
         0.00000E+00
         0.00000E+00
         0.00000E+00
         0.00000E+00
         0.00000E+00
         0.00000E+00
         0.00000E+00
         0.00000E+00
         0.00000E+00
         0.00000E+00
         0.00000E+00
         0.00000E+00
         0.00000E+00
         0.00000E+00
         0.00000E+00
         0.00000E+00
         0.00000E+00
         0.00000E+00
         0.00000E+00
         0.00000E+00
         0.00000E+00
         0.00000E+00
         0.00000E+00
         0.00000E+00
         0.00000E+00
         0.00000E+00
         0.00000E+00
         0.00000E+00
         0.00000E+00
         0.00000E+00
         0.00000E+00
         0.00000E+00
         0.00000E+00
         0.00000E+00
         0.00000E+00
         0.00000E+00
         0.00000E+00
         0.00000E+00
         0.00000E+00
         0.00000E+00
         0.00000E+00
         0.00000E+00
         0.00000E+00
         0.00000E+00
         0.00000E+00
         0.00000E+00
         0.00000E+00
         0.00000E+00
         0.00000E+00
         0.00000E+00
         0.00000E+00
         0.00000E+00
         0.00000E+00
         0.00000E+00
         0.00000E+00
         0.00000E+00
         0.00000E+00
         0.00000E+00
         0.00000E+00
         0.00000E+00
         0.00000E+00
         0.00000E+00
         0.00000E+00
         0.00000E+00
         0.00000E+00
         0.00000E+00
         0.00000E+00
         0.00000E+00
         0.00000E+00
         0.00000E+00
         0.00000E+00
         0.00000E+00
         0.00000E+00
         0.00000E+00
         0.00000E+00
         0.00000E+00
         0.00000E+00
         0.00000E+00
         0.00000E+00
         0.00000E+00
         0.00000E+00
         0.00000E+00
         0.00000E+00
         0.00000E+00
         0.00000E+00
         0.00000E+00
         0.00000E+00
         0.00000E+00
         0.00000E+00
         0.00000E+00
         0.00000E+00
         0.00000E+00
         0.00000E+00
         0.00000E+00
         0.00000E+00
         0.00000E+00
         0.00000E+00
         0.00000E+00
         0.00000E+00
         0.00000E+00
         0.00000E+00
         0.00000E+00
         0.00000E+00
         0.00000E+00
         0.00000E+00
         0.00000E+00
         0.00000E+00
         0.00000E+00
         0.00000E+00
         0.00000E+00
         0.00000E+00
         0.00000E+00
         0.00000E+00
         0.00000E+00
         0.00000E+00
         0.00000E+00
         0.00000E+00
         0.00000E+00
         0.00000E+00
         0.00000E+00
         0.00000E+00
         0.00000E+00
         0.00000E+00
         0.00000E+00
         0.00000E+00
         0.00000E+00
         0.00000E+00
         0.00000E+00
         0.00000E+00
         0.00000E+00
         0.00000E+00
         0.00000E+00
         0.00000E+00
         0.00000E+00
         0.00000E+00
         0.00000E+00
         0.00000E+00
         0.00000E+00
         0.00000E+00
         0.00000E+00
         0.00000E+00
         0.00000E+00
         0.00000E+00
         0.00000E+00
         0.00000E+00
         0.00000E+00
         0.00000E+00
         0.00000E+00
         0.00000E+00
         0.00000E+00
         0.00000E+00
         0.00000E+00
         0.00000E+00
         0.00000E+00
         0.00000E+00
         0.00000E+00
         0.00000E+00
         0.00000E+00
         0.00000E+00
         0.00000E+00
         0.00000E+00
         0.00000E+00
         0.00000E+00
         0.00000E+00
         0.00000E+00
         0.00000E+00
         0.00000E+00
         0.00000E+00
         0.00000E+00
         0.00000E+00
         0.00000E+00
         0.00000E+00
         0.00000E+00
         0.00000E+00
         0.00000E+00
         0.00000E+00
         0.00000E+00
         0.00000E+00
         0.00000E+00
         0.00000E+00
         0.00000E+00
         0.00000E+00
         0.00000E+00
         0.00000E+00
         0.00000E+00
         0.00000E+00
         0.00000E+00
         0.00000E+00
         0.00000E+00
         0.00000E+00
         0.00000E+00
         0.00000E+00
         0.00000E+00
         0.00000E+00
         0.00000E+00
         0.00000E+00
         0.00000E+00
         0.00000E+00
         0.00000E+00
         0.00000E+00
         0.00000E+00
         0.00000E+00
         0.00000E+00
         0.00000E+00
         0.00000E+00
         0.00000E+00
         0.00000E+00
         0.00000E+00
         0.00000E+00
         0.00000E+00
         0.00000E+00
         0.00000E+00
         0.00000E+00
         0.00000E+00
         0.00000E+00
         0.00000E+00
         0.00000E+00
         0.00000E+00
         0.00000E+00
         0.00000E+00
         0.00000E+00
         0.00000E+00
         0.00000E+00
         0.00000E+00
         0.00000E+00
         0.00000E+00
         0.00000E+00
         0.00000E+00
         0.00000E+00
         0.00000E+00
         0.00000E+00
         0.00000E+00
         0.00000E+00
         0.00000E+00
         0.00000E+00
         0.00000E+00
         0.00000E+00
         0.00000E+00
         0.00000E+00
         0.00000E+00
         0.00000E+00
         0.00000E+00
         0.00000E+00
         0.00000E+00
         0.00000E+00
         0.00000E+00
         0.00000E+00
         0.00000E+00
         0.00000E+00
         0.00000E+00
         0.00000E+00
         0.00000E+00
         0.00000E+00
         0.00000E+00
         0.00000E+00
         0.00000E+00
         0.00000E+00
         0.00000E+00
         0.00000E+00
         0.00000E+00
         0.00000E+00
         0.00000E+00
         0.00000E+00
         0.00000E+00
         0.00000E+00
         0.00000E+00
         0.00000E+00
         0.00000E+00
         0.00000E+00
         0.00000E+00
         0.00000E+00
         0.00000E+00
         0.00000E+00
         0.00000E+00
         0.00000E+00
         0.00000E+00
         0.00000E+00
         0.00000E+00
         0.00000E+00
         0.00000E+00
         0.00000E+00
         0.00000E+00
         0.00000E+00
         0.00000E+00
         0.00000E+00
         0.00000E+00
         0.00000E+00
         0.00000E+00
         0.00000E+00
         0.00000E+00
         0.00000E+00
         0.00000E+00
         0.00000E+00
         0.00000E+00
         0.00000E+00
         0.00000E+00
         0.00000E+00
         0.00000E+00
         0.00000E+00
         0.00000E+00
         0.00000E+00
         0.00000E+00
         0.00000E+00
         0.00000E+00
         0.00000E+00
         0.00000E+00
         0.00000E+00
         0.00000E+00
         0.00000E+00
         0.00000E+00
         0.00000E+00
         0.00000E+00
         0.00000E+00
         0.00000E+00
         0.00000E+00
         0.00000E+00
         0.00000E+00
         0.00000E+00
         0.00000E+00
         0.00000E+00
         0.00000E+00
         0.00000E+00
         0.00000E+00
         0.00000E+00
         0.00000E+00
         0.00000E+00
         0.00000E+00
         0.00000E+00
         0.00000E+00
         0.00000E+00
         0.00000E+00
         0.00000E+00
         0.00000E+00
         0.00000E+00
         0.00000E+00
         0.00000E+00
         0.00000E+00
         0.00000E+00
         0.00000E+00
         0.00000E+00
         0.00000E+00
         0.00000E+00
         0.00000E+00
         0.00000E+00
         0.00000E+00
         0.00000E+00
         0.00000E+00
         0.00000E+00
         0.00000E+00
         0.00000E+00
         0.00000E+00
         0.00000E+00
         0.00000E+00
         0.00000E+00
         0.00000E+00
         0.00000E+00
         0.00000E+00
         0.00000E+00
         0.00000E+00
         0.00000E+00
         0.00000E+00
         0.00000E+00
         0.00000E+00
         0.00000E+00
         0.00000E+00
         0.00000E+00
         0.00000E+00
         0.00000E+00
         0.00000E+00
         0.00000E+00
         0.00000E+00
         0.00000E+00
         0.00000E+00
         0.00000E+00
         0.00000E+00
         0.00000E+00
         0.00000E+00
         0.00000E+00
         0.00000E+00
         0.00000E+00
         0.00000E+00
         0.00000E+00
         0.00000E+00
         0.00000E+00
         0.00000E+00
         0.00000E+00
         0.00000E+00
         0.00000E+00
         0.00000E+00
         0.00000E+00
         0.00000E+00
         0.00000E+00
         0.00000E+00
         0.00000E+00
         0.00000E+00
         0.00000E+00
         0.00000E+00
         0.00000E+00
         0.00000E+00
         0.00000E+00
         0.00000E+00
         0.00000E+00
         0.00000E+00
         0.00000E+00
         0.00000E+00
         0.00000E+00
         0.00000E+00
         0.00000E+00
         0.00000E+00
         0.00000E+00
         0.00000E+00
         0.00000E+00
         0.00000E+00
         0.00000E+00
         0.00000E+00
         0.00000E+00
         0.00000E+00
         0.00000E+00
         0.00000E+00
         0.00000E+00
         0.00000E+00
         0.00000E+00
         0.00000E+00
         0.00000E+00
         0.00000E+00
         0.00000E+00
         0.00000E+00
         0.00000E+00
         0.00000E+00
         0.00000E+00
         0.00000E+00
         0.00000E+00
         0.00000E+00
         0.00000E+00
         0.00000E+00
         0.00000E+00
         0.00000E+00
         0.00000E+00
         0.00000E+00
         0.00000E+00
         0.00000E+00
         0.00000E+00
         0.00000E+00
         0.00000E+00
         0.00000E+00
         0.00000E+00
         0.00000E+00
         0.00000E+00
         0.00000E+00
         0.00000E+00
         0.00000E+00
         0.00000E+00
         0.00000E+00
         0.00000E+00
         0.00000E+00
         0.00000E+00
         0.00000E+00
         0.00000E+00
         0.00000E+00
         0.00000E+00
         0.00000E+00
         0.00000E+00
         0.00000E+00
         0.00000E+00
         0.00000E+00
         0.00000E+00
         0.00000E+00
         0.00000E+00
         0.00000E+00
         0.00000E+00
         0.00000E+00
         0.00000E+00
         0.00000E+00
         0.00000E+00
         0.00000E+00
         0.00000E+00
         0.00000E+00
         0.00000E+00
         0.00000E+00
         0.00000E+00
         0.00000E+00
         0.00000E+00
         0.00000E+00
         0.00000E+00
         0.00000E+00
         0.00000E+00
         0.00000E+00
         0.00000E+00
         0.00000E+00
         0.00000E+00
         0.00000E+00
         0.00000E+00
         0.00000E+00
         0.00000E+00
         0.00000E+00
         0.00000E+00
         0.00000E+00
         0.00000E+00
         0.00000E+00
         0.00000E+00
         0.00000E+00
         0.00000E+00
         0.00000E+00
         0.00000E+00
         0.00000E+00
         0.00000E+00
         0.00000E+00
         0.00000E+00
         0.00000E+00
         0.00000E+00
         0.00000E+00
         0.00000E+00
         0.00000E+00
         0.00000E+00
         0.00000E+00
         0.00000E+00
         0.00000E+00
         0.00000E+00
         0.00000E+00
         0.00000E+00
         0.00000E+00
         0.00000E+00
         0.00000E+00
         0.00000E+00
         0.00000E+00
         0.00000E+00
         0.00000E+00
         0.00000E+00
         0.00000E+00
         0.00000E+00
         0.00000E+00
         0.00000E+00
         0.00000E+00
         0.00000E+00
         0.00000E+00
         0.00000E+00
         0.00000E+00
         0.00000E+00
         0.00000E+00
         0.00000E+00
         0.00000E+00
         0.00000E+00
         0.00000E+00
         0.00000E+00
         0.00000E+00
         0.00000E+00
         0.00000E+00
         0.00000E+00
         0.00000E+00
         0.00000E+00
         0.00000E+00
         0.00000E+00
         0.00000E+00
         0.00000E+00
         0.00000E+00
         0.00000E+00
         0.00000E+00
         0.00000E+00
         0.00000E+00
         0.00000E+00
         0.00000E+00
         0.00000E+00
         0.00000E+00
         0.00000E+00
         0.00000E+00
         0.00000E+00
         0.00000E+00
         0.00000E+00
         0.00000E+00
         0.00000E+00
         0.00000E+00
         0.00000E+00
         0.00000E+00
         0.00000E+00
         0.00000E+00
         0.00000E+00
         0.00000E+00
         0.00000E+00
         0.00000E+00
         0.00000E+00
         0.00000E+00
         0.00000E+00
         0.00000E+00
         0.00000E+00
         0.00000E+00
         0.00000E+00
         0.00000E+00
         0.00000E+00
         0.00000E+00
         0.00000E+00
         0.00000E+00
         0.00000E+00
         0.00000E+00
         0.00000E+00
         0.00000E+00
         0.00000E+00
         0.00000E+00
         0.00000E+00
         0.00000E+00
         0.00000E+00
         0.00000E+00
         0.00000E+00
         0.00000E+00
         0.00000E+00
         0.00000E+00
         0.00000E+00
         0.00000E+00
         0.00000E+00
         0.00000E+00
         0.00000E+00
         0.00000E+00
         0.00000E+00
         0.00000E+00
         0.00000E+00
         0.00000E+00
         0.00000E+00
         0.00000E+00
         0.00000E+00
         0.00000E+00
         0.00000E+00
         0.00000E+00
         0.00000E+00
         0.00000E+00
         0.00000E+00
         0.00000E+00
         0.00000E+00
         0.00000E+00
         0.00000E+00
         0.00000E+00
         0.00000E+00
         0.00000E+00
         0.00000E+00
         0.00000E+00
         0.00000E+00
         0.00000E+00
         0.00000E+00
         0.00000E+00
         0.00000E+00
         0.00000E+00
         0.00000E+00
         0.00000E+00
         0.00000E+00
         0.00000E+00
         0.00000E+00
         0.00000E+00
         0.00000E+00
         0.00000E+00
         0.00000E+00
         0.00000E+00
         0.00000E+00
         0.00000E+00
         0.00000E+00
         0.00000E+00
         0.00000E+00
         0.00000E+00
         0.00000E+00
         0.00000E+00
         0.00000E+00
         0.00000E+00
         0.00000E+00
         0.00000E+00
         0.00000E+00
         0.00000E+00
         0.00000E+00
         0.00000E+00
         0.00000E+00
         0.00000E+00
         0.00000E+00
         0.00000E+00
         0.00000E+00
         0.00000E+00
         0.00000E+00
         0.00000E+00
         0.00000E+00
         0.00000E+00
         0.00000E+00
         0.00000E+00
         0.00000E+00
         0.00000E+00
         0.00000E+00
         0.00000E+00
         0.00000E+00
         0.00000E+00
         0.00000E+00
         0.00000E+00
         0.00000E+00
         0.00000E+00
         0.00000E+00
         0.00000E+00
         0.00000E+00
         0.00000E+00
         0.00000E+00
         0.00000E+00
         0.00000E+00
         0.00000E+00
         0.00000E+00
         0.00000E+00
         0.00000E+00
         0.00000E+00
         0.00000E+00
         0.00000E+00
         0.00000E+00
         0.00000E+00
         0.00000E+00
         0.00000E+00
         0.00000E+00
         0.00000E+00
         0.00000E+00
         0.00000E+00
         0.00000E+00
         0.00000E+00
         0.00000E+00
         0.00000E+00
         0.00000E+00
         0.00000E+00
         0.00000E+00
         0.00000E+00
         0.00000E+00
         0.00000E+00
         0.00000E+00
         0.00000E+00
         0.00000E+00
         0.00000E+00
         0.00000E+00
         0.00000E+00
         0.00000E+00
         0.00000E+00
         0.00000E+00
         0.00000E+00
         0.00000E+00
         0.00000E+00
         0.00000E+00
         0.00000E+00
         0.00000E+00
         0.00000E+00
         0.00000E+00
         0.00000E+00
         0.00000E+00
         0.00000E+00
         0.00000E+00
         0.00000E+00
         0.00000E+00
         0.00000E+00
         0.00000E+00
         0.00000E+00
         0.00000E+00
         0.00000E+00
         0.00000E+00
         0.00000E+00
         0.00000E+00
         0.00000E+00
         0.00000E+00
         0.00000E+00
         0.00000E+00
         0.00000E+00
         0.00000E+00
         0.00000E+00
         0.00000E+00
         0.00000E+00
         0.00000E+00
         0.00000E+00
         0.00000E+00
         0.00000E+00
         0.00000E+00
         0.00000E+00
         0.00000E+00
         0.00000E+00
         0.00000E+00
         0.00000E+00
         0.00000E+00
         0.00000E+00
         0.00000E+00
         0.00000E+00
         0.00000E+00
         0.00000E+00
         0.00000E+00
         0.00000E+00
         0.00000E+00
         0.00000E+00
         0.00000E+00
         0.00000E+00
         0.00000E+00
         0.00000E+00
         0.00000E+00
         0.00000E+00
         0.00000E+00
         0.00000E+00
         0.00000E+00
         0.00000E+00
         0.00000E+00
         0.00000E+00
         0.00000E+00
         0.00000E+00
         0.00000E+00
         0.00000E+00
         0.00000E+00
         0.00000E+00
         0.00000E+00
         0.00000E+00
         0.00000E+00
         0.00000E+00
         0.00000E+00
         0.00000E+00
         0.00000E+00
         0.00000E+00
         0.00000E+00
         0.00000E+00
         0.00000E+00
         0.00000E+00
         0.00000E+00
         0.00000E+00
         0.00000E+00
         0.00000E+00
         0.00000E+00
         0.00000E+00
         0.00000E+00
         0.00000E+00
         0.00000E+00
         0.00000E+00
         0.00000E+00
         0.00000E+00
         0.00000E+00
         0.00000E+00
         0.00000E+00
         0.00000E+00
         0.00000E+00
         0.00000E+00
         0.00000E+00
         0.00000E+00
         0.00000E+00
         0.00000E+00
         0.00000E+00
         0.00000E+00
         0.00000E+00
         0.00000E+00
         0.00000E+00
         0.00000E+00
         0.00000E+00
         0.00000E+00
         0.00000E+00
         0.00000E+00
         0.00000E+00
         0.00000E+00
         0.00000E+00
         0.00000E+00
         0.00000E+00
         0.00000E+00
         0.00000E+00
         0.00000E+00
         0.00000E+00
         0.00000E+00
         0.00000E+00
         0.00000E+00
         0.00000E+00
         0.00000E+00
         0.00000E+00
         0.00000E+00
         0.00000E+00
         0.00000E+00
         0.00000E+00
         0.00000E+00
         0.00000E+00
         0.00000E+00
         0.00000E+00
         0.00000E+00
         0.00000E+00
         0.00000E+00
         0.00000E+00
         0.00000E+00
         0.00000E+00
         0.00000E+00
         0.00000E+00
         0.00000E+00
         0.00000E+00
         0.00000E+00
         0.00000E+00
         0.00000E+00
         0.00000E+00
         0.00000E+00
         0.00000E+00
         0.00000E+00
         0.00000E+00
         0.00000E+00
         0.00000E+00
         0.00000E+00
         0.00000E+00
         0.00000E+00
         0.00000E+00
         0.00000E+00
         0.00000E+00
         0.00000E+00
         0.00000E+00
         0.00000E+00
         0.00000E+00
         0.00000E+00
         0.00000E+00
         0.00000E+00
         0.00000E+00
         0.00000E+00
         0.00000E+00
         0.00000E+00
         0.00000E+00
         0.00000E+00
         0.00000E+00
         0.00000E+00
         0.00000E+00
         0.00000E+00
         0.00000E+00
         0.00000E+00
         0.00000E+00
         0.00000E+00
         0.00000E+00
         0.00000E+00
         0.00000E+00
         0.00000E+00
         0.00000E+00
         0.00000E+00
         0.00000E+00
         0.00000E+00
         0.00000E+00
         0.00000E+00
         0.00000E+00
         0.00000E+00
         0.00000E+00
         0.00000E+00
         0.00000E+00
         0.00000E+00
         0.00000E+00
         0.00000E+00
         0.00000E+00
         0.00000E+00
         0.00000E+00
         0.00000E+00
         0.00000E+00
         0.00000E+00
         0.00000E+00
         0.00000E+00
         0.00000E+00
         0.00000E+00
         0.00000E+00
         0.00000E+00
         0.00000E+00
         0.00000E+00
         0.00000E+00
         0.00000E+00
         0.00000E+00
         0.00000E+00
         0.00000E+00
         0.00000E+00
         0.00000E+00
         0.00000E+00
         0.00000E+00
         0.00000E+00
         0.00000E+00
         0.00000E+00
         0.00000E+00
         0.00000E+00
         0.00000E+00
         0.00000E+00
         0.00000E+00
         0.00000E+00
         0.00000E+00
         0.00000E+00
         0.00000E+00
         0.00000E+00
         0.00000E+00
         0.00000E+00
         0.00000E+00
         0.00000E+00
         0.00000E+00
         0.00000E+00
         0.00000E+00
         0.00000E+00
         0.00000E+00
         0.00000E+00
         0.00000E+00
         0.00000E+00
         0.00000E+00
         0.00000E+00
         0.00000E+00
         0.00000E+00
         0.00000E+00
         0.00000E+00
         0.00000E+00
         0.00000E+00
         0.00000E+00
         0.00000E+00
         0.00000E+00
         0.00000E+00
         0.00000E+00
         0.00000E+00
         0.00000E+00
         0.00000E+00
         0.00000E+00
         0.00000E+00
         0.00000E+00
         0.00000E+00
         0.00000E+00
         0.00000E+00
         0.00000E+00
         0.00000E+00
         0.00000E+00
         0.00000E+00
         0.00000E+00
         0.00000E+00
         0.00000E+00
         0.00000E+00
         0.00000E+00
         0.00000E+00
         0.00000E+00
         0.00000E+00
         0.00000E+00
         0.00000E+00
         0.00000E+00
         0.00000E+00
         0.00000E+00
         0.00000E+00
         0.00000E+00
         0.00000E+00
         0.00000E+00
         0.00000E+00
         0.00000E+00
         0.00000E+00
         0.00000E+00
         0.00000E+00
         0.00000E+00
         0.00000E+00
         0.00000E+00
         0.00000E+00
         0.00000E+00
         0.00000E+00
         0.00000E+00
         0.00000E+00
         0.00000E+00
         0.00000E+00
         0.00000E+00
         0.00000E+00
         0.00000E+00
         0.00000E+00
         0.00000E+00
         0.00000E+00
         0.00000E+00
         0.00000E+00
         0.00000E+00
         0.00000E+00
         0.00000E+00
         0.00000E+00
         0.00000E+00
         0.00000E+00
         0.00000E+00
         0.00000E+00
         0.00000E+00
         0.00000E+00
         0.00000E+00
         0.00000E+00
         0.00000E+00
         0.00000E+00
         0.00000E+00
         0.00000E+00
         0.00000E+00
         0.00000E+00
         0.00000E+00
         0.00000E+00
         0.00000E+00
         0.00000E+00
         0.00000E+00
         0.00000E+00
         0.00000E+00
         0.00000E+00
         0.00000E+00
         0.00000E+00
         0.00000E+00
         0.00000E+00
         0.00000E+00
         0.00000E+00
         0.00000E+00
         0.00000E+00
         0.00000E+00
         0.00000E+00
         0.00000E+00
         0.00000E+00
         0.00000E+00
         0.00000E+00
         0.00000E+00
         0.00000E+00
         0.00000E+00
         0.00000E+00
         0.00000E+00
         0.00000E+00
         0.00000E+00
         0.00000E+00
         0.00000E+00
         0.00000E+00
         0.00000E+00
         0.00000E+00
         0.00000E+00
         0.00000E+00
         0.00000E+00
         0.00000E+00
         0.00000E+00
         0.00000E+00
         0.00000E+00
         0.00000E+00
         0.00000E+00
         0.00000E+00
         0.00000E+00
         0.00000E+00
         0.00000E+00
         0.00000E+00
         0.00000E+00
         0.00000E+00
         0.00000E+00
         0.00000E+00
         0.00000E+00
         0.00000E+00
         0.00000E+00
         0.00000E+00
         0.00000E+00
         0.00000E+00
         0.00000E+00
         0.00000E+00
         0.00000E+00
         0.00000E+00
         0.00000E+00
         0.00000E+00
         0.00000E+00
         0.00000E+00
         0.00000E+00
         0.00000E+00
         0.00000E+00
         0.00000E+00
         0.00000E+00
         0.00000E+00
         0.00000E+00
         0.00000E+00
         0.00000E+00
         0.00000E+00
         0.00000E+00
         0.00000E+00
         0.00000E+00
         0.00000E+00
         0.00000E+00
         0.00000E+00
         0.00000E+00
         0.00000E+00
         0.00000E+00
         0.00000E+00
         0.00000E+00
         0.00000E+00
         0.00000E+00
         0.00000E+00
         0.00000E+00
         0.00000E+00
         0.00000E+00
         0.00000E+00
         0.00000E+00
         0.00000E+00
         0.00000E+00
         0.00000E+00
         0.00000E+00
         0.00000E+00
         0.00000E+00
         0.00000E+00
         0.00000E+00
         0.00000E+00
         0.00000E+00
         0.00000E+00
         0.00000E+00
         0.00000E+00
         0.00000E+00
         0.00000E+00
         0.00000E+00
         0.00000E+00
         0.00000E+00
         0.00000E+00
         0.00000E+00
         0.00000E+00
         0.00000E+00
         0.00000E+00
         0.00000E+00
         0.00000E+00
         0.00000E+00
         0.00000E+00
         0.00000E+00
         0.00000E+00
         0.00000E+00
         0.00000E+00
         0.00000E+00
         0.00000E+00
         0.00000E+00
         0.00000E+00
         0.00000E+00
         0.00000E+00
         0.00000E+00
         0.00000E+00
         0.00000E+00
         0.00000E+00
         0.00000E+00
         0.00000E+00
         0.00000E+00
         0.00000E+00
         0.00000E+00
         0.00000E+00
         0.00000E+00
         0.00000E+00
         0.00000E+00
         0.00000E+00
         0.00000E+00
         0.00000E+00
         0.00000E+00
         0.00000E+00
         0.00000E+00
         0.00000E+00
         0.00000E+00
         0.00000E+00
         0.00000E+00
         0.00000E+00
         0.00000E+00
         0.00000E+00
         0.00000E+00
         0.00000E+00
         0.00000E+00
         0.00000E+00
         0.00000E+00
         0.00000E+00
         0.00000E+00
         0.00000E+00
         0.00000E+00
         0.00000E+00
         0.00000E+00
         0.00000E+00
         0.00000E+00
         0.00000E+00
         0.00000E+00
         0.00000E+00
         0.00000E+00
         0.00000E+00
         0.00000E+00
         0.00000E+00
         0.00000E+00
         0.00000E+00
         0.00000E+00
         0.00000E+00
         0.00000E+00
         0.00000E+00
         0.00000E+00
         0.00000E+00
         0.00000E+00
         0.00000E+00
         0.00000E+00
         0.00000E+00
         0.00000E+00
         0.00000E+00
         0.00000E+00
         0.00000E+00
         0.00000E+00
         0.00000E+00
         0.00000E+00
         0.00000E+00
         0.00000E+00
         0.00000E+00
         0.00000E+00
         0.00000E+00
         0.00000E+00
         0.00000E+00
         0.00000E+00
         0.00000E+00
         0.00000E+00
         0.00000E+00
         0.00000E+00
         0.00000E+00
         0.00000E+00
         0.00000E+00
         0.00000E+00
         0.00000E+00
         0.00000E+00
         0.00000E+00
         0.00000E+00
         0.00000E+00
         0.00000E+00
         0.00000E+00
         0.00000E+00
         0.00000E+00
         0.00000E+00
         0.00000E+00
         0.00000E+00
         0.00000E+00
         0.00000E+00
         0.00000E+00
         0.00000E+00
         0.00000E+00
         0.00000E+00
         0.00000E+00
         0.00000E+00
         0.00000E+00
         0.00000E+00
         0.00000E+00
         0.00000E+00
         0.00000E+00
         0.00000E+00
         0.00000E+00
         0.00000E+00
         0.00000E+00
         0.00000E+00
         0.00000E+00
         0.00000E+00
         0.00000E+00
         0.00000E+00
         0.00000E+00
         0.00000E+00
         0.00000E+00
         0.00000E+00
         0.00000E+00
         0.00000E+00
         0.00000E+00
         0.00000E+00
         0.00000E+00
         0.00000E+00
         0.00000E+00
         0.00000E+00
         0.00000E+00
         0.00000E+00
         0.00000E+00
         0.00000E+00
         0.00000E+00
         0.00000E+00
         0.00000E+00
         0.00000E+00
         0.00000E+00
         0.00000E+00
         0.00000E+00
         0.00000E+00
         0.00000E+00
         0.00000E+00
         0.00000E+00
         0.00000E+00
         0.00000E+00
         0.00000E+00
         0.00000E+00
         0.00000E+00
         0.00000E+00
         0.00000E+00
         0.00000E+00
         0.00000E+00
         0.00000E+00
         0.00000E+00
         0.00000E+00
         0.00000E+00
         0.00000E+00
         0.00000E+00
         0.00000E+00
         0.00000E+00
         0.00000E+00
         0.00000E+00
         0.00000E+00
         0.00000E+00
         0.00000E+00
         0.00000E+00
         0.00000E+00
         0.00000E+00
         0.00000E+00
         0.00000E+00
         0.00000E+00
         0.00000E+00
         0.00000E+00
         0.00000E+00
         0.00000E+00
         0.00000E+00
         0.00000E+00
         0.00000E+00
         0.00000E+00
         0.00000E+00
         0.00000E+00
         0.00000E+00
         0.00000E+00
         0.00000E+00
         0.00000E+00
         0.00000E+00
         0.00000E+00
         0.00000E+00
         0.00000E+00
         0.00000E+00
         0.00000E+00
         0.00000E+00
         0.00000E+00
         0.00000E+00
         0.00000E+00
         0.00000E+00
         0.00000E+00
         0.00000E+00
         0.00000E+00
         0.00000E+00
         0.00000E+00
         0.00000E+00
         0.00000E+00
         0.00000E+00
         0.00000E+00
         0.00000E+00
         0.00000E+00
         0.00000E+00
         0.00000E+00
         0.00000E+00
         0.00000E+00
         0.00000E+00
         0.00000E+00
         0.00000E+00
         0.00000E+00
         0.00000E+00
         0.00000E+00
         0.00000E+00
         0.00000E+00
         0.00000E+00
         0.00000E+00
         0.00000E+00
         0.00000E+00
         0.00000E+00
         0.00000E+00
         0.00000E+00
         0.00000E+00
         0.00000E+00
         0.00000E+00
         0.00000E+00
         0.00000E+00
         0.00000E+00
         0.00000E+00
         0.00000E+00
         0.00000E+00
         0.00000E+00
         0.00000E+00
         0.00000E+00
         0.00000E+00
         0.00000E+00
         0.00000E+00
         0.00000E+00
         0.00000E+00
         0.00000E+00
         0.00000E+00
         0.00000E+00
         0.00000E+00
         0.00000E+00
         0.00000E+00
         0.00000E+00
         0.00000E+00
         0.00000E+00
         0.00000E+00
         0.00000E+00
         0.00000E+00
         0.00000E+00
         0.00000E+00
         0.00000E+00
         0.00000E+00
         0.00000E+00
         0.00000E+00
         0.00000E+00
         0.00000E+00
         0.00000E+00
         0.00000E+00
         0.00000E+00
         0.00000E+00
         0.00000E+00
         0.00000E+00
         0.00000E+00
         0.00000E+00
         0.00000E+00
         0.00000E+00
         0.00000E+00
         0.00000E+00
         0.00000E+00
         0.00000E+00
         0.00000E+00
         0.00000E+00
         0.00000E+00
         0.00000E+00
         0.00000E+00
         0.00000E+00
         0.00000E+00
         0.00000E+00
         0.00000E+00
         0.00000E+00
         0.00000E+00
         0.00000E+00
         0.00000E+00
         0.00000E+00
         0.00000E+00
         0.00000E+00
         0.00000E+00
         0.00000E+00
         0.00000E+00
         0.00000E+00
         0.00000E+00
         0.00000E+00
         0.00000E+00
         0.00000E+00
         0.00000E+00
         0.00000E+00
         0.00000E+00
         0.00000E+00
         0.00000E+00
         0.00000E+00
         0.00000E+00
         0.00000E+00
         0.00000E+00
         0.00000E+00
         0.00000E+00
         0.00000E+00
         0.00000E+00
         0.00000E+00
         0.00000E+00
         0.00000E+00
         0.00000E+00
         0.00000E+00
         0.00000E+00
         0.00000E+00
         0.00000E+00
         0.00000E+00
         0.00000E+00
         0.00000E+00
         0.00000E+00
         0.00000E+00
         0.00000E+00
         0.00000E+00
         0.00000E+00
         0.00000E+00
         0.00000E+00
         0.00000E+00
         0.00000E+00
         0.00000E+00
         0.00000E+00
         0.00000E+00
         0.00000E+00
         0.00000E+00
         0.00000E+00
         0.00000E+00
         0.00000E+00
         0.00000E+00
         0.00000E+00
         0.00000E+00
         0.00000E+00
         0.00000E+00
         0.00000E+00
         0.00000E+00
         0.00000E+00
         0.00000E+00
         0.00000E+00
         0.00000E+00
         0.00000E+00
         0.00000E+00
         0.00000E+00
         0.00000E+00
         0.00000E+00
         0.00000E+00
         0.00000E+00
         0.00000E+00
         0.00000E+00
         0.00000E+00
         0.00000E+00
         0.00000E+00
         0.00000E+00
         0.00000E+00
         0.00000E+00
         0.00000E+00
         0.00000E+00
         0.00000E+00
         0.00000E+00
         0.00000E+00
         0.00000E+00
         0.00000E+00
         0.00000E+00
         0.00000E+00
         0.00000E+00
         0.00000E+00
         0.00000E+00
         0.00000E+00
         0.00000E+00
         0.00000E+00
         0.00000E+00
         0.00000E+00
  
SCALARS                      stress_xx  double 1
LOOKUP_TABLE default
         0.69595E+12
         0.68654E+12
         0.69251E+12
         0.70321E+12
        -0.14680E+03
        -0.16461E+03
        -0.15762E+03
        -0.14319E+03
         0.68621E+12
         0.68940E+12
        -0.14803E+03
        -0.14325E+03
         0.67289E+12
         0.67239E+12
        -0.17589E+03
        -0.16538E+03
         0.70164E+12
         0.67313E+12
        -0.12996E+03
        -0.14415E+03
         0.66264E+12
         0.65449E+12
         0.66745E+12
        -0.17433E+03
        -0.15224E+03
        -0.15721E+03
         0.65480E+12
         0.64289E+12
        -0.16724E+03
        -0.14104E+03
         0.70112E+12
         0.68873E+12
         0.71313E+12
        -0.14272E+03
        -0.13268E+03
        -0.12900E+03
         0.69395E+12
         0.67815E+12
        -0.15099E+03
        -0.13778E+03
         0.68770E+12
         0.67550E+12
        -0.13050E+03
        -0.11553E+03
         0.69801E+12
         0.70259E+12
        -0.14301E+03
        -0.15979E+03
         0.66571E+12
        -0.13970E+03
         0.70169E+12
        -0.16416E+03
         0.65137E+12
        -0.14753E+03
         0.64763E+12
        -0.14151E+03
         0.64769E+12
         0.66099E+12
        -0.14419E+03
        -0.14042E+03
         0.70087E+12
         0.69611E+12
        -0.14458E+03
        -0.16345E+03
         0.70385E+12
        -0.13951E+03
         0.69818E+12
        -0.15226E+03
         0.68327E+12
         0.68178E+12
        -0.14656E+03
        -0.15357E+03
         0.67841E+12
        -0.15486E+03
         0.63866E+12
        -0.12235E+03
         0.63657E+12
        -0.11876E+03
         0.63761E+12
        -0.12522E+03
         0.64337E+12
         0.64936E+12
        -0.11931E+03
        -0.12439E+03
         0.66142E+12
        -0.11585E+03
         0.69777E+12
        -0.15192E+03
         0.69211E+12
        -0.15549E+03
         0.68746E+12
         0.68490E+12
        -0.14932E+03
        -0.15106E+03
         0.68805E+12
        -0.13721E+03
         0.69029E+12
        -0.13525E+03
         0.68827E+12
        -0.14479E+03
         0.68755E+12
         0.68960E+12
        -0.14198E+03
        -0.14615E+03
         0.67632E+12
         0.68171E+12
        -0.11024E+03
        -0.10368E+03
         0.67530E+12
        -0.10526E+03
         0.68152E+12
        -0.10093E+03
         0.67538E+12
        -0.99521E+02
         0.66179E+12
        -0.94049E+02
         0.64860E+12
        -0.83552E+02
         0.64070E+12
        -0.75234E+02
         0.63989E+12
        -0.74711E+02
         0.64014E+12
        -0.81020E+02
         0.64871E+12
        -0.85150E+02
         0.66472E+12
        -0.77751E+02
         0.68228E+12
        -0.70084E+02
         0.69255E+12
        -0.70004E+02
         0.70269E+12
        -0.78247E+02
         0.70939E+12
        -0.89220E+02
         0.70914E+12
        -0.95850E+02
         0.69287E+12
        -0.10352E+03
         0.68152E+12
        -0.11090E+03
         0.67761E+12
        -0.10159E+03
         0.68370E+12
        -0.89126E+02
         0.68688E+12
        -0.88851E+02
         0.68156E+12
        -0.97213E+02
         0.68164E+12
        -0.10364E+03
         0.68565E+12
        -0.98350E+02
         0.69089E+12
        -0.95081E+02
        -0.32214E+11
        -0.32136E+11
        -0.32147E+11
        -0.32242E+11
        -0.32042E+11
        -0.32157E+11
        -0.32010E+11
        -0.32092E+11
        -0.32229E+11
        -0.32150E+11
        -0.31909E+11
        -0.31876E+11
        -0.31962E+11
        -0.31968E+11
        -0.31913E+11
        -0.32238E+11
        -0.32223E+11
        -0.32263E+11
        -0.32126E+11
        -0.32156E+11
        -0.32112E+11
        -0.32142E+11
        -0.32086E+11
        -0.32101E+11
        -0.32154E+11
        -0.32150E+11
        -0.32055E+11
        -0.32064E+11
        -0.31983E+11
        -0.32102E+11
        -0.32231E+11
        -0.32134E+11
        -0.32230E+11
        -0.32170E+11
        -0.31852E+11
        -0.31972E+11
        -0.32023E+11
        -0.31962E+11
        -0.31954E+11
        -0.31843E+11
        -0.31755E+11
        -0.31959E+11
        -0.32114E+11
        -0.32095E+11
        -0.32018E+11
        -0.31857E+11
        -0.31996E+11
        -0.32120E+11
        -0.32112E+11
        -0.32017E+11
        -0.31904E+11
        -0.32053E+11
        -0.31436E+11
        -0.31698E+11
        -0.31663E+11
        -0.31710E+11
        -0.31700E+11
        -0.31566E+11
        -0.31412E+11
        -0.31360E+11
        -0.31383E+11
        -0.31366E+11
        -0.31297E+11
        -0.31691E+11
        -0.31782E+11
        -0.31816E+11
        -0.31871E+11
        -0.31911E+11
        -0.31909E+11
        -0.31840E+11
        -0.31530E+11
        -0.31627E+11
        -0.31736E+11
        -0.31735E+11
        -0.31719E+11
        -0.31607E+11
        -0.31760E+11
        -0.31805E+11
         0.10807E+07
         0.48105E+06
         0.60691E+06
         0.58678E+06
         0.34835E+06
         0.69930E+06
        -0.39997E+06
        -0.85715E+06
         0.13582E+07
        -0.94213E+06
        -0.10502E+07
        -0.41655E+05
        -0.79446E+05
        -0.32279E+07
        -0.10127E+07
        -0.24074E+06
         0.20379E+06
         0.66014E+06
        -0.18389E+05
        -0.12437E+06
        -0.11554E+07
        -0.55931E+06
        -0.16372E+07
        -0.62092E+06
        -0.10405E+07
        -0.15411E+06
        -0.41145E+07
        -0.22111E+07
        -0.13331E+07
        -0.10226E+07
        -0.13191E+06
        -0.42502E+06
         0.57036E+06
         0.10352E+07
        -0.96442E+06
        -0.65539E+06
        -0.31207E+06
        -0.12817E+07
        -0.83241E+06
        -0.52378E+06
        -0.75035E+06
        -0.13011E+07
        -0.11047E+07
        -0.13327E+07
        -0.10013E+07
        -0.43747E+06
        -0.19912E+06
        -0.22982E+06
         0.57982E+06
         0.96084E+06
         0.35632E+06
         0.47589E+06
        -0.27395E+07
        -0.56631E+06
        -0.15962E+07
         0.36716E+06
         0.20400E+07
         0.32346E+07
         0.26754E+07
         0.29084E+07
         0.23092E+07
         0.12232E+07
         0.28373E+06
        -0.45073E+06
        -0.11132E+07
        -0.24457E+06
        -0.17419E+07
        -0.27083E+07
        -0.22609E+07
        -0.19820E+07
        -0.10555E+07
         0.57046E+06
         0.56383E+06
         0.48747E+05
        -0.87351E+06
        -0.14093E+07
        -0.93392E+06
        -0.90646E+05
         0.10140E+07
         0.41723E+06
         0.54460E+06
         0.53699E+06
         0.26945E+06
         0.62927E+06
        -0.46042E+06
        -0.93257E+06
         0.12929E+07
        -0.10243E+07
        -0.11226E+07
        -0.14636E+06
        -0.16969E+06
        -0.33065E+07
        -0.11165E+07
        -0.31035E+06
         0.13987E+06
         0.61372E+06
        -0.89514E+05
        -0.18923E+06
        -0.12446E+07
        -0.64622E+06
        -0.17290E+07
        -0.68708E+06
        -0.11260E+07
        -0.21538E+06
        -0.41920E+07
        -0.22759E+07
        -0.14069E+07
        -0.11114E+07
        -0.19757E+06
        -0.48272E+06
         0.51952E+06
         0.98639E+06
        -0.10557E+07
        -0.73076E+06
        -0.39026E+06
        -0.13864E+07
        -0.92924E+06
        -0.61893E+06
        -0.85346E+06
        -0.14018E+07
        -0.12001E+07
        -0.14202E+07
        -0.10835E+07
        -0.52948E+06
        -0.28126E+06
        -0.30644E+06
         0.51210E+06
         0.89107E+06
         0.27252E+06
         0.40160E+06
        -0.29090E+07
        -0.73165E+06
        -0.17589E+07
         0.21119E+06
         0.18751E+07
         0.30508E+07
         0.24919E+07
         0.27227E+07
         0.21217E+07
         0.10315E+07
         0.92890E+05
        -0.62713E+06
        -0.12604E+07
        -0.38207E+06
        -0.18861E+07
        -0.28622E+07
        -0.24182E+07
        -0.21465E+07
        -0.12205E+07
         0.39592E+06
         0.39922E+06
        -0.99952E+05
        -0.10223E+07
        -0.15618E+07
        -0.10881E+07
        -0.24768E+06
         0.10295E+07
         0.42974E+06
         0.55783E+06
         0.55121E+06
         0.29090E+06
         0.64887E+06
        -0.45024E+06
        -0.91442E+06
         0.13043E+07
        -0.10204E+07
        -0.11070E+07
        -0.12648E+06
        -0.15278E+06
        -0.32845E+07
        -0.10906E+07
        -0.32482E+06
         0.13644E+06
         0.62752E+06
        -0.10698E+06
        -0.20086E+06
        -0.12591E+07
        -0.65174E+06
        -0.17891E+07
        -0.73485E+06
        -0.11633E+07
        -0.25839E+06
        -0.41769E+07
        -0.22833E+07
        -0.14384E+07
        -0.11736E+07
        -0.19822E+06
        -0.49577E+06
         0.53535E+06
         0.10031E+07
        -0.10323E+07
        -0.71130E+06
        -0.37271E+06
        -0.13688E+07
        -0.91427E+06
        -0.61427E+06
        -0.85615E+06
        -0.14385E+07
        -0.12514E+07
        -0.14788E+07
        -0.10974E+07
        -0.51670E+06
        -0.26624E+06
        -0.28960E+06
         0.53072E+06
         0.91252E+06
         0.29655E+06
         0.42297E+06
        -0.28584E+07
        -0.68624E+06
        -0.17086E+07
         0.24984E+06
         0.19039E+07
         0.30793E+07
         0.25283E+07
         0.27591E+07
         0.21588E+07
         0.10699E+07
         0.11547E+06
        -0.62794E+06
        -0.12580E+07
        -0.35671E+06
        -0.18693E+07
        -0.28934E+07
        -0.24519E+07
        -0.21377E+07
        -0.11751E+07
         0.44841E+06
         0.44624E+06
        -0.52482E+05
        -0.96891E+06
        -0.15169E+07
        -0.10517E+07
        -0.21257E+06
         0.10199E+07
         0.42430E+06
         0.55260E+06
         0.54391E+06
         0.28403E+06
         0.64344E+06
        -0.45710E+06
        -0.92349E+06
         0.12858E+07
        -0.10553E+07
        -0.11138E+07
        -0.13742E+06
        -0.16021E+06
        -0.32918E+07
        -0.11033E+07
        -0.38039E+06
         0.98623E+05
         0.62003E+06
        -0.16916E+06
        -0.25530E+06
        -0.13267E+07
        -0.71177E+06
        -0.19291E+07
        -0.84161E+06
        -0.12650E+07
        -0.35610E+06
        -0.41982E+07
        -0.23356E+07
        -0.15285E+07
        -0.13224E+07
        -0.23060E+06
        -0.54793E+06
         0.52897E+06
         0.99561E+06
        -0.10443E+07
        -0.71855E+06
        -0.37878E+06
        -0.13885E+07
        -0.93847E+06
        -0.65781E+06
        -0.91457E+06
        -0.15525E+07
        -0.13909E+07
        -0.16169E+07
        -0.11653E+07
        -0.55368E+06
        -0.29258E+06
        -0.30414E+06
         0.51926E+06
         0.89932E+06
         0.28409E+06
         0.41509E+06
        -0.28820E+07
        -0.70245E+06
        -0.17342E+07
         0.22734E+06
         0.18888E+07
         0.30619E+07
         0.24990E+07
         0.27274E+07
         0.21283E+07
         0.10328E+07
         0.56684E+05
        -0.72282E+06
        -0.13472E+07
        -0.39900E+06
        -0.19170E+07
        -0.30243E+07
        -0.25906E+07
        -0.22027E+07
        -0.12059E+07
         0.41899E+06
         0.42391E+06
        -0.78915E+05
        -0.99637E+06
        -0.15356E+07
        -0.10659E+07
        -0.22681E+06
         0.10026E+07
         0.41330E+06
         0.54352E+06
         0.53635E+06
         0.27600E+06
         0.63565E+06
        -0.46681E+06
        -0.93912E+06
         0.12635E+07
        -0.10917E+07
        -0.11212E+07
        -0.14427E+06
        -0.16849E+06
        -0.33001E+07
        -0.11092E+07
        -0.41824E+06
         0.68569E+05
         0.61315E+06
        -0.21007E+06
        -0.29426E+06
        -0.13701E+07
        -0.75488E+06
        -0.20152E+07
        -0.90778E+06
        -0.13387E+07
        -0.41879E+06
        -0.42166E+07
        -0.23729E+07
        -0.15915E+07
        -0.14214E+07
        -0.26446E+06
        -0.58594E+06
         0.51488E+06
         0.98493E+06
        -0.10567E+07
        -0.72792E+06
        -0.38800E+06
        -0.14032E+07
        -0.95862E+06
        -0.69098E+06
        -0.95576E+06
        -0.16293E+07
        -0.14824E+07
        -0.17046E+07
        -0.12098E+07
        -0.57803E+06
        -0.31594E+06
        -0.32722E+06
         0.49929E+06
         0.87980E+06
         0.26452E+06
         0.40214E+06
        -0.29033E+07
        -0.71659E+06
        -0.17560E+07
         0.20983E+06
         0.18818E+07
         0.30568E+07
         0.24865E+07
         0.27063E+07
         0.21024E+07
         0.10099E+07
         0.20905E+05
        -0.78846E+06
        -0.14080E+07
        -0.43169E+06
        -0.19506E+07
        -0.31092E+07
        -0.26878E+07
        -0.22491E+07
        -0.12199E+07
         0.39226E+06
         0.39429E+06
        -0.10925E+06
        -0.10318E+07
        -0.15661E+07
        -0.10848E+07
        -0.24100E+06
         0.96075E+06
         0.39221E+06
         0.53454E+06
         0.54406E+06
         0.28739E+06
         0.64950E+06
        -0.47414E+06
        -0.96714E+06
         0.12320E+07
        -0.11411E+07
        -0.11143E+07
        -0.12101E+06
        -0.15973E+06
        -0.32945E+07
        -0.10796E+07
        -0.41220E+06
         0.61404E+05
         0.62727E+06
        -0.20162E+06
        -0.28758E+06
        -0.13571E+07
        -0.73964E+06
        -0.20133E+07
        -0.90917E+06
        -0.13708E+07
        -0.42781E+06
        -0.42210E+07
        -0.23760E+07
        -0.15913E+07
        -0.14252E+07
        -0.30477E+06
        -0.60601E+06
         0.49017E+06
         0.98273E+06
        -0.10465E+07
        -0.72653E+06
        -0.38955E+06
        -0.13853E+07
        -0.94338E+06
        -0.67408E+06
        -0.93572E+06
        -0.16177E+07
        -0.14727E+07
        -0.17098E+07
        -0.12151E+07
        -0.58198E+06
        -0.33612E+06
        -0.37332E+06
         0.45021E+06
         0.85326E+06
         0.25822E+06
         0.40867E+06
        -0.28617E+07
        -0.67358E+06
        -0.17209E+07
         0.23325E+06
         0.19065E+07
         0.30902E+07
         0.25244E+07
         0.27426E+07
         0.21442E+07
         0.10651E+07
         0.69135E+05
        -0.75934E+06
        -0.13759E+07
        -0.39819E+06
        -0.19184E+07
        -0.30834E+07
        -0.26690E+07
        -0.22304E+07
        -0.11974E+07
         0.40773E+06
         0.39098E+06
        -0.13034E+06
        -0.10455E+07
        -0.15589E+07
        -0.10639E+07
        -0.21117E+06
         0.89716E+06
         0.35491E+06
         0.51307E+06
         0.53980E+06
         0.27946E+06
         0.64934E+06
        -0.49976E+06
        -0.10227E+07
         0.11786E+07
        -0.12142E+07
        -0.11313E+07
        -0.13007E+06
        -0.17450E+06
        -0.33180E+07
        -0.10856E+07
        -0.42406E+06
         0.36657E+05
         0.62589E+06
        -0.20876E+06
        -0.29596E+06
        -0.13630E+07
        -0.74382E+06
        -0.20201E+07
        -0.91729E+06
        -0.14158E+07
        -0.44381E+06
        -0.42524E+07
        -0.23945E+07
        -0.16010E+07
        -0.14372E+07
        -0.36075E+06
        -0.63870E+06
         0.45163E+06
         0.96831E+06
        -0.10610E+07
        -0.74201E+06
        -0.40782E+06
        -0.14007E+07
        -0.95814E+06
        -0.68235E+06
        -0.93929E+06
        -0.16198E+07
        -0.14736E+07
        -0.17229E+07
        -0.12396E+07
        -0.61650E+06
        -0.38273E+06
        -0.44237E+06
         0.38021E+06
         0.80693E+06
         0.23198E+06
         0.39998E+06
        -0.28790E+07
        -0.68700E+06
        -0.17311E+07
         0.22144E+06
         0.18895E+07
         0.30697E+07
         0.25074E+07
         0.27280E+07
         0.21297E+07
         0.10542E+07
         0.60443E+05
        -0.76990E+06
        -0.13777E+07
        -0.40080E+06
        -0.19255E+07
        -0.30875E+07
        -0.26772E+07
        -0.22598E+07
        -0.12410E+07
         0.35955E+06
         0.33691E+06
        -0.19717E+06
        -0.11041E+07
        -0.15899E+07
        -0.10807E+07
        -0.22436E+06
         0.87852E+06
         0.34102E+06
         0.50426E+06
         0.53376E+06
         0.27087E+06
         0.64181E+06
        -0.51377E+06
        -0.10412E+07
         0.11632E+07
        -0.12359E+07
        -0.11432E+07
        -0.14277E+06
        -0.18906E+06
        -0.33299E+07
        -0.10961E+07
        -0.43480E+06
         0.26535E+05
         0.62078E+06
        -0.21530E+06
        -0.30238E+06
        -0.13723E+07
        -0.75372E+06
        -0.20290E+07
        -0.92350E+06
        -0.14325E+07
        -0.45298E+06
        -0.42658E+07
        -0.24037E+07
        -0.16153E+07
        -0.14488E+07
        -0.37962E+06
        -0.65154E+06
         0.44053E+06
         0.96051E+06
        -0.10733E+07
        -0.75025E+06
        -0.41890E+06
        -0.14201E+07
        -0.97511E+06
        -0.69933E+06
        -0.95661E+06
        -0.16339E+07
        -0.14825E+07
        -0.17346E+07
        -0.12541E+07
        -0.63262E+06
        -0.39800E+06
        -0.45967E+06
         0.36297E+06
         0.79084E+06
         0.21581E+06
         0.38903E+06
        -0.29028E+07
        -0.71034E+06
        -0.17469E+07
         0.20511E+06
         0.18697E+07
         0.30524E+07
         0.24895E+07
         0.27032E+07
         0.20971E+07
         0.10200E+07
         0.29427E+05
        -0.78392E+06
        -0.13889E+07
        -0.42457E+06
        -0.19506E+07
        -0.31113E+07
        -0.27080E+07
        -0.22895E+07
        -0.12659E+07
         0.33940E+06
         0.32049E+06
        -0.21943E+06
        -0.11334E+07
        -0.16173E+07
        -0.11038E+07
        -0.24732E+06
         0.89013E+06
         0.35028E+06
         0.51103E+06
         0.53672E+06
         0.28142E+06
         0.64493E+06
        -0.50764E+06
        -0.10260E+07
         0.11739E+07
        -0.12216E+07
        -0.11339E+07
        -0.13021E+06
        -0.18006E+06
        -0.33129E+07
        -0.10758E+07
        -0.42246E+06
         0.35845E+05
         0.62780E+06
        -0.20290E+06
        -0.29210E+06
        -0.13591E+07
        -0.74150E+06
        -0.20159E+07
        -0.91270E+06
        -0.14224E+07
        -0.44328E+06
        -0.42468E+07
        -0.23901E+07
        -0.16097E+07
        -0.14383E+07
        -0.37001E+06
        -0.64399E+06
         0.44892E+06
         0.96401E+06
        -0.10600E+07
        -0.74006E+06
        -0.40999E+06
        -0.14069E+07
        -0.96491E+06
        -0.69036E+06
        -0.94482E+06
        -0.16215E+07
        -0.14694E+07
        -0.17226E+07
        -0.12440E+07
        -0.62218E+06
        -0.38772E+06
        -0.44801E+06
         0.37457E+06
         0.79984E+06
         0.22290E+06
         0.39205E+06
        -0.28672E+07
        -0.67536E+06
        -0.17260E+07
         0.21366E+06
         0.18872E+07
         0.30794E+07
         0.25197E+07
         0.27247E+07
         0.21055E+07
         0.10328E+07
         0.52338E+05
        -0.75139E+06
        -0.13604E+07
        -0.40614E+06
        -0.19333E+07
        -0.30913E+07
        -0.26876E+07
        -0.22643E+07
        -0.12419E+07
         0.36745E+06
         0.34950E+06
        -0.19357E+06
        -0.11117E+07
        -0.15981E+07
        -0.10846E+07
        -0.22656E+06
         0.88697E+06
         0.34938E+06
         0.50926E+06
         0.53297E+06
         0.28012E+06
         0.64116E+06
        -0.51118E+06
        -0.10303E+07
         0.11665E+07
        -0.12298E+07
        -0.11387E+07
        -0.13795E+06
        -0.18246E+06
        -0.33176E+07
        -0.10868E+07
        -0.42936E+06
         0.29234E+05
         0.62224E+06
        -0.20829E+06
        -0.29691E+06
        -0.13638E+07
        -0.74778E+06
        -0.20206E+07
        -0.91682E+06
        -0.14280E+07
        -0.44719E+06
        -0.42512E+07
        -0.23900E+07
        -0.16160E+07
        -0.14439E+07
        -0.37650E+06
        -0.64782E+06
         0.44377E+06
         0.95841E+06
        -0.10647E+07
        -0.74358E+06
        -0.41243E+06
        -0.14236E+07
        -0.97466E+06
        -0.69924E+06
        -0.95327E+06
        -0.16271E+07
        -0.14769E+07
        -0.17257E+07
        -0.12471E+07
        -0.62726E+06
        -0.39471E+06
        -0.45602E+06
         0.36787E+06
         0.79354E+06
         0.21664E+06
         0.38586E+06
        -0.28774E+07
        -0.68340E+06
        -0.17425E+07
         0.19951E+06
         0.18853E+07
         0.30694E+07
         0.24965E+07
         0.26987E+07
         0.20904E+07
         0.10100E+07
         0.27476E+05
        -0.76376E+06
        -0.13751E+07
        -0.41416E+06
        -0.19409E+07
        -0.30985E+07
        -0.26886E+07
        -0.22693E+07
        -0.12489E+07
         0.34846E+06
         0.32608E+06
        -0.21165E+06
        -0.11207E+07
        -0.16025E+07
        -0.10949E+07
        -0.24126E+06
         0.87833E+06
         0.34225E+06
         0.50421E+06
         0.53118E+06
         0.27426E+06
         0.63899E+06
        -0.51814E+06
        -0.10371E+07
         0.11599E+07
        -0.12380E+07
        -0.11443E+07
        -0.14819E+06
        -0.18920E+06
        -0.33208E+07
        -0.10981E+07
        -0.43870E+06
         0.23962E+05
         0.61947E+06
        -0.21494E+06
        -0.30032E+06
        -0.13699E+07
        -0.75418E+06
        -0.20276E+07
        -0.92322E+06
        -0.14336E+07
        -0.45440E+06
        -0.42544E+07
        -0.23915E+07
        -0.16227E+07
        -0.14480E+07
        -0.38545E+06
        -0.65420E+06
         0.44168E+06
         0.95794E+06
        -0.10756E+07
        -0.74997E+06
        -0.41830E+06
        -0.14399E+07
        -0.98551E+06
        -0.70706E+06
        -0.95811E+06
        -0.16320E+07
        -0.14838E+07
        -0.17319E+07
        -0.12529E+07
        -0.63413E+06
        -0.40122E+06
        -0.46300E+06
         0.36148E+06
         0.78801E+06
         0.21070E+06
         0.38328E+06
        -0.28979E+07
        -0.70046E+06
        -0.17550E+07
         0.19522E+06
         0.18798E+07
         0.30493E+07
         0.24673E+07
         0.26752E+07
         0.20748E+07
         0.99368E+06
         0.17315E+05
        -0.77598E+06
        -0.13927E+07
        -0.42610E+06
        -0.19536E+07
        -0.31131E+07
        -0.26983E+07
        -0.22807E+07
        -0.12629E+07
         0.33280E+06
         0.30830E+06
        -0.23014E+06
        -0.11338E+07
        -0.16150E+07
        -0.11107E+07
        -0.25798E+06
         0.88376E+06
         0.34508E+06
         0.50670E+06
         0.53589E+06
         0.28159E+06
         0.64573E+06
        -0.51497E+06
        -0.10262E+07
         0.11651E+07
        -0.12318E+07
        -0.11355E+07
        -0.13963E+06
        -0.18660E+06
        -0.33050E+07
        -0.10792E+07
        -0.43209E+06
         0.27586E+05
         0.62646E+06
        -0.20746E+06
        -0.29194E+06
        -0.13593E+07
        -0.74325E+06
        -0.20187E+07
        -0.91662E+06
        -0.14294E+07
        -0.44833E+06
        -0.42423E+07
        -0.23824E+07
        -0.16160E+07
        -0.14365E+07
        -0.37804E+06
        -0.64900E+06
         0.45143E+06
         0.96564E+06
        -0.10675E+07
        -0.74332E+06
        -0.41447E+06
        -0.14293E+07
        -0.97537E+06
        -0.69364E+06
        -0.94496E+06
        -0.16227E+07
        -0.14733E+07
        -0.17244E+07
        -0.12466E+07
        -0.62830E+06
        -0.39490E+06
        -0.45601E+06
         0.36917E+06
         0.79567E+06
         0.21813E+06
         0.39117E+06
        -0.28719E+07
        -0.67226E+06
        -0.17284E+07
         0.20818E+06
         0.18756E+07
         0.30506E+07
         0.24882E+07
         0.26983E+07
         0.20905E+07
         0.10174E+07
         0.39825E+05
        -0.76527E+06
        -0.13737E+07
        -0.40679E+06
        -0.19361E+07
        -0.30997E+07
        -0.26890E+07
        -0.22692E+07
        -0.12520E+07
         0.34968E+06
         0.32834E+06
        -0.21092E+06
        -0.11170E+07
        -0.16008E+07
        -0.10899E+07
        -0.23361E+06
         0.87967E+06
         0.33935E+06
         0.50180E+06
         0.53157E+06
         0.27561E+06
         0.64013E+06
        -0.52325E+06
        -0.10323E+07
         0.11598E+07
        -0.12419E+07
        -0.11437E+07
        -0.15234E+06
        -0.20000E+06
        -0.33118E+07
        -0.10871E+07
        -0.43977E+06
         0.20839E+05
         0.62045E+06
        -0.21561E+06
        -0.29775E+06
        -0.13706E+07
        -0.75484E+06
        -0.20308E+07
        -0.92400E+06
        -0.14397E+07
        -0.45467E+06
        -0.42538E+07
        -0.23913E+07
        -0.16277E+07
        -0.14436E+07
        -0.38644E+06
        -0.65502E+06
         0.44481E+06
         0.96063E+06
        -0.10779E+07
        -0.75085E+06
        -0.42427E+06
        -0.14470E+07
        -0.99246E+06
        -0.70839E+06
        -0.96115E+06
        -0.16380E+07
        -0.14850E+07
        -0.17372E+07
        -0.12576E+07
        -0.63833E+06
        -0.40427E+06
        -0.46683E+06
         0.36088E+06
         0.78944E+06
         0.21017E+06
         0.38409E+06
        -0.28922E+07
        -0.68973E+06
        -0.17484E+07
         0.18507E+06
         0.18488E+07
         0.30249E+07
         0.24724E+07
         0.26779E+07
         0.20640E+07
         0.99110E+06
         0.77406E+04
        -0.79695E+06
        -0.13947E+07
        -0.42857E+06
        -0.19550E+07
        -0.31212E+07
        -0.27222E+07
        -0.22990E+07
        -0.12668E+07
         0.32900E+06
         0.30713E+06
        -0.22181E+06
        -0.11243E+07
        -0.16163E+07
        -0.11112E+07
        -0.25490E+06
         0.87885E+06
         0.33739E+06
         0.50032E+06
         0.53082E+06
         0.27543E+06
         0.63898E+06
        -0.52640E+06
        -0.10318E+07
         0.11607E+07
        -0.12419E+07
        -0.11447E+07
        -0.15416E+06
        -0.20233E+06
        -0.33084E+07
        -0.10862E+07
        -0.44179E+06
         0.20956E+05
         0.61999E+06
        -0.21636E+06
        -0.29748E+06
        -0.13728E+07
        -0.75657E+06
        -0.20335E+07
        -0.92546E+06
        -0.14416E+07
        -0.45664E+06
        -0.42515E+07
        -0.23915E+07
        -0.16333E+07
        -0.14454E+07
        -0.39131E+06
        -0.65731E+06
         0.44331E+06
         0.96012E+06
        -0.10806E+07
        -0.75300E+06
        -0.42709E+06
        -0.14557E+07
        -0.10025E+07
        -0.71468E+06
        -0.96297E+06
        -0.16398E+07
        -0.14867E+07
        -0.17391E+07
        -0.12593E+07
        -0.64065E+06
        -0.40716E+06
        -0.47119E+06
         0.35773E+06
         0.78815E+06
         0.20880E+06
         0.38261E+06
        -0.28927E+07
        -0.68927E+06
        -0.17537E+07
         0.17616E+06
         0.18483E+07
         0.30244E+07
         0.24660E+07
         0.26609E+07
         0.20449E+07
         0.98057E+06
         0.67078E+04
        -0.80005E+06
        -0.14000E+07
        -0.43703E+06
        -0.19648E+07
        -0.31282E+07
        -0.27266E+07
        -0.23029E+07
        -0.12709E+07
         0.32153E+06
         0.29782E+06
        -0.22778E+06
        -0.11248E+07
        -0.16182E+07
        -0.11207E+07
        -0.26357E+06
         0.89623E+06
         0.35509E+06
         0.51506E+06
         0.54181E+06
         0.29576E+06
         0.65372E+06
        -0.51103E+06
        -0.10100E+07
         0.11735E+07
        -0.12254E+07
        -0.11244E+07
        -0.12688E+06
        -0.17888E+06
        -0.32832E+07
        -0.10583E+07
        -0.42668E+06
         0.33851E+05
         0.63215E+06
        -0.20002E+06
        -0.28108E+06
        -0.13495E+07
        -0.73500E+06
        -0.20118E+07
        -0.91105E+06
        -0.14241E+07
        -0.44288E+06
        -0.42274E+07
        -0.23694E+07
        -0.16169E+07
        -0.14239E+07
        -0.37547E+06
        -0.64293E+06
         0.45729E+06
         0.97018E+06
        -0.10583E+07
        -0.73439E+06
        -0.40770E+06
        -0.14388E+07
        -0.98181E+06
        -0.69244E+06
        -0.94095E+06
        -0.16181E+07
        -0.14671E+07
        -0.17167E+07
        -0.12369E+07
        -0.61780E+06
        -0.38733E+06
        -0.45313E+06
         0.37310E+06
         0.80196E+06
         0.22411E+06
         0.39612E+06
        -0.28454E+07
        -0.64221E+06
        -0.17140E+07
         0.20482E+06
         0.18834E+07
         0.30688E+07
         0.25031E+07
         0.26890E+07
         0.20767E+07
         0.10153E+07
         0.38007E+05
        -0.76337E+06
        -0.13709E+07
        -0.40473E+06
        -0.19281E+07
        -0.30899E+07
        -0.26833E+07
        -0.22563E+07
        -0.12309E+07
         0.36327E+06
         0.33348E+06
        -0.20128E+06
        -0.10954E+07
        -0.15834E+07
        -0.10830E+07
        -0.22552E+06
         0.88879E+06
         0.34992E+06
         0.51051E+06
         0.53628E+06
         0.28810E+06
         0.64792E+06
        -0.51866E+06
        -0.10182E+07
         0.11657E+07
        -0.12382E+07
        -0.11325E+07
        -0.13666E+06
        -0.18492E+06
        -0.32906E+07
        -0.10698E+07
        -0.43636E+06
         0.25388E+05
         0.62741E+06
        -0.21080E+06
        -0.28843E+06
        -0.13570E+07
        -0.74557E+06
        -0.20192E+07
        -0.91993E+06
        -0.14361E+07
        -0.45178E+06
        -0.42377E+07
        -0.23751E+07
        -0.16221E+07
        -0.14290E+07
        -0.38183E+06
        -0.64979E+06
         0.45336E+06
         0.96396E+06
        -0.10716E+07
        -0.74116E+06
        -0.41237E+06
        -0.14587E+07
        -0.99584E+06
        -0.69924E+06
        -0.95115E+06
        -0.16300E+07
        -0.14805E+07
        -0.17262E+07
        -0.12464E+07
        -0.62724E+06
        -0.39509E+06
        -0.45928E+06
         0.36617E+06
         0.79262E+06
         0.21454E+06
         0.38885E+06
        -0.28754E+07
        -0.66744E+06
        -0.17370E+07
         0.19261E+06
         0.18793E+07
         0.30573E+07
         0.24778E+07
         0.26585E+07
         0.20474E+07
         0.98911E+06
         0.70804E+04
        -0.79876E+06
        -0.13960E+07
        -0.41715E+06
        -0.19340E+07
        -0.30937E+07
        -0.26954E+07
        -0.22773E+07
        -0.12464E+07
         0.34467E+06
         0.31650E+06
        -0.22042E+06
        -0.11157E+07
        -0.15963E+07
        -0.10951E+07
        -0.24566E+06
         0.87643E+06
         0.33685E+06
         0.49801E+06
         0.52859E+06
         0.27546E+06
         0.63641E+06
        -0.52997E+06
        -0.10280E+07
         0.11544E+07
        -0.12610E+07
        -0.11424E+07
        -0.15244E+06
        -0.19802E+06
        -0.32981E+07
        -0.10845E+07
        -0.44809E+06
         0.12563E+05
         0.62177E+06
        -0.21964E+06
        -0.29149E+06
        -0.13663E+07
        -0.75795E+06
        -0.20281E+07
        -0.92757E+06
        -0.14566E+07
        -0.46052E+06
        -0.42615E+07
        -0.23852E+07
        -0.16023E+07
        -0.14138E+07
        -0.39264E+06
        -0.65948E+06
         0.44947E+06
         0.95986E+06
        -0.10866E+07
        -0.75260E+06
        -0.42389E+06
        -0.14880E+07
        -0.10097E+07
        -0.67875E+06
        -0.95206E+06
        -0.16430E+07
        -0.14985E+07
        -0.17365E+07
        -0.12585E+07
        -0.64242E+06
        -0.40878E+06
        -0.47012E+06
         0.35814E+06
         0.78511E+06
         0.20609E+06
         0.37986E+06
        -0.28953E+07
        -0.68577E+06
        -0.17527E+07
         0.17886E+06
         0.18602E+07
         0.30260E+07
         0.24421E+07
         0.26244E+07
         0.20178E+07
         0.98226E+06
        -0.46900E+05
        -0.88363E+06
        -0.14312E+07
        -0.43667E+06
        -0.19516E+07
        -0.31095E+07
        -0.27146E+07
        -0.22994E+07
        -0.12720E+07
         0.31559E+06
         0.29702E+06
        -0.23870E+06
        -0.11365E+07
        -0.16117E+07
        -0.11189E+07
        -0.27246E+06
         0.89297E+06
         0.35310E+06
         0.51402E+06
         0.54181E+06
         0.29701E+06
         0.65228E+06
        -0.51677E+06
        -0.10066E+07
         0.11634E+07
        -0.12645E+07
        -0.11242E+07
        -0.13208E+06
        -0.18070E+06
        -0.32741E+07
        -0.10595E+07
        -0.43281E+06
         0.21396E+05
         0.63323E+06
        -0.20079E+06
        -0.26514E+06
        -0.13469E+07
        -0.73910E+06
        -0.20107E+07
        -0.91201E+06
        -0.14529E+07
        -0.44553E+06
        -0.42653E+07
        -0.23710E+07
        -0.15332E+07
        -0.13470E+07
        -0.37925E+06
        -0.64486E+06
         0.46317E+06
         0.97302E+06
        -0.10627E+07
        -0.73190E+06
        -0.40557E+06
        -0.14868E+07
        -0.98591E+06
        -0.60001E+06
        -0.90966E+06
        -0.16210E+07
        -0.14871E+07
        -0.17171E+07
        -0.12366E+07
        -0.61702E+06
        -0.38812E+06
        -0.45362E+06
         0.37497E+06
         0.80391E+06
         0.22643E+06
         0.39582E+06
        -0.28467E+07
        -0.63797E+06
        -0.17037E+07
         0.21300E+06
         0.18821E+07
         0.30512E+07
         0.24769E+07
         0.26596E+07
         0.20566E+07
         0.10579E+07
        -0.64391E+05
        -0.95193E+06
        -0.14286E+07
        -0.40989E+06
        -0.19292E+07
        -0.30907E+07
        -0.26912E+07
        -0.22604E+07
        -0.12242E+07
         0.36025E+06
         0.33569E+06
        -0.19890E+06
        -0.10915E+07
        -0.15700E+07
        -0.10853E+07
        -0.23722E+06
         0.83070E+06
         0.29300E+06
         0.45637E+06
         0.49257E+06
         0.22309E+06
         0.58575E+06
        -0.57429E+06
        -0.10783E+07
         0.11000E+07
        -0.13540E+07
        -0.11930E+07
        -0.22942E+06
        -0.27080E+06
        -0.33508E+07
        -0.11583E+07
        -0.49360E+06
        -0.38761E+05
         0.58695E+06
        -0.26393E+06
        -0.31684E+06
        -0.14307E+07
        -0.82132E+06
        -0.20919E+07
        -0.96734E+06
        -0.15342E+07
        -0.49649E+06
        -0.43591E+07
        -0.24336E+07
        -0.15655E+07
        -0.13927E+07
        -0.43838E+06
        -0.69741E+06
         0.41270E+06
         0.92040E+06
        -0.11517E+07
        -0.80622E+06
        -0.48564E+06
        -0.16008E+07
        -0.10749E+07
        -0.65239E+06
        -0.99274E+06
        -0.17107E+07
        -0.15768E+07
        -0.17952E+07
        -0.13175E+07
        -0.71190E+06
        -0.46752E+06
        -0.52457E+06
         0.30794E+06
         0.72934E+06
         0.13629E+06
         0.31977E+06
        -0.30159E+07
        -0.80210E+06
        -0.18745E+07
         0.39081E+05
         0.17087E+07
         0.28842E+07
         0.23071E+07
         0.24773E+07
         0.18858E+07
         0.90221E+06
        -0.28124E+06
        -0.11879E+07
        -0.15956E+07
        -0.54844E+06
        -0.20746E+07
        -0.32418E+07
        -0.28471E+07
        -0.24350E+07
        -0.14035E+07
         0.18826E+06
         0.17631E+06
        -0.35151E+06
        -0.12476E+07
        -0.17306E+07
        -0.12395E+07
        -0.39045E+06
         0.86615E+06
         0.29707E+06
         0.46714E+06
         0.51242E+06
         0.24867E+06
         0.60825E+06
        -0.56847E+06
        -0.10331E+07
         0.11421E+07
        -0.12889E+07
        -0.11738E+07
        -0.22769E+06
        -0.29396E+06
        -0.32973E+07
        -0.11132E+07
        -0.44747E+06
         0.16623E+03
         0.61356E+06
        -0.22979E+06
        -0.28485E+06
        -0.13924E+07
        -0.79300E+06
        -0.20336E+07
        -0.92607E+06
        -0.14649E+07
        -0.45935E+06
        -0.42789E+07
        -0.23594E+07
        -0.15085E+07
        -0.13252E+07
        -0.40334E+06
        -0.67406E+06
         0.42943E+06
         0.91327E+06
        -0.11385E+07
        -0.81154E+06
        -0.50821E+06
        -0.15486E+07
        -0.10124E+07
        -0.59796E+06
        -0.95522E+06
        -0.16603E+07
        -0.15232E+07
        -0.17416E+07
        -0.12876E+07
        -0.69726E+06
        -0.45535E+06
        -0.49455E+06
         0.33060E+06
         0.73063E+06
         0.14225E+06
         0.32154E+06
        -0.29508E+07
        -0.71738E+06
        -0.18529E+07
         0.15502E+04
         0.16309E+07
         0.28367E+07
         0.23847E+07
         0.25570E+07
         0.19494E+07
         0.93999E+06
        -0.27067E+06
        -0.11556E+07
        -0.15325E+07
        -0.51717E+06
        -0.20087E+07
        -0.31476E+07
        -0.27667E+07
        -0.23734E+07
        -0.13768E+07
         0.18516E+06
         0.21182E+06
        -0.30080E+06
        -0.11670E+07
        -0.16328E+07
        -0.11625E+07
        -0.31079E+06
         0.24487E+09
         0.23943E+09
         0.23605E+09
         0.20241E+09
         0.29344E+09
         0.26318E+09
         0.23828E+09
         0.27790E+09
         0.22796E+09
         0.27781E+09
         0.27905E+09
         0.37263E+09
         0.32866E+09
         0.30275E+09
         0.38393E+09
         0.22569E+09
         0.22179E+09
         0.17303E+09
         0.24031E+09
         0.22965E+09
         0.30159E+09
         0.30320E+09
         0.28684E+09
         0.21752E+09
         0.26558E+09
         0.18740E+09
         0.29842E+09
         0.24245E+09
         0.26031E+09
         0.27645E+09
         0.22333E+09
         0.21186E+09
         0.20268E+09
         0.20969E+09
         0.33283E+09
         0.28406E+09
         0.29240E+09
         0.36005E+09
         0.34134E+09
         0.33413E+09
         0.35181E+09
         0.32957E+09
         0.31237E+09
         0.27526E+09
         0.28486E+09
         0.33709E+09
         0.29453E+09
         0.26921E+09
         0.25651E+09
         0.27265E+09
         0.31699E+09
         0.27812E+09
         0.61754E+09
         0.60508E+09
         0.61643E+09
         0.59710E+09
         0.61648E+09
         0.64716E+09
         0.64985E+09
         0.64247E+09
         0.64739E+09
         0.66527E+09
         0.64444E+09
         0.60706E+09
         0.53792E+09
         0.50767E+09
         0.51529E+09
         0.52747E+09
         0.53466E+09
         0.58302E+09
         0.62493E+09
         0.62803E+09
         0.57572E+09
         0.55512E+09
         0.57489E+09
         0.56829E+09
         0.56415E+09
         0.56531E+09
         0.28483E+10
         0.29833E+10
         0.29402E+10
         0.26821E+10
         0.33039E+10
         0.31026E+10
         0.32278E+10
         0.32536E+10
         0.27846E+10
         0.32519E+10
         0.35452E+10
         0.39740E+10
         0.36021E+10
         0.36484E+10
         0.41130E+10
         0.27286E+10
         0.29328E+10
         0.25584E+10
         0.30292E+10
         0.31873E+10
         0.32986E+10
         0.33707E+10
         0.31661E+10
         0.29130E+10
         0.32896E+10
         0.28105E+10
         0.36351E+10
         0.35734E+10
         0.35896E+10
         0.34061E+10
         0.27579E+10
         0.29003E+10
         0.27035E+10
         0.28276E+10
         0.36178E+10
         0.33189E+10
         0.33301E+10
         0.39825E+10
         0.38803E+10
         0.38337E+10
         0.39015E+10
         0.37047E+10
         0.35033E+10
         0.30907E+10
         0.32184E+10
         0.36166E+10
         0.33439E+10
         0.31439E+10
         0.30814E+10
         0.31951E+10
         0.34696E+10
         0.32046E+10
         0.57384E+10
         0.55905E+10
         0.57074E+10
         0.55283E+10
         0.56932E+10
         0.59859E+10
         0.60830E+10
         0.60705E+10
         0.61137E+10
         0.62534E+10
         0.60717E+10
         0.57071E+10
         0.51155E+10
         0.48343E+10
         0.48471E+10
         0.49090E+10
         0.49568E+10
         0.53761E+10
         0.57626E+10
         0.57860E+10
         0.53544E+10
         0.51886E+10
         0.53602E+10
         0.53218E+10
         0.52608E+10
         0.52461E+10
  
SCALARS                      stress_yy  double 1
LOOKUP_TABLE default
         0.69595E+12
         0.68654E+12
         0.69251E+12
         0.70321E+12
        -0.14680E+03
        -0.16461E+03
        -0.15762E+03
        -0.14319E+03
         0.68621E+12
         0.68940E+12
        -0.14803E+03
        -0.14325E+03
         0.67289E+12
         0.67239E+12
        -0.17589E+03
        -0.16538E+03
         0.70164E+12
         0.67313E+12
        -0.12996E+03
        -0.14415E+03
         0.66264E+12
         0.65449E+12
         0.66745E+12
        -0.17433E+03
        -0.15224E+03
        -0.15721E+03
         0.65480E+12
         0.64289E+12
        -0.16724E+03
        -0.14104E+03
         0.70112E+12
         0.68873E+12
         0.71313E+12
        -0.14272E+03
        -0.13268E+03
        -0.12900E+03
         0.69395E+12
         0.67815E+12
        -0.15099E+03
        -0.13778E+03
         0.68770E+12
         0.67550E+12
        -0.13050E+03
        -0.11553E+03
         0.69801E+12
         0.70259E+12
        -0.14301E+03
        -0.15979E+03
         0.66571E+12
        -0.13970E+03
         0.70169E+12
        -0.16416E+03
         0.65137E+12
        -0.14753E+03
         0.64763E+12
        -0.14151E+03
         0.64769E+12
         0.66099E+12
        -0.14419E+03
        -0.14042E+03
         0.70087E+12
         0.69611E+12
        -0.14458E+03
        -0.16345E+03
         0.70385E+12
        -0.13951E+03
         0.69818E+12
        -0.15226E+03
         0.68327E+12
         0.68178E+12
        -0.14656E+03
        -0.15357E+03
         0.67841E+12
        -0.15486E+03
         0.63866E+12
        -0.12235E+03
         0.63657E+12
        -0.11876E+03
         0.63761E+12
        -0.12522E+03
         0.64337E+12
         0.64936E+12
        -0.11931E+03
        -0.12439E+03
         0.66142E+12
        -0.11585E+03
         0.69777E+12
        -0.15192E+03
         0.69211E+12
        -0.15549E+03
         0.68746E+12
         0.68490E+12
        -0.14932E+03
        -0.15106E+03
         0.68805E+12
        -0.13721E+03
         0.69029E+12
        -0.13525E+03
         0.68827E+12
        -0.14479E+03
         0.68755E+12
         0.68960E+12
        -0.14198E+03
        -0.14615E+03
         0.67632E+12
         0.68171E+12
        -0.11024E+03
        -0.10368E+03
         0.67530E+12
        -0.10526E+03
         0.68152E+12
        -0.10093E+03
         0.67538E+12
        -0.99521E+02
         0.66179E+12
        -0.94049E+02
         0.64860E+12
        -0.83552E+02
         0.64070E+12
        -0.75234E+02
         0.63989E+12
        -0.74711E+02
         0.64014E+12
        -0.81020E+02
         0.64871E+12
        -0.85150E+02
         0.66472E+12
        -0.77751E+02
         0.68228E+12
        -0.70084E+02
         0.69255E+12
        -0.70004E+02
         0.70269E+12
        -0.78247E+02
         0.70939E+12
        -0.89220E+02
         0.70914E+12
        -0.95850E+02
         0.69287E+12
        -0.10352E+03
         0.68152E+12
        -0.11090E+03
         0.67761E+12
        -0.10159E+03
         0.68370E+12
        -0.89126E+02
         0.68688E+12
        -0.88851E+02
         0.68156E+12
        -0.97213E+02
         0.68164E+12
        -0.10364E+03
         0.68565E+12
        -0.98350E+02
         0.69089E+12
        -0.95081E+02
        -0.32214E+11
        -0.32136E+11
        -0.32147E+11
        -0.32242E+11
        -0.32042E+11
        -0.32157E+11
        -0.32010E+11
        -0.32092E+11
        -0.32229E+11
        -0.32150E+11
        -0.31909E+11
        -0.31876E+11
        -0.31962E+11
        -0.31968E+11
        -0.31913E+11
        -0.32238E+11
        -0.32223E+11
        -0.32263E+11
        -0.32126E+11
        -0.32156E+11
        -0.32112E+11
        -0.32142E+11
        -0.32086E+11
        -0.32101E+11
        -0.32154E+11
        -0.32150E+11
        -0.32055E+11
        -0.32064E+11
        -0.31983E+11
        -0.32102E+11
        -0.32231E+11
        -0.32134E+11
        -0.32230E+11
        -0.32170E+11
        -0.31852E+11
        -0.31972E+11
        -0.32023E+11
        -0.31962E+11
        -0.31954E+11
        -0.31843E+11
        -0.31755E+11
        -0.31959E+11
        -0.32114E+11
        -0.32095E+11
        -0.32018E+11
        -0.31857E+11
        -0.31996E+11
        -0.32120E+11
        -0.32112E+11
        -0.32017E+11
        -0.31904E+11
        -0.32053E+11
        -0.31436E+11
        -0.31698E+11
        -0.31663E+11
        -0.31710E+11
        -0.31700E+11
        -0.31566E+11
        -0.31412E+11
        -0.31360E+11
        -0.31383E+11
        -0.31366E+11
        -0.31297E+11
        -0.31691E+11
        -0.31782E+11
        -0.31816E+11
        -0.31871E+11
        -0.31911E+11
        -0.31909E+11
        -0.31840E+11
        -0.31530E+11
        -0.31627E+11
        -0.31736E+11
        -0.31735E+11
        -0.31719E+11
        -0.31607E+11
        -0.31760E+11
        -0.31805E+11
         0.32993E+06
        -0.24442E+06
        -0.39253E+05
         0.10001E+07
         0.39103E+06
         0.11885E+07
        -0.52574E+06
        -0.14743E+07
         0.74318E+06
        -0.15401E+07
        -0.16223E+07
        -0.11184E+07
        -0.28204E+06
        -0.24764E+07
        -0.18436E+07
         0.18189E+06
         0.62348E+06
         0.79803E+06
        -0.55690E+06
         0.96479E+05
        -0.23506E+06
         0.40972E+06
        -0.62078E+06
        -0.26703E+06
        -0.16309E+07
        -0.16704E+06
        -0.33095E+07
        -0.21935E+07
        -0.11546E+07
        -0.14265E+07
         0.36810E+05
        -0.62627E+05
         0.69495E+06
         0.11410E+07
         0.58271E+05
        -0.56346E+05
         0.26334E+04
        -0.18304E+07
        -0.18302E+07
        -0.12967E+07
        -0.17561E+06
        -0.26957E+06
        -0.19173E+06
        -0.71527E+06
        -0.80613E+06
        -0.12620E+07
        -0.57397E+06
        -0.97534E+05
        -0.18905E+06
         0.12608E+06
         0.57078E+06
         0.13726E+07
        -0.14502E+07
         0.64484E+06
        -0.10616E+07
         0.30416E+06
         0.12895E+07
         0.19279E+07
         0.12651E+07
         0.16276E+07
         0.11222E+07
         0.39860E+06
         0.76741E+06
         0.83707E+06
         0.20367E+06
         0.10639E+07
        -0.39459E+06
        -0.15497E+07
        -0.16704E+07
        -0.18815E+07
        -0.20284E+07
        -0.80091E+06
        -0.64745E+06
        -0.11288E+07
        -0.17423E+07
        -0.11997E+07
         0.14462E+06
         0.10123E+07
         0.26355E+06
        -0.30821E+06
        -0.10161E+06
         0.94944E+06
         0.31109E+06
         0.11174E+07
        -0.58504E+06
        -0.15522E+07
         0.67706E+06
        -0.16252E+07
        -0.16961E+07
        -0.12228E+07
        -0.37194E+06
        -0.25562E+07
        -0.19485E+07
         0.11305E+06
         0.55956E+06
         0.75074E+06
        -0.62849E+06
         0.31097E+05
        -0.32493E+06
         0.32263E+06
        -0.71254E+06
        -0.33308E+06
        -0.17186E+07
        -0.22779E+06
        -0.33869E+07
        -0.22598E+07
        -0.12246E+07
        -0.15166E+07
        -0.27823E+05
        -0.12025E+06
         0.64058E+06
         0.10918E+07
        -0.32652E+05
        -0.13230E+06
        -0.75812E+05
        -0.19353E+07
        -0.19273E+07
        -0.13914E+07
        -0.27874E+06
        -0.36984E+06
        -0.28740E+06
        -0.80321E+06
        -0.88873E+06
        -0.13542E+07
        -0.65634E+06
        -0.17336E+06
        -0.25645E+06
         0.56733E+05
         0.48673E+06
         0.12980E+07
        -0.16197E+07
         0.47935E+06
        -0.12246E+07
         0.14819E+06
         0.11244E+07
         0.17442E+07
         0.10817E+07
         0.14422E+07
         0.93453E+06
         0.20682E+06
         0.57663E+06
         0.66059E+06
         0.56427E+05
         0.92631E+06
        -0.53869E+06
        -0.17038E+07
        -0.18280E+07
        -0.20460E+07
        -0.21935E+07
        -0.97540E+06
        -0.81223E+06
        -0.12776E+07
        -0.18914E+07
        -0.13521E+07
        -0.93652E+04
         0.85555E+06
         0.27925E+06
        -0.29569E+06
        -0.88443E+05
         0.96273E+06
         0.33148E+06
         0.11360E+07
        -0.57368E+06
        -0.15365E+07
         0.68765E+06
        -0.16244E+07
        -0.16820E+07
        -0.12027E+07
        -0.35469E+06
        -0.25354E+07
        -0.19238E+07
         0.99360E+05
         0.55614E+06
         0.76365E+06
        -0.64643E+06
         0.18990E+05
        -0.34011E+06
         0.31692E+06
        -0.77272E+06
        -0.38069E+06
        -0.17580E+07
        -0.27021E+06
        -0.33719E+07
        -0.22687E+07
        -0.12523E+07
        -0.15799E+07
        -0.27409E+05
        -0.13313E+06
         0.65285E+06
         0.11081E+07
        -0.88474E+04
        -0.11341E+06
        -0.58510E+05
        -0.19178E+07
        -0.19126E+07
        -0.13862E+07
        -0.28148E+06
        -0.40623E+06
        -0.33899E+06
        -0.86220E+06
        -0.90303E+06
        -0.13417E+07
        -0.64154E+06
        -0.15573E+06
        -0.23752E+06
         0.78595E+05
         0.51053E+06
         0.13190E+07
        -0.15691E+07
         0.52460E+06
        -0.11746E+07
         0.18683E+06
         0.11530E+07
         0.17728E+07
         0.11183E+07
         0.14789E+07
         0.97145E+06
         0.24519E+06
         0.59926E+06
         0.65969E+06
         0.58814E+05
         0.95159E+06
        -0.52188E+06
        -0.17350E+07
        -0.18620E+07
        -0.20373E+07
        -0.21483E+07
        -0.92287E+06
        -0.76539E+06
        -0.12302E+07
        -0.18383E+07
        -0.13072E+07
         0.27268E+05
         0.89096E+06
         0.26989E+06
        -0.30110E+06
        -0.93728E+05
         0.95449E+06
         0.32355E+06
         0.11295E+07
        -0.57941E+06
        -0.15480E+07
         0.66827E+06
        -0.16624E+07
        -0.16902E+07
        -0.12134E+07
        -0.36179E+06
        -0.25440E+07
        -0.19375E+07
         0.44631E+05
         0.51835E+06
         0.75528E+06
        -0.70910E+06
        -0.35955E+05
        -0.40840E+06
         0.25673E+06
        -0.91280E+06
        -0.48722E+06
        -0.18615E+07
        -0.36719E+06
        -0.33931E+07
        -0.23225E+07
        -0.13384E+07
        -0.17298E+07
        -0.58582E+05
        -0.18491E+06
         0.64292E+06
         0.11001E+07
        -0.20509E+05
        -0.12123E+06
        -0.64831E+05
        -0.19376E+07
        -0.19370E+07
        -0.14293E+07
        -0.34003E+06
        -0.51975E+06
        -0.47860E+06
        -0.10010E+07
        -0.97157E+06
        -0.13789E+07
        -0.66814E+06
        -0.16946E+06
        -0.24866E+06
         0.65810E+05
         0.49783E+06
         0.13108E+07
        -0.15927E+07
         0.50823E+06
        -0.12006E+07
         0.16433E+06
         0.11377E+07
         0.17555E+07
         0.10891E+07
         0.14474E+07
         0.94075E+06
         0.20805E+06
         0.54050E+06
         0.56471E+06
        -0.30434E+05
         0.90921E+06
        -0.56942E+06
        -0.18660E+07
        -0.20010E+07
        -0.21023E+07
        -0.21793E+07
        -0.95225E+06
        -0.78789E+06
        -0.12568E+07
        -0.18661E+07
        -0.13258E+07
         0.13222E+05
         0.87704E+06
         0.25280E+06
        -0.31207E+06
        -0.10287E+06
         0.94599E+06
         0.31448E+06
         0.11206E+07
        -0.58791E+06
        -0.15661E+07
         0.64511E+06
        -0.17020E+07
        -0.16990E+07
        -0.12200E+07
        -0.36972E+06
        -0.25536E+07
        -0.19445E+07
         0.76793E+04
         0.48835E+06
         0.74752E+06
        -0.75053E+06
        -0.75398E+05
        -0.45252E+06
         0.21348E+06
        -0.99890E+06
        -0.55307E+06
        -0.19369E+07
        -0.42898E+06
        -0.34115E+07
        -0.23613E+07
        -0.13973E+07
        -0.18297E+07
        -0.91106E+05
        -0.22233E+06
         0.62525E+06
         0.10890E+07
        -0.32558E+05
        -0.13119E+06
        -0.74305E+05
        -0.19525E+07
        -0.19575E+07
        -0.14621E+07
        -0.38143E+06
        -0.59603E+06
        -0.57019E+06
        -0.10895E+07
        -0.10170E+07
        -0.14035E+07
        -0.69177E+06
        -0.19176E+06
        -0.26833E+06
         0.46713E+05
         0.47804E+06
         0.12975E+07
        -0.16140E+07
         0.49393E+06
        -0.12227E+07
         0.14682E+06
         0.11306E+07
         0.17504E+07
         0.10768E+07
         0.14266E+07
         0.91467E+06
         0.18506E+06
         0.50471E+06
         0.49897E+06
        -0.91280E+05
         0.87644E+06
        -0.60299E+06
        -0.19509E+07
        -0.20987E+07
        -0.21489E+07
        -0.21934E+07
        -0.97893E+06
        -0.81768E+06
        -0.12872E+07
        -0.19019E+07
        -0.13561E+07
        -0.54325E+04
         0.86316E+06
         0.21123E+06
        -0.33309E+06
        -0.11191E+06
         0.95273E+06
         0.32481E+06
         0.11334E+07
        -0.59396E+06
        -0.15965E+07
         0.61274E+06
        -0.17544E+07
        -0.16935E+07
        -0.11965E+07
        -0.36064E+06
        -0.25494E+07
        -0.19160E+07
         0.14626E+05
         0.48121E+06
         0.76076E+06
        -0.74261E+06
        -0.69159E+05
        -0.44024E+06
         0.22860E+06
        -0.99705E+06
        -0.55411E+06
        -0.19706E+07
        -0.43706E+06
        -0.34159E+07
        -0.23659E+07
        -0.13928E+07
        -0.18343E+07
        -0.13004E+06
        -0.24179E+06
         0.59691E+06
         0.10863E+07
        -0.22040E+05
        -0.13037E+06
        -0.76115E+05
        -0.19348E+07
        -0.19425E+07
        -0.14448E+07
        -0.36163E+06
        -0.58385E+06
        -0.56051E+06
        -0.10957E+07
        -0.10232E+07
        -0.14078E+07
        -0.71229E+06
        -0.23717E+06
        -0.31713E+06
         0.20604E+05
         0.47152E+06
         0.13037E+07
        -0.15724E+07
         0.53679E+06
        -0.11879E+07
         0.17023E+06
         0.11551E+07
         0.17839E+07
         0.11147E+07
         0.14631E+07
         0.95628E+06
         0.24021E+06
         0.55293E+06
         0.52796E+06
        -0.59155E+05
         0.90986E+06
        -0.57064E+06
        -0.19252E+07
        -0.20803E+07
        -0.21304E+07
        -0.21711E+07
        -0.96342E+06
        -0.82117E+06
        -0.13084E+07
        -0.19160E+07
        -0.13488E+07
         0.15607E+05
         0.89330E+06
         0.14786E+06
        -0.37022E+06
        -0.13349E+06
         0.94744E+06
         0.31584E+06
         0.11322E+07
        -0.61811E+06
        -0.16544E+07
         0.55836E+06
        -0.18304E+07
        -0.17119E+07
        -0.12053E+07
        -0.37514E+06
        -0.25743E+07
        -0.19232E+07
         0.36423E+04
         0.45640E+06
         0.75850E+06
        -0.75025E+06
        -0.77965E+05
        -0.44678E+06
         0.22430E+06
        -0.10039E+07
        -0.56185E+06
        -0.20173E+07
        -0.45215E+06
        -0.34474E+07
        -0.23859E+07
        -0.13982E+07
        -0.18471E+07
        -0.18471E+06
        -0.27398E+06
         0.55464E+06
         0.10713E+07
        -0.36170E+05
        -0.14642E+06
        -0.94663E+05
        -0.19504E+07
        -0.19576E+07
        -0.14527E+07
        -0.36544E+06
        -0.58540E+06
        -0.56149E+06
        -0.11096E+07
        -0.10486E+07
        -0.14426E+07
        -0.75943E+06
        -0.30579E+06
        -0.38698E+06
        -0.25296E+05
         0.44514E+06
         0.12947E+07
        -0.15897E+07
         0.52322E+06
        -0.11985E+07
         0.15841E+06
         0.11379E+07
         0.17636E+07
         0.10979E+07
         0.14488E+07
         0.94161E+06
         0.22928E+06
         0.54421E+06
         0.51728E+06
        -0.61025E+05
         0.90717E+06
        -0.57772E+06
        -0.19294E+07
        -0.20889E+07
        -0.21600E+07
        -0.22149E+07
        -0.10116E+07
        -0.87544E+06
        -0.13753E+07
        -0.19749E+07
        -0.13797E+07
        -0.91337E+03
         0.88043E+06
         0.12943E+06
        -0.38393E+06
        -0.14244E+06
         0.94035E+06
         0.30624E+06
         0.11236E+07
        -0.63052E+06
        -0.16752E+07
         0.54206E+06
        -0.18549E+07
        -0.17253E+07
        -0.12178E+07
        -0.38941E+06
        -0.25875E+07
        -0.19348E+07
        -0.62391E+04
         0.44616E+06
         0.75250E+06
        -0.75731E+06
        -0.84762E+05
        -0.45681E+06
         0.21428E+06
        -0.10129E+07
        -0.56772E+06
        -0.20356E+07
        -0.46045E+06
        -0.34609E+07
        -0.23967E+07
        -0.14082E+07
        -0.18594E+07
        -0.20229E+06
        -0.28639E+06
         0.53977E+06
         0.10629E+07
        -0.48099E+05
        -0.15522E+06
        -0.10603E+06
        -0.19700E+07
        -0.19748E+07
        -0.14693E+07
        -0.38301E+06
        -0.59892E+06
        -0.57031E+06
        -0.11222E+07
        -0.10640E+07
        -0.14590E+07
        -0.77529E+06
        -0.32276E+06
        -0.40410E+06
        -0.40938E+05
         0.42882E+06
         0.12834E+07
        -0.16134E+07
         0.49972E+06
        -0.12146E+07
         0.14208E+06
         0.11180E+07
         0.17463E+07
         0.10802E+07
         0.14243E+07
         0.90891E+06
         0.19501E+06
         0.51318E+06
         0.50315E+06
        -0.72175E+05
         0.88332E+06
        -0.60270E+06
        -0.19533E+07
        -0.21202E+07
        -0.21898E+07
        -0.22399E+07
        -0.10317E+07
        -0.89205E+06
        -0.13977E+07
        -0.20045E+07
        -0.14070E+07
        -0.23838E+05
         0.85777E+06
         0.14125E+06
        -0.37448E+06
        -0.13580E+06
         0.94225E+06
         0.31576E+06
         0.11257E+07
        -0.62280E+06
        -0.16623E+07
         0.55194E+06
        -0.18434E+07
        -0.17174E+07
        -0.12050E+07
        -0.38013E+06
        -0.25720E+07
        -0.19156E+07
         0.69476E+04
         0.45533E+06
         0.75865E+06
        -0.74544E+06
        -0.74878E+05
        -0.44427E+06
         0.22637E+06
        -0.99988E+06
        -0.55654E+06
        -0.20271E+07
        -0.44988E+06
        -0.34420E+07
        -0.23846E+07
        -0.13981E+07
        -0.18496E+07
        -0.19138E+06
        -0.27841E+06
         0.54439E+06
         0.10657E+07
        -0.34449E+05
        -0.14559E+06
        -0.97382E+05
        -0.19570E+07
        -0.19649E+07
        -0.14599E+07
        -0.37146E+06
        -0.58596E+06
        -0.55728E+06
        -0.11111E+07
        -0.10548E+07
        -0.14488E+07
        -0.76558E+06
        -0.31076E+06
        -0.39240E+06
        -0.31500E+05
         0.43577E+06
         0.12861E+07
        -0.15779E+07
         0.53455E+06
        -0.11940E+07
         0.15063E+06
         0.11353E+07
         0.17735E+07
         0.11105E+07
         0.14460E+07
         0.91711E+06
         0.20772E+06
         0.53607E+06
         0.53555E+06
        -0.43780E+05
         0.90167E+06
        -0.58532E+06
        -0.19333E+07
        -0.21001E+07
        -0.21648E+07
        -0.22161E+07
        -0.10036E+07
        -0.86324E+06
        -0.13719E+07
        -0.19831E+07
        -0.13876E+07
        -0.44076E+04
         0.87885E+06
         0.13830E+06
        -0.37517E+06
        -0.13770E+06
         0.93744E+06
         0.31343E+06
         0.11208E+07
        -0.62472E+06
        -0.16688E+07
         0.54363E+06
        -0.18543E+07
        -0.17237E+07
        -0.12125E+07
        -0.38227E+06
        -0.25781E+07
        -0.19278E+07
         0.89545E+03
         0.44857E+06
         0.75222E+06
        -0.75135E+06
        -0.80072E+05
        -0.44966E+06
         0.21996E+06
        -0.10046E+07
        -0.56031E+06
        -0.20344E+07
        -0.45292E+06
        -0.34464E+07
        -0.23860E+07
        -0.14001E+07
        -0.18558E+07
        -0.19658E+06
        -0.28182E+06
         0.53547E+06
         0.10595E+07
        -0.38781E+05
        -0.14968E+06
        -0.10011E+06
        -0.19740E+07
        -0.19749E+07
        -0.14684E+07
        -0.38015E+06
        -0.59109E+06
        -0.56483E+06
        -0.11150E+07
        -0.10588E+07
        -0.14542E+07
        -0.77318E+06
        -0.31847E+06
        -0.39897E+06
        -0.37361E+05
         0.42937E+06
         0.12796E+07
        -0.15881E+07
         0.52635E+06
        -0.12108E+07
         0.13647E+06
         0.11332E+07
         0.17636E+07
         0.10874E+07
         0.14203E+07
         0.90186E+06
         0.18492E+06
         0.51120E+06
         0.52306E+06
        -0.58437E+05
         0.89357E+06
        -0.59286E+06
        -0.19405E+07
        -0.21016E+07
        -0.21699E+07
        -0.22233E+07
        -0.10225E+07
        -0.88686E+06
        -0.13901E+07
        -0.19924E+07
        -0.13919E+07
        -0.14582E+05
         0.86447E+06
         0.12988E+06
        -0.38210E+06
        -0.14288E+06
         0.93457E+06
         0.30656E+06
         0.11176E+07
        -0.63011E+06
        -0.16778E+07
         0.53604E+06
        -0.18652E+07
        -0.17306E+07
        -0.12225E+07
        -0.38872E+06
        -0.25827E+07
        -0.19402E+07
        -0.76035E+04
         0.44314E+06
         0.74859E+06
        -0.75849E+06
        -0.83885E+05
        -0.45649E+06
         0.21345E+06
        -0.10117E+07
        -0.56634E+06
        -0.20416E+07
        -0.45926E+06
        -0.34496E+07
        -0.23889E+07
        -0.14024E+07
        -0.18607E+07
        -0.20424E+06
        -0.28779E+06
         0.52961E+06
         0.10584E+07
        -0.49299E+05
        -0.15663E+06
        -0.10627E+06
        -0.19905E+07
        -0.19860E+07
        -0.14758E+07
        -0.38523E+06
        -0.59545E+06
        -0.57172E+06
        -0.11220E+07
        -0.10655E+07
        -0.14613E+07
        -0.78029E+06
        -0.32510E+06
        -0.40525E+06
        -0.42446E+05
         0.42331E+06
         0.12767E+07
        -0.16086E+07
         0.50914E+06
        -0.12237E+07
         0.13216E+06
         0.11275E+07
         0.17435E+07
         0.10584E+07
         0.13971E+07
         0.88608E+06
         0.16851E+06
         0.50102E+06
         0.51073E+06
        -0.76040E+05
         0.88155E+06
        -0.60541E+06
        -0.19552E+07
        -0.21116E+07
        -0.21815E+07
        -0.22375E+07
        -0.10382E+07
        -0.90483E+06
        -0.14087E+07
        -0.20058E+07
        -0.14043E+07
        -0.30190E+05
         0.84806E+06
         0.13552E+06
        -0.37906E+06
        -0.14052E+06
         0.93820E+06
         0.31286E+06
         0.11233E+07
        -0.62528E+06
        -0.16692E+07
         0.54037E+06
        -0.18617E+07
        -0.17232E+07
        -0.12137E+07
        -0.38585E+06
        -0.25684E+07
        -0.19224E+07
        -0.14923E+03
         0.44659E+06
         0.75472E+06
        -0.75153E+06
        -0.75893E+05
        -0.44655E+06
         0.22426E+06
        -0.10029E+07
        -0.55937E+06
        -0.20390E+07
        -0.45232E+06
        -0.34376E+07
        -0.23813E+07
        -0.13913E+07
        -0.18499E+07
        -0.19553E+06
        -0.28219E+06
         0.53557E+06
         0.10654E+07
        -0.40854E+05
        -0.15055E+06
        -0.10270E+06
        -0.19801E+07
        -0.19761E+07
        -0.14620E+07
        -0.37232E+06
        -0.58556E+06
        -0.56125E+06
        -0.11154E+07
        -0.10601E+07
        -0.14558E+07
        -0.77454E+06
        -0.31780E+06
        -0.39745E+06
        -0.34343E+05
         0.43058E+06
         0.12842E+07
        -0.15826E+07
         0.53719E+06
        -0.11974E+07
         0.14511E+06
         0.11232E+07
         0.17450E+07
         0.10794E+07
         0.14203E+07
         0.90162E+06
         0.19219E+06
         0.52352E+06
         0.52131E+06
        -0.57056E+05
         0.90078E+06
        -0.58785E+06
        -0.19418E+07
        -0.21028E+07
        -0.21702E+07
        -0.22268E+07
        -0.10213E+07
        -0.88500E+06
        -0.13896E+07
        -0.19893E+07
        -0.13900E+07
        -0.91204E+04
         0.87274E+06
         0.13166E+06
        -0.38460E+06
        -0.14555E+06
         0.93277E+06
         0.30586E+06
         0.11166E+07
        -0.63193E+06
        -0.16775E+07
         0.53418E+06
        -0.18745E+07
        -0.17328E+07
        -0.12261E+07
        -0.39897E+06
        -0.25766E+07
        -0.19315E+07
        -0.69840E+04
         0.43966E+06
         0.74785E+06
        -0.76018E+06
        -0.82103E+05
        -0.45857E+06
         0.21254E+06
        -0.10150E+07
        -0.56639E+06
        -0.20509E+07
        -0.45781E+06
        -0.34492E+07
        -0.23915E+07
        -0.13987E+07
        -0.18577E+07
        -0.20264E+06
        -0.28779E+06
         0.52516E+06
         0.10598E+07
        -0.50899E+05
        -0.15864E+06
        -0.11278E+06
        -0.19981E+07
        -0.19935E+07
        -0.14763E+07
        -0.38875E+06
        -0.60038E+06
        -0.57295E+06
        -0.11291E+07
        -0.10720E+07
        -0.14661E+07
        -0.78452E+06
        -0.32830E+06
        -0.40563E+06
        -0.40125E+05
         0.42248E+06
         0.12768E+07
        -0.16028E+07
         0.51957E+06
        -0.12176E+07
         0.12199E+06
         0.10962E+07
         0.17193E+07
         0.10638E+07
         0.14003E+07
         0.87495E+06
         0.16583E+06
         0.49143E+06
         0.48952E+06
        -0.78099E+05
         0.87892E+06
        -0.60660E+06
        -0.19634E+07
        -0.21364E+07
        -0.22002E+07
        -0.22418E+07
        -0.10419E+07
        -0.90640E+06
        -0.14006E+07
        -0.19969E+07
        -0.14054E+07
        -0.30251E+05
         0.85176E+06
         0.13105E+06
        -0.38635E+06
        -0.14717E+06
         0.93091E+06
         0.30467E+06
         0.11144E+07
        -0.63349E+06
        -0.16792E+07
         0.53414E+06
        -0.18772E+07
        -0.17350E+07
        -0.12277E+07
        -0.40102E+06
        -0.25747E+07
        -0.19317E+07
        -0.81654E+04
         0.43958E+06
         0.74653E+06
        -0.76143E+06
        -0.82223E+05
        -0.46145E+06
         0.21069E+06
        -0.10177E+07
        -0.56749E+06
        -0.20544E+07
        -0.45891E+06
        -0.34469E+07
        -0.23931E+07
        -0.13999E+07
        -0.18602E+07
        -0.20622E+06
        -0.28969E+06
         0.51985E+06
         0.10586E+07
        -0.53225E+05
        -0.16135E+06
        -0.11586E+06
        -0.20070E+07
        -0.20038E+07
        -0.14822E+07
        -0.39082E+06
        -0.60157E+06
        -0.57462E+06
        -0.11319E+07
        -0.10746E+07
        -0.14687E+07
        -0.78801E+06
        -0.33233E+06
        -0.40865E+06
        -0.40975E+05
         0.42097E+06
         0.12749E+07
        -0.16032E+07
         0.51987E+06
        -0.12233E+07
         0.11307E+06
         0.10956E+07
         0.17189E+07
         0.10575E+07
         0.13835E+07
         0.85567E+06
         0.15526E+06
         0.49038E+06
         0.48630E+06
        -0.83387E+05
         0.87038E+06
        -0.61638E+06
        -0.19705E+07
        -0.21413E+07
        -0.22043E+07
        -0.22461E+07
        -0.10493E+07
        -0.91592E+06
        -0.14067E+07
        -0.19977E+07
        -0.14072E+07
        -0.39557E+05
         0.84341E+06
         0.14866E+06
        -0.36846E+06
        -0.13256E+06
         0.94080E+06
         0.32398E+06
         0.11281E+07
        -0.61645E+06
        -0.16597E+07
         0.54603E+06
        -0.18634E+07
        -0.17161E+07
        -0.12002E+07
        -0.37730E+06
        -0.25509E+07
        -0.19048E+07
         0.77770E+04
         0.45226E+06
         0.75784E+06
        -0.74560E+06
        -0.66234E+05
        -0.43895E+06
         0.23214E+06
        -0.99604E+06
        -0.55272E+06
        -0.20385E+07
        -0.44430E+06
        -0.34229E+07
        -0.23724E+07
        -0.13791E+07
        -0.18394E+07
        -0.18910E+06
        -0.27492E+06
         0.53003E+06
         0.10680E+07
        -0.30669E+05
        -0.14330E+06
        -0.96740E+05
        -0.19904E+07
        -0.19834E+07
        -0.14595E+07
        -0.36904E+06
        -0.57934E+06
        -0.55505E+06
        -0.11103E+07
        -0.10531E+07
        -0.14461E+07
        -0.76877E+06
        -0.31398E+06
        -0.39316E+06
        -0.26710E+05
         0.43612E+06
         0.12881E+07
        -0.15560E+07
         0.56679E+06
        -0.11839E+07
         0.14172E+06
         0.11304E+07
         0.17633E+07
         0.10948E+07
         0.14119E+07
         0.88730E+06
         0.18995E+06
         0.52167E+06
         0.52287E+06
        -0.54376E+05
         0.90260E+06
        -0.57959E+06
        -0.19323E+07
        -0.20984E+07
        -0.21579E+07
        -0.22062E+07
        -0.10076E+07
        -0.88046E+06
        -0.13803E+07
        -0.19686E+07
        -0.13722E+07
        -0.16392E+04
         0.88178E+06
         0.14144E+06
        -0.37342E+06
        -0.13724E+06
         0.93415E+06
         0.31529E+06
         0.11212E+07
        -0.62244E+06
        -0.16700E+07
         0.53737E+06
        -0.18787E+07
        -0.17254E+07
        -0.12097E+07
        -0.38308E+06
        -0.25597E+07
        -0.19175E+07
        -0.10664E+04
         0.44357E+06
         0.75227E+06
        -0.75689E+06
        -0.73968E+05
        -0.44712E+06
         0.22145E+06
        -0.10035E+07
        -0.56125E+06
        -0.20521E+07
        -0.45234E+06
        -0.34333E+07
        -0.23795E+07
        -0.13799E+07
        -0.18452E+07
        -0.19418E+06
        -0.28137E+06
         0.52230E+06
         0.10611E+07
        -0.43617E+05
        -0.15063E+06
        -0.10168E+06
        -0.20106E+07
        -0.19976E+07
        -0.14659E+07
        -0.37949E+06
        -0.59080E+06
        -0.56853E+06
        -0.11206E+07
        -0.10635E+07
        -0.14558E+07
        -0.77713E+06
        -0.31980E+06
        -0.39996E+06
        -0.35609E+05
         0.42643E+06
         0.12805E+07
        -0.15860E+07
         0.54140E+06
        -0.12072E+07
         0.12950E+06
         0.11262E+07
         0.17520E+07
         0.10696E+07
         0.13816E+07
         0.85775E+06
         0.16371E+06
         0.49072E+06
         0.48735E+06
        -0.79426E+05
         0.89009E+06
        -0.58540E+06
        -0.19361E+07
        -0.21109E+07
        -0.21791E+07
        -0.22219E+07
        -0.10261E+07
        -0.89763E+06
        -0.13996E+07
        -0.19893E+07
        -0.13850E+07
        -0.13573E+05
         0.86195E+06
         0.12931E+06
        -0.38628E+06
        -0.14987E+06
         0.92533E+06
         0.30165E+06
         0.11086E+07
        -0.63210E+06
        -0.16821E+07
         0.52510E+06
        -0.19042E+07
        -0.17366E+07
        -0.12253E+07
        -0.39590E+06
        -0.25687E+07
        -0.19334E+07
        -0.11958E+05
         0.43049E+06
         0.74579E+06
        -0.76623E+06
        -0.77452E+05
        -0.45713E+06
         0.20896E+06
        -0.10125E+07
        -0.56853E+06
        -0.20742E+07
        -0.46022E+06
        -0.34571E+07
        -0.23909E+07
        -0.13557E+07
        -0.18307E+07
        -0.20370E+06
        -0.29066E+06
         0.51462E+06
         0.10564E+07
        -0.58197E+05
        -0.16264E+06
        -0.11348E+06
        -0.20402E+07
        -0.20117E+07
        -0.14449E+07
        -0.38065E+06
        -0.60324E+06
        -0.58652E+06
        -0.11318E+07
        -0.10766E+07
        -0.14713E+07
        -0.79142E+06
        -0.33032E+06
        -0.40787E+06
        -0.42663E+05
         0.41783E+06
         0.12711E+07
        -0.16059E+07
         0.52292E+06
        -0.12232E+07
         0.11574E+06
         0.11069E+07
         0.17208E+07
         0.10341E+07
         0.13477E+07
         0.82799E+06
         0.15683E+06
         0.43672E+06
         0.40236E+06
        -0.11463E+06
         0.87049E+06
        -0.60286E+06
        -0.19519E+07
        -0.21305E+07
        -0.22013E+07
        -0.22477E+07
        -0.10552E+07
        -0.91731E+06
        -0.14180E+07
        -0.20103E+07
        -0.14002E+07
        -0.37245E+05
         0.83545E+06
         0.14608E+06
        -0.36982E+06
        -0.13400E+06
         0.93740E+06
         0.32219E+06
         0.11234E+07
        -0.61723E+06
        -0.16628E+07
         0.53316E+06
        -0.19104E+07
        -0.17196E+07
        -0.12046E+07
        -0.37830E+06
        -0.25461E+07
        -0.19094E+07
         0.41615E+04
         0.43905E+06
         0.75641E+06
        -0.74786E+06
        -0.51504E+05
        -0.43847E+06
         0.22770E+06
        -0.99515E+06
        -0.55262E+06
        -0.20722E+07
        -0.44437E+06
        -0.34611E+07
        -0.23780E+07
        -0.12823E+07
        -0.17645E+07
        -0.18902E+06
        -0.27566E+06
         0.52451E+06
         0.10689E+07
        -0.34030E+05
        -0.14250E+06
        -0.95425E+05
        -0.20393E+07
        -0.19882E+07
        -0.13657E+07
        -0.33854E+06
        -0.58071E+06
        -0.57515E+06
        -0.11133E+07
        -0.10556E+07
        -0.14462E+07
        -0.77133E+06
        -0.31349E+06
        -0.39090E+06
        -0.23422E+05
         0.43802E+06
         0.12867E+07
        -0.15573E+07
         0.57058E+06
        -0.11746E+07
         0.14987E+06
         0.11286E+07
         0.17461E+07
         0.10690E+07
         0.13832E+07
         0.86667E+06
         0.23239E+06
         0.41918E+06
         0.33396E+06
        -0.11208E+06
         0.89719E+06
        -0.58041E+06
        -0.19332E+07
        -0.21075E+07
        -0.21625E+07
        -0.22000E+07
        -0.10105E+07
        -0.87884E+06
        -0.13783E+07
        -0.19656E+07
        -0.13585E+07
        -0.33875E+04
         0.87102E+06
         0.84027E+05
        -0.42972E+06
        -0.19178E+06
         0.88701E+06
         0.24724E+06
         0.10558E+07
        -0.67306E+06
        -0.17367E+07
         0.46880E+06
        -0.20027E+07
        -0.17896E+07
        -0.13017E+07
        -0.46813E+06
        -0.26243E+07
        -0.20094E+07
        -0.55798E+05
         0.37857E+06
         0.70931E+06
        -0.81150E+06
        -0.10365E+06
        -0.52297E+06
         0.14536E+06
        -0.10764E+07
        -0.60760E+06
        -0.21551E+07
        -0.49448E+06
        -0.35550E+07
        -0.24419E+07
        -0.13101E+07
        -0.18107E+07
        -0.24686E+06
        -0.32782E+06
         0.47023E+06
         0.10156E+07
        -0.12262E+06
        -0.21738E+06
        -0.17575E+06
        -0.21536E+07
        -0.20774E+07
        -0.14176E+07
        -0.42193E+06
        -0.66992E+06
        -0.66495E+06
        -0.11922E+07
        -0.11374E+07
        -0.15414E+07
        -0.85134E+06
        -0.38412E+06
        -0.45781E+06
        -0.97534E+05
         0.34774E+06
         0.12103E+07
        -0.17264E+07
         0.40630E+06
        -0.13456E+07
        -0.24057E+05
         0.95516E+06
         0.15791E+07
         0.89929E+06
         0.12011E+07
         0.69567E+06
         0.76719E+05
         0.20226E+06
         0.97901E+05
        -0.27911E+06
         0.75856E+06
        -0.72569E+06
        -0.20844E+07
        -0.22639E+07
        -0.23372E+07
        -0.23795E+07
        -0.11824E+07
        -0.10384E+07
        -0.15310E+07
        -0.21220E+07
        -0.15189E+07
        -0.15745E+06
         0.71810E+06
         0.11971E+06
        -0.42545E+06
        -0.18116E+06
         0.90572E+06
         0.27179E+06
         0.10773E+07
        -0.66560E+06
        -0.16936E+07
         0.50996E+06
        -0.19403E+07
        -0.17716E+07
        -0.12998E+07
        -0.49102E+06
        -0.25723E+07
        -0.19654E+07
        -0.88461E+04
         0.41716E+06
         0.73509E+06
        -0.77787E+06
        -0.72084E+05
        -0.48530E+06
         0.17357E+06
        -0.10181E+07
        -0.56599E+06
        -0.20875E+07
        -0.45651E+06
        -0.34750E+07
        -0.23690E+07
        -0.12487E+07
        -0.17437E+07
        -0.21054E+06
        -0.30410E+06
         0.48316E+06
         0.10078E+07
        -0.10914E+06
        -0.22324E+06
        -0.19857E+06
        -0.21018E+07
        -0.20151E+07
        -0.13627E+07
        -0.38474E+06
        -0.61907E+06
        -0.61140E+06
        -0.11395E+07
        -0.11083E+07
        -0.15270E+07
        -0.83974E+06
        -0.35376E+06
        -0.43501E+06
        -0.95799E+05
         0.35355E+06
         0.12117E+07
        -0.16613E+07
         0.49087E+06
        -0.13244E+07
        -0.61593E+05
         0.87719E+06
         0.15317E+07
         0.97710E+06
         0.12811E+07
         0.75915E+06
         0.11446E+06
         0.21275E+06
         0.13014E+06
        -0.21594E+06
         0.78975E+06
        -0.65972E+06
        -0.19902E+07
        -0.21839E+07
        -0.22758E+07
        -0.23530E+07
        -0.11855E+07
        -0.10031E+07
        -0.14804E+07
        -0.20417E+07
        -0.14209E+07
        -0.80275E+05
         0.79806E+06
         0.24417E+09
         0.23882E+09
         0.23550E+09
         0.20272E+09
         0.29346E+09
         0.26359E+09
         0.23822E+09
         0.27729E+09
         0.22740E+09
         0.27722E+09
         0.27861E+09
         0.37160E+09
         0.32848E+09
         0.30335E+09
         0.38311E+09
         0.22609E+09
         0.22211E+09
         0.17315E+09
         0.23987E+09
         0.22982E+09
         0.30246E+09
         0.30412E+09
         0.28781E+09
         0.21779E+09
         0.26505E+09
         0.18740E+09
         0.29909E+09
         0.24244E+09
         0.26050E+09
         0.27610E+09
         0.22350E+09
         0.21214E+09
         0.20272E+09
         0.20976E+09
         0.33380E+09
         0.28457E+09
         0.29269E+09
         0.35952E+09
         0.34041E+09
         0.33343E+09
         0.35235E+09
         0.33056E+09
         0.31324E+09
         0.27582E+09
         0.28502E+09
         0.33631E+09
         0.29418E+09
         0.26934E+09
         0.25585E+09
         0.27193E+09
         0.31718E+09
         0.27892E+09
         0.61882E+09
         0.60627E+09
         0.61696E+09
         0.59704E+09
         0.61573E+09
         0.64587E+09
         0.64845E+09
         0.64121E+09
         0.64622E+09
         0.66446E+09
         0.64492E+09
         0.60834E+09
         0.53923E+09
         0.50897E+09
         0.51663E+09
         0.52861E+09
         0.53524E+09
         0.58312E+09
         0.62397E+09
         0.62667E+09
         0.57451E+09
         0.55395E+09
         0.57402E+09
         0.56850E+09
         0.56522E+09
         0.56641E+09
         0.28481E+10
         0.29832E+10
         0.29401E+10
         0.26821E+10
         0.33039E+10
         0.31026E+10
         0.32278E+10
         0.32535E+10
         0.27846E+10
         0.32518E+10
         0.35451E+10
         0.39737E+10
         0.36020E+10
         0.36484E+10
         0.41127E+10
         0.27287E+10
         0.29328E+10
         0.25584E+10
         0.30292E+10
         0.31874E+10
         0.32989E+10
         0.33710E+10
         0.31664E+10
         0.29130E+10
         0.32895E+10
         0.28105E+10
         0.36352E+10
         0.35734E+10
         0.35896E+10
         0.34061E+10
         0.27579E+10
         0.29003E+10
         0.27035E+10
         0.28276E+10
         0.36181E+10
         0.33190E+10
         0.33301E+10
         0.39824E+10
         0.38801E+10
         0.38336E+10
         0.39017E+10
         0.37050E+10
         0.35036E+10
         0.30909E+10
         0.32184E+10
         0.36164E+10
         0.33439E+10
         0.31439E+10
         0.30813E+10
         0.31950E+10
         0.34697E+10
         0.32047E+10
         0.57392E+10
         0.55913E+10
         0.57078E+10
         0.55283E+10
         0.56927E+10
         0.59850E+10
         0.60820E+10
         0.60697E+10
         0.61129E+10
         0.62529E+10
         0.60721E+10
         0.57080E+10
         0.51164E+10
         0.48352E+10
         0.48480E+10
         0.49098E+10
         0.49572E+10
         0.53762E+10
         0.57620E+10
         0.57851E+10
         0.53536E+10
         0.51878E+10
         0.53596E+10
         0.53219E+10
         0.52615E+10
         0.52468E+10
  
SCALARS                      stress_zz  double 1
LOOKUP_TABLE default
         0.69652E+12
         0.68711E+12
         0.69308E+12
         0.70378E+12
        -0.34253E+03
        -0.38410E+03
        -0.36779E+03
        -0.33412E+03
         0.68678E+12
         0.68997E+12
        -0.34540E+03
        -0.33426E+03
         0.67347E+12
         0.67297E+12
        -0.41041E+03
        -0.38589E+03
         0.70222E+12
         0.67370E+12
        -0.30325E+03
        -0.33635E+03
         0.66321E+12
         0.65506E+12
         0.66803E+12
        -0.40676E+03
        -0.35523E+03
        -0.36681E+03
         0.65538E+12
         0.64347E+12
        -0.39023E+03
        -0.32909E+03
         0.70170E+12
         0.68930E+12
         0.71371E+12
        -0.33300E+03
        -0.30958E+03
        -0.30099E+03
         0.69453E+12
         0.67872E+12
        -0.35230E+03
        -0.32148E+03
         0.68827E+12
         0.67607E+12
        -0.30449E+03
        -0.26956E+03
         0.69859E+12
         0.70316E+12
        -0.33368E+03
        -0.37284E+03
         0.66628E+12
        -0.32598E+03
         0.70227E+12
        -0.38304E+03
         0.65194E+12
        -0.34424E+03
         0.64820E+12
        -0.33020E+03
         0.64826E+12
         0.66156E+12
        -0.33643E+03
        -0.32765E+03
         0.70145E+12
         0.69668E+12
        -0.33736E+03
        -0.38138E+03
         0.70442E+12
        -0.32553E+03
         0.69876E+12
        -0.35527E+03
         0.68385E+12
         0.68236E+12
        -0.34198E+03
        -0.35834E+03
         0.67898E+12
        -0.36134E+03
         0.63923E+12
        -0.28549E+03
         0.63714E+12
        -0.27711E+03
         0.63818E+12
        -0.29218E+03
         0.64394E+12
         0.64993E+12
        -0.27838E+03
        -0.29023E+03
         0.66199E+12
        -0.27031E+03
         0.69835E+12
        -0.35448E+03
         0.69268E+12
        -0.36280E+03
         0.68803E+12
         0.68548E+12
        -0.34841E+03
        -0.35247E+03
         0.68863E+12
        -0.32015E+03
         0.69086E+12
        -0.31558E+03
         0.68884E+12
        -0.33783E+03
         0.68813E+12
         0.69017E+12
        -0.33129E+03
        -0.34101E+03
         0.67690E+12
         0.68228E+12
        -0.25722E+03
        -0.24193E+03
         0.67587E+12
        -0.24561E+03
         0.68209E+12
        -0.23550E+03
         0.67596E+12
        -0.23222E+03
         0.66236E+12
        -0.21945E+03
         0.64917E+12
        -0.19495E+03
         0.64127E+12
        -0.17555E+03
         0.64046E+12
        -0.17433E+03
         0.64071E+12
        -0.18905E+03
         0.64929E+12
        -0.19868E+03
         0.66529E+12
        -0.18142E+03
         0.68285E+12
        -0.16353E+03
         0.69313E+12
        -0.16334E+03
         0.70327E+12
        -0.18258E+03
         0.70997E+12
        -0.20818E+03
         0.70972E+12
        -0.22365E+03
         0.69345E+12
        -0.24154E+03
         0.68209E+12
        -0.25877E+03
         0.67819E+12
        -0.23705E+03
         0.68428E+12
        -0.20796E+03
         0.68746E+12
        -0.20732E+03
         0.68213E+12
        -0.22683E+03
         0.68221E+12
        -0.24182E+03
         0.68623E+12
        -0.22948E+03
         0.69146E+12
        -0.22186E+03
        -0.32491E+11
        -0.32311E+11
        -0.32338E+11
        -0.32554E+11
        -0.32095E+11
        -0.32360E+11
        -0.32022E+11
        -0.32211E+11
        -0.32525E+11
        -0.32345E+11
        -0.31789E+11
        -0.31713E+11
        -0.31911E+11
        -0.31924E+11
        -0.31799E+11
        -0.32546E+11
        -0.32510E+11
        -0.32602E+11
        -0.32289E+11
        -0.32358E+11
        -0.32257E+11
        -0.32325E+11
        -0.32196E+11
        -0.32231E+11
        -0.32353E+11
        -0.32344E+11
        -0.32125E+11
        -0.32147E+11
        -0.31959E+11
        -0.32234E+11
        -0.32528E+11
        -0.32308E+11
        -0.32527E+11
        -0.32390E+11
        -0.31658E+11
        -0.31933E+11
        -0.32051E+11
        -0.31912E+11
        -0.31893E+11
        -0.31637E+11
        -0.31431E+11
        -0.31904E+11
        -0.32261E+11
        -0.32218E+11
        -0.32040E+11
        -0.31669E+11
        -0.31990E+11
        -0.32275E+11
        -0.32257E+11
        -0.32039E+11
        -0.31777E+11
        -0.32121E+11
        -0.31016E+11
        -0.31299E+11
        -0.31243E+11
        -0.31327E+11
        -0.31303E+11
        -0.31147E+11
        -0.30992E+11
        -0.30940E+11
        -0.30962E+11
        -0.30946E+11
        -0.30876E+11
        -0.31282E+11
        -0.31494E+11
        -0.31572E+11
        -0.31699E+11
        -0.31791E+11
        -0.31787E+11
        -0.31627E+11
        -0.31109E+11
        -0.31207E+11
        -0.31387E+11
        -0.31385E+11
        -0.31349E+11
        -0.31187E+11
        -0.31443E+11
        -0.31547E+11
         0.25600E+07
         0.15494E+07
         0.18018E+07
         0.27608E+07
         0.21094E+07
         0.28902E+07
        -0.18606E+06
        -0.15761E+05
         0.30775E+07
        -0.17334E+06
        -0.13582E+07
         0.11045E+07
         0.14960E+07
        -0.28453E+07
         0.12022E+06
         0.14096E+07
         0.19642E+07
         0.21921E+07
         0.71259E+06
         0.59186E+06
         0.86974E+06
         0.16195E+07
         0.28143E+06
         0.80530E+05
        -0.84938E+06
        -0.52832E+05
        -0.42992E+07
        -0.50245E+07
        -0.23212E+07
        -0.55192E+06
         0.12955E+07
         0.40123E+06
         0.24144E+07
         0.35013E+07
         0.11170E+07
         0.98038E+06
         0.13995E+07
        -0.14526E+06
        -0.33474E+05
         0.46549E+06
         0.11944E+07
         0.75866E+06
         0.93137E+06
         0.31889E+06
         0.40285E+06
         0.65507E+06
         0.10410E+07
         0.12690E+07
         0.17204E+07
         0.22965E+07
         0.22774E+07
         0.28577E+07
        -0.12501E+06
         0.21629E+07
         0.72340E+06
         0.24918E+07
         0.39241E+07
         0.49132E+07
         0.42561E+07
         0.45431E+07
         0.39479E+07
         0.30036E+07
         0.26934E+07
         0.23347E+07
         0.15713E+07
         0.24874E+07
         0.92822E+06
        -0.17790E+06
         0.14842E+05
         0.93566E+05
         0.48988E+06
         0.20191E+07
         0.20588E+07
         0.15056E+07
         0.71000E+06
         0.70360E+06
         0.16884E+07
         0.25997E+07
         0.24691E+07
         0.14446E+07
         0.16967E+07
         0.26547E+07
         0.20017E+07
         0.27824E+07
        -0.32033E+06
        -0.12037E+06
         0.29703E+07
        -0.28762E+06
        -0.14974E+07
         0.98023E+06
         0.13837E+07
        -0.29699E+07
        -0.23116E+04
         0.13048E+07
         0.18251E+07
         0.20803E+07
         0.58315E+06
         0.43716E+06
         0.75886E+06
         0.15103E+07
         0.16567E+06
        -0.64743E+05
        -0.98521E+06
        -0.19533E+06
        -0.44179E+07
        -0.51798E+07
        -0.24834E+07
        -0.69171E+06
         0.11905E+07
         0.26606E+06
         0.23069E+07
         0.33889E+07
         0.10013E+07
         0.86924E+06
         0.12933E+07
        -0.27213E+06
        -0.15656E+06
         0.34224E+06
         0.10692E+07
         0.63450E+06
         0.81324E+06
         0.20421E+06
         0.29186E+06
         0.53984E+06
         0.92698E+06
         0.11577E+07
         0.16138E+07
         0.21937E+07
         0.21697E+07
         0.27520E+07
        -0.30628E+06
         0.19864E+07
         0.55007E+06
         0.23258E+07
         0.37490E+07
         0.47189E+07
         0.40617E+07
         0.43453E+07
         0.37476E+07
         0.27996E+07
         0.24902E+07
         0.21467E+07
         0.14125E+07
         0.23386E+07
         0.77334E+06
        -0.34258E+06
        -0.15309E+06
        -0.81041E+05
         0.31408E+06
         0.18336E+07
         0.18826E+07
         0.13460E+07
         0.55058E+06
         0.54013E+06
         0.15236E+07
         0.24318E+07
         0.24905E+07
         0.14653E+07
         0.17192E+07
         0.26829E+07
         0.20299E+07
         0.28116E+07
        -0.28973E+06
        -0.96252E+05
         0.29879E+07
        -0.28150E+06
        -0.14692E+07
         0.10040E+07
         0.14052E+07
        -0.29426E+07
         0.28033E+05
         0.12838E+07
         0.18179E+07
         0.21090E+07
         0.55149E+06
         0.40679E+06
         0.74054E+06
         0.15032E+07
         0.89732E+05
        -0.16958E+06
        -0.10414E+07
        -0.29519E+06
        -0.43938E+07
        -0.52012E+07
        -0.25470E+07
        -0.78895E+06
         0.11909E+07
         0.23518E+06
         0.23360E+07
         0.34252E+07
         0.10315E+07
         0.89719E+06
         0.13168E+07
        -0.24975E+06
        -0.13587E+06
         0.34955E+06
         0.10662E+07
         0.58945E+06
         0.74964E+06
         0.12743E+06
         0.27280E+06
         0.55567E+06
         0.94766E+06
         0.11828E+07
         0.16427E+07
         0.22254E+07
         0.22003E+07
         0.27820E+07
        -0.25242E+06
         0.20347E+07
         0.60348E+06
         0.23670E+07
         0.37794E+07
         0.47491E+07
         0.41002E+07
         0.43842E+07
         0.37870E+07
         0.28403E+07
         0.25142E+07
         0.21458E+07
         0.14151E+07
         0.23660E+07
         0.79142E+06
        -0.37588E+06
        -0.18919E+06
        -0.71681E+05
         0.36233E+06
         0.18894E+07
         0.19327E+07
         0.13968E+07
         0.60735E+06
         0.58789E+06
         0.15624E+07
         0.24694E+07
         0.24776E+07
         0.14565E+07
         0.17105E+07
         0.26660E+07
         0.20198E+07
         0.28024E+07
        -0.29889E+06
        -0.10958E+06
         0.29569E+07
        -0.32971E+06
        -0.14835E+07
         0.99114E+06
         0.13962E+07
        -0.29597E+07
         0.13009E+05
         0.12006E+07
         0.17363E+07
         0.20880E+07
         0.43850E+06
         0.27635E+06
         0.65643E+06
         0.14278E+07
        -0.86947E+05
        -0.40406E+06
        -0.12028E+07
        -0.52262E+06
        -0.44258E+07
        -0.53268E+07
        -0.27472E+07
        -0.10239E+07
         0.11401E+07
         0.11343E+06
         0.23196E+07
         0.34066E+07
         0.10167E+07
         0.88595E+06
         0.13083E+07
        -0.27285E+06
        -0.16548E+06
         0.29388E+06
         0.99534E+06
         0.44887E+06
         0.57713E+06
        -0.53522E+05
         0.18095E+06
         0.50927E+06
         0.91100E+06
         0.11621E+07
         0.16243E+07
         0.22059E+07
         0.21840E+07
         0.27706E+07
        -0.27783E+06
         0.20172E+07
         0.57605E+06
         0.23430E+07
         0.37633E+07
         0.47306E+07
         0.40692E+07
         0.43504E+07
         0.37543E+07
         0.28008E+07
         0.24516E+07
         0.20447E+07
         0.13189E+07
         0.23202E+07
         0.74033E+06
        -0.51589E+06
        -0.33726E+06
        -0.14063E+06
         0.32940E+06
         0.18581E+07
         0.19087E+07
         0.13684E+07
         0.57767E+06
         0.56762E+06
         0.15471E+07
         0.24541E+07
         0.24542E+07
         0.14385E+07
         0.16954E+07
         0.26486E+07
         0.20081E+07
         0.27897E+07
        -0.31463E+06
        -0.13191E+06
         0.29198E+07
        -0.37997E+06
        -0.14988E+07
         0.98313E+06
         0.13863E+07
        -0.29783E+07
         0.59448E+04
         0.11443E+07
         0.16718E+07
         0.20684E+07
         0.36428E+06
         0.18202E+06
         0.60229E+06
         0.13736E+07
        -0.19549E+06
        -0.54939E+06
        -0.13180E+07
        -0.66829E+06
        -0.44536E+07
        -0.54174E+07
        -0.28846E+07
        -0.11796E+07
         0.10870E+07
         0.25015E+05
         0.22872E+07
         0.33808E+07
         0.10013E+07
         0.87158E+06
         0.12955E+07
        -0.28994E+06
        -0.18987E+06
         0.25182E+06
         0.94544E+06
         0.35441E+06
         0.46399E+06
        -0.16846E+06
         0.12042E+06
         0.47866E+06
         0.87849E+06
         0.11290E+07
         0.15925E+07
         0.21771E+07
         0.21586E+07
         0.27519E+07
        -0.30071E+06
         0.20019E+07
         0.55269E+06
         0.23244E+07
         0.37557E+07
         0.47251E+07
         0.40559E+07
         0.43281E+07
         0.37265E+07
         0.27762E+07
         0.24134E+07
         0.19748E+07
         0.12533E+07
         0.22848E+07
         0.70426E+06
        -0.60658E+06
        -0.44118E+06
        -0.18991E+06
         0.31441E+06
         0.18297E+07
         0.18769E+07
         0.13358E+07
         0.53948E+06
         0.53478E+06
         0.15268E+07
         0.24389E+07
         0.23973E+07
         0.14040E+07
         0.16804E+07
         0.26630E+07
         0.20227E+07
         0.28101E+07
        -0.32486E+06
        -0.17129E+06
         0.28679E+07
        -0.44828E+06
        -0.14868E+07
         0.10109E+07
         0.13975E+07
        -0.29760E+07
         0.40715E+05
         0.11548E+07
         0.16569E+07
         0.20978E+07
         0.37986E+06
         0.19430E+06
         0.61800E+06
         0.13926E+07
        -0.19305E+06
        -0.55234E+06
        -0.13649E+07
        -0.68872E+06
        -0.44597E+07
        -0.54280E+07
        -0.28742E+07
        -0.11840E+07
         0.10236E+07
        -0.21671E+05
         0.22328E+07
         0.33742E+07
         0.10147E+07
         0.87305E+06
         0.12932E+07
        -0.26725E+06
        -0.16880E+06
         0.27518E+06
         0.96997E+06
         0.36946E+06
         0.47612E+06
        -0.17571E+06
         0.11266E+06
         0.47358E+06
         0.85036E+06
         0.10622E+07
         0.15149E+07
         0.21379E+07
         0.21503E+07
         0.27608E+07
        -0.25643E+06
         0.20476E+07
         0.58987E+06
         0.23493E+07
         0.37817E+07
         0.47604E+07
         0.40959E+07
         0.43668E+07
         0.37709E+07
         0.28348E+07
         0.24647E+07
         0.20057E+07
         0.12879E+07
         0.23210E+07
         0.73905E+06
        -0.57885E+06
        -0.42116E+06
        -0.17007E+06
         0.33823E+06
         0.18461E+07
         0.18732E+07
         0.13131E+07
         0.52442E+06
         0.54222E+06
         0.15489E+07
         0.24708E+07
         0.23105E+07
         0.13428E+07
         0.16443E+07
         0.26524E+07
         0.20111E+07
         0.28091E+07
        -0.37771E+06
        -0.24848E+06
         0.27803E+07
        -0.54961E+06
        -0.15199E+07
         0.10003E+07
         0.13794E+07
        -0.30178E+07
         0.33467E+05
         0.11381E+07
         0.16042E+07
         0.20910E+07
         0.36714E+06
         0.17150E+06
         0.61042E+06
         0.13873E+07
        -0.20159E+06
        -0.56998E+06
        -0.14330E+07
        -0.72557E+06
        -0.45075E+07
        -0.54744E+07
        -0.28867E+07
        -0.12016E+07
         0.93484E+06
        -0.98317E+05
         0.21496E+07
         0.33399E+07
         0.99667E+06
         0.84979E+06
         0.12681E+07
        -0.28519E+06
        -0.18620E+06
         0.26569E+06
         0.96580E+06
         0.36753E+06
         0.47505E+06
        -0.19321E+06
         0.79174E+05
         0.43030E+06
         0.78550E+06
         0.96179E+06
         0.14043E+07
         0.20695E+07
         0.21164E+07
         0.27482E+07
        -0.27509E+06
         0.20332E+07
         0.57877E+06
         0.23367E+07
         0.37635E+07
         0.47387E+07
         0.40779E+07
         0.43513E+07
         0.37553E+07
         0.28231E+07
         0.24554E+07
         0.19944E+07
         0.12859E+07
         0.23181E+07
         0.73145E+06
        -0.58307E+06
        -0.42992E+06
        -0.20126E+06
         0.29165E+06
         0.17949E+07
         0.18152E+07
         0.12413E+07
         0.46151E+06
         0.50879E+06
         0.15310E+07
         0.24567E+07
         0.22853E+07
         0.13201E+07
         0.16295E+07
         0.26381E+07
         0.19987E+07
         0.27968E+07
        -0.40348E+06
        -0.27491E+06
         0.27546E+07
        -0.57919E+06
        -0.15433E+07
         0.98534E+06
         0.13616E+07
        -0.30420E+07
         0.20999E+05
         0.11230E+07
         0.15831E+07
         0.20756E+07
         0.35550E+06
         0.15345E+06
         0.59851E+06
         0.13748E+07
        -0.21284E+06
        -0.58349E+06
        -0.14549E+07
        -0.74656E+06
        -0.45276E+07
        -0.54992E+07
        -0.29099E+07
        -0.12183E+07
         0.90606E+06
        -0.12893E+06
         0.21229E+07
         0.33205E+07
         0.98149E+06
         0.83719E+06
         0.12529E+07
        -0.30790E+06
        -0.20643E+06
         0.24482E+06
         0.94491E+06
         0.35078E+06
         0.46428E+06
        -0.20885E+06
         0.59167E+05
         0.41006E+06
         0.76408E+06
         0.93687E+06
         0.13767E+07
         0.20457E+07
         0.20955E+07
         0.27323E+07
        -0.30067E+06
         0.20081E+07
         0.56180E+06
         0.23194E+07
         0.37425E+07
         0.47203E+07
         0.40590E+07
         0.43250E+07
         0.37204E+07
         0.27866E+07
         0.24223E+07
         0.19795E+07
         0.12738E+07
         0.22924E+07
         0.70463E+06
        -0.60845E+06
        -0.46290E+06
        -0.23273E+06
         0.26510E+06
         0.17735E+07
         0.17975E+07
         0.12173E+07
         0.42981E+06
         0.47923E+06
         0.15061E+07
         0.24321E+07
         0.23014E+07
         0.13355E+07
         0.16410E+07
         0.26426E+07
         0.20122E+07
         0.28007E+07
        -0.38225E+06
        -0.25496E+06
         0.27712E+07
        -0.55859E+06
        -0.15262E+07
         0.10004E+07
         0.13732E+07
        -0.30223E+07
         0.44835E+05
         0.11430E+07
         0.16036E+07
         0.20884E+07
         0.37825E+06
         0.17430E+06
         0.61456E+06
         0.13901E+07
        -0.19628E+06
        -0.55951E+06
        -0.14331E+07
        -0.72352E+06
        -0.44975E+07
        -0.54706E+07
        -0.28864E+07
        -0.12002E+07
         0.92331E+06
        -0.11193E+06
         0.21365E+07
         0.33267E+07
         0.99884E+06
         0.85161E+06
         0.12647E+07
        -0.29092E+06
        -0.19184E+06
         0.25782E+06
         0.95942E+06
         0.36681E+06
         0.48055E+06
        -0.19349E+06
         0.72181E+05
         0.42302E+06
         0.77807E+06
         0.95424E+06
         0.13945E+07
         0.20590E+07
         0.21044E+07
         0.27363E+07
        -0.26288E+06
         0.20452E+07
         0.58390E+06
         0.23285E+07
         0.37609E+07
         0.47489E+07
         0.40909E+07
         0.43479E+07
         0.37291E+07
         0.28000E+07
         0.24466E+07
         0.20141E+07
         0.13044E+07
         0.23122E+07
         0.72332E+06
        -0.58691E+06
        -0.44112E+06
        -0.20595E+06
         0.29051E+06
         0.18033E+07
         0.18284E+07
         0.12450E+07
         0.45275E+06
         0.49961E+06
         0.15266E+07
         0.24543E+07
         0.22974E+07
         0.13342E+07
         0.16381E+07
         0.26331E+07
         0.20096E+07
         0.27942E+07
        -0.38350E+06
        -0.26173E+06
         0.27584E+07
        -0.56932E+06
        -0.15360E+07
         0.99136E+06
         0.13705E+07
        -0.30358E+07
         0.31722E+05
         0.11338E+07
         0.15901E+07
         0.20720E+07
         0.36868E+06
         0.15999E+06
         0.60840E+06
         0.13821E+07
        -0.20208E+06
        -0.56836E+06
        -0.14371E+07
        -0.73222E+06
        -0.45034E+07
        -0.54736E+07
        -0.28907E+07
        -0.12073E+07
         0.91455E+06
        -0.12155E+06
         0.21220E+07
         0.33124E+07
         0.99332E+06
         0.84593E+06
         0.12611E+07
        -0.31049E+06
        -0.20281E+06
         0.24755E+06
         0.94933E+06
         0.36043E+06
         0.47136E+06
        -0.19789E+06
         0.67514E+05
         0.41658E+06
         0.76813E+06
         0.94288E+06
         0.13834E+07
         0.20496E+07
         0.20962E+07
         0.27272E+07
        -0.27397E+06
         0.20365E+07
         0.56615E+06
         0.23134E+07
         0.37587E+07
         0.47383E+07
         0.40662E+07
         0.43203E+07
         0.37129E+07
         0.27757E+07
         0.24201E+07
         0.20009E+07
         0.12886E+07
         0.23035E+07
         0.71524E+06
        -0.59442E+06
        -0.44229E+06
        -0.21121E+06
         0.28288E+06
         0.17831E+07
         0.18032E+07
         0.12255E+07
         0.44277E+06
         0.49468E+06
         0.15154E+07
         0.24386E+07
         0.22858E+07
         0.13226E+07
         0.16297E+07
         0.26276E+07
         0.20009E+07
         0.27900E+07
        -0.39273E+06
        -0.27197E+06
         0.27467E+07
        -0.58000E+06
        -0.15470E+07
         0.97934E+06
         0.13625E+07
        -0.30467E+07
         0.18304E+05
         0.11209E+07
         0.15794E+07
         0.20621E+07
         0.35688E+06
         0.14887E+06
         0.60046E+06
         0.13740E+07
        -0.21093E+06
        -0.58217E+06
        -0.14410E+07
        -0.74863E+06
        -0.45076E+07
        -0.54800E+07
        -0.28959E+07
        -0.12123E+07
         0.90181E+06
        -0.13710E+06
         0.21139E+07
         0.33096E+07
         0.97994E+06
         0.83603E+06
         0.12529E+07
        -0.32941E+06
        -0.21516E+06
         0.23864E+06
         0.94361E+06
         0.35503E+06
         0.46297E+06
        -0.20626E+06
         0.59205E+05
         0.40790E+06
         0.75884E+06
         0.93305E+06
         0.13729E+07
         0.20414E+07
         0.20884E+07
         0.27232E+07
        -0.29605E+06
         0.20181E+07
         0.55264E+06
         0.23088E+07
         0.37527E+07
         0.47170E+07
         0.40353E+07
         0.42954E+07
         0.36961E+07
         0.27582E+07
         0.24092E+07
         0.19878E+07
         0.12697E+07
         0.22906E+07
         0.70176E+06
        -0.60994E+06
        -0.45259E+06
        -0.22332E+06
         0.26787E+06
         0.17664E+07
         0.17841E+07
         0.12056E+07
         0.42841E+06
         0.48103E+06
         0.14984E+07
         0.24207E+07
         0.22935E+07
         0.13275E+07
         0.16340E+07
         0.26357E+07
         0.20100E+07
         0.27995E+07
        -0.37825E+06
        -0.25798E+06
         0.27543E+07
        -0.57067E+06
        -0.15308E+07
         0.98965E+06
         0.13660E+07
        -0.30289E+07
         0.40405E+05
         0.11321E+07
         0.15877E+07
         0.20749E+07
         0.37069E+06
         0.16535E+06
         0.61328E+06
         0.13877E+07
        -0.19972E+06
        -0.56741E+06
        -0.14291E+07
        -0.73401E+06
        -0.44881E+07
        -0.54617E+07
        -0.28697E+07
        -0.11926E+07
         0.91550E+06
        -0.12564E+06
         0.21303E+07
         0.33253E+07
         0.99067E+06
         0.84526E+06
         0.12579E+07
        -0.31570E+06
        -0.20066E+06
         0.25743E+06
         0.95976E+06
         0.36725E+06
         0.47607E+06
        -0.19684E+06
         0.67091E+05
         0.41511E+06
         0.76736E+06
         0.94359E+06
         0.13845E+07
         0.20527E+07
         0.20977E+07
         0.27341E+07
        -0.26845E+06
         0.20480E+07
         0.58074E+06
         0.23226E+07
         0.37482E+07
         0.47184E+07
         0.40574E+07
         0.43200E+07
         0.37127E+07
         0.27833E+07
         0.24331E+07
         0.19992E+07
         0.12901E+07
         0.23114E+07
         0.72066E+06
        -0.59538E+06
        -0.44280E+06
        -0.21107E+06
         0.27937E+06
         0.17844E+07
         0.18054E+07
         0.12261E+07
         0.44605E+06
         0.49600E+06
         0.15206E+07
         0.24467E+07
         0.22882E+07
         0.13182E+07
         0.16259E+07
         0.26250E+07
         0.20011E+07
         0.27902E+07
        -0.39049E+06
        -0.26719E+06
         0.27450E+07
        -0.58404E+06
        -0.15467E+07
         0.97470E+06
         0.13497E+07
        -0.30455E+07
         0.30936E+05
         0.11217E+07
         0.15740E+07
         0.20574E+07
         0.35615E+06
         0.14869E+06
         0.59891E+06
         0.13730E+07
        -0.21487E+06
        -0.58337E+06
        -0.14407E+07
        -0.74840E+06
        -0.45051E+07
        -0.54852E+07
        -0.28864E+07
        -0.12023E+07
         0.90366E+06
        -0.14035E+06
         0.21128E+07
         0.33123E+07
         0.97790E+06
         0.83371E+06
         0.12444E+07
        -0.33635E+06
        -0.22099E+06
         0.23951E+06
         0.94028E+06
         0.34892E+06
         0.46174E+06
        -0.21397E+06
         0.51850E+05
         0.40246E+06
         0.75411E+06
         0.92814E+06
         0.13710E+07
         0.20435E+07
         0.20873E+07
         0.27237E+07
        -0.29027E+06
         0.20292E+07
         0.55935E+06
         0.22980E+07
         0.37196E+07
         0.46911E+07
         0.40406E+07
         0.42984E+07
         0.36842E+07
         0.27552E+07
         0.23989E+07
         0.19654E+07
         0.12674E+07
         0.22878E+07
         0.70052E+06
        -0.61832E+06
        -0.47824E+06
        -0.24269E+06
         0.26346E+06
         0.17624E+07
         0.17826E+07
         0.12143E+07
         0.43794E+06
         0.47915E+06
         0.14976E+07
         0.24240E+07
         0.22873E+07
         0.13151E+07
         0.16235E+07
         0.26217E+07
         0.20000E+07
         0.27876E+07
        -0.39073E+06
        -0.26749E+06
         0.27456E+07
        -0.58335E+06
        -0.15488E+07
         0.97267E+06
         0.13471E+07
        -0.30467E+07
         0.31878E+05
         0.11199E+07
         0.15748E+07
         0.20529E+07
         0.35505E+06
         0.14627E+06
         0.59587E+06
         0.13708E+07
        -0.21819E+06
        -0.58633E+06
        -0.14388E+07
        -0.75255E+06
        -0.45008E+07
        -0.54885E+07
        -0.28888E+07
        -0.12036E+07
         0.89752E+06
        -0.14636E+06
         0.21058E+07
         0.33095E+07
         0.97495E+06
         0.83003E+06
         0.12403E+07
        -0.34607E+06
        -0.23224E+06
         0.23262E+06
         0.93823E+06
         0.34743E+06
         0.45982E+06
        -0.21679E+06
         0.49058E+05
         0.39947E+06
         0.74985E+06
         0.92212E+06
         0.13655E+07
         0.20416E+07
         0.20853E+07
         0.27212E+07
        -0.29094E+06
         0.20296E+07
         0.55355E+06
         0.22885E+07
         0.37189E+07
         0.46906E+07
         0.40338E+07
         0.42803E+07
         0.36637E+07
         0.27439E+07
         0.23977E+07
         0.19621E+07
         0.12617E+07
         0.22786E+07
         0.69003E+06
        -0.62565E+06
        -0.48304E+06
        -0.24683E+06
         0.25893E+06
         0.17544E+07
         0.17724E+07
         0.12079E+07
         0.43713E+06
         0.47688E+06
         0.14874E+07
         0.24147E+07
         0.23113E+07
         0.13444E+07
         0.16484E+07
         0.26427E+07
         0.20268E+07
         0.28094E+07
        -0.34769E+06
        -0.23851E+06
         0.27654E+07
        -0.55992E+06
        -0.15105E+07
         0.10053E+07
         0.13766E+07
        -0.30145E+07
         0.64694E+05
         0.11440E+07
         0.16027E+07
         0.20778E+07
         0.38490E+06
         0.18141E+06
         0.62425E+06
         0.13978E+07
        -0.19080E+06
        -0.55440E+06
        -0.14056E+07
        -0.72003E+06
        -0.44630E+07
        -0.54396E+07
        -0.28397E+07
        -0.11682E+07
         0.92477E+06
        -0.11352E+06
         0.21311E+07
         0.33304E+07
         0.10036E+07
         0.85685E+06
         0.12663E+07
        -0.32469E+06
        -0.20434E+06
         0.26287E+06
         0.96514E+06
         0.37492E+06
         0.48415E+06
        -0.18780E+06
         0.78623E+05
         0.42796E+06
         0.77707E+06
         0.94880E+06
         0.13893E+07
         0.20620E+07
         0.21048E+07
         0.27402E+07
        -0.24068E+06
         0.20796E+07
         0.59560E+06
         0.23190E+07
         0.37560E+07
         0.47374E+07
         0.40731E+07
         0.43104E+07
         0.36975E+07
         0.27807E+07
         0.24310E+07
         0.20011E+07
         0.12930E+07
         0.23135E+07
         0.72959E+06
        -0.58456E+06
        -0.43685E+06
        -0.19733E+06
         0.30145E+06
         0.17988E+07
         0.18105E+07
         0.12362E+07
         0.46823E+06
         0.51399E+06
         0.15276E+07
         0.24554E+07
         0.23014E+07
         0.13361E+07
         0.16408E+07
         0.26295E+07
         0.20156E+07
         0.27997E+07
        -0.35833E+06
        -0.25058E+06
         0.27521E+07
        -0.57686E+06
        -0.15261E+07
         0.99377E+06
         0.13694E+07
        -0.30320E+07
         0.50967E+05
         0.11306E+07
         0.15854E+07
         0.20633E+07
         0.36560E+06
         0.16124E+06
         0.61466E+06
         0.13844E+07
        -0.20012E+06
        -0.57366E+06
        -0.14199E+07
        -0.74036E+06
        -0.44781E+07
        -0.54556E+07
        -0.28409E+07
        -0.11747E+07
         0.91621E+06
        -0.13015E+06
         0.21190E+07
         0.33147E+07
         0.98716E+06
         0.84638E+06
         0.12597E+07
        -0.34809E+06
        -0.22074E+06
         0.25529E+06
         0.95292E+06
         0.36074E+06
         0.46764E+06
        -0.20055E+06
         0.65355E+05
         0.41606E+06
         0.76606E+06
         0.94016E+06
         0.13779E+07
         0.20482E+07
         0.20923E+07
         0.27295E+07
        -0.27285E+06
         0.20525E+07
         0.57091E+06
         0.23060E+07
         0.37515E+07
         0.47252E+07
         0.40462E+07
         0.42779E+07
         0.36659E+07
         0.27527E+07
         0.23980E+07
         0.19634E+07
         0.12660E+07
         0.23000E+07
         0.72336E+06
        -0.58849E+06
        -0.44974E+06
        -0.21965E+06
         0.28477E+06
         0.17790E+07
         0.17922E+07
         0.12156E+07
         0.44613E+06
         0.49993E+06
         0.15145E+07
         0.24338E+07
         0.22848E+07
         0.13147E+07
         0.16199E+07
         0.26119E+07
         0.19977E+07
         0.27812E+07
        -0.37748E+06
        -0.26500E+06
         0.27330E+07
        -0.60782E+06
        -0.15452E+07
         0.97517E+06
         0.13534E+07
        -0.30499E+07
         0.33499E+05
         0.11141E+07
         0.15589E+07
         0.20468E+07
         0.34985E+06
         0.15099E+06
         0.60279E+06
         0.13688E+07
        -0.21139E+06
        -0.59018E+06
        -0.14479E+07
        -0.76031E+06
        -0.45141E+07
        -0.54818E+07
        -0.27837E+07
        -0.11493E+07
         0.90051E+06
        -0.15339E+06
         0.21071E+07
         0.33038E+07
         0.96864E+06
         0.82907E+06
         0.12439E+07
        -0.38287E+06
        -0.23687E+06
         0.28322E+06
         0.95197E+06
         0.34537E+06
         0.44555E+06
        -0.21435E+06
         0.48452E+05
         0.39700E+06
         0.74684E+06
         0.92470E+06
         0.13648E+07
         0.20370E+07
         0.20813E+07
         0.27163E+07
        -0.29433E+06
         0.20328E+07
         0.55410E+06
         0.22914E+07
         0.37311E+07
         0.46922E+07
         0.40083E+07
         0.42416E+07
         0.36342E+07
         0.27453E+07
         0.23405E+07
         0.18729E+07
         0.12280E+07
         0.22788E+07
         0.70461E+06
        -0.60516E+06
        -0.47034E+06
        -0.24307E+06
         0.25738E+06
         0.17481E+07
         0.17712E+07
         0.11959E+07
         0.42361E+06
         0.48321E+06
         0.14889E+07
         0.24051E+07
         0.23077E+07
         0.13416E+07
         0.16469E+07
         0.26374E+07
         0.20261E+07
         0.28048E+07
        -0.33942E+06
        -0.23648E+06
         0.27466E+07
        -0.61200E+06
        -0.15107E+07
         0.99952E+06
         0.13753E+07
        -0.30196E+07
         0.62845E+05
         0.11384E+07
         0.15780E+07
         0.20701E+07
         0.38425E+06
         0.20952E+06
         0.62641E+06
         0.13924E+07
        -0.18934E+06
        -0.55573E+06
        -0.14373E+07
        -0.72487E+06
        -0.45196E+07
        -0.54512E+07
        -0.26117E+07
        -0.10426E+07
         0.92379E+06
        -0.12000E+06
         0.21318E+07
         0.33317E+07
         0.99934E+06
         0.85895E+06
         0.12685E+07
        -0.38062E+06
        -0.20504E+06
         0.38683E+06
         0.10035E+07
         0.37319E+06
         0.45975E+06
        -0.18946E+06
         0.77367E+05
         0.42867E+06
         0.77522E+06
         0.94912E+06
         0.13909E+07
         0.20649E+07
         0.21072E+07
         0.27388E+07
        -0.24259E+06
         0.20836E+07
         0.60599E+06
         0.23277E+07
         0.37542E+07
         0.47187E+07
         0.40451E+07
         0.42792E+07
         0.36755E+07
         0.28255E+07
         0.23218E+07
         0.18001E+07
         0.12308E+07
         0.23077E+07
         0.72876E+06
        -0.58497E+06
        -0.44536E+06
        -0.20163E+06
         0.30821E+06
         0.17956E+07
         0.18124E+07
         0.12385E+07
         0.47142E+06
         0.52757E+06
         0.15248E+07
         0.24428E+07
         0.22230E+07
         0.12430E+07
         0.15500E+07
         0.25342E+07
         0.19250E+07
         0.27019E+07
        -0.46635E+06
        -0.33564E+06
         0.26440E+07
        -0.73510E+06
        -0.16414E+07
         0.88398E+06
         0.12635E+07
        -0.31438E+07
        -0.53623E+05
         0.10478E+07
         0.14522E+07
         0.19588E+07
         0.27022E+06
         0.85882E+05
         0.52231E+06
         0.12892E+07
        -0.29169E+06
        -0.67715E+06
        -0.15626E+07
        -0.84334E+06
        -0.46639E+07
        -0.55998E+07
        -0.26758E+07
        -0.11132E+07
         0.83032E+06
        -0.24327E+06
         0.20224E+07
         0.32118E+07
         0.88681E+06
         0.74934E+06
         0.11597E+07
        -0.51815E+06
        -0.31698E+06
         0.31996E+06
         0.90281E+06
         0.26288E+06
         0.34890E+06
        -0.29171E+06
        -0.31921E+05
         0.30997E+06
         0.66496E+06
         0.84595E+06
         0.12844E+07
         0.19541E+07
         0.19912E+07
         0.26297E+07
        -0.42353E+06
         0.19084E+07
         0.42416E+06
         0.21426E+07
         0.35702E+07
         0.45421E+07
         0.38651E+07
         0.40849E+07
         0.34930E+07
         0.26599E+07
         0.20908E+07
         0.15488E+07
         0.10507E+07
         0.21578E+07
         0.57265E+06
        -0.74648E+06
        -0.61192E+06
        -0.38706E+06
         0.11714E+06
         0.16127E+07
         0.16418E+07
         0.10747E+07
         0.30417E+06
         0.35539E+06
         0.13597E+07
         0.22789E+07
         0.22716E+07
         0.12498E+07
         0.15683E+07
         0.25734E+07
         0.19589E+07
         0.27356E+07
        -0.44546E+06
        -0.27459E+06
         0.27108E+07
        -0.64462E+06
        -0.16049E+07
         0.88619E+06
         0.12349E+07
        -0.30682E+07
        -0.67350E+03
         0.11187E+07
         0.15345E+07
         0.20175E+07
         0.33228E+06
         0.15761E+06
         0.56948E+06
         0.13246E+07
        -0.21813E+06
        -0.58608E+06
        -0.14470E+07
        -0.75623E+06
        -0.45402E+07
        -0.54292E+07
        -0.25316E+07
        -0.10056E+07
         0.88843E+06
        -0.18945E+06
         0.20535E+07
         0.31941E+07
         0.90396E+06
         0.74103E+06
         0.11289E+07
        -0.45397E+06
        -0.23576E+06
         0.39185E+06
         0.94840E+06
         0.32568E+06
         0.41524E+06
        -0.22206E+06
         0.78335E+04
         0.32819E+06
         0.68159E+06
         0.89012E+06
         0.13198E+07
         0.19560E+07
         0.19986E+07
         0.26318E+07
        -0.35411E+06
         0.19986E+07
         0.44690E+06
         0.21026E+07
         0.34875E+07
         0.44919E+07
         0.39474E+07
         0.41700E+07
         0.35607E+07
         0.26999E+07
         0.21019E+07
         0.15832E+07
         0.11188E+07
         0.21916E+07
         0.64357E+06
        -0.64550E+06
        -0.52607E+06
        -0.32162E+06
         0.14547E+06
         0.16094E+07
         0.16796E+07
         0.11290E+07
         0.39007E+06
         0.45993E+06
         0.14419E+07
         0.23641E+07
         0.33102E+09
         0.37493E+09
         0.37580E+09
         0.37036E+09
         0.39370E+09
         0.39056E+09
         0.44418E+09
         0.37578E+09
         0.35183E+09
         0.37780E+09
         0.46508E+09
         0.44203E+09
         0.40790E+09
         0.44569E+09
         0.45122E+09
         0.33369E+09
         0.40253E+09
         0.39500E+09
         0.39951E+09
         0.46129E+09
         0.37349E+09
         0.38004E+09
         0.36158E+09
         0.40495E+09
         0.40418E+09
         0.43043E+09
         0.44057E+09
         0.52329E+09
         0.49311E+09
         0.41556E+09
         0.34663E+09
         0.40943E+09
         0.37419E+09
         0.39642E+09
         0.42097E+09
         0.40631E+09
         0.39194E+09
         0.43573E+09
         0.43124E+09
         0.42975E+09
         0.42650E+09
         0.40697E+09
         0.38600E+09
         0.35794E+09
         0.37946E+09
         0.41928E+09
         0.40135E+09
         0.38401E+09
         0.38937E+09
         0.39380E+09
         0.40516E+09
         0.39078E+09
         0.66213E+09
         0.64783E+09
         0.65781E+09
         0.63720E+09
         0.65534E+09
         0.68525E+09
         0.68948E+09
         0.68586E+09
         0.69213E+09
         0.70878E+09
         0.68798E+09
         0.64899E+09
         0.58213E+09
         0.55142E+09
         0.55613E+09
         0.56662E+09
         0.57277E+09
         0.62114E+09
         0.66661E+09
         0.66873E+09
         0.61690E+09
         0.59673E+09
         0.61593E+09
         0.61049E+09
         0.60544E+09
         0.60697E+09
         0.31532E+10
         0.33093E+10
         0.32666E+10
         0.30101E+10
         0.36206E+10
         0.34275E+10
         0.35640E+10
         0.35692E+10
         0.31059E+10
         0.35685E+10
         0.38826E+10
         0.42696E+10
         0.39063E+10
         0.39813E+10
         0.44064E+10
         0.30443E+10
         0.32645E+10
         0.28890E+10
         0.33595E+10
         0.35245E+10
         0.35929E+10
         0.36709E+10
         0.34629E+10
         0.32451E+10
         0.36188E+10
         0.31446E+10
         0.39678E+10
         0.39154E+10
         0.39302E+10
         0.37364E+10
         0.30789E+10
         0.32330E+10
         0.30321E+10
         0.31588E+10
         0.39291E+10
         0.36443E+10
         0.36467E+10
         0.42856E+10
         0.41952E+10
         0.41519E+10
         0.42026E+10
         0.40075E+10
         0.38010E+10
         0.33947E+10
         0.35316E+10
         0.39237E+10
         0.36642E+10
         0.34656E+10
         0.34076E+10
         0.35193E+10
         0.37801E+10
         0.35258E+10
         0.59823E+10
         0.58275E+10
         0.59409E+10
         0.57575E+10
         0.59187E+10
         0.62094E+10
         0.63130E+10
         0.63139E+10
         0.63616E+10
         0.64971E+10
         0.63135E+10
         0.59416E+10
         0.53571E+10
         0.50738E+10
         0.50763E+10
         0.51323E+10
         0.51768E+10
         0.55974E+10
         0.59995E+10
         0.60198E+10
         0.55891E+10
         0.54247E+10
         0.55942E+10
         0.55583E+10
         0.54924E+10
         0.54788E+10
  
SCALARS                      stress_yz  double 1
LOOKUP_TABLE default
         0.36246E+06
        -0.12057E+06
        -0.31325E+06
        -0.16111E+06
        -0.75706E+01
        -0.20866E+01
        -0.93823E+01
        -0.71562E+01
        -0.11741E+07
         0.77223E+06
        -0.13963E+02
        -0.12292E+02
        -0.10300E+07
        -0.52374E+05
         0.99925E+01
        -0.64066E+00
         0.35410E+06
         0.13199E+07
         0.14701E+00
         0.15042E+01
        -0.68489E+06
        -0.25781E+07
        -0.26800E+07
         0.22906E+02
         0.39559E+02
         0.33066E+02
        -0.25411E+06
        -0.26137E+07
         0.16477E+02
         0.31965E+02
         0.40469E+06
         0.35276E+06
        -0.29961E+06
         0.85419E+01
         0.87199E+01
        -0.18103E+00
         0.12027E+07
         0.11590E+07
         0.15719E+02
         0.12230E+02
         0.11823E+07
         0.75258E+06
         0.11879E+02
         0.10856E+02
         0.10722E+07
         0.36966E+06
        -0.39406E+00
         0.60953E+01
         0.99561E+06
         0.28698E+01
         0.98118E+05
        -0.23243E+00
         0.58657E+05
         0.11101E+02
        -0.38874E+06
         0.64576E+01
        -0.12678E+07
         0.22513E+06
         0.17519E+00
        -0.35557E+00
         0.49076E+06
         0.17907E+07
        -0.23869E+01
        -0.89282E+01
         0.29635E+06
        -0.48180E+01
         0.12723E+07
        -0.58695E+01
        -0.10333E+07
        -0.54733E+06
        -0.72536E+00
         0.95773E+01
        -0.19137E+07
         0.21030E+02
        -0.33177E+07
         0.20363E+02
        -0.33482E+07
         0.15457E+02
        -0.27581E+07
         0.12956E+02
        -0.40451E+07
        -0.31047E+07
         0.83113E+01
        -0.18427E+01
        -0.43420E+06
        -0.20619E+00
         0.16756E+07
        -0.12917E+02
         0.39603E+07
        -0.22612E+02
         0.55341E+07
         0.34304E+07
        -0.33538E+02
        -0.27146E+02
         0.24127E+07
        -0.21072E+02
         0.21648E+07
        -0.21558E+02
         0.21066E+07
        -0.23180E+02
         0.35055E+07
         0.29132E+07
        -0.21556E+02
        -0.10329E+02
        -0.23517E+07
         0.89014E+06
         0.75795E+01
        -0.94189E+01
        -0.57813E+07
         0.25215E+02
        -0.82762E+07
         0.36884E+02
        -0.10133E+08
         0.45552E+02
        -0.11884E+08
         0.45184E+02
        -0.13990E+08
         0.35757E+02
        -0.14301E+08
         0.27671E+02
        -0.13466E+08
         0.25737E+02
        -0.11982E+08
         0.24487E+02
        -0.87387E+07
         0.15649E+02
        -0.59016E+07
         0.51666E+01
        -0.29606E+07
         0.33385E+01
         0.21297E+06
         0.50180E+01
         0.28249E+07
         0.25917E+01
         0.50677E+07
        -0.78378E+01
         0.78427E+07
        -0.22123E+02
         0.88247E+07
        -0.34546E+02
         0.96529E+07
        -0.45290E+02
         0.12332E+08
        -0.45250E+02
         0.12773E+08
        -0.39502E+02
         0.11804E+08
        -0.38498E+02
         0.96002E+07
        -0.38738E+02
         0.65269E+07
        -0.30633E+02
         0.46230E+07
        -0.18114E+02
         0.33245E+07
        -0.14006E+02
        -0.18936E+07
        -0.62083E+06
        -0.58879E+06
        -0.29973E+06
        -0.17059E+06
        -0.68326E+06
        -0.45748E+04
        -0.64943E+06
        -0.13860E+07
        -0.13349E+07
        -0.41974E+06
        -0.24482E+07
        -0.51242E+06
        -0.50521E+05
        -0.17283E+07
         0.55755E+06
        -0.46212E+06
         0.35096E+06
         0.21982E+06
        -0.20611E+06
         0.13594E+06
         0.14169E+06
        -0.28701E+06
         0.28526E+05
        -0.93262E+06
         0.13466E+06
         0.25542E+04
         0.52296E+05
        -0.16908E+05
        -0.48590E+06
         0.52721E+06
        -0.33339E+06
         0.38246E+06
        -0.68983E+05
        -0.98512E+05
        -0.10237E+06
         0.18486E+06
        -0.66162E+06
        -0.73575E+06
        -0.21200E+07
        -0.31261E+07
        -0.13070E+06
        -0.29640E+06
        -0.67929E+06
        -0.21032E+06
         0.27412E+07
         0.47311E+05
        -0.10847E+07
        -0.10827E+07
        -0.17845E+06
         0.11507E+07
        -0.29126E+06
        -0.32940E+07
         0.37627E+07
        -0.10735E+08
        -0.13541E+08
        -0.17886E+08
        -0.22438E+08
        -0.22545E+08
        -0.20407E+08
        -0.19421E+08
        -0.18353E+08
        -0.11854E+08
        -0.50776E+07
        -0.15742E+07
        -0.58737E+06
         0.63339E+06
         0.17414E+07
         0.32677E+07
         0.74393E+07
         0.17761E+08
         0.20373E+08
         0.15950E+08
         0.15124E+08
         0.14895E+08
         0.11738E+08
         0.51850E+07
         0.37072E+07
        -0.16784E+09
        -0.17091E+09
        -0.16715E+09
        -0.56802E+08
        -0.12282E+09
        -0.78078E+08
        -0.12741E+09
        -0.16112E+09
        -0.16401E+09
        -0.16020E+09
         0.16697E+09
         0.18409E+09
         0.14060E+09
         0.38572E+08
         0.17381E+09
         0.85881E+08
        -0.49674E+08
         0.51710E+08
         0.16287E+09
         0.45061E+08
         0.48154E+08
         0.36269E+08
        -0.21549E+08
         0.64693E+08
        -0.16292E+09
         0.69779E+08
         0.87422E+07
         0.32551E+08
        -0.51995E+08
        -0.15049E+09
         0.10739E+09
         0.50739E+08
         0.10493E+09
         0.10469E+09
        -0.13956E+08
         0.68698E+08
         0.10301E+09
         0.15940E+09
         0.17922E+09
         0.16884E+09
         0.89614E+08
        -0.24245E+08
        -0.49635E+08
        -0.78611E+08
        -0.11247E+09
        -0.17173E+09
        -0.14801E+09
        -0.11394E+09
        -0.17170E+09
        -0.17332E+09
        -0.11347E+09
        -0.12089E+08
         0.36472E+08
        -0.51063E+08
         0.11415E+09
         0.14849E+09
         0.18086E+09
         0.20349E+09
         0.20691E+09
         0.20100E+09
         0.19719E+09
         0.18345E+09
         0.11733E+09
         0.39153E+08
         0.18545E+08
         0.16639E+08
        -0.70752E+07
        -0.56389E+08
        -0.10923E+09
        -0.14035E+09
        -0.18921E+09
        -0.20478E+09
        -0.19778E+09
        -0.19600E+09
        -0.18432E+09
        -0.13248E+09
        -0.67055E+08
        -0.63982E+08
        -0.16783E+09
        -0.17090E+09
        -0.16715E+09
        -0.57140E+08
        -0.12289E+09
        -0.78182E+08
        -0.12757E+09
        -0.16124E+09
        -0.16404E+09
        -0.16036E+09
         0.16707E+09
         0.18408E+09
         0.14059E+09
         0.38658E+08
         0.17387E+09
         0.85822E+08
        -0.49991E+08
         0.51633E+08
         0.16289E+09
         0.44810E+08
         0.48269E+08
         0.36306E+08
        -0.21556E+08
         0.64664E+08
        -0.16299E+09
         0.69652E+08
         0.88425E+07
         0.32733E+08
        -0.51652E+08
        -0.15056E+09
         0.10731E+09
         0.50628E+08
         0.10533E+09
         0.10477E+09
        -0.13819E+08
         0.68761E+08
         0.10303E+09
         0.15942E+09
         0.17923E+09
         0.16881E+09
         0.89628E+08
        -0.24169E+08
        -0.49680E+08
        -0.78653E+08
        -0.11250E+09
        -0.17173E+09
        -0.14802E+09
        -0.11387E+09
        -0.17170E+09
        -0.17331E+09
        -0.11348E+09
        -0.11923E+08
         0.36450E+08
        -0.51077E+08
         0.11417E+09
         0.14850E+09
         0.18087E+09
         0.20348E+09
         0.20691E+09
         0.20099E+09
         0.19720E+09
         0.18345E+09
         0.11732E+09
         0.39170E+08
         0.18545E+08
         0.16674E+08
        -0.70168E+07
        -0.56407E+08
        -0.10925E+09
        -0.14036E+09
        -0.18922E+09
        -0.20478E+09
        -0.19779E+09
        -0.19600E+09
        -0.18433E+09
        -0.13246E+09
        -0.67016E+08
        -0.63928E+08
        -0.16782E+09
        -0.17090E+09
        -0.16714E+09
        -0.57482E+08
        -0.12296E+09
        -0.78287E+08
        -0.12773E+09
        -0.16137E+09
        -0.16407E+09
        -0.16051E+09
         0.16717E+09
         0.18406E+09
         0.14057E+09
         0.38740E+08
         0.17392E+09
         0.85761E+08
        -0.50310E+08
         0.51554E+08
         0.16291E+09
         0.44554E+08
         0.48385E+08
         0.36342E+08
        -0.21565E+08
         0.64627E+08
        -0.16307E+09
         0.69508E+08
         0.89499E+07
         0.32927E+08
        -0.51278E+08
        -0.15063E+09
         0.10723E+09
         0.50494E+08
         0.10574E+09
         0.10484E+09
        -0.13682E+08
         0.68825E+08
         0.10304E+09
         0.15944E+09
         0.17925E+09
         0.16879E+09
         0.89645E+08
        -0.24085E+08
        -0.49722E+08
        -0.78702E+08
        -0.11253E+09
        -0.17174E+09
        -0.14803E+09
        -0.11381E+09
        -0.17170E+09
        -0.17330E+09
        -0.11349E+09
        -0.11758E+08
         0.36428E+08
        -0.51091E+08
         0.11419E+09
         0.14850E+09
         0.18087E+09
         0.20348E+09
         0.20690E+09
         0.20098E+09
         0.19720E+09
         0.18345E+09
         0.11731E+09
         0.39188E+08
         0.18545E+08
         0.16708E+08
        -0.69581E+07
        -0.56424E+08
        -0.10928E+09
        -0.14036E+09
        -0.18922E+09
        -0.20478E+09
        -0.19779E+09
        -0.19600E+09
        -0.18434E+09
        -0.13245E+09
        -0.66976E+08
        -0.63875E+08
        -0.16780E+09
        -0.17089E+09
        -0.16713E+09
        -0.57824E+08
        -0.12302E+09
        -0.78393E+08
        -0.12790E+09
        -0.16150E+09
        -0.16410E+09
        -0.16067E+09
         0.16727E+09
         0.18405E+09
         0.14056E+09
         0.38827E+08
         0.17398E+09
         0.85696E+08
        -0.50629E+08
         0.51474E+08
         0.16293E+09
         0.44283E+08
         0.48502E+08
         0.36374E+08
        -0.21583E+08
         0.64569E+08
        -0.16313E+09
         0.69318E+08
         0.90612E+07
         0.33183E+08
        -0.50813E+08
        -0.15069E+09
         0.10714E+09
         0.50312E+08
         0.10614E+09
         0.10492E+09
        -0.13546E+08
         0.68888E+08
         0.10306E+09
         0.15945E+09
         0.17926E+09
         0.16877E+09
         0.89669E+08
        -0.23981E+08
        -0.49752E+08
        -0.78771E+08
        -0.11257E+09
        -0.17175E+09
        -0.14805E+09
        -0.11375E+09
        -0.17171E+09
        -0.17329E+09
        -0.11350E+09
        -0.11592E+08
         0.36406E+08
        -0.51105E+08
         0.11421E+09
         0.14850E+09
         0.18088E+09
         0.20347E+09
         0.20689E+09
         0.20096E+09
         0.19721E+09
         0.18345E+09
         0.11731E+09
         0.39209E+08
         0.18547E+08
         0.16743E+08
        -0.68988E+07
        -0.56443E+08
        -0.10931E+09
        -0.14037E+09
        -0.18923E+09
        -0.20478E+09
        -0.19780E+09
        -0.19601E+09
        -0.18435E+09
        -0.13243E+09
        -0.66937E+08
        -0.63822E+08
        -0.16779E+09
        -0.17088E+09
        -0.16713E+09
        -0.58163E+08
        -0.12309E+09
        -0.78497E+08
        -0.12806E+09
        -0.16162E+09
        -0.16413E+09
        -0.16083E+09
         0.16737E+09
         0.18404E+09
         0.14054E+09
         0.38915E+08
         0.17404E+09
         0.85626E+08
        -0.50948E+08
         0.51393E+08
         0.16295E+09
         0.43998E+08
         0.48620E+08
         0.36402E+08
        -0.21610E+08
         0.64488E+08
        -0.16317E+09
         0.69078E+08
         0.91856E+07
         0.33496E+08
        -0.50256E+08
        -0.15074E+09
         0.10703E+09
         0.50075E+08
         0.10655E+09
         0.10500E+09
        -0.13408E+08
         0.68951E+08
         0.10308E+09
         0.15947E+09
         0.17927E+09
         0.16875E+09
         0.89700E+08
        -0.23856E+08
        -0.49772E+08
        -0.78861E+08
        -0.11263E+09
        -0.17177E+09
        -0.14806E+09
        -0.11369E+09
        -0.17171E+09
        -0.17328E+09
        -0.11350E+09
        -0.11425E+08
         0.36383E+08
        -0.51119E+08
         0.11424E+09
         0.14850E+09
         0.18088E+09
         0.20346E+09
         0.20688E+09
         0.20095E+09
         0.19721E+09
         0.18345E+09
         0.11731E+09
         0.39234E+08
         0.18549E+08
         0.16776E+08
        -0.68394E+07
        -0.56463E+08
        -0.10934E+09
        -0.14038E+09
        -0.18924E+09
        -0.20478E+09
        -0.19780E+09
        -0.19601E+09
        -0.18436E+09
        -0.13242E+09
        -0.66898E+08
        -0.63768E+08
        -0.16778E+09
        -0.17088E+09
        -0.16712E+09
        -0.58506E+08
        -0.12316E+09
        -0.78602E+08
        -0.12820E+09
        -0.16174E+09
        -0.16416E+09
        -0.16098E+09
         0.16746E+09
         0.18403E+09
         0.14053E+09
         0.39009E+08
         0.17409E+09
         0.85558E+08
        -0.51275E+08
         0.51314E+08
         0.16298E+09
         0.43706E+08
         0.48737E+08
         0.36428E+08
        -0.21641E+08
         0.64398E+08
        -0.16322E+09
         0.68823E+08
         0.93195E+07
         0.33843E+08
        -0.49659E+08
        -0.15078E+09
         0.10692E+09
         0.49811E+08
         0.10696E+09
         0.10509E+09
        -0.13269E+08
         0.69016E+08
         0.10310E+09
         0.15949E+09
         0.17929E+09
         0.16874E+09
         0.89734E+08
        -0.23724E+08
        -0.49786E+08
        -0.78957E+08
        -0.11270E+09
        -0.17178E+09
        -0.14808E+09
        -0.11364E+09
        -0.17171E+09
        -0.17328E+09
        -0.11351E+09
        -0.11257E+08
         0.36361E+08
        -0.51133E+08
         0.11426E+09
         0.14850E+09
         0.18089E+09
         0.20346E+09
         0.20687E+09
         0.20094E+09
         0.19721E+09
         0.18345E+09
         0.11730E+09
         0.39261E+08
         0.18552E+08
         0.16809E+08
        -0.67801E+07
        -0.56482E+08
        -0.10938E+09
        -0.14039E+09
        -0.18924E+09
        -0.20477E+09
        -0.19781E+09
        -0.19601E+09
        -0.18437E+09
        -0.13240E+09
        -0.66858E+08
        -0.63715E+08
        -0.16776E+09
        -0.17087E+09
        -0.16712E+09
        -0.58859E+08
        -0.12322E+09
        -0.78707E+08
        -0.12831E+09
        -0.16186E+09
        -0.16419E+09
        -0.16113E+09
         0.16756E+09
         0.18402E+09
         0.14051E+09
         0.39125E+08
         0.17415E+09
         0.85492E+08
        -0.51614E+08
         0.51235E+08
         0.16300E+09
         0.43414E+08
         0.48854E+08
         0.36455E+08
        -0.21672E+08
         0.64309E+08
        -0.16327E+09
         0.68566E+08
         0.94774E+07
         0.34212E+08
        -0.49052E+08
        -0.15082E+09
         0.10681E+09
         0.49528E+08
         0.10739E+09
         0.10519E+09
        -0.13131E+08
         0.69081E+08
         0.10312E+09
         0.15951E+09
         0.17930E+09
         0.16872E+09
         0.89769E+08
        -0.23590E+08
        -0.49799E+08
        -0.79053E+08
        -0.11277E+09
        -0.17180E+09
        -0.14811E+09
        -0.11360E+09
        -0.17172E+09
        -0.17327E+09
        -0.11352E+09
        -0.11086E+08
         0.36339E+08
        -0.51147E+08
         0.11428E+09
         0.14850E+09
         0.18089E+09
         0.20345E+09
         0.20686E+09
         0.20093E+09
         0.19722E+09
         0.18345E+09
         0.11730E+09
         0.39288E+08
         0.18555E+08
         0.16843E+08
        -0.67207E+07
        -0.56502E+08
        -0.10941E+09
        -0.14041E+09
        -0.18925E+09
        -0.20477E+09
        -0.19782E+09
        -0.19602E+09
        -0.18438E+09
        -0.13239E+09
        -0.66819E+08
        -0.63661E+08
        -0.16775E+09
        -0.17086E+09
        -0.16712E+09
        -0.59216E+08
        -0.12329E+09
        -0.78813E+08
        -0.12840E+09
        -0.16198E+09
        -0.16422E+09
        -0.16127E+09
         0.16765E+09
         0.18401E+09
         0.14050E+09
         0.39246E+08
         0.17421E+09
         0.85428E+08
        -0.51958E+08
         0.51154E+08
         0.16302E+09
         0.43123E+08
         0.48972E+08
         0.36482E+08
        -0.21702E+08
         0.64223E+08
        -0.16332E+09
         0.68311E+08
         0.96415E+07
         0.34590E+08
        -0.48442E+08
        -0.15085E+09
         0.10671E+09
         0.49233E+08
         0.10781E+09
         0.10529E+09
        -0.12991E+08
         0.69147E+08
         0.10314E+09
         0.15953E+09
         0.17932E+09
         0.16870E+09
         0.89804E+08
        -0.23455E+08
        -0.49811E+08
        -0.79148E+08
        -0.11283E+09
        -0.17181E+09
        -0.14815E+09
        -0.11358E+09
        -0.17173E+09
        -0.17325E+09
        -0.11352E+09
        -0.10914E+08
         0.36316E+08
        -0.51160E+08
         0.11430E+09
         0.14850E+09
         0.18090E+09
         0.20344E+09
         0.20685E+09
         0.20092E+09
         0.19722E+09
         0.18345E+09
         0.11730E+09
         0.39314E+08
         0.18559E+08
         0.16877E+08
        -0.66611E+07
        -0.56522E+08
        -0.10945E+09
        -0.14042E+09
        -0.18925E+09
        -0.20477E+09
        -0.19782E+09
        -0.19602E+09
        -0.18439E+09
        -0.13237E+09
        -0.66779E+08
        -0.63607E+08
        -0.16774E+09
        -0.17085E+09
        -0.16712E+09
        -0.59572E+08
        -0.12335E+09
        -0.78918E+08
        -0.12848E+09
        -0.16209E+09
        -0.16425E+09
        -0.16141E+09
         0.16775E+09
         0.18400E+09
         0.14049E+09
         0.39372E+08
         0.17426E+09
         0.85365E+08
        -0.52303E+08
         0.51072E+08
         0.16305E+09
         0.42828E+08
         0.49090E+08
         0.36509E+08
        -0.21732E+08
         0.64135E+08
        -0.16337E+09
         0.68057E+08
         0.98094E+07
         0.34964E+08
        -0.47833E+08
        -0.15089E+09
         0.10661E+09
         0.48941E+08
         0.10824E+09
         0.10540E+09
        -0.12850E+08
         0.69212E+08
         0.10315E+09
         0.15955E+09
         0.17933E+09
         0.16869E+09
         0.89839E+08
        -0.23321E+08
        -0.49824E+08
        -0.79242E+08
        -0.11290E+09
        -0.17182E+09
        -0.14818E+09
        -0.11356E+09
        -0.17174E+09
        -0.17324E+09
        -0.11353E+09
        -0.10742E+08
         0.36294E+08
        -0.51174E+08
         0.11432E+09
         0.14850E+09
         0.18090E+09
         0.20344E+09
         0.20684E+09
         0.20090E+09
         0.19723E+09
         0.18345E+09
         0.11730E+09
         0.39340E+08
         0.18562E+08
         0.16911E+08
        -0.66018E+07
        -0.56541E+08
        -0.10949E+09
        -0.14043E+09
        -0.18926E+09
        -0.20477E+09
        -0.19783E+09
        -0.19603E+09
        -0.18440E+09
        -0.13235E+09
        -0.66740E+08
        -0.63554E+08
        -0.16773E+09
        -0.17083E+09
        -0.16712E+09
        -0.59925E+08
        -0.12342E+09
        -0.79023E+08
        -0.12857E+09
        -0.16221E+09
        -0.16428E+09
        -0.16155E+09
         0.16784E+09
         0.18399E+09
         0.14048E+09
         0.39494E+08
         0.17432E+09
         0.85302E+08
        -0.52647E+08
         0.50990E+08
         0.16307E+09
         0.42533E+08
         0.49206E+08
         0.36536E+08
        -0.21761E+08
         0.64047E+08
        -0.16342E+09
         0.67803E+08
         0.99727E+07
         0.35334E+08
        -0.47227E+08
        -0.15093E+09
         0.10650E+09
         0.48648E+08
         0.10867E+09
         0.10550E+09
        -0.12710E+08
         0.69278E+08
         0.10318E+09
         0.15957E+09
         0.17935E+09
         0.16867E+09
         0.89874E+08
        -0.23188E+08
        -0.49837E+08
        -0.79336E+08
        -0.11297E+09
        -0.17184E+09
        -0.14821E+09
        -0.11353E+09
        -0.17174E+09
        -0.17323E+09
        -0.11353E+09
        -0.10569E+08
         0.36272E+08
        -0.51188E+08
         0.11434E+09
         0.14850E+09
         0.18091E+09
         0.20343E+09
         0.20683E+09
         0.20089E+09
         0.19723E+09
         0.18344E+09
         0.11730E+09
         0.39366E+08
         0.18566E+08
         0.16946E+08
        -0.65426E+07
        -0.56561E+08
        -0.10952E+09
        -0.14044E+09
        -0.18927E+09
        -0.20477E+09
        -0.19784E+09
        -0.19603E+09
        -0.18441E+09
        -0.13234E+09
        -0.66701E+08
        -0.63500E+08
        -0.16772E+09
        -0.17082E+09
        -0.16712E+09
        -0.60276E+08
        -0.12348E+09
        -0.79127E+08
        -0.12867E+09
        -0.16232E+09
        -0.16431E+09
        -0.16168E+09
         0.16792E+09
         0.18398E+09
         0.14047E+09
         0.39619E+08
         0.17438E+09
         0.85239E+08
        -0.52991E+08
         0.50909E+08
         0.16309E+09
         0.42235E+08
         0.49324E+08
         0.36562E+08
        -0.21791E+08
         0.63960E+08
        -0.16347E+09
         0.67550E+08
         0.10139E+08
         0.35699E+08
        -0.46621E+08
        -0.15096E+09
         0.10640E+09
         0.48356E+08
         0.10910E+09
         0.10560E+09
        -0.12569E+08
         0.69344E+08
         0.10320E+09
         0.15960E+09
         0.17936E+09
         0.16865E+09
         0.89909E+08
        -0.23055E+08
        -0.49849E+08
        -0.79430E+08
        -0.11303E+09
        -0.17185E+09
        -0.14825E+09
        -0.11351E+09
        -0.17175E+09
        -0.17322E+09
        -0.11353E+09
        -0.10396E+08
         0.36249E+08
        -0.51201E+08
         0.11436E+09
         0.14850E+09
         0.18091E+09
         0.20342E+09
         0.20682E+09
         0.20088E+09
         0.19723E+09
         0.18344E+09
         0.11730E+09
         0.39393E+08
         0.18570E+08
         0.16979E+08
        -0.64832E+07
        -0.56581E+08
        -0.10956E+09
        -0.14046E+09
        -0.18927E+09
        -0.20476E+09
        -0.19784E+09
        -0.19603E+09
        -0.18442E+09
        -0.13232E+09
        -0.66662E+08
        -0.63446E+08
        -0.16770E+09
        -0.17081E+09
        -0.16712E+09
        -0.60630E+08
        -0.12354E+09
        -0.79232E+08
        -0.12875E+09
        -0.16244E+09
        -0.16435E+09
        -0.16182E+09
         0.16801E+09
         0.18397E+09
         0.14045E+09
         0.39744E+08
         0.17443E+09
         0.85177E+08
        -0.53333E+08
         0.50826E+08
         0.16311E+09
         0.41940E+08
         0.49441E+08
         0.36588E+08
        -0.21821E+08
         0.63874E+08
        -0.16353E+09
         0.67299E+08
         0.10301E+08
         0.36062E+08
        -0.46015E+08
        -0.15100E+09
         0.10629E+09
         0.48063E+08
         0.10953E+09
         0.10571E+09
        -0.12427E+08
         0.69410E+08
         0.10322E+09
         0.15962E+09
         0.17938E+09
         0.16863E+09
         0.89943E+08
        -0.22923E+08
        -0.49861E+08
        -0.79523E+08
        -0.11310E+09
        -0.17186E+09
        -0.14828E+09
        -0.11349E+09
        -0.17176E+09
        -0.17321E+09
        -0.11354E+09
        -0.10222E+08
         0.36226E+08
        -0.51214E+08
         0.11438E+09
         0.14850E+09
         0.18092E+09
         0.20342E+09
         0.20681E+09
         0.20087E+09
         0.19724E+09
         0.18344E+09
         0.11729E+09
         0.39419E+08
         0.18573E+08
         0.17013E+08
        -0.64236E+07
        -0.56601E+08
        -0.10959E+09
        -0.14047E+09
        -0.18928E+09
        -0.20476E+09
        -0.19785E+09
        -0.19604E+09
        -0.18443E+09
        -0.13230E+09
        -0.66623E+08
        -0.63392E+08
        -0.16769E+09
        -0.17080E+09
        -0.16712E+09
        -0.60984E+08
        -0.12361E+09
        -0.79338E+08
        -0.12884E+09
        -0.16255E+09
        -0.16438E+09
        -0.16195E+09
         0.16809E+09
         0.18396E+09
         0.14044E+09
         0.39866E+08
         0.17449E+09
         0.85114E+08
        -0.53673E+08
         0.50742E+08
         0.16313E+09
         0.41646E+08
         0.49558E+08
         0.36614E+08
        -0.21851E+08
         0.63788E+08
        -0.16358E+09
         0.67044E+08
         0.10468E+08
         0.36420E+08
        -0.45411E+08
        -0.15103E+09
         0.10619E+09
         0.47768E+08
         0.10996E+09
         0.10581E+09
        -0.12286E+08
         0.69476E+08
         0.10324E+09
         0.15964E+09
         0.17939E+09
         0.16862E+09
         0.89978E+08
        -0.22791E+08
        -0.49873E+08
        -0.79617E+08
        -0.11317E+09
        -0.17188E+09
        -0.14832E+09
        -0.11346E+09
        -0.17177E+09
        -0.17320E+09
        -0.11354E+09
        -0.10048E+08
         0.36204E+08
        -0.51228E+08
         0.11440E+09
         0.14850E+09
         0.18093E+09
         0.20341E+09
         0.20681E+09
         0.20086E+09
         0.19724E+09
         0.18344E+09
         0.11729E+09
         0.39445E+08
         0.18577E+08
         0.17047E+08
        -0.63642E+07
        -0.56620E+08
        -0.10963E+09
        -0.14048E+09
        -0.18929E+09
        -0.20476E+09
        -0.19786E+09
        -0.19604E+09
        -0.18444E+09
        -0.13229E+09
        -0.66585E+08
        -0.63338E+08
        -0.16768E+09
        -0.17079E+09
        -0.16712E+09
        -0.61336E+08
        -0.12367E+09
        -0.79443E+08
        -0.12894E+09
        -0.16266E+09
        -0.16441E+09
        -0.16209E+09
         0.16818E+09
         0.18395E+09
         0.14043E+09
         0.39992E+08
         0.17455E+09
         0.85052E+08
        -0.54013E+08
         0.50659E+08
         0.16315E+09
         0.41352E+08
         0.49676E+08
         0.36640E+08
        -0.21881E+08
         0.63702E+08
        -0.16363E+09
         0.66790E+08
         0.10630E+08
         0.36775E+08
        -0.44809E+08
        -0.15107E+09
         0.10609E+09
         0.47475E+08
         0.11039E+09
         0.10592E+09
        -0.12144E+08
         0.69541E+08
         0.10325E+09
         0.15966E+09
         0.17941E+09
         0.16860E+09
         0.90013E+08
        -0.22658E+08
        -0.49885E+08
        -0.79711E+08
        -0.11324E+09
        -0.17189E+09
        -0.14835E+09
        -0.11344E+09
        -0.17178E+09
        -0.17319E+09
        -0.11355E+09
        -0.98752E+07
         0.36181E+08
        -0.51241E+08
         0.11442E+09
         0.14850E+09
         0.18093E+09
         0.20340E+09
         0.20680E+09
         0.20084E+09
         0.19725E+09
         0.18344E+09
         0.11729E+09
         0.39471E+08
         0.18580E+08
         0.17082E+08
        -0.63051E+07
        -0.56639E+08
        -0.10966E+09
        -0.14050E+09
        -0.18929E+09
        -0.20476E+09
        -0.19786E+09
        -0.19604E+09
        -0.18445E+09
        -0.13227E+09
        -0.66546E+08
        -0.63284E+08
        -0.16767E+09
        -0.17078E+09
        -0.16712E+09
        -0.61686E+08
        -0.12374E+09
        -0.79548E+08
        -0.12902E+09
        -0.16278E+09
        -0.16444E+09
        -0.16222E+09
         0.16825E+09
         0.18394E+09
         0.14042E+09
         0.40113E+08
         0.17460E+09
         0.84990E+08
        -0.54353E+08
         0.50577E+08
         0.16318E+09
         0.41056E+08
         0.49793E+08
         0.36665E+08
        -0.21910E+08
         0.63618E+08
        -0.16368E+09
         0.66537E+08
         0.10796E+08
         0.37123E+08
        -0.44209E+08
        -0.15111E+09
         0.10598E+09
         0.47180E+08
         0.11082E+09
         0.10602E+09
        -0.12003E+08
         0.69607E+08
         0.10327E+09
         0.15969E+09
         0.17942E+09
         0.16858E+09
         0.90047E+08
        -0.22526E+08
        -0.49897E+08
        -0.79804E+08
        -0.11330E+09
        -0.17190E+09
        -0.14838E+09
        -0.11342E+09
        -0.17179E+09
        -0.17318E+09
        -0.11355E+09
        -0.97004E+07
         0.36158E+08
        -0.51254E+08
         0.11445E+09
         0.14850E+09
         0.18094E+09
         0.20339E+09
         0.20679E+09
         0.20083E+09
         0.19725E+09
         0.18344E+09
         0.11729E+09
         0.39497E+08
         0.18583E+08
         0.17116E+08
        -0.62458E+07
        -0.56659E+08
        -0.10970E+09
        -0.14051E+09
        -0.18930E+09
        -0.20476E+09
        -0.19787E+09
        -0.19605E+09
        -0.18446E+09
        -0.13225E+09
        -0.66508E+08
        -0.63230E+08
        -0.16766E+09
        -0.17076E+09
        -0.16712E+09
        -0.62034E+08
        -0.12380E+09
        -0.79652E+08
        -0.12912E+09
        -0.16289E+09
        -0.16447E+09
        -0.16235E+09
         0.16833E+09
         0.18393E+09
         0.14041E+09
         0.40239E+08
         0.17466E+09
         0.84928E+08
        -0.54693E+08
         0.50494E+08
         0.16320E+09
         0.40761E+08
         0.49910E+08
         0.36690E+08
        -0.21939E+08
         0.63534E+08
        -0.16373E+09
         0.66282E+08
         0.10956E+08
         0.37466E+08
        -0.43612E+08
        -0.15114E+09
         0.10588E+09
         0.46888E+08
         0.11125E+09
         0.10612E+09
        -0.11860E+08
         0.69672E+08
         0.10329E+09
         0.15971E+09
         0.17943E+09
         0.16856E+09
         0.90082E+08
        -0.22394E+08
        -0.49910E+08
        -0.79896E+08
        -0.11337E+09
        -0.17192E+09
        -0.14842E+09
        -0.11340E+09
        -0.17179E+09
        -0.17317E+09
        -0.11355E+09
        -0.95251E+07
         0.36136E+08
        -0.51267E+08
         0.11447E+09
         0.14850E+09
         0.18094E+09
         0.20339E+09
         0.20678E+09
         0.20082E+09
         0.19725E+09
         0.18344E+09
         0.11729E+09
         0.39523E+08
         0.18587E+08
         0.17149E+08
        -0.61864E+07
        -0.56678E+08
        -0.10973E+09
        -0.14052E+09
        -0.18931E+09
        -0.20475E+09
        -0.19788E+09
        -0.19605E+09
        -0.18447E+09
        -0.13224E+09
        -0.66470E+08
        -0.63175E+08
        -0.16764E+09
        -0.17075E+09
        -0.16712E+09
        -0.62382E+08
        -0.12386E+09
        -0.79757E+08
        -0.12921E+09
        -0.16300E+09
        -0.16450E+09
        -0.16249E+09
         0.16841E+09
         0.18392E+09
         0.14040E+09
         0.40360E+08
         0.17471E+09
         0.84866E+08
        -0.55034E+08
         0.50409E+08
         0.16322E+09
         0.40469E+08
         0.50027E+08
         0.36714E+08
        -0.21969E+08
         0.63449E+08
        -0.16378E+09
         0.66027E+08
         0.11122E+08
         0.37806E+08
        -0.43013E+08
        -0.15118E+09
         0.10577E+09
         0.46593E+08
         0.11167E+09
         0.10623E+09
        -0.11717E+08
         0.69738E+08
         0.10331E+09
         0.15973E+09
         0.17945E+09
         0.16854E+09
         0.90118E+08
        -0.22264E+08
        -0.49924E+08
        -0.79990E+08
        -0.11344E+09
        -0.17193E+09
        -0.14845E+09
        -0.11337E+09
        -0.17180E+09
        -0.17316E+09
        -0.11356E+09
        -0.93506E+07
         0.36113E+08
        -0.51280E+08
         0.11449E+09
         0.14850E+09
         0.18095E+09
         0.20338E+09
         0.20677E+09
         0.20081E+09
         0.19726E+09
         0.18343E+09
         0.11728E+09
         0.39549E+08
         0.18589E+08
         0.17183E+08
        -0.61274E+07
        -0.56697E+08
        -0.10977E+09
        -0.14053E+09
        -0.18931E+09
        -0.20475E+09
        -0.19788E+09
        -0.19606E+09
        -0.18447E+09
        -0.13222E+09
        -0.66432E+08
        -0.63121E+08
        -0.16763E+09
        -0.17074E+09
        -0.16712E+09
        -0.62731E+08
        -0.12393E+09
        -0.79862E+08
        -0.12930E+09
        -0.16311E+09
        -0.16454E+09
        -0.16262E+09
         0.16848E+09
         0.18391E+09
         0.14038E+09
         0.40487E+08
         0.17477E+09
         0.84804E+08
        -0.55378E+08
         0.50324E+08
         0.16324E+09
         0.40191E+08
         0.50143E+08
         0.36737E+08
        -0.21999E+08
         0.63365E+08
        -0.16383E+09
         0.65774E+08
         0.11286E+08
         0.38144E+08
        -0.42417E+08
        -0.15121E+09
         0.10567E+09
         0.46295E+08
         0.11210E+09
         0.10633E+09
        -0.11575E+08
         0.69804E+08
         0.10333E+09
         0.15976E+09
         0.17946E+09
         0.16852E+09
         0.90155E+08
        -0.22134E+08
        -0.49939E+08
        -0.80082E+08
        -0.11351E+09
        -0.17194E+09
        -0.14849E+09
        -0.11335E+09
        -0.17181E+09
        -0.17315E+09
        -0.11356E+09
        -0.91757E+07
         0.36090E+08
        -0.51293E+08
         0.11451E+09
         0.14850E+09
         0.18095E+09
         0.20337E+09
         0.20676E+09
         0.20079E+09
         0.19726E+09
         0.18343E+09
         0.11729E+09
         0.39575E+08
         0.18590E+08
         0.17216E+08
        -0.60685E+07
        -0.56716E+08
        -0.10980E+09
        -0.14055E+09
        -0.18932E+09
        -0.20475E+09
        -0.19789E+09
        -0.19606E+09
        -0.18448E+09
        -0.13220E+09
        -0.66394E+08
        -0.63067E+08
        -0.16762E+09
        -0.17073E+09
        -0.16712E+09
        -0.63079E+08
        -0.12399E+09
        -0.79966E+08
        -0.12939E+09
        -0.16322E+09
        -0.16457E+09
        -0.16276E+09
         0.16855E+09
         0.18390E+09
         0.14037E+09
         0.40614E+08
         0.17483E+09
         0.84742E+08
        -0.55728E+08
         0.50238E+08
         0.16326E+09
         0.39924E+08
         0.50260E+08
         0.36760E+08
        -0.22028E+08
         0.63282E+08
        -0.16389E+09
         0.65519E+08
         0.11458E+08
         0.38478E+08
        -0.41822E+08
        -0.15123E+09
         0.10557E+09
         0.46001E+08
         0.11253E+09
         0.10643E+09
        -0.11431E+08
         0.69869E+08
         0.10335E+09
         0.15979E+09
         0.17947E+09
         0.16850E+09
         0.90194E+08
        -0.22005E+08
        -0.49957E+08
        -0.80175E+08
        -0.11357E+09
        -0.17196E+09
        -0.14852E+09
        -0.11333E+09
        -0.17182E+09
        -0.17314E+09
        -0.11357E+09
        -0.89989E+07
         0.36067E+08
        -0.51305E+08
         0.11453E+09
         0.14850E+09
         0.18096E+09
         0.20337E+09
         0.20675E+09
         0.20078E+09
         0.19727E+09
         0.18343E+09
         0.11729E+09
         0.39600E+08
         0.18590E+08
         0.17250E+08
        -0.60093E+07
        -0.56735E+08
        -0.10984E+09
        -0.14056E+09
        -0.18932E+09
        -0.20475E+09
        -0.19790E+09
        -0.19606E+09
        -0.18449E+09
        -0.13219E+09
        -0.66357E+08
        -0.63012E+08
        -0.16761E+09
        -0.17072E+09
        -0.16712E+09
        -0.63423E+08
        -0.12406E+09
        -0.80070E+08
        -0.12949E+09
        -0.16333E+09
        -0.16461E+09
        -0.16289E+09
         0.16862E+09
         0.18389E+09
         0.14036E+09
         0.40738E+08
         0.17488E+09
         0.84681E+08
        -0.56078E+08
         0.50154E+08
         0.16328E+09
         0.39665E+08
         0.50377E+08
         0.36783E+08
        -0.22056E+08
         0.63204E+08
        -0.16395E+09
         0.65273E+08
         0.11626E+08
         0.38798E+08
        -0.41234E+08
        -0.15126E+09
         0.10546E+09
         0.45713E+08
         0.11296E+09
         0.10654E+09
        -0.11289E+08
         0.69932E+08
         0.10337E+09
         0.15982E+09
         0.17948E+09
         0.16848E+09
         0.90233E+08
        -0.21878E+08
        -0.49977E+08
        -0.80265E+08
        -0.11364E+09
        -0.17197E+09
        -0.14855E+09
        -0.11330E+09
        -0.17182E+09
        -0.17313E+09
        -0.11357E+09
        -0.88226E+07
         0.36043E+08
        -0.51319E+08
         0.11455E+09
         0.14850E+09
         0.18096E+09
         0.20336E+09
         0.20674E+09
         0.20077E+09
         0.19727E+09
         0.18343E+09
         0.11729E+09
         0.39624E+08
         0.18588E+08
         0.17283E+08
        -0.59501E+07
        -0.56754E+08
        -0.10987E+09
        -0.14057E+09
        -0.18933E+09
        -0.20475E+09
        -0.19790E+09
        -0.19607E+09
        -0.18450E+09
        -0.13217E+09
        -0.66320E+08
        -0.62958E+08
        -0.16134E+09
        -0.15318E+09
        -0.14869E+09
        -0.52892E+08
        -0.11788E+09
        -0.73172E+08
        -0.94265E+08
        -0.15550E+09
        -0.15074E+09
        -0.15472E+09
         0.13315E+09
         0.17993E+09
         0.13625E+09
         0.36309E+08
         0.17146E+09
         0.79422E+08
        -0.45080E+08
         0.48804E+08
         0.13909E+09
         0.32276E+08
         0.49304E+08
         0.35805E+08
        -0.21498E+08
         0.49285E+08
        -0.14653E+09
         0.63994E+08
         0.10483E+08
         0.35433E+08
        -0.30441E+08
        -0.13515E+09
         0.96616E+08
         0.35053E+08
         0.93028E+08
         0.83292E+08
        -0.10754E+08
         0.64469E+08
         0.98267E+08
         0.15567E+09
         0.17251E+09
         0.16094E+09
         0.88009E+08
        -0.21187E+08
        -0.48778E+08
        -0.77692E+08
        -0.10864E+09
        -0.16650E+09
        -0.13992E+09
        -0.10543E+09
        -0.15510E+09
        -0.15954E+09
        -0.10935E+09
        -0.80825E+07
         0.35780E+08
        -0.51035E+08
         0.11393E+09
         0.14772E+09
         0.18008E+09
         0.20240E+09
         0.20566E+09
         0.19947E+09
         0.19591E+09
         0.18226E+09
         0.11657E+09
         0.39417E+08
         0.18458E+08
         0.17200E+08
        -0.58616E+07
        -0.56485E+08
        -0.10938E+09
        -0.13993E+09
        -0.18823E+09
        -0.20360E+09
        -0.19674E+09
        -0.19488E+09
        -0.18344E+09
        -0.13136E+09
        -0.65917E+08
        -0.62551E+08
        -0.80257E+08
        -0.51314E+08
        -0.48418E+08
        -0.14512E+08
        -0.52344E+08
        -0.26227E+08
        -0.21346E+08
        -0.69950E+08
        -0.54790E+08
        -0.68373E+08
         0.33439E+08
         0.10757E+09
         0.73646E+08
         0.11744E+08
         0.10513E+09
         0.32574E+08
        -0.11608E+08
         0.10106E+08
         0.40109E+08
         0.64951E+07
         0.28689E+08
         0.19849E+08
        -0.12084E+08
         0.12124E+08
        -0.48361E+08
         0.12173E+08
         0.34318E+07
         0.59441E+07
        -0.61241E+07
        -0.44597E+08
         0.35160E+08
         0.81799E+07
         0.24896E+08
         0.20642E+08
        -0.53003E+07
         0.24017E+08
         0.43875E+08
         0.87529E+08
         0.84416E+08
         0.74860E+08
         0.50261E+08
        -0.11728E+08
        -0.27991E+08
        -0.40232E+08
        -0.50420E+08
        -0.87103E+08
        -0.58606E+08
        -0.41308E+08
        -0.53017E+08
        -0.59540E+08
        -0.54304E+08
        -0.31959E+07
         0.28557E+08
        -0.41525E+08
         0.93638E+08
         0.12253E+09
         0.15094E+09
         0.17091E+09
         0.17122E+09
         0.16019E+09
         0.15527E+09
         0.14655E+09
         0.94156E+08
         0.32386E+08
         0.14748E+08
         0.13804E+08
        -0.48031E+07
        -0.47299E+08
        -0.92309E+08
        -0.11814E+09
        -0.15310E+09
        -0.16704E+09
        -0.16034E+09
        -0.15793E+09
        -0.14989E+09
        -0.10664E+09
        -0.54218E+08
        -0.51266E+08
  
SCALARS                      stress_xz  double 1
LOOKUP_TABLE default
         0.59812E+05
        -0.42182E+06
        -0.13925E+07
         0.95662E+05
        -0.78359E+01
         0.27784E+01
         0.92904E+01
         0.18554E+01
        -0.39183E+07
        -0.26178E+07
         0.27788E+02
         0.25030E+02
         0.16707E+06
        -0.68171E+06
        -0.34272E+01
        -0.16055E+02
        -0.13987E+06
        -0.65421E+06
        -0.11597E+02
        -0.17272E+02
        -0.95876E+06
        -0.16155E+07
        -0.15298E+07
        -0.11533E+02
        -0.53183E+01
         0.92914E+01
        -0.17064E+07
        -0.13856E+07
        -0.21589E+02
        -0.17126E+02
         0.32726E+06
        -0.72697E+06
         0.69571E+05
         0.21980E+01
        -0.84941E+01
        -0.52330E+01
         0.97096E+06
         0.46800E+06
        -0.12611E+02
        -0.13427E+02
         0.19353E+07
         0.27422E+07
        -0.28447E+02
        -0.20978E+02
         0.20706E+07
         0.11027E+07
        -0.31239E+02
        -0.15036E+02
        -0.59437E+06
        -0.94383E+01
         0.14155E+07
        -0.26273E+01
        -0.62001E+06
        -0.18442E+02
         0.46316E+06
        -0.48785E+01
         0.20264E+07
         0.55591E+06
        -0.41791E+01
        -0.10102E+02
        -0.34944E+05
         0.96403E+06
         0.83587E+01
         0.57319E+01
        -0.25037E+06
        -0.84077E+00
        -0.83811E+06
         0.55302E+01
        -0.55140E+07
        -0.37786E+07
         0.34566E+02
         0.25069E+02
        -0.24302E+07
         0.18254E+02
         0.57276E+06
        -0.12627E+02
         0.17923E+07
        -0.24783E+01
         0.37997E+07
        -0.38449E+01
         0.50275E+07
         0.35701E+07
        -0.14091E+02
        -0.16115E+02
         0.31535E+07
        -0.17331E+02
         0.25110E+07
        -0.24952E+02
         0.15637E+07
        -0.15915E+02
         0.24616E+07
         0.18104E+07
        -0.67924E+01
         0.93148E+01
        -0.41386E+06
         0.10926E+02
        -0.11360E+07
         0.45877E+01
        -0.27277E+07
         0.11329E+02
        -0.40322E+07
        -0.27673E+07
         0.26122E+02
         0.27258E+02
        -0.98755E+07
        -0.10935E+08
         0.48267E+02
         0.47566E+02
        -0.97808E+07
         0.41234E+02
        -0.89142E+07
         0.30815E+02
        -0.63953E+07
         0.16934E+02
        -0.46467E+07
         0.18108E+01
        -0.17241E+07
        -0.64496E+01
         0.22213E+07
        -0.51601E+01
         0.53010E+07
        -0.50717E+01
         0.78764E+07
        -0.11437E+02
         0.10595E+08
        -0.21759E+02
         0.12875E+08
        -0.25966E+02
         0.13686E+08
        -0.24499E+02
         0.13036E+08
        -0.26641E+02
         0.11947E+08
        -0.34576E+02
         0.10744E+08
        -0.40772E+02
         0.94763E+07
        -0.37902E+02
         0.75359E+07
        -0.30803E+02
         0.44216E+07
        -0.14542E+02
         0.37906E+06
         0.27768E+01
        -0.24728E+07
         0.67416E+01
        -0.38702E+07
         0.11024E+02
        -0.58207E+07
         0.21575E+02
        -0.76744E+07
         0.35402E+02
        -0.10087E+08
         0.42534E+02
        -0.11589E+08
         0.43504E+02
        -0.58641E+06
         0.19353E+06
         0.24666E+06
        -0.81406E+06
         0.54389E+06
         0.15841E+07
         0.15197E+05
        -0.20612E+06
        -0.26436E+06
        -0.30891E+06
        -0.10217E+06
        -0.60492E+06
        -0.38695E+06
         0.10522E+06
         0.33974E+06
         0.10668E+07
         0.83756E+06
        -0.45801E+06
        -0.34210E+06
        -0.45642E+06
        -0.17926E+07
        -0.24123E+07
        -0.13138E+07
        -0.48144E+06
         0.29432E+06
        -0.21421E+06
        -0.25220E+06
        -0.33116E+05
         0.90316E+05
        -0.36953E+06
         0.92270E+06
         0.10561E+06
        -0.43373E+06
        -0.10389E+06
        -0.28473E+07
        -0.34758E+06
         0.25323E+06
         0.29359E+06
         0.20354E+06
         0.14856E+07
         0.47894E+07
         0.75059E+06
        -0.20521E+07
        -0.12606E+07
        -0.16954E+06
         0.10594E+07
        -0.52288E+04
         0.69760E+06
         0.18873E+06
         0.92891E+05
        -0.13651E+07
         0.63621E+06
        -0.17996E+08
        -0.17941E+08
        -0.16895E+08
        -0.13120E+08
        -0.10124E+08
        -0.54495E+07
         0.32322E+06
         0.38803E+07
         0.59127E+07
         0.10150E+08
         0.16544E+08
         0.19625E+08
         0.12662E+08
         0.10276E+08
         0.76417E+07
         0.53126E+07
         0.49275E+07
         0.75293E+07
         0.75307E+07
        -0.11907E+07
        -0.38023E+07
        -0.42513E+07
        -0.76216E+07
        -0.13795E+08
        -0.13527E+08
        -0.11576E+08
        -0.56993E+08
         0.18888E+08
        -0.38005E+08
        -0.15854E+09
         0.12842E+09
         0.15511E+09
         0.93001E+08
        -0.73436E+08
        -0.52379E+08
        -0.73806E+08
        -0.29393E+08
         0.27320E+08
         0.11587E+09
        -0.16963E+09
        -0.68415E+08
         0.15107E+09
         0.16052E+09
        -0.10483E+09
        -0.49299E+08
        -0.12390E+09
        -0.17621E+09
        -0.17815E+09
        -0.18017E+09
        -0.15500E+09
         0.54850E+08
         0.63951E+08
        -0.17315E+09
         0.46049E+08
        -0.11607E+09
        -0.84643E+08
         0.13467E+09
         0.15630E+09
        -0.13204E+09
        -0.13094E+09
         0.18037E+09
         0.16075E+09
         0.14482E+09
        -0.91553E+08
        -0.19543E+08
        -0.60569E+08
        -0.16077E+09
        -0.18107E+09
        -0.17591E+09
        -0.16127E+09
        -0.13799E+09
        -0.60348E+08
         0.96606E+08
         0.13276E+09
        -0.21043E+08
         0.21664E+08
         0.14030E+09
         0.17550E+09
         0.20098E+09
         0.19824E+09
         0.17094E+09
         0.14192E+09
         0.99936E+08
         0.43155E+08
        -0.11123E+08
        -0.40089E+08
        -0.54062E+08
        -0.93183E+08
        -0.16857E+09
        -0.20134E+09
        -0.20070E+09
        -0.19993E+09
        -0.20223E+09
        -0.19567E+09
        -0.17269E+09
        -0.15081E+09
        -0.79592E+08
         0.20192E+08
         0.49116E+08
         0.52158E+08
         0.87472E+08
         0.15460E+09
         0.19281E+09
         0.19368E+09
        -0.57060E+08
         0.18954E+08
        -0.38056E+08
        -0.15843E+09
         0.12835E+09
         0.15505E+09
         0.93592E+08
        -0.73184E+08
        -0.52351E+08
        -0.73545E+08
        -0.28798E+08
         0.27387E+08
         0.11590E+09
        -0.16958E+09
        -0.68313E+08
         0.15112E+09
         0.16044E+09
        -0.10454E+09
        -0.49248E+08
        -0.12368E+09
        -0.17618E+09
        -0.17814E+09
        -0.18017E+09
        -0.15501E+09
         0.54750E+08
         0.64057E+08
        -0.17315E+09
         0.45184E+08
        -0.11688E+09
        -0.84556E+08
         0.13474E+09
         0.15628E+09
        -0.13170E+09
        -0.13088E+09
         0.18039E+09
         0.16072E+09
         0.14480E+09
        -0.91568E+08
        -0.19689E+08
        -0.60681E+08
        -0.16077E+09
        -0.18109E+09
        -0.17590E+09
        -0.16125E+09
        -0.13797E+09
        -0.60320E+08
         0.96586E+08
         0.13282E+09
        -0.20918E+08
         0.21618E+08
         0.14029E+09
         0.17550E+09
         0.20097E+09
         0.19823E+09
         0.17093E+09
         0.14192E+09
         0.99920E+08
         0.43155E+08
        -0.11140E+08
        -0.40123E+08
        -0.54029E+08
        -0.93172E+08
        -0.16857E+09
        -0.20134E+09
        -0.20070E+09
        -0.19993E+09
        -0.20223E+09
        -0.19567E+09
        -0.17268E+09
        -0.15081E+09
        -0.79574E+08
         0.20202E+08
         0.49085E+08
         0.52141E+08
         0.87434E+08
         0.15460E+09
         0.19281E+09
         0.19369E+09
        -0.57127E+08
         0.19019E+08
        -0.38107E+08
        -0.15831E+09
         0.12828E+09
         0.15499E+09
         0.94187E+08
        -0.72932E+08
        -0.52319E+08
        -0.73283E+08
        -0.28205E+08
         0.27454E+08
         0.11593E+09
        -0.16954E+09
        -0.68213E+08
         0.15116E+09
         0.16036E+09
        -0.10425E+09
        -0.49195E+08
        -0.12347E+09
        -0.17615E+09
        -0.17814E+09
        -0.18017E+09
        -0.15502E+09
         0.54662E+08
         0.64173E+08
        -0.17315E+09
         0.44329E+08
        -0.11770E+09
        -0.84474E+08
         0.13482E+09
         0.15627E+09
        -0.13136E+09
        -0.13083E+09
         0.18040E+09
         0.16069E+09
         0.14479E+09
        -0.91583E+08
        -0.19835E+08
        -0.60795E+08
        -0.16078E+09
        -0.18111E+09
        -0.17589E+09
        -0.16123E+09
        -0.13794E+09
        -0.60292E+08
         0.96567E+08
         0.13287E+09
        -0.20788E+08
         0.21570E+08
         0.14027E+09
         0.17549E+09
         0.20097E+09
         0.19822E+09
         0.17091E+09
         0.14192E+09
         0.99904E+08
         0.43156E+08
        -0.11157E+08
        -0.40158E+08
        -0.53996E+08
        -0.93160E+08
        -0.16857E+09
        -0.20134E+09
        -0.20069E+09
        -0.19993E+09
        -0.20224E+09
        -0.19567E+09
        -0.17267E+09
        -0.15081E+09
        -0.79556E+08
         0.20212E+08
         0.49054E+08
         0.52123E+08
         0.87397E+08
         0.15459E+09
         0.19281E+09
         0.19370E+09
        -0.57195E+08
         0.19086E+08
        -0.38156E+08
        -0.15820E+09
         0.12821E+09
         0.15493E+09
         0.94773E+08
        -0.72681E+08
        -0.52281E+08
        -0.73017E+08
        -0.27613E+08
         0.27522E+08
         0.11595E+09
        -0.16950E+09
        -0.68111E+08
         0.15121E+09
         0.16028E+09
        -0.10395E+09
        -0.49144E+08
        -0.12325E+09
        -0.17612E+09
        -0.17813E+09
        -0.18016E+09
        -0.15505E+09
         0.54603E+08
         0.64315E+08
        -0.17314E+09
         0.43500E+08
        -0.11852E+09
        -0.84400E+08
         0.13491E+09
         0.15628E+09
        -0.13101E+09
        -0.13077E+09
         0.18042E+09
         0.16066E+09
         0.14477E+09
        -0.91597E+08
        -0.19978E+08
        -0.60902E+08
        -0.16077E+09
        -0.18113E+09
        -0.17589E+09
        -0.16120E+09
        -0.13790E+09
        -0.60261E+08
         0.96547E+08
         0.13292E+09
        -0.20657E+08
         0.21521E+08
         0.14025E+09
         0.17548E+09
         0.20097E+09
         0.19821E+09
         0.17090E+09
         0.14192E+09
         0.99888E+08
         0.43155E+08
        -0.11174E+08
        -0.40192E+08
        -0.53963E+08
        -0.93149E+08
        -0.16857E+09
        -0.20134E+09
        -0.20069E+09
        -0.19992E+09
        -0.20224E+09
        -0.19567E+09
        -0.17266E+09
        -0.15080E+09
        -0.79537E+08
         0.20223E+08
         0.49023E+08
         0.52106E+08
         0.87360E+08
         0.15459E+09
         0.19282E+09
         0.19370E+09
        -0.57262E+08
         0.19153E+08
        -0.38206E+08
        -0.15809E+09
         0.12814E+09
         0.15488E+09
         0.95368E+08
        -0.72429E+08
        -0.52237E+08
        -0.72744E+08
        -0.27019E+08
         0.27590E+08
         0.11598E+09
        -0.16945E+09
        -0.68010E+08
         0.15126E+09
         0.16020E+09
        -0.10366E+09
        -0.49087E+08
        -0.12303E+09
        -0.17609E+09
        -0.17812E+09
        -0.18016E+09
        -0.15508E+09
         0.54575E+08
         0.64478E+08
        -0.17314E+09
         0.42698E+08
        -0.11934E+09
        -0.84337E+08
         0.13501E+09
         0.15632E+09
        -0.13067E+09
        -0.13072E+09
         0.18043E+09
         0.16063E+09
         0.14476E+09
        -0.91610E+08
        -0.20120E+08
        -0.61008E+08
        -0.16077E+09
        -0.18116E+09
        -0.17588E+09
        -0.16116E+09
        -0.13785E+09
        -0.60223E+08
         0.96525E+08
         0.13297E+09
        -0.20527E+08
         0.21473E+08
         0.14024E+09
         0.17548E+09
         0.20097E+09
         0.19820E+09
         0.17088E+09
         0.14192E+09
         0.99873E+08
         0.43156E+08
        -0.11190E+08
        -0.40227E+08
        -0.53930E+08
        -0.93137E+08
        -0.16856E+09
        -0.20133E+09
        -0.20069E+09
        -0.19992E+09
        -0.20225E+09
        -0.19567E+09
        -0.17264E+09
        -0.15080E+09
        -0.79519E+08
         0.20233E+08
         0.48992E+08
         0.52088E+08
         0.87323E+08
         0.15459E+09
         0.19282E+09
         0.19371E+09
        -0.57326E+08
         0.19227E+08
        -0.38249E+08
        -0.15797E+09
         0.12806E+09
         0.15482E+09
         0.95962E+08
        -0.72180E+08
        -0.52192E+08
        -0.72477E+08
        -0.26422E+08
         0.27657E+08
         0.11601E+09
        -0.16940E+09
        -0.67909E+08
         0.15131E+09
         0.16012E+09
        -0.10336E+09
        -0.49029E+08
        -0.12281E+09
        -0.17606E+09
        -0.17812E+09
        -0.18016E+09
        -0.15512E+09
         0.54550E+08
         0.64645E+08
        -0.17314E+09
         0.41901E+08
        -0.12016E+09
        -0.84285E+08
         0.13511E+09
         0.15636E+09
        -0.13031E+09
        -0.13066E+09
         0.18045E+09
         0.16060E+09
         0.14474E+09
        -0.91621E+08
        -0.20260E+08
        -0.61111E+08
        -0.16076E+09
        -0.18118E+09
        -0.17588E+09
        -0.16111E+09
        -0.13780E+09
        -0.60188E+08
         0.96498E+08
         0.13302E+09
        -0.20391E+08
         0.21431E+08
         0.14022E+09
         0.17547E+09
         0.20096E+09
         0.19819E+09
         0.17087E+09
         0.14192E+09
         0.99857E+08
         0.43156E+08
        -0.11207E+08
        -0.40261E+08
        -0.53897E+08
        -0.93125E+08
        -0.16856E+09
        -0.20133E+09
        -0.20069E+09
        -0.19992E+09
        -0.20225E+09
        -0.19567E+09
        -0.17263E+09
        -0.15079E+09
        -0.79500E+08
         0.20242E+08
         0.48960E+08
         0.52071E+08
         0.87286E+08
         0.15459E+09
         0.19282E+09
         0.19372E+09
        -0.57386E+08
         0.19320E+08
        -0.38279E+08
        -0.15785E+09
         0.12799E+09
         0.15476E+09
         0.96567E+08
        -0.71934E+08
        -0.52147E+08
        -0.72223E+08
        -0.25819E+08
         0.27724E+08
         0.11603E+09
        -0.16935E+09
        -0.67806E+08
         0.15136E+09
         0.16003E+09
        -0.10307E+09
        -0.48975E+08
        -0.12261E+09
        -0.17603E+09
        -0.17811E+09
        -0.18016E+09
        -0.15515E+09
         0.54512E+08
         0.64793E+08
        -0.17313E+09
         0.41085E+08
        -0.12099E+09
        -0.84241E+08
         0.13520E+09
         0.15636E+09
        -0.12995E+09
        -0.13059E+09
         0.18047E+09
         0.16057E+09
         0.14472E+09
        -0.91631E+08
        -0.20401E+08
        -0.61217E+08
        -0.16076E+09
        -0.18121E+09
        -0.17588E+09
        -0.16107E+09
        -0.13775E+09
        -0.60153E+08
         0.96457E+08
         0.13305E+09
        -0.20236E+08
         0.21403E+08
         0.14021E+09
         0.17547E+09
         0.20096E+09
         0.19819E+09
         0.17085E+09
         0.14192E+09
         0.99841E+08
         0.43156E+08
        -0.11224E+08
        -0.40296E+08
        -0.53864E+08
        -0.93115E+08
        -0.16856E+09
        -0.20132E+09
        -0.20069E+09
        -0.19991E+09
        -0.20226E+09
        -0.19567E+09
        -0.17261E+09
        -0.15079E+09
        -0.79482E+08
         0.20250E+08
         0.48926E+08
         0.52053E+08
         0.87251E+08
         0.15458E+09
         0.19282E+09
         0.19372E+09
        -0.57442E+08
         0.19417E+08
        -0.38302E+08
        -0.15773E+09
         0.12793E+09
         0.15470E+09
         0.97180E+08
        -0.71692E+08
        -0.52102E+08
        -0.71977E+08
        -0.25213E+08
         0.27791E+08
         0.11606E+09
        -0.16930E+09
        -0.67704E+08
         0.15140E+09
         0.15994E+09
        -0.10277E+09
        -0.48918E+08
        -0.12241E+09
        -0.17600E+09
        -0.17811E+09
        -0.18016E+09
        -0.15519E+09
         0.54467E+08
         0.64932E+08
        -0.17312E+09
         0.40265E+08
        -0.12183E+09
        -0.84203E+08
         0.13529E+09
         0.15635E+09
        -0.12958E+09
        -0.13051E+09
         0.18048E+09
         0.16054E+09
         0.14471E+09
        -0.91640E+08
        -0.20541E+08
        -0.61321E+08
        -0.16075E+09
        -0.18123E+09
        -0.17588E+09
        -0.16103E+09
        -0.13769E+09
        -0.60122E+08
         0.96409E+08
         0.13307E+09
        -0.20075E+08
         0.21382E+08
         0.14020E+09
         0.17546E+09
         0.20096E+09
         0.19818E+09
         0.17084E+09
         0.14192E+09
         0.99825E+08
         0.43156E+08
        -0.11240E+08
        -0.40330E+08
        -0.53830E+08
        -0.93104E+08
        -0.16856E+09
        -0.20132E+09
        -0.20069E+09
        -0.19991E+09
        -0.20226E+09
        -0.19568E+09
        -0.17260E+09
        -0.15078E+09
        -0.79464E+08
         0.20258E+08
         0.48892E+08
         0.52035E+08
         0.87216E+08
         0.15458E+09
         0.19283E+09
         0.19373E+09
        -0.57499E+08
         0.19516E+08
        -0.38324E+08
        -0.15761E+09
         0.12786E+09
         0.15464E+09
         0.97788E+08
        -0.71450E+08
        -0.52059E+08
        -0.71733E+08
        -0.24610E+08
         0.27857E+08
         0.11608E+09
        -0.16925E+09
        -0.67601E+08
         0.15145E+09
         0.15985E+09
        -0.10247E+09
        -0.48861E+08
        -0.12221E+09
        -0.17597E+09
        -0.17810E+09
        -0.18015E+09
        -0.15522E+09
         0.54421E+08
         0.65069E+08
        -0.17312E+09
         0.39445E+08
        -0.12266E+09
        -0.84165E+08
         0.13539E+09
         0.15634E+09
        -0.12920E+09
        -0.13043E+09
         0.18050E+09
         0.16051E+09
         0.14469E+09
        -0.91648E+08
        -0.20681E+08
        -0.61425E+08
        -0.16074E+09
        -0.18126E+09
        -0.17588E+09
        -0.16098E+09
        -0.13764E+09
        -0.60091E+08
         0.96364E+08
         0.13309E+09
        -0.19912E+08
         0.21362E+08
         0.14019E+09
         0.17545E+09
         0.20095E+09
         0.19817E+09
         0.17082E+09
         0.14192E+09
         0.99809E+08
         0.43156E+08
        -0.11257E+08
        -0.40364E+08
        -0.53797E+08
        -0.93093E+08
        -0.16855E+09
        -0.20132E+09
        -0.20069E+09
        -0.19991E+09
        -0.20227E+09
        -0.19568E+09
        -0.17258E+09
        -0.15078E+09
        -0.79445E+08
         0.20265E+08
         0.48857E+08
         0.52017E+08
         0.87181E+08
         0.15458E+09
         0.19283E+09
         0.19374E+09
        -0.57556E+08
         0.19616E+08
        -0.38346E+08
        -0.15748E+09
         0.12779E+09
         0.15458E+09
         0.98400E+08
        -0.71208E+08
        -0.52015E+08
        -0.71491E+08
        -0.24005E+08
         0.27924E+08
         0.11610E+09
        -0.16919E+09
        -0.67499E+08
         0.15150E+09
         0.15976E+09
        -0.10217E+09
        -0.48804E+08
        -0.12201E+09
        -0.17594E+09
        -0.17810E+09
        -0.18015E+09
        -0.15526E+09
         0.54377E+08
         0.65206E+08
        -0.17311E+09
         0.38631E+08
        -0.12350E+09
        -0.84125E+08
         0.13548E+09
         0.15633E+09
        -0.12883E+09
        -0.13036E+09
         0.18052E+09
         0.16048E+09
         0.14468E+09
        -0.91656E+08
        -0.20821E+08
        -0.61531E+08
        -0.16074E+09
        -0.18128E+09
        -0.17588E+09
        -0.16094E+09
        -0.13759E+09
        -0.60058E+08
         0.96316E+08
         0.13311E+09
        -0.19751E+08
         0.21340E+08
         0.14017E+09
         0.17545E+09
         0.20095E+09
         0.19816E+09
         0.17081E+09
         0.14192E+09
         0.99792E+08
         0.43156E+08
        -0.11274E+08
        -0.40399E+08
        -0.53764E+08
        -0.93082E+08
        -0.16855E+09
        -0.20131E+09
        -0.20069E+09
        -0.19990E+09
        -0.20227E+09
        -0.19568E+09
        -0.17257E+09
        -0.15077E+09
        -0.79427E+08
         0.20273E+08
         0.48823E+08
         0.51999E+08
         0.87146E+08
         0.15458E+09
         0.19283E+09
         0.19375E+09
        -0.57612E+08
         0.19715E+08
        -0.38370E+08
        -0.15736E+09
         0.12772E+09
         0.15452E+09
         0.99007E+08
        -0.70967E+08
        -0.51971E+08
        -0.71250E+08
        -0.23400E+08
         0.27992E+08
         0.11613E+09
        -0.16914E+09
        -0.67395E+08
         0.15154E+09
         0.15967E+09
        -0.10188E+09
        -0.48752E+08
        -0.12181E+09
        -0.17591E+09
        -0.17809E+09
        -0.18015E+09
        -0.15529E+09
         0.54332E+08
         0.65342E+08
        -0.17310E+09
         0.37816E+08
        -0.12433E+09
        -0.84085E+08
         0.13557E+09
         0.15632E+09
        -0.12845E+09
        -0.13028E+09
         0.18053E+09
         0.16045E+09
         0.14466E+09
        -0.91664E+08
        -0.20960E+08
        -0.61635E+08
        -0.16073E+09
        -0.18131E+09
        -0.17588E+09
        -0.16090E+09
        -0.13753E+09
        -0.60027E+08
         0.96268E+08
         0.13314E+09
        -0.19587E+08
         0.21318E+08
         0.14016E+09
         0.17544E+09
         0.20095E+09
         0.19815E+09
         0.17080E+09
         0.14192E+09
         0.99776E+08
         0.43157E+08
        -0.11290E+08
        -0.40433E+08
        -0.53731E+08
        -0.93071E+08
        -0.16855E+09
        -0.20131E+09
        -0.20069E+09
        -0.19990E+09
        -0.20228E+09
        -0.19568E+09
        -0.17255E+09
        -0.15077E+09
        -0.79409E+08
         0.20280E+08
         0.48788E+08
         0.51981E+08
         0.87112E+08
         0.15458E+09
         0.19283E+09
         0.19375E+09
        -0.57668E+08
         0.19814E+08
        -0.38391E+08
        -0.15724E+09
         0.12765E+09
         0.15446E+09
         0.99617E+08
        -0.70726E+08
        -0.51927E+08
        -0.71011E+08
        -0.22797E+08
         0.28059E+08
         0.11615E+09
        -0.16909E+09
        -0.67293E+08
         0.15159E+09
         0.15958E+09
        -0.10158E+09
        -0.48697E+08
        -0.12161E+09
        -0.17588E+09
        -0.17808E+09
        -0.18015E+09
        -0.15533E+09
         0.54286E+08
         0.65482E+08
        -0.17310E+09
         0.37004E+08
        -0.12516E+09
        -0.84049E+08
         0.13566E+09
         0.15631E+09
        -0.12807E+09
        -0.13020E+09
         0.18055E+09
         0.16042E+09
         0.14464E+09
        -0.91671E+08
        -0.21100E+08
        -0.61741E+08
        -0.16072E+09
        -0.18134E+09
        -0.17588E+09
        -0.16086E+09
        -0.13748E+09
        -0.59996E+08
         0.96223E+08
         0.13316E+09
        -0.19423E+08
         0.21298E+08
         0.14015E+09
         0.17544E+09
         0.20094E+09
         0.19815E+09
         0.17078E+09
         0.14192E+09
         0.99760E+08
         0.43157E+08
        -0.11307E+08
        -0.40467E+08
        -0.53697E+08
        -0.93060E+08
        -0.16855E+09
        -0.20130E+09
        -0.20068E+09
        -0.19990E+09
        -0.20228E+09
        -0.19568E+09
        -0.17254E+09
        -0.15076E+09
        -0.79390E+08
         0.20287E+08
         0.48754E+08
         0.51963E+08
         0.87077E+08
         0.15457E+09
         0.19283E+09
         0.19376E+09
        -0.57725E+08
         0.19914E+08
        -0.38412E+08
        -0.15711E+09
         0.12758E+09
         0.15440E+09
         0.10023E+09
        -0.70485E+08
        -0.51881E+08
        -0.70771E+08
        -0.22196E+08
         0.28125E+08
         0.11618E+09
        -0.16904E+09
        -0.67190E+08
         0.15164E+09
         0.15949E+09
        -0.10128E+09
        -0.48642E+08
        -0.12141E+09
        -0.17585E+09
        -0.17808E+09
        -0.18014E+09
        -0.15536E+09
         0.54240E+08
         0.65618E+08
        -0.17309E+09
         0.36191E+08
        -0.12599E+09
        -0.84011E+08
         0.13576E+09
         0.15630E+09
        -0.12768E+09
        -0.13012E+09
         0.18056E+09
         0.16039E+09
         0.14463E+09
        -0.91678E+08
        -0.21238E+08
        -0.61845E+08
        -0.16072E+09
        -0.18136E+09
        -0.17588E+09
        -0.16082E+09
        -0.13743E+09
        -0.59962E+08
         0.96175E+08
         0.13318E+09
        -0.19258E+08
         0.21276E+08
         0.14014E+09
         0.17543E+09
         0.20094E+09
         0.19814E+09
         0.17077E+09
         0.14192E+09
         0.99745E+08
         0.43157E+08
        -0.11323E+08
        -0.40501E+08
        -0.53664E+08
        -0.93050E+08
        -0.16854E+09
        -0.20130E+09
        -0.20068E+09
        -0.19989E+09
        -0.20229E+09
        -0.19568E+09
        -0.17252E+09
        -0.15075E+09
        -0.79372E+08
         0.20295E+08
         0.48719E+08
         0.51945E+08
         0.87043E+08
         0.15457E+09
         0.19284E+09
         0.19377E+09
        -0.57783E+08
         0.20012E+08
        -0.38434E+08
        -0.15698E+09
         0.12751E+09
         0.15433E+09
         0.10083E+09
        -0.70245E+08
        -0.51837E+08
        -0.70533E+08
        -0.21595E+08
         0.28192E+08
         0.11620E+09
        -0.16898E+09
        -0.67088E+08
         0.15168E+09
         0.15939E+09
        -0.10099E+09
        -0.48592E+08
        -0.12121E+09
        -0.17582E+09
        -0.17807E+09
        -0.18014E+09
        -0.15540E+09
         0.54194E+08
         0.65755E+08
        -0.17308E+09
         0.35383E+08
        -0.12683E+09
        -0.83972E+08
         0.13585E+09
         0.15629E+09
        -0.12729E+09
        -0.13005E+09
         0.18058E+09
         0.16036E+09
         0.14461E+09
        -0.91683E+08
        -0.21377E+08
        -0.61952E+08
        -0.16071E+09
        -0.18139E+09
        -0.17589E+09
        -0.16077E+09
        -0.13737E+09
        -0.59931E+08
         0.96126E+08
         0.13320E+09
        -0.19093E+08
         0.21254E+08
         0.14013E+09
         0.17542E+09
         0.20094E+09
         0.19813E+09
         0.17075E+09
         0.14192E+09
         0.99729E+08
         0.43157E+08
        -0.11340E+08
        -0.40535E+08
        -0.53630E+08
        -0.93039E+08
        -0.16854E+09
        -0.20130E+09
        -0.20068E+09
        -0.19989E+09
        -0.20229E+09
        -0.19568E+09
        -0.17251E+09
        -0.15075E+09
        -0.79353E+08
         0.20302E+08
         0.48685E+08
         0.51928E+08
         0.87008E+08
         0.15457E+09
         0.19284E+09
         0.19377E+09
        -0.57840E+08
         0.20109E+08
        -0.38455E+08
        -0.15686E+09
         0.12744E+09
         0.15427E+09
         0.10144E+09
        -0.70005E+08
        -0.51792E+08
        -0.70297E+08
        -0.20996E+08
         0.28260E+08
         0.11622E+09
        -0.16893E+09
        -0.66984E+08
         0.15173E+09
         0.15930E+09
        -0.10069E+09
        -0.48537E+08
        -0.12101E+09
        -0.17579E+09
        -0.17807E+09
        -0.18014E+09
        -0.15543E+09
         0.54148E+08
         0.65891E+08
        -0.17307E+09
         0.34575E+08
        -0.12766E+09
        -0.83932E+08
         0.13594E+09
         0.15627E+09
        -0.12690E+09
        -0.12997E+09
         0.18060E+09
         0.16033E+09
         0.14460E+09
        -0.91687E+08
        -0.21515E+08
        -0.62056E+08
        -0.16070E+09
        -0.18141E+09
        -0.17589E+09
        -0.16073E+09
        -0.13732E+09
        -0.59900E+08
         0.96080E+08
         0.13322E+09
        -0.18925E+08
         0.21234E+08
         0.14012E+09
         0.17542E+09
         0.20094E+09
         0.19812E+09
         0.17074E+09
         0.14192E+09
         0.99713E+08
         0.43157E+08
        -0.11356E+08
        -0.40568E+08
        -0.53597E+08
        -0.93029E+08
        -0.16854E+09
        -0.20129E+09
        -0.20068E+09
        -0.19989E+09
        -0.20230E+09
        -0.19568E+09
        -0.17249E+09
        -0.15074E+09
        -0.79335E+08
         0.20309E+08
         0.48650E+08
         0.51911E+08
         0.86973E+08
         0.15457E+09
         0.19284E+09
         0.19378E+09
        -0.57897E+08
         0.20210E+08
        -0.38477E+08
        -0.15673E+09
         0.12737E+09
         0.15421E+09
         0.10204E+09
        -0.69765E+08
        -0.51747E+08
        -0.70062E+08
        -0.20396E+08
         0.28327E+08
         0.11625E+09
        -0.16887E+09
        -0.66882E+08
         0.15178E+09
         0.15920E+09
        -0.10040E+09
        -0.48483E+08
        -0.12081E+09
        -0.17576E+09
        -0.17806E+09
        -0.18014E+09
        -0.15547E+09
         0.54099E+08
         0.66027E+08
        -0.17307E+09
         0.33768E+08
        -0.12849E+09
        -0.83892E+08
         0.13603E+09
         0.15626E+09
        -0.12651E+09
        -0.12989E+09
         0.18061E+09
         0.16030E+09
         0.14458E+09
        -0.91691E+08
        -0.21653E+08
        -0.62161E+08
        -0.16070E+09
        -0.18143E+09
        -0.17589E+09
        -0.16069E+09
        -0.13727E+09
        -0.59867E+08
         0.96032E+08
         0.13325E+09
        -0.18758E+08
         0.21211E+08
         0.14011E+09
         0.17541E+09
         0.20093E+09
         0.19811E+09
         0.17073E+09
         0.14192E+09
         0.99697E+08
         0.43157E+08
        -0.11372E+08
        -0.40602E+08
        -0.53564E+08
        -0.93019E+08
        -0.16854E+09
        -0.20129E+09
        -0.20068E+09
        -0.19988E+09
        -0.20230E+09
        -0.19568E+09
        -0.17248E+09
        -0.15074E+09
        -0.79316E+08
         0.20316E+08
         0.48615E+08
         0.51893E+08
         0.86939E+08
         0.15457E+09
         0.19284E+09
         0.19379E+09
        -0.57954E+08
         0.20309E+08
        -0.38498E+08
        -0.15660E+09
         0.12730E+09
         0.15415E+09
         0.10264E+09
        -0.69526E+08
        -0.51701E+08
        -0.69825E+08
        -0.19797E+08
         0.28394E+08
         0.11627E+09
        -0.16882E+09
        -0.66778E+08
         0.15182E+09
         0.15911E+09
        -0.10010E+09
        -0.48430E+08
        -0.12061E+09
        -0.17573E+09
        -0.17806E+09
        -0.18014E+09
        -0.15550E+09
         0.54049E+08
         0.66163E+08
        -0.17306E+09
         0.32953E+08
        -0.12931E+09
        -0.83855E+08
         0.13612E+09
         0.15625E+09
        -0.12612E+09
        -0.12982E+09
         0.18063E+09
         0.16027E+09
         0.14456E+09
        -0.91694E+08
        -0.21792E+08
        -0.62268E+08
        -0.16069E+09
        -0.18146E+09
        -0.17588E+09
        -0.16065E+09
        -0.13721E+09
        -0.59836E+08
         0.95985E+08
         0.13327E+09
        -0.18592E+08
         0.21189E+08
         0.14009E+09
         0.17540E+09
         0.20093E+09
         0.19811E+09
         0.17071E+09
         0.14192E+09
         0.99680E+08
         0.43157E+08
        -0.11388E+08
        -0.40635E+08
        -0.53531E+08
        -0.93009E+08
        -0.16853E+09
        -0.20129E+09
        -0.20068E+09
        -0.19988E+09
        -0.20230E+09
        -0.19568E+09
        -0.17247E+09
        -0.15073E+09
        -0.79298E+08
         0.20323E+08
         0.48581E+08
         0.51875E+08
         0.86904E+08
         0.15456E+09
         0.19285E+09
         0.19380E+09
        -0.58011E+08
         0.20407E+08
        -0.38519E+08
        -0.15648E+09
         0.12723E+09
         0.15409E+09
         0.10325E+09
        -0.69287E+08
        -0.51650E+08
        -0.69582E+08
        -0.19199E+08
         0.28462E+08
         0.11630E+09
        -0.16877E+09
        -0.66675E+08
         0.15187E+09
         0.15901E+09
        -0.99809E+08
        -0.48383E+08
        -0.12042E+09
        -0.17570E+09
        -0.17805E+09
        -0.18013E+09
        -0.15553E+09
         0.53992E+08
         0.66304E+08
        -0.17305E+09
         0.32118E+08
        -0.13014E+09
        -0.83827E+08
         0.13622E+09
         0.15624E+09
        -0.12572E+09
        -0.12974E+09
         0.18064E+09
         0.16024E+09
         0.14455E+09
        -0.91694E+08
        -0.21937E+08
        -0.62375E+08
        -0.16068E+09
        -0.18148E+09
        -0.17588E+09
        -0.16060E+09
        -0.13716E+09
        -0.59803E+08
         0.95939E+08
         0.13329E+09
        -0.18426E+08
         0.21166E+08
         0.14008E+09
         0.17539E+09
         0.20093E+09
         0.19810E+09
         0.17070E+09
         0.14192E+09
         0.99665E+08
         0.43158E+08
        -0.11405E+08
        -0.40669E+08
        -0.53498E+08
        -0.92999E+08
        -0.16853E+09
        -0.20128E+09
        -0.20068E+09
        -0.19988E+09
        -0.20231E+09
        -0.19568E+09
        -0.17245E+09
        -0.15073E+09
        -0.79280E+08
         0.20330E+08
         0.48547E+08
         0.51857E+08
         0.86870E+08
         0.15456E+09
         0.19285E+09
         0.19380E+09
        -0.58068E+08
         0.20505E+08
        -0.38539E+08
        -0.15635E+09
         0.12716E+09
         0.15403E+09
         0.10385E+09
        -0.69049E+08
        -0.51596E+08
        -0.69333E+08
        -0.18603E+08
         0.28529E+08
         0.11632E+09
        -0.16871E+09
        -0.66570E+08
         0.15191E+09
         0.15891E+09
        -0.99514E+08
        -0.48330E+08
        -0.12022E+09
        -0.17566E+09
        -0.17805E+09
        -0.18013E+09
        -0.15557E+09
         0.53926E+08
         0.66439E+08
        -0.17304E+09
         0.31258E+08
        -0.13097E+09
        -0.83800E+08
         0.13631E+09
         0.15623E+09
        -0.12532E+09
        -0.12966E+09
         0.18066E+09
         0.16021E+09
         0.14453E+09
        -0.91690E+08
        -0.22086E+08
        -0.62484E+08
        -0.16067E+09
        -0.18150E+09
        -0.17588E+09
        -0.16056E+09
        -0.13710E+09
        -0.59772E+08
         0.95890E+08
         0.13331E+09
        -0.18257E+08
         0.21145E+08
         0.14007E+09
         0.17539E+09
         0.20092E+09
         0.19809E+09
         0.17068E+09
         0.14192E+09
         0.99649E+08
         0.43158E+08
        -0.11421E+08
        -0.40702E+08
        -0.53466E+08
        -0.92989E+08
        -0.16852E+09
        -0.20128E+09
        -0.20068E+09
        -0.19988E+09
        -0.20231E+09
        -0.19568E+09
        -0.17244E+09
        -0.15072E+09
        -0.79261E+08
         0.20337E+08
         0.48512E+08
         0.51839E+08
         0.86835E+08
         0.15456E+09
         0.19285E+09
         0.19381E+09
        -0.58125E+08
         0.20603E+08
        -0.38559E+08
        -0.15622E+09
         0.12709E+09
         0.15397E+09
         0.10445E+09
        -0.68812E+08
        -0.51539E+08
        -0.69083E+08
        -0.18011E+08
         0.28595E+08
         0.11634E+09
        -0.16866E+09
        -0.66466E+08
         0.15196E+09
         0.15881E+09
        -0.99222E+08
        -0.48276E+08
        -0.12002E+09
        -0.17563E+09
        -0.17804E+09
        -0.18013E+09
        -0.15560E+09
         0.53858E+08
         0.66573E+08
        -0.17303E+09
         0.30394E+08
        -0.13179E+09
        -0.83775E+08
         0.13640E+09
         0.15621E+09
        -0.12492E+09
        -0.12958E+09
         0.18068E+09
         0.16018E+09
         0.14452E+09
        -0.91684E+08
        -0.22236E+08
        -0.62590E+08
        -0.16066E+09
        -0.18153E+09
        -0.17588E+09
        -0.16052E+09
        -0.13705E+09
        -0.59740E+08
         0.95845E+08
         0.13333E+09
        -0.18090E+08
         0.21121E+08
         0.14006E+09
         0.17538E+09
         0.20092E+09
         0.19808E+09
         0.17067E+09
         0.14192E+09
         0.99633E+08
         0.43158E+08
        -0.11437E+08
        -0.40734E+08
        -0.53435E+08
        -0.92979E+08
        -0.16852E+09
        -0.20128E+09
        -0.20068E+09
        -0.19987E+09
        -0.20232E+09
        -0.19569E+09
        -0.17242E+09
        -0.15071E+09
        -0.79242E+08
         0.20344E+08
         0.48478E+08
         0.51821E+08
         0.86801E+08
         0.15456E+09
         0.19285E+09
         0.19382E+09
        -0.56008E+08
         0.18554E+08
        -0.34322E+08
        -0.12949E+09
         0.12062E+09
         0.14047E+09
         0.76348E+08
        -0.65274E+08
        -0.47136E+08
        -0.65362E+08
        -0.13811E+08
         0.28030E+08
         0.11296E+09
        -0.14986E+09
        -0.65056E+08
         0.14263E+09
         0.12684E+09
        -0.96442E+08
        -0.41062E+08
        -0.98049E+08
        -0.17148E+09
        -0.17319E+09
        -0.17547E+09
        -0.12141E+09
         0.48056E+08
         0.65547E+08
        -0.15400E+09
         0.26852E+08
        -0.98986E+08
        -0.74801E+08
         0.12512E+09
         0.12029E+09
        -0.10220E+09
        -0.10115E+09
         0.17410E+09
         0.14756E+09
         0.13737E+09
        -0.89298E+08
        -0.21501E+08
        -0.59882E+08
        -0.15663E+09
        -0.17660E+09
        -0.17154E+09
        -0.15522E+09
        -0.13093E+09
        -0.57808E+08
         0.90237E+08
         0.12417E+09
        -0.16197E+08
         0.19442E+08
         0.13484E+09
         0.16390E+09
         0.19961E+09
         0.19690E+09
         0.16971E+09
         0.14117E+09
         0.99127E+08
         0.42948E+08
        -0.11396E+08
        -0.40496E+08
        -0.53034E+08
        -0.92376E+08
        -0.16747E+09
        -0.20015E+09
        -0.19935E+09
        -0.19856E+09
        -0.20121E+09
        -0.19472E+09
        -0.17160E+09
        -0.15001E+09
        -0.78759E+08
         0.20242E+08
         0.48169E+08
         0.51491E+08
         0.86273E+08
         0.15363E+09
         0.19178E+09
         0.19272E+09
        -0.27874E+08
         0.62350E+07
        -0.11177E+08
        -0.35351E+08
         0.53498E+08
         0.50267E+08
         0.17329E+08
        -0.29309E+08
        -0.17113E+08
        -0.28837E+08
        -0.34179E+07
         0.16763E+08
         0.61055E+08
        -0.48384E+08
        -0.39855E+08
         0.58512E+08
         0.32481E+08
        -0.19967E+08
        -0.11835E+08
        -0.19771E+08
        -0.99596E+08
        -0.95959E+08
        -0.98669E+08
        -0.29868E+08
         0.15837E+08
         0.12480E+08
        -0.49937E+08
         0.44163E+07
        -0.20092E+08
        -0.24660E+08
         0.45561E+08
         0.28098E+08
        -0.27219E+08
        -0.25045E+08
         0.86937E+08
         0.54949E+08
         0.61334E+08
        -0.50231E+08
        -0.10558E+08
        -0.27879E+08
        -0.89436E+08
        -0.97935E+08
        -0.98345E+08
        -0.80350E+08
        -0.60752E+08
        -0.30236E+08
         0.37788E+08
         0.48708E+08
        -0.55054E+07
         0.72522E+07
         0.66943E+08
         0.65762E+08
         0.15944E+09
         0.16013E+09
         0.13948E+09
         0.11710E+09
         0.83078E+08
         0.36255E+08
        -0.95016E+07
        -0.32531E+08
        -0.42013E+08
        -0.74264E+08
        -0.13527E+09
        -0.16444E+09
        -0.15937E+09
        -0.15917E+09
        -0.16594E+09
        -0.16304E+09
        -0.14479E+09
        -0.12665E+09
        -0.64049E+08
         0.16619E+08
         0.39251E+08
         0.41722E+08
         0.70483E+08
         0.12474E+09
         0.15780E+09
         0.15804E+09
  
SCALARS                      stress_xy  double 1
LOOKUP_TABLE default
        -0.70119E+00
        -0.16456E+01
        -0.14111E+02
         0.49832E+00
        -0.98362E-09
         0.96127E-10
         0.14453E-08
         0.22016E-09
        -0.14887E+03
         0.65406E+02
         0.64333E-08
         0.51016E-08
         0.55715E+01
        -0.11560E+01
         0.56784E-09
        -0.17055E-09
         0.16015E+01
         0.27957E+02
         0.28269E-10
         0.43079E-09
        -0.21271E+02
        -0.13496E+03
        -0.13278E+03
         0.43804E-08
         0.34884E-08
        -0.50941E-08
        -0.14051E+02
        -0.11742E+03
         0.58981E-08
         0.90767E-08
        -0.42826E+01
         0.82973E+01
         0.67366E+00
        -0.31131E-09
         0.12281E-08
        -0.15708E-10
        -0.37774E+02
        -0.17558E+02
         0.32868E-08
         0.27228E-08
        -0.74034E+02
        -0.66811E+02
         0.56031E-08
         0.37761E-08
        -0.71801E+02
        -0.13181E+02
        -0.20411E-09
         0.15196E-08
         0.19167E+02
         0.44911E-09
        -0.44910E+01
        -0.10125E-10
         0.11787E+01
         0.33945E-08
         0.58364E+01
         0.52235E-09
         0.83281E+02
        -0.40544E+01
         0.12139E-10
        -0.59555E-10
         0.55456E+00
        -0.55834E+02
         0.33081E-09
         0.84854E-09
         0.23990E+01
        -0.67167E-10
         0.34485E+02
         0.53821E-09
        -0.18439E+03
        -0.66935E+02
         0.41572E-09
        -0.39810E-08
        -0.15055E+03
        -0.63652E-08
         0.61624E+02
         0.42633E-08
         0.19463E+03
         0.63517E-09
         0.33987E+03
         0.82596E-09
         0.65936E+03
         0.35926E+03
         0.19418E-08
        -0.49238E-09
         0.44357E+02
        -0.59252E-10
        -0.13607E+03
        -0.53440E-08
        -0.20034E+03
        -0.59670E-08
        -0.44079E+03
        -0.20097E+03
        -0.37772E-08
         0.41926E-08
         0.32307E+02
         0.38175E-08
         0.79564E+02
         0.16399E-08
         0.18592E+03
         0.43542E-08
         0.45735E+03
         0.26082E+03
         0.93363E-08
         0.46681E-08
        -0.75180E+03
         0.31502E+03
        -0.60659E-08
         0.74285E-08
        -0.18306E+04
        -0.17240E-07
        -0.23876E+04
        -0.18845E-07
        -0.20979E+04
        -0.12790E-07
        -0.17888E+04
        -0.13566E-08
        -0.78182E+03
         0.38238E-08
         0.10300E+04
         0.23675E-08
         0.23146E+04
         0.21643E-08
         0.30602E+04
         0.46436E-08
         0.30009E+04
         0.56459E-08
         0.24609E+04
         0.22244E-08
         0.13113E+04
         0.13562E-08
        -0.89801E+02
         0.22166E-08
        -0.10912E+04
         0.14858E-08
        -0.17599E+04
        -0.52987E-08
        -0.24022E+04
        -0.13903E-07
        -0.21512E+04
        -0.17644E-07
        -0.13814E+04
        -0.10920E-07
        -0.15131E+03
         0.20834E-08
         0.10221E+04
         0.44156E-08
         0.14781E+04
         0.70370E-08
         0.18085E+04
         0.13857E-07
         0.16211E+04
         0.17981E-07
         0.15089E+04
         0.12775E-07
         0.12463E+04
         0.10103E-07
        -0.60388E+02
         0.13185E+02
         0.13890E+02
        -0.11306E+02
         0.91716E+02
         0.93470E+02
         0.11752E+01
        -0.29102E+02
        -0.18197E+02
        -0.38173E+02
        -0.93209E+01
        -0.18250E+03
        -0.23264E+03
         0.86073E+01
         0.13898E+03
        -0.28110E+02
         0.19961E+02
         0.67253E+01
         0.93548E+01
        -0.81813E+01
         0.37063E+02
         0.34786E+02
        -0.93859E+02
         0.25283E+01
         0.24481E+02
         0.26729E+01
         0.37032E+00
         0.73494E+00
         0.86656E+01
        -0.32259E+02
        -0.23955E+02
         0.39248E+01
         0.81950E+01
        -0.54451E+00
        -0.25632E+02
        -0.74842E+02
        -0.15292E+03
         0.23081E+03
         0.12075E+03
         0.26116E+03
         0.64535E+03
         0.97611E+02
        -0.89803E+02
        -0.17445E+03
        -0.18798E+03
        -0.27998E+03
         0.29394E+02
         0.10250E+03
         0.31108E+02
         0.92116E+02
         0.30744E+03
         0.11456E+03
        -0.19279E+04
         0.22753E+04
        -0.58017E+04
        -0.62428E+04
        -0.61245E+04
        -0.39428E+04
         0.23728E+03
         0.25855E+04
         0.37452E+04
         0.60802E+04
         0.64212E+04
         0.32698E+04
         0.99589E+03
         0.38350E+03
        -0.54417E+03
        -0.20021E+04
        -0.33522E+04
        -0.44028E+04
        -0.43241E+04
         0.77844E+03
         0.23723E+04
         0.25061E+04
         0.41433E+04
         0.52060E+04
         0.30825E+04
         0.25003E+04
        -0.28814E+06
         0.81167E+05
        -0.15493E+06
        -0.16991E+06
         0.47898E+06
         0.32982E+06
         0.19648E+06
        -0.35505E+06
        -0.21872E+06
        -0.34969E+06
         0.10393E+06
        -0.16339E+06
        -0.52032E+06
         0.18021E+06
         0.38701E+06
        -0.35497E+06
         0.14363E+06
         0.89884E+05
         0.17944E+06
         0.92570E+05
         0.27181E+06
         0.20581E+06
        -0.12334E+06
         0.17886E+06
         0.22416E+06
        -0.73991E+05
         0.40748E+05
        -0.24853E+05
        -0.10006E+06
        -0.33228E+06
        -0.36954E+06
        -0.13150E+06
         0.26872E+06
         0.23459E+06
         0.79608E+05
        -0.31320E+06
        -0.45313E+06
         0.47029E+06
         0.11011E+06
         0.31825E+06
         0.46477E+06
        -0.14065E+06
        -0.27987E+06
        -0.39476E+06
        -0.47387E+06
        -0.33059E+06
         0.42628E+06
         0.43079E+06
        -0.95668E+05
         0.10600E+06
         0.50130E+06
         0.62063E+05
        -0.24193E+06
         0.33415E+06
        -0.64430E+06
        -0.69586E+06
        -0.59701E+06
        -0.29017E+06
         0.76031E+05
         0.26602E+06
         0.35189E+06
         0.56449E+06
         0.65299E+06
         0.26026E+06
         0.12272E+06
         0.10965E+06
        -0.47193E+05
        -0.36410E+06
        -0.62259E+06
        -0.69897E+06
        -0.49721E+06
         0.13654E+06
         0.32057E+06
         0.33725E+06
         0.53211E+06
         0.67585E+06
         0.42671E+06
         0.40897E+06
        -0.28851E+06
         0.81458E+05
        -0.15518E+06
        -0.17100E+06
         0.47893E+06
         0.33005E+06
         0.19797E+06
        -0.35419E+06
        -0.21882E+06
        -0.34906E+06
         0.10189E+06
        -0.16378E+06
        -0.52041E+06
         0.18040E+06
         0.38658E+06
        -0.35493E+06
         0.14483E+06
         0.89501E+05
         0.17935E+06
         0.91892E+05
         0.27241E+06
         0.20601E+06
        -0.12337E+06
         0.17879E+06
         0.22435E+06
        -0.73980E+05
         0.41220E+05
        -0.24522E+05
        -0.10010E+06
        -0.33235E+06
        -0.36964E+06
        -0.13119E+06
         0.26870E+06
         0.23486E+06
         0.78839E+05
        -0.31340E+06
        -0.45314E+06
         0.47047E+06
         0.11098E+06
         0.31887E+06
         0.46487E+06
        -0.14022E+06
        -0.28011E+06
        -0.39491E+06
        -0.47388E+06
        -0.33045E+06
         0.42623E+06
         0.43071E+06
        -0.95040E+05
         0.10572E+06
         0.50125E+06
         0.61183E+05
        -0.24178E+06
         0.33423E+06
        -0.64437E+06
        -0.69586E+06
        -0.59694E+06
        -0.29017E+06
         0.76142E+05
         0.26623E+06
         0.35168E+06
         0.56442E+06
         0.65296E+06
         0.26037E+06
         0.12272E+06
         0.10988E+06
        -0.46805E+05
        -0.36421E+06
        -0.62270E+06
        -0.69900E+06
        -0.49712E+06
         0.13661E+06
         0.32038E+06
         0.33714E+06
         0.53191E+06
         0.67575E+06
         0.42646E+06
         0.40865E+06
        -0.28887E+06
         0.81744E+05
        -0.15542E+06
        -0.17210E+06
         0.47888E+06
         0.33030E+06
         0.19948E+06
        -0.35333E+06
        -0.21890E+06
        -0.34842E+06
         0.99853E+05
        -0.16418E+06
        -0.52049E+06
         0.18058E+06
         0.38615E+06
        -0.35490E+06
         0.14604E+06
         0.89115E+05
         0.17925E+06
         0.91212E+05
         0.27302E+06
         0.20620E+06
        -0.12342E+06
         0.17870E+06
         0.22456E+06
        -0.73959E+05
         0.41726E+05
        -0.24201E+05
        -0.10007E+06
        -0.33243E+06
        -0.36974E+06
        -0.13083E+06
         0.26867E+06
         0.23514E+06
         0.78066E+05
        -0.31361E+06
        -0.45314E+06
         0.47064E+06
         0.11184E+06
         0.31949E+06
         0.46498E+06
        -0.13975E+06
        -0.28033E+06
        -0.39510E+06
        -0.47390E+06
        -0.33031E+06
         0.42618E+06
         0.43064E+06
        -0.94392E+05
         0.10543E+06
         0.50119E+06
         0.60305E+05
        -0.24163E+06
         0.33431E+06
        -0.64443E+06
        -0.69586E+06
        -0.59686E+06
        -0.29016E+06
         0.76255E+05
         0.26644E+06
         0.35147E+06
         0.56435E+06
         0.65292E+06
         0.26049E+06
         0.12272E+06
         0.11011E+06
        -0.46414E+05
        -0.36433E+06
        -0.62281E+06
        -0.69903E+06
        -0.49702E+06
         0.13668E+06
         0.32019E+06
         0.33703E+06
         0.53171E+06
         0.67566E+06
         0.42621E+06
         0.40832E+06
        -0.28924E+06
         0.82040E+05
        -0.15567E+06
        -0.17321E+06
         0.47883E+06
         0.33054E+06
         0.20099E+06
        -0.35246E+06
        -0.21897E+06
        -0.34774E+06
         0.97814E+05
        -0.16458E+06
        -0.52057E+06
         0.18077E+06
         0.38571E+06
        -0.35486E+06
         0.14728E+06
         0.88725E+05
         0.17916E+06
         0.90496E+05
         0.27364E+06
         0.20637E+06
        -0.12353E+06
         0.17855E+06
         0.22487E+06
        -0.73920E+05
         0.42249E+05
        -0.23933E+05
        -0.99857E+05
        -0.33250E+06
        -0.36983E+06
        -0.13038E+06
         0.26862E+06
         0.23541E+06
         0.77298E+05
        -0.31380E+06
        -0.45314E+06
         0.47081E+06
         0.11269E+06
         0.32009E+06
         0.46512E+06
        -0.13917E+06
        -0.28050E+06
        -0.39538E+06
        -0.47395E+06
        -0.33016E+06
         0.42614E+06
         0.43056E+06
        -0.93742E+05
         0.10513E+06
         0.50114E+06
         0.59428E+05
        -0.24148E+06
         0.33438E+06
        -0.64450E+06
        -0.69586E+06
        -0.59678E+06
        -0.29015E+06
         0.76368E+05
         0.26665E+06
         0.35126E+06
         0.56428E+06
         0.65289E+06
         0.26063E+06
         0.12273E+06
         0.11033E+06
        -0.46020E+05
        -0.36445E+06
        -0.62293E+06
        -0.69907E+06
        -0.49692E+06
         0.13675E+06
         0.31999E+06
         0.33692E+06
         0.53151E+06
         0.67556E+06
         0.42597E+06
         0.40799E+06
        -0.28960E+06
         0.82336E+05
        -0.15592E+06
        -0.17431E+06
         0.47878E+06
         0.33078E+06
         0.20250E+06
        -0.35159E+06
        -0.21900E+06
        -0.34703E+06
         0.95767E+05
        -0.16497E+06
        -0.52066E+06
         0.18097E+06
         0.38528E+06
        -0.35482E+06
         0.14852E+06
         0.88334E+05
         0.17905E+06
         0.89750E+05
         0.27426E+06
         0.20652E+06
        -0.12368E+06
         0.17834E+06
         0.22527E+06
        -0.73851E+05
         0.42832E+05
        -0.23714E+05
        -0.99440E+05
        -0.33257E+06
        -0.36992E+06
        -0.12979E+06
         0.26857E+06
         0.23569E+06
         0.76524E+05
        -0.31400E+06
        -0.45315E+06
         0.47097E+06
         0.11353E+06
         0.32069E+06
         0.46529E+06
        -0.13847E+06
        -0.28061E+06
        -0.39574E+06
        -0.47403E+06
        -0.32998E+06
         0.42610E+06
         0.43050E+06
        -0.93095E+05
         0.10485E+06
         0.50109E+06
         0.58543E+05
        -0.24133E+06
         0.33446E+06
        -0.64457E+06
        -0.69586E+06
        -0.59670E+06
        -0.29014E+06
         0.76479E+05
         0.26687E+06
         0.35105E+06
         0.56420E+06
         0.65287E+06
         0.26079E+06
         0.12275E+06
         0.11055E+06
        -0.45625E+05
        -0.36458E+06
        -0.62308E+06
        -0.69911E+06
        -0.49682E+06
         0.13682E+06
         0.31980E+06
         0.33682E+06
         0.53132E+06
         0.67547E+06
         0.42572E+06
         0.40766E+06
        -0.28995E+06
         0.82658E+05
        -0.15613E+06
        -0.17541E+06
         0.47872E+06
         0.33102E+06
         0.20398E+06
        -0.35071E+06
        -0.21903E+06
        -0.34632E+06
         0.93713E+05
        -0.16536E+06
        -0.52074E+06
         0.18120E+06
         0.38484E+06
        -0.35479E+06
         0.14979E+06
         0.87947E+05
         0.17894E+06
         0.89001E+05
         0.27488E+06
         0.20667E+06
        -0.12386E+06
         0.17811E+06
         0.22567E+06
        -0.73770E+05
         0.43460E+05
        -0.23512E+05
        -0.98936E+05
        -0.33266E+06
        -0.36999E+06
        -0.12914E+06
         0.26851E+06
         0.23597E+06
         0.75744E+05
        -0.31422E+06
        -0.45316E+06
         0.47114E+06
         0.11437E+06
         0.32127E+06
         0.46547E+06
        -0.13773E+06
        -0.28070E+06
        -0.39613E+06
        -0.47412E+06
        -0.32982E+06
         0.42606E+06
         0.43045E+06
        -0.92424E+05
         0.10459E+06
         0.50103E+06
         0.57655E+05
        -0.24118E+06
         0.33454E+06
        -0.64463E+06
        -0.69587E+06
        -0.59662E+06
        -0.29013E+06
         0.76590E+05
         0.26708E+06
         0.35085E+06
         0.56413E+06
         0.65285E+06
         0.26096E+06
         0.12277E+06
         0.11077E+06
        -0.45230E+05
        -0.36471E+06
        -0.62323E+06
        -0.69915E+06
        -0.49673E+06
         0.13688E+06
         0.31960E+06
         0.33671E+06
         0.53112E+06
         0.67537E+06
         0.42547E+06
         0.40733E+06
        -0.29027E+06
         0.83051E+05
        -0.15629E+06
        -0.17655E+06
         0.47867E+06
         0.33126E+06
         0.20545E+06
        -0.34984E+06
        -0.21907E+06
        -0.34564E+06
         0.91644E+05
        -0.16575E+06
        -0.52083E+06
         0.18152E+06
         0.38440E+06
        -0.35477E+06
         0.15109E+06
         0.87558E+05
         0.17884E+06
         0.88257E+05
         0.27550E+06
         0.20681E+06
        -0.12403E+06
         0.17788E+06
         0.22600E+06
        -0.73662E+05
         0.44199E+05
        -0.23305E+05
        -0.98398E+05
        -0.33277E+06
        -0.37006E+06
        -0.12841E+06
         0.26844E+06
         0.23625E+06
         0.74963E+05
        -0.31443E+06
        -0.45318E+06
         0.47129E+06
         0.11521E+06
         0.32187E+06
         0.46566E+06
        -0.13698E+06
        -0.28077E+06
        -0.39652E+06
        -0.47423E+06
        -0.32966E+06
         0.42598E+06
         0.43044E+06
        -0.91682E+05
         0.10440E+06
         0.50098E+06
         0.56755E+05
        -0.24102E+06
         0.33461E+06
        -0.64470E+06
        -0.69587E+06
        -0.59654E+06
        -0.29012E+06
         0.76700E+05
         0.26729E+06
         0.35064E+06
         0.56406E+06
         0.65283E+06
         0.26113E+06
         0.12279E+06
         0.11099E+06
        -0.44835E+05
        -0.36484E+06
        -0.62338E+06
        -0.69918E+06
        -0.49663E+06
         0.13693E+06
         0.31939E+06
         0.33660E+06
         0.53093E+06
         0.67528E+06
         0.42523E+06
         0.40700E+06
        -0.29058E+06
         0.83466E+05
        -0.15643E+06
        -0.17769E+06
         0.47863E+06
         0.33150E+06
         0.20689E+06
        -0.34896E+06
        -0.21911E+06
        -0.34498E+06
         0.89564E+05
        -0.16614E+06
        -0.52091E+06
         0.18186E+06
         0.38396E+06
        -0.35475E+06
         0.15240E+06
         0.87165E+05
         0.17874E+06
         0.87525E+05
         0.27612E+06
         0.20696E+06
        -0.12421E+06
         0.17766E+06
         0.22629E+06
        -0.73545E+05
         0.44968E+05
        -0.23092E+05
        -0.97850E+05
        -0.33290E+06
        -0.37012E+06
        -0.12763E+06
         0.26836E+06
         0.23653E+06
         0.74174E+05
        -0.31466E+06
        -0.45320E+06
         0.47145E+06
         0.11604E+06
         0.32247E+06
         0.46584E+06
        -0.13622E+06
        -0.28085E+06
        -0.39691E+06
        -0.47433E+06
        -0.32952E+06
         0.42590E+06
         0.43044E+06
        -0.90911E+05
         0.10424E+06
         0.50093E+06
         0.55851E+05
        -0.24087E+06
         0.33469E+06
        -0.64477E+06
        -0.69587E+06
        -0.59646E+06
        -0.29011E+06
         0.76811E+05
         0.26750E+06
         0.35043E+06
         0.56399E+06
         0.65281E+06
         0.26131E+06
         0.12281E+06
         0.11121E+06
        -0.44439E+05
        -0.36497E+06
        -0.62353E+06
        -0.69922E+06
        -0.49653E+06
         0.13698E+06
         0.31918E+06
         0.33649E+06
         0.53075E+06
         0.67518E+06
         0.42498E+06
         0.40667E+06
        -0.29088E+06
         0.83884E+05
        -0.15656E+06
        -0.17883E+06
         0.47857E+06
         0.33174E+06
         0.20833E+06
        -0.34809E+06
        -0.21915E+06
        -0.34432E+06
         0.87489E+05
        -0.16653E+06
        -0.52099E+06
         0.18222E+06
         0.38351E+06
        -0.35473E+06
         0.15371E+06
         0.86773E+05
         0.17863E+06
         0.86784E+05
         0.27674E+06
         0.20711E+06
        -0.12438E+06
         0.17745E+06
         0.22658E+06
        -0.73426E+05
         0.45755E+05
        -0.22867E+05
        -0.97286E+05
        -0.33302E+06
        -0.37017E+06
        -0.12687E+06
         0.26828E+06
         0.23682E+06
         0.73381E+05
        -0.31488E+06
        -0.45322E+06
         0.47160E+06
         0.11688E+06
         0.32306E+06
         0.46603E+06
        -0.13547E+06
        -0.28092E+06
        -0.39729E+06
        -0.47444E+06
        -0.32938E+06
         0.42581E+06
         0.43045E+06
        -0.90138E+05
         0.10409E+06
         0.50088E+06
         0.54942E+05
        -0.24072E+06
         0.33476E+06
        -0.64483E+06
        -0.69587E+06
        -0.59639E+06
        -0.29010E+06
         0.76921E+05
         0.26771E+06
         0.35022E+06
         0.56392E+06
         0.65279E+06
         0.26147E+06
         0.12283E+06
         0.11143E+06
        -0.44044E+05
        -0.36510E+06
        -0.62368E+06
        -0.69926E+06
        -0.49643E+06
         0.13703E+06
         0.31896E+06
         0.33638E+06
         0.53056E+06
         0.67509E+06
         0.42473E+06
         0.40634E+06
        -0.29119E+06
         0.84308E+05
        -0.15670E+06
        -0.17996E+06
         0.47852E+06
         0.33198E+06
         0.20977E+06
        -0.34721E+06
        -0.21920E+06
        -0.34366E+06
         0.85410E+05
        -0.16692E+06
        -0.52108E+06
         0.18256E+06
         0.38307E+06
        -0.35471E+06
         0.15502E+06
         0.86384E+05
         0.17852E+06
         0.86046E+05
         0.27735E+06
         0.20725E+06
        -0.12454E+06
         0.17723E+06
         0.22687E+06
        -0.73307E+05
         0.46520E+05
        -0.22632E+05
        -0.96706E+05
        -0.33314E+06
        -0.37022E+06
        -0.12610E+06
         0.26818E+06
         0.23710E+06
         0.72591E+05
        -0.31511E+06
        -0.45325E+06
         0.47175E+06
         0.11771E+06
         0.32366E+06
         0.46621E+06
        -0.13472E+06
        -0.28100E+06
        -0.39768E+06
        -0.47455E+06
        -0.32923E+06
         0.42573E+06
         0.43046E+06
        -0.89371E+05
         0.10393E+06
         0.50082E+06
         0.54035E+05
        -0.24057E+06
         0.33484E+06
        -0.64489E+06
        -0.69587E+06
        -0.59631E+06
        -0.29009E+06
         0.77031E+05
         0.26792E+06
         0.35001E+06
         0.56385E+06
         0.65277E+06
         0.26164E+06
         0.12286E+06
         0.11166E+06
        -0.43651E+05
        -0.36523E+06
        -0.62383E+06
        -0.69930E+06
        -0.49633E+06
         0.13708E+06
         0.31875E+06
         0.33627E+06
         0.53037E+06
         0.67499E+06
         0.42449E+06
         0.40601E+06
        -0.29149E+06
         0.84728E+05
        -0.15684E+06
        -0.18109E+06
         0.47847E+06
         0.33221E+06
         0.21122E+06
        -0.34633E+06
        -0.21924E+06
        -0.34301E+06
         0.83324E+05
        -0.16732E+06
        -0.52117E+06
         0.18292E+06
         0.38262E+06
        -0.35470E+06
         0.15633E+06
         0.85998E+05
         0.17843E+06
         0.85301E+05
         0.27797E+06
         0.20739E+06
        -0.12472E+06
         0.17702E+06
         0.22715E+06
        -0.73185E+05
         0.47298E+05
        -0.22383E+05
        -0.96111E+05
        -0.33326E+06
        -0.37028E+06
        -0.12534E+06
         0.26807E+06
         0.23738E+06
         0.71797E+05
        -0.31533E+06
        -0.45328E+06
         0.47190E+06
         0.11854E+06
         0.32425E+06
         0.46640E+06
        -0.13398E+06
        -0.28108E+06
        -0.39806E+06
        -0.47465E+06
        -0.32909E+06
         0.42564E+06
         0.43046E+06
        -0.88594E+05
         0.10377E+06
         0.50077E+06
         0.53123E+05
        -0.24041E+06
         0.33491E+06
        -0.64496E+06
        -0.69587E+06
        -0.59623E+06
        -0.29008E+06
         0.77139E+05
         0.26814E+06
         0.34980E+06
         0.56378E+06
         0.65275E+06
         0.26181E+06
         0.12288E+06
         0.11188E+06
        -0.43255E+05
        -0.36536E+06
        -0.62398E+06
        -0.69933E+06
        -0.49624E+06
         0.13713E+06
         0.31853E+06
         0.33616E+06
         0.53019E+06
         0.67490E+06
         0.42425E+06
         0.40568E+06
        -0.29180E+06
         0.85146E+05
        -0.15697E+06
        -0.18222E+06
         0.47842E+06
         0.33245E+06
         0.21267E+06
        -0.34545E+06
        -0.21928E+06
        -0.34235E+06
         0.81240E+05
        -0.16771E+06
        -0.52125E+06
         0.18327E+06
         0.38218E+06
        -0.35468E+06
         0.15764E+06
         0.85606E+05
         0.17833E+06
         0.84568E+05
         0.27859E+06
         0.20753E+06
        -0.12489E+06
         0.17680E+06
         0.22743E+06
        -0.73069E+05
         0.48059E+05
        -0.22125E+05
        -0.95492E+05
        -0.33339E+06
        -0.37033E+06
        -0.12457E+06
         0.26794E+06
         0.23767E+06
         0.70999E+05
        -0.31555E+06
        -0.45330E+06
         0.47205E+06
         0.11937E+06
         0.32484E+06
         0.46658E+06
        -0.13324E+06
        -0.28115E+06
        -0.39844E+06
        -0.47476E+06
        -0.32895E+06
         0.42556E+06
         0.43047E+06
        -0.87815E+05
         0.10363E+06
         0.50072E+06
         0.52211E+05
        -0.24026E+06
         0.33498E+06
        -0.64502E+06
        -0.69587E+06
        -0.59615E+06
        -0.29007E+06
         0.77248E+05
         0.26835E+06
         0.34959E+06
         0.56371E+06
         0.65273E+06
         0.26198E+06
         0.12290E+06
         0.11210E+06
        -0.42859E+05
        -0.36549E+06
        -0.62412E+06
        -0.69937E+06
        -0.49614E+06
         0.13718E+06
         0.31832E+06
         0.33605E+06
         0.53000E+06
         0.67480E+06
         0.42400E+06
         0.40535E+06
        -0.29211E+06
         0.85570E+05
        -0.15710E+06
        -0.18336E+06
         0.47836E+06
         0.33269E+06
         0.21411E+06
        -0.34457E+06
        -0.21931E+06
        -0.34169E+06
         0.79159E+05
        -0.16810E+06
        -0.52133E+06
         0.18361E+06
         0.38173E+06
        -0.35466E+06
         0.15895E+06
         0.85214E+05
         0.17823E+06
         0.83836E+05
         0.27920E+06
         0.20768E+06
        -0.12506E+06
         0.17659E+06
         0.22770E+06
        -0.72944E+05
         0.48841E+05
        -0.21854E+05
        -0.94866E+05
        -0.33351E+06
        -0.37038E+06
        -0.12379E+06
         0.26781E+06
         0.23795E+06
         0.70202E+05
        -0.31578E+06
        -0.45332E+06
         0.47219E+06
         0.12020E+06
         0.32543E+06
         0.46676E+06
        -0.13249E+06
        -0.28123E+06
        -0.39882E+06
        -0.47486E+06
        -0.32880E+06
         0.42547E+06
         0.43047E+06
        -0.87031E+05
         0.10347E+06
         0.50066E+06
         0.51300E+05
        -0.24011E+06
         0.33506E+06
        -0.64508E+06
        -0.69587E+06
        -0.59607E+06
        -0.29006E+06
         0.77359E+05
         0.26855E+06
         0.34938E+06
         0.56364E+06
         0.65271E+06
         0.26215E+06
         0.12293E+06
         0.11232E+06
        -0.42463E+05
        -0.36561E+06
        -0.62427E+06
        -0.69941E+06
        -0.49604E+06
         0.13722E+06
         0.31810E+06
         0.33594E+06
         0.52982E+06
         0.67470E+06
         0.42376E+06
         0.40502E+06
        -0.29241E+06
         0.85985E+05
        -0.15722E+06
        -0.18449E+06
         0.47831E+06
         0.33292E+06
         0.21556E+06
        -0.34368E+06
        -0.21934E+06
        -0.34102E+06
         0.77079E+05
        -0.16849E+06
        -0.52142E+06
         0.18396E+06
         0.38128E+06
        -0.35464E+06
         0.16026E+06
         0.84827E+05
         0.17814E+06
         0.83110E+05
         0.27982E+06
         0.20782E+06
        -0.12523E+06
         0.17638E+06
         0.22796E+06
        -0.72819E+05
         0.49603E+05
        -0.21574E+05
        -0.94227E+05
        -0.33363E+06
        -0.37042E+06
        -0.12303E+06
         0.26767E+06
         0.23823E+06
         0.69401E+05
        -0.31600E+06
        -0.45334E+06
         0.47233E+06
         0.12103E+06
         0.32603E+06
         0.46694E+06
        -0.13174E+06
        -0.28130E+06
        -0.39920E+06
        -0.47497E+06
        -0.32866E+06
         0.42538E+06
         0.43048E+06
        -0.86249E+05
         0.10331E+06
         0.50061E+06
         0.50392E+05
        -0.23995E+06
         0.33513E+06
        -0.64515E+06
        -0.69587E+06
        -0.59599E+06
        -0.29005E+06
         0.77469E+05
         0.26876E+06
         0.34917E+06
         0.56357E+06
         0.65269E+06
         0.26232E+06
         0.12295E+06
         0.11255E+06
        -0.42070E+05
        -0.36574E+06
        -0.62442E+06
        -0.69945E+06
        -0.49594E+06
         0.13727E+06
         0.31789E+06
         0.33584E+06
         0.52963E+06
         0.67461E+06
         0.42352E+06
         0.40469E+06
        -0.29272E+06
         0.86398E+05
        -0.15735E+06
        -0.18561E+06
         0.47826E+06
         0.33315E+06
         0.21701E+06
        -0.34280E+06
        -0.21938E+06
        -0.34036E+06
         0.74997E+05
        -0.16888E+06
        -0.52150E+06
         0.18429E+06
         0.38083E+06
        -0.35462E+06
         0.16157E+06
         0.84441E+05
         0.17804E+06
         0.82376E+05
         0.28043E+06
         0.20796E+06
        -0.12540E+06
         0.17618E+06
         0.22823E+06
        -0.72693E+05
         0.50378E+05
        -0.21281E+05
        -0.93576E+05
        -0.33374E+06
        -0.37047E+06
        -0.12225E+06
         0.26751E+06
         0.23851E+06
         0.68603E+05
        -0.31622E+06
        -0.45337E+06
         0.47247E+06
         0.12185E+06
         0.32662E+06
         0.46713E+06
        -0.13100E+06
        -0.28138E+06
        -0.39958E+06
        -0.47508E+06
        -0.32852E+06
         0.42530E+06
         0.43049E+06
        -0.85453E+05
         0.10315E+06
         0.50056E+06
         0.49477E+05
        -0.23980E+06
         0.33520E+06
        -0.64521E+06
        -0.69587E+06
        -0.59591E+06
        -0.29004E+06
         0.77576E+05
         0.26896E+06
         0.34896E+06
         0.56350E+06
         0.65267E+06
         0.26249E+06
         0.12297E+06
         0.11277E+06
        -0.41675E+05
        -0.36587E+06
        -0.62457E+06
        -0.69948E+06
        -0.49584E+06
         0.13732E+06
         0.31767E+06
         0.33573E+06
         0.52944E+06
         0.67451E+06
         0.42328E+06
         0.40435E+06
        -0.29303E+06
         0.86822E+05
        -0.15748E+06
        -0.18673E+06
         0.47820E+06
         0.33339E+06
         0.21845E+06
        -0.34191E+06
        -0.21941E+06
        -0.33970E+06
         0.72912E+05
        -0.16927E+06
        -0.52159E+06
         0.18464E+06
         0.38039E+06
        -0.35460E+06
         0.16289E+06
         0.84057E+05
         0.17794E+06
         0.81651E+05
         0.28105E+06
         0.20809E+06
        -0.12556E+06
         0.17597E+06
         0.22848E+06
        -0.72565E+05
         0.51131E+05
        -0.20977E+05
        -0.92911E+05
        -0.33386E+06
        -0.37052E+06
        -0.12148E+06
         0.26734E+06
         0.23880E+06
         0.67797E+05
        -0.31644E+06
        -0.45339E+06
         0.47260E+06
         0.12268E+06
         0.32721E+06
         0.46731E+06
        -0.13026E+06
        -0.28146E+06
        -0.39995E+06
        -0.47518E+06
        -0.32837E+06
         0.42521E+06
         0.43049E+06
        -0.84664E+05
         0.10299E+06
         0.50051E+06
         0.48559E+05
        -0.23964E+06
         0.33527E+06
        -0.64527E+06
        -0.69587E+06
        -0.59583E+06
        -0.29003E+06
         0.77683E+05
         0.26917E+06
         0.34875E+06
         0.56343E+06
         0.65265E+06
         0.26266E+06
         0.12299E+06
         0.11299E+06
        -0.41280E+05
        -0.36600E+06
        -0.62472E+06
        -0.69952E+06
        -0.49574E+06
         0.13736E+06
         0.31746E+06
         0.33562E+06
         0.52926E+06
         0.67442E+06
         0.42304E+06
         0.40402E+06
        -0.29333E+06
         0.87239E+05
        -0.15762E+06
        -0.18784E+06
         0.47815E+06
         0.33362E+06
         0.21991E+06
        -0.34102E+06
        -0.21944E+06
        -0.33902E+06
         0.70825E+05
        -0.16967E+06
        -0.52167E+06
         0.18496E+06
         0.37993E+06
        -0.35458E+06
         0.16420E+06
         0.83671E+05
         0.17784E+06
         0.80931E+05
         0.28166E+06
         0.20822E+06
        -0.12573E+06
         0.17577E+06
         0.22872E+06
        -0.72434E+05
         0.51905E+05
        -0.20656E+05
        -0.92223E+05
        -0.33397E+06
        -0.37056E+06
        -0.12071E+06
         0.26717E+06
         0.23908E+06
         0.66990E+05
        -0.31667E+06
        -0.45341E+06
         0.47273E+06
         0.12351E+06
         0.32781E+06
         0.46749E+06
        -0.12952E+06
        -0.28154E+06
        -0.40033E+06
        -0.47529E+06
        -0.32822E+06
         0.42512E+06
         0.43050E+06
        -0.83878E+05
         0.10283E+06
         0.50046E+06
         0.47647E+05
        -0.23948E+06
         0.33534E+06
        -0.64533E+06
        -0.69587E+06
        -0.59575E+06
        -0.29002E+06
         0.77789E+05
         0.26938E+06
         0.34854E+06
         0.56336E+06
         0.65263E+06
         0.26283E+06
         0.12301E+06
         0.11321E+06
        -0.40887E+05
        -0.36612E+06
        -0.62487E+06
        -0.69956E+06
        -0.49564E+06
         0.13741E+06
         0.31724E+06
         0.33551E+06
         0.52907E+06
         0.67432E+06
         0.42280E+06
         0.40369E+06
        -0.29364E+06
         0.87655E+05
        -0.15774E+06
        -0.18896E+06
         0.47810E+06
         0.33385E+06
         0.22135E+06
        -0.34013E+06
        -0.21945E+06
        -0.33831E+06
         0.68738E+05
        -0.17006E+06
        -0.52175E+06
         0.18530E+06
         0.37948E+06
        -0.35456E+06
         0.16553E+06
         0.83283E+05
         0.17776E+06
         0.80245E+05
         0.28227E+06
         0.20834E+06
        -0.12590E+06
         0.17556E+06
         0.22893E+06
        -0.72310E+05
         0.52674E+05
        -0.20313E+05
        -0.91527E+05
        -0.33410E+06
        -0.37060E+06
        -0.11993E+06
         0.26698E+06
         0.23937E+06
         0.66185E+05
        -0.31689E+06
        -0.45344E+06
         0.47285E+06
         0.12437E+06
         0.32840E+06
         0.46768E+06
        -0.12879E+06
        -0.28163E+06
        -0.40071E+06
        -0.47539E+06
        -0.32807E+06
         0.42504E+06
         0.43051E+06
        -0.83093E+05
         0.10267E+06
         0.50041E+06
         0.46733E+05
        -0.23933E+06
         0.33541E+06
        -0.64539E+06
        -0.69587E+06
        -0.59567E+06
        -0.29002E+06
         0.77896E+05
         0.26958E+06
         0.34833E+06
         0.56330E+06
         0.65261E+06
         0.26299E+06
         0.12301E+06
         0.11342E+06
        -0.40495E+05
        -0.36625E+06
        -0.62502E+06
        -0.69959E+06
        -0.49554E+06
         0.13745E+06
         0.31703E+06
         0.33540E+06
         0.52889E+06
         0.67422E+06
         0.42256E+06
         0.40335E+06
        -0.29395E+06
         0.88069E+05
        -0.15787E+06
        -0.19008E+06
         0.47804E+06
         0.33408E+06
         0.22280E+06
        -0.33923E+06
        -0.21945E+06
        -0.33757E+06
         0.66655E+05
        -0.17045E+06
        -0.52184E+06
         0.18565E+06
         0.37902E+06
        -0.35454E+06
         0.16688E+06
         0.82896E+05
         0.17767E+06
         0.79580E+05
         0.28288E+06
         0.20847E+06
        -0.12607E+06
         0.17536E+06
         0.22910E+06
        -0.72176E+05
         0.53477E+05
        -0.19942E+05
        -0.90817E+05
        -0.33423E+06
        -0.37064E+06
        -0.11916E+06
         0.26677E+06
         0.23965E+06
         0.65373E+05
        -0.31711E+06
        -0.45346E+06
         0.47296E+06
         0.12526E+06
         0.32900E+06
         0.46787E+06
        -0.12806E+06
        -0.28173E+06
        -0.40108E+06
        -0.47550E+06
        -0.32793E+06
         0.42495E+06
         0.43052E+06
        -0.82297E+05
         0.10252E+06
         0.50035E+06
         0.45810E+05
        -0.23917E+06
         0.33548E+06
        -0.64546E+06
        -0.69587E+06
        -0.59560E+06
        -0.29001E+06
         0.78001E+05
         0.26979E+06
         0.34813E+06
         0.56323E+06
         0.65261E+06
         0.26315E+06
         0.12301E+06
         0.11364E+06
        -0.40101E+05
        -0.36637E+06
        -0.62517E+06
        -0.69963E+06
        -0.49544E+06
         0.13750E+06
         0.31682E+06
         0.33529E+06
         0.52870E+06
         0.67413E+06
         0.42233E+06
         0.40302E+06
        -0.29425E+06
         0.88485E+05
        -0.15800E+06
        -0.19118E+06
         0.47799E+06
         0.33431E+06
         0.22425E+06
        -0.33834E+06
        -0.21944E+06
        -0.33683E+06
         0.64585E+05
        -0.17084E+06
        -0.52192E+06
         0.18597E+06
         0.37856E+06
        -0.35452E+06
         0.16822E+06
         0.82514E+05
         0.17757E+06
         0.78936E+05
         0.28350E+06
         0.20859E+06
        -0.12623E+06
         0.17517E+06
         0.22926E+06
        -0.72051E+05
         0.54260E+05
        -0.19552E+05
        -0.90103E+05
        -0.33435E+06
        -0.37069E+06
        -0.11840E+06
         0.26657E+06
         0.23994E+06
         0.64569E+05
        -0.31733E+06
        -0.45348E+06
         0.47306E+06
         0.12615E+06
         0.32959E+06
         0.46806E+06
        -0.12734E+06
        -0.28184E+06
        -0.40145E+06
        -0.47560E+06
        -0.32779E+06
         0.42487E+06
         0.43052E+06
        -0.81509E+05
         0.10235E+06
         0.50030E+06
         0.44891E+05
        -0.23901E+06
         0.33555E+06
        -0.64552E+06
        -0.69587E+06
        -0.59552E+06
        -0.29000E+06
         0.78106E+05
         0.26998E+06
         0.34793E+06
         0.56316E+06
         0.65260E+06
         0.26331E+06
         0.12300E+06
         0.11386E+06
        -0.39707E+05
        -0.36650E+06
        -0.62531E+06
        -0.69967E+06
        -0.49534E+06
         0.13755E+06
         0.31661E+06
         0.33519E+06
         0.52852E+06
         0.67403E+06
         0.42209E+06
         0.40269E+06
        -0.27593E+06
         0.75713E+05
        -0.13357E+06
        -0.15319E+06
         0.43684E+06
         0.28987E+06
         0.15721E+06
        -0.30984E+06
        -0.19225E+06
        -0.30742E+06
         0.45743E+05
        -0.16422E+06
        -0.49404E+06
         0.15465E+06
         0.36400E+06
        -0.32078E+06
         0.12910E+06
         0.80481E+05
         0.14249E+06
         0.63215E+05
         0.27184E+06
         0.19838E+06
        -0.12039E+06
         0.13106E+06
         0.19329E+06
        -0.71150E+05
         0.45763E+05
        -0.17404E+05
        -0.64593E+05
        -0.28107E+06
        -0.32571E+06
        -0.88305E+05
         0.21023E+06
         0.18108E+06
         0.59643E+05
        -0.27771E+06
        -0.41513E+06
         0.45025E+06
         0.11806E+06
         0.30393E+06
         0.44645E+06
        -0.12044E+06
        -0.26926E+06
        -0.37844E+06
        -0.43932E+06
        -0.30858E+06
         0.38329E+06
         0.38293E+06
        -0.69126E+05
         0.89572E+05
         0.46697E+06
         0.39300E+05
        -0.23590E+06
         0.33195E+06
        -0.63889E+06
        -0.68904E+06
        -0.58999E+06
        -0.28742E+06
         0.77475E+05
         0.26687E+06
         0.34322E+06
         0.55638E+06
         0.64503E+06
         0.26065E+06
         0.12143E+06
         0.11266E+06
        -0.38929E+05
        -0.36320E+06
        -0.61996E+06
        -0.69365E+06
        -0.48981E+06
         0.13619E+06
         0.31297E+06
         0.33127E+06
         0.52266E+06
         0.66636E+06
         0.41749E+06
         0.39811E+06
        -0.73921E+05
         0.10573E+05
        -0.17881E+05
        -0.16932E+05
         0.92653E+05
         0.43589E+05
         0.12232E+05
        -0.67825E+05
        -0.30964E+05
        -0.65227E+05
         0.37830E+04
        -0.59767E+05
        -0.14891E+06
         0.18814E+05
         0.13891E+06
        -0.62937E+05
         0.12457E+05
         0.66552E+04
         0.15689E+05
         0.42460E+04
         0.94568E+05
         0.63046E+05
        -0.39444E+05
         0.11963E+05
         0.25335E+05
        -0.50160E+04
         0.56741E+04
        -0.86893E+03
        -0.40732E+04
        -0.36391E+05
        -0.52897E+05
        -0.75922E+04
         0.22366E+05
         0.17073E+05
         0.15259E+05
        -0.43662E+05
        -0.89045E+05
         0.14572E+06
         0.29529E+05
         0.69140E+05
         0.14896E+06
        -0.38047E+05
        -0.91149E+05
        -0.10691E+06
        -0.10133E+06
        -0.87218E+05
         0.73279E+05
         0.66535E+05
        -0.96493E+04
         0.14281E+05
         0.12034E+06
         0.69514E+04
        -0.15126E+06
         0.22088E+06
        -0.43388E+06
        -0.47661E+06
        -0.41658E+06
        -0.20589E+06
         0.54059E+05
         0.17316E+06
         0.21678E+06
         0.36169E+06
         0.42323E+06
         0.17692E+06
         0.78045E+05
         0.72936E+05
        -0.26460E+05
        -0.25603E+06
        -0.44377E+06
        -0.49695E+06
        -0.32577E+06
         0.92226E+05
         0.20903E+06
         0.21881E+06
         0.35088E+06
         0.44180E+06
         0.28413E+06
         0.26905E+06
  
SCALARS                      strain_xx  double 1
LOOKUP_TABLE default
         0.19370E-05
         0.91081E-04
         0.10288E-02
         0.51697E-05
        -0.33850E-19
        -0.42556E-20
        -0.47582E-19
        -0.18979E-20
         0.78432E-02
         0.35688E-02
        -0.42569E-18
        -0.34538E-18
         0.13138E-04
         0.21806E-03
        -0.64753E-20
        -0.14210E-18
         0.10951E-04
         0.20175E-03
        -0.74143E-19
        -0.16446E-18
         0.40542E-03
         0.10917E-02
         0.10646E-02
        -0.73330E-19
        -0.15593E-19
        -0.47593E-19
         0.12205E-02
         0.74311E-03
        -0.25694E-18
        -0.16168E-18
         0.59776E-04
         0.27412E-03
         0.28942E-05
        -0.26634E-20
        -0.39775E-19
        -0.15096E-19
         0.50447E-03
         0.10652E-03
        -0.87674E-19
        -0.99394E-19
         0.19306E-02
         0.35974E-02
        -0.44610E-18
        -0.24261E-18
         0.23497E-02
         0.68448E-03
        -0.53799E-18
        -0.12464E-18
         0.15891E-03
        -0.49109E-19
         0.11220E-02
        -0.38053E-20
         0.15751E-03
        -0.18751E-18
         0.85725E-04
        -0.13120E-19
         0.16417E-02
         0.13486E-03
        -0.96283E-20
        -0.56254E-19
         0.68054E-06
         0.50366E-03
        -0.38516E-19
        -0.18112E-19
         0.35544E-04
        -0.38970E-21
         0.38537E-03
        -0.16860E-19
         0.15259E-01
         0.71004E-02
        -0.65866E-18
        -0.34646E-18
         0.28769E-02
        -0.18369E-18
         0.12335E-03
        -0.87899E-19
         0.11906E-02
        -0.33858E-20
         0.53904E-02
        -0.81496E-20
         0.98188E-02
         0.51539E-02
        -0.10945E-18
        -0.14316E-18
         0.43518E-02
        -0.16558E-18
         0.34506E-02
        -0.34323E-18
         0.12942E-02
        -0.13963E-18
         0.31190E-02
         0.16613E-02
        -0.25434E-19
        -0.47832E-19
         0.88477E-04
        -0.65811E-19
         0.67567E-03
        -0.11603E-19
         0.38485E-02
        -0.70754E-19
         0.83736E-02
         0.39927E-02
        -0.37616E-18
        -0.40960E-18
         0.46908E-01
         0.59444E-01
        -0.12843E-17
        -0.12473E-17
         0.45726E-01
        -0.93732E-18
         0.39460E-01
        -0.52347E-18
         0.19560E-01
        -0.15809E-18
         0.94802E-02
        -0.18077E-20
         0.11978E-02
        -0.22932E-19
         0.18855E-02
        -0.14679E-19
         0.10679E-01
        -0.14180E-19
         0.23616E-01
        -0.72112E-19
         0.45262E-01
        -0.26101E-18
         0.74165E-01
        -0.37168E-18
         0.93451E-01
        -0.33089E-18
         0.90155E-01
        -0.39127E-18
         0.80345E-01
        -0.65906E-18
         0.67530E-01
        -0.91644E-18
         0.52454E-01
        -0.79195E-18
         0.30189E-01
        -0.52307E-18
         0.97085E-02
        -0.11657E-18
         0.69670E-04
        -0.42506E-20
         0.30770E-02
        -0.25055E-19
         0.76830E-02
        -0.66996E-19
         0.16828E-01
        -0.25660E-18
         0.29268E-01
        -0.69093E-18
         0.51807E-01
        -0.99734E-18
         0.70554E-01
        -0.10434E-17
        -0.23453E-05
        -0.62964E-06
        -0.86778E-06
        -0.35598E-05
        -0.52095E-04
        -0.31591E-04
        -0.70779E-06
        -0.15419E-05
        -0.41721E-06
        -0.13083E-05
        -0.38337E-06
        -0.71647E-05
        -0.31556E-04
        -0.32299E-05
        -0.46488E-05
        -0.63018E-05
        -0.44287E-05
        -0.95722E-06
        -0.22776E-05
        -0.26450E-05
        -0.78657E-04
        -0.89486E-04
        -0.72511E-04
        -0.70138E-05
        -0.11347E-05
        -0.62978E-06
        -0.64279E-05
        -0.80908E-07
        -0.83924E-05
        -0.40225E-05
        -0.50181E-05
        -0.19099E-06
        -0.11142E-05
        -0.11563E-06
        -0.11158E-03
        -0.45892E-04
        -0.37805E-04
        -0.18403E-04
        -0.59650E-05
        -0.26959E-04
        -0.11308E-03
        -0.10046E-03
        -0.99705E-04
        -0.53749E-04
        -0.27410E-04
        -0.16480E-04
        -0.59022E-06
        -0.10445E-04
        -0.87266E-06
        -0.86740E-05
        -0.61125E-04
        -0.44096E-04
        -0.92027E-03
        -0.10358E-02
        -0.82513E-03
        -0.60016E-03
        -0.33257E-03
        -0.85429E-04
        -0.29711E-06
        -0.42610E-04
        -0.99066E-04
        -0.29174E-03
        -0.77079E-03
        -0.11770E-02
        -0.99664E-03
        -0.91975E-03
        -0.10332E-02
        -0.10379E-02
        -0.85667E-03
        -0.65191E-03
        -0.16232E-03
        -0.40889E-05
        -0.61001E-04
        -0.75761E-04
        -0.21688E-03
        -0.54739E-03
        -0.93503E-03
        -0.10384E-02
        -0.14118E-04
        -0.59492E-06
        -0.21562E-05
        -0.18281E-04
        -0.76918E-04
        -0.56173E-04
        -0.47682E-05
        -0.22723E-04
        -0.47973E-05
        -0.20537E-04
        -0.83813E-06
        -0.11157E-04
        -0.12075E-03
        -0.71007E-04
        -0.76184E-04
        -0.54493E-04
        -0.16888E-04
        -0.60585E-05
        -0.27438E-05
        -0.84623E-05
        -0.29793E-03
        -0.27060E-03
        -0.26350E-03
        -0.15415E-04
        -0.49729E-05
        -0.22546E-05
        -0.66305E-04
        -0.11690E-05
        -0.74265E-05
        -0.13811E-04
        -0.32165E-04
        -0.13468E-04
        -0.13531E-04
        -0.10078E-04
        -0.24464E-03
        -0.74521E-04
        -0.98053E-04
        -0.93690E-04
        -0.26263E-05
        -0.22076E-04
        -0.29797E-03
        -0.31529E-03
        -0.30124E-03
        -0.15749E-03
        -0.93396E-04
        -0.31974E-04
        -0.37347E-04
        -0.52052E-04
        -0.90954E-06
        -0.13186E-05
        -0.13854E-03
        -0.10750E-03
        -0.42755E-02
        -0.43420E-02
        -0.34988E-02
        -0.23802E-02
        -0.13252E-02
        -0.28109E-03
        -0.17328E-04
        -0.18192E-03
        -0.31570E-03
        -0.10608E-02
        -0.33468E-02
        -0.46576E-02
        -0.32754E-02
        -0.29646E-02
        -0.35983E-02
        -0.38163E-02
        -0.31792E-02
        -0.28445E-02
        -0.73844E-03
        -0.49885E-04
        -0.24402E-03
        -0.25047E-03
        -0.79173E-03
        -0.23735E-02
        -0.38886E-02
        -0.38641E-02
        -0.14172E-04
        -0.59935E-06
        -0.21644E-05
        -0.18305E-04
        -0.76770E-04
        -0.56069E-04
        -0.48290E-05
        -0.22608E-04
        -0.48078E-05
        -0.20505E-04
        -0.80455E-06
        -0.11211E-04
        -0.12089E-03
        -0.70657E-04
        -0.76103E-04
        -0.54605E-04
        -0.16963E-04
        -0.60251E-05
        -0.27411E-05
        -0.84325E-05
        -0.29787E-03
        -0.27054E-03
        -0.26346E-03
        -0.15417E-04
        -0.49954E-05
        -0.22621E-05
        -0.66345E-04
        -0.11254E-05
        -0.75313E-05
        -0.13828E-04
        -0.32259E-04
        -0.13465E-04
        -0.13418E-04
        -0.10088E-04
        -0.24489E-03
        -0.74453E-04
        -0.97991E-04
        -0.93991E-04
        -0.26768E-05
        -0.22216E-04
        -0.29834E-03
        -0.31565E-03
        -0.30127E-03
        -0.15744E-03
        -0.93329E-04
        -0.31941E-04
        -0.37333E-04
        -0.52087E-04
        -0.89630E-06
        -0.13096E-05
        -0.13836E-03
        -0.10718E-03
        -0.42725E-02
        -0.43397E-02
        -0.34981E-02
        -0.23802E-02
        -0.13243E-02
        -0.28093E-03
        -0.17367E-04
        -0.18215E-03
        -0.31517E-03
        -0.10600E-02
        -0.33457E-02
        -0.46578E-02
        -0.32748E-02
        -0.29643E-02
        -0.35992E-02
        -0.38180E-02
        -0.31803E-02
        -0.28456E-02
        -0.73803E-03
        -0.49931E-04
        -0.24367E-03
        -0.25027E-03
        -0.79056E-03
        -0.23706E-02
        -0.38847E-02
        -0.38607E-02
        -0.14225E-04
        -0.60372E-06
        -0.21725E-05
        -0.18330E-04
        -0.76618E-04
        -0.55968E-04
        -0.48905E-05
        -0.22493E-04
        -0.48177E-05
        -0.20470E-04
        -0.77172E-06
        -0.11266E-04
        -0.12104E-03
        -0.70309E-04
        -0.76022E-04
        -0.54722E-04
        -0.17038E-04
        -0.59913E-05
        -0.27384E-05
        -0.84039E-05
        -0.29782E-03
        -0.27048E-03
        -0.26343E-03
        -0.15418E-04
        -0.50194E-05
        -0.22703E-05
        -0.66383E-04
        -0.10832E-05
        -0.76374E-05
        -0.13846E-04
        -0.32355E-04
        -0.13462E-04
        -0.13305E-04
        -0.10097E-04
        -0.24514E-03
        -0.74389E-04
        -0.97927E-04
        -0.94291E-04
        -0.27278E-05
        -0.22357E-04
        -0.29872E-03
        -0.31603E-03
        -0.30132E-03
        -0.15741E-03
        -0.93264E-04
        -0.31910E-04
        -0.37319E-04
        -0.52121E-04
        -0.88285E-06
        -0.13003E-05
        -0.13819E-03
        -0.10687E-03
        -0.42696E-02
        -0.43375E-02
        -0.34975E-02
        -0.23802E-02
        -0.13235E-02
        -0.28076E-03
        -0.17407E-04
        -0.18237E-03
        -0.31464E-03
        -0.10591E-02
        -0.33447E-02
        -0.46580E-02
        -0.32742E-02
        -0.29640E-02
        -0.36001E-02
        -0.38197E-02
        -0.31815E-02
        -0.28467E-02
        -0.73762E-03
        -0.49976E-04
        -0.24331E-03
        -0.25008E-03
        -0.78940E-03
        -0.23677E-02
        -0.38809E-02
        -0.38572E-02
        -0.14279E-04
        -0.60826E-06
        -0.21805E-05
        -0.18354E-04
        -0.76467E-04
        -0.55864E-04
        -0.49516E-05
        -0.22378E-04
        -0.48265E-05
        -0.20430E-04
        -0.73965E-06
        -0.11321E-04
        -0.12119E-03
        -0.69962E-04
        -0.75941E-04
        -0.54848E-04
        -0.17118E-04
        -0.59575E-05
        -0.27361E-05
        -0.83740E-05
        -0.29779E-03
        -0.27044E-03
        -0.26343E-03
        -0.15420E-04
        -0.50480E-05
        -0.22803E-05
        -0.66415E-04
        -0.10431E-05
        -0.77439E-05
        -0.13862E-04
        -0.32460E-04
        -0.13465E-04
        -0.13193E-04
        -0.10106E-04
        -0.24537E-03
        -0.74322E-04
        -0.97863E-04
        -0.94592E-04
        -0.27792E-05
        -0.22497E-04
        -0.29911E-03
        -0.31642E-03
        -0.30140E-03
        -0.15738E-03
        -0.93191E-04
        -0.31876E-04
        -0.37308E-04
        -0.52157E-04
        -0.86946E-06
        -0.12911E-05
        -0.13800E-03
        -0.10655E-03
        -0.42667E-02
        -0.43352E-02
        -0.34969E-02
        -0.23803E-02
        -0.13227E-02
        -0.28058E-03
        -0.17447E-04
        -0.18260E-03
        -0.31411E-03
        -0.10583E-02
        -0.33437E-02
        -0.46583E-02
        -0.32737E-02
        -0.29637E-02
        -0.36011E-02
        -0.38217E-02
        -0.31827E-02
        -0.28478E-02
        -0.73721E-03
        -0.50022E-04
        -0.24295E-03
        -0.24988E-03
        -0.78824E-03
        -0.23648E-02
        -0.38770E-02
        -0.38538E-02
        -0.14333E-04
        -0.61281E-06
        -0.21886E-05
        -0.18378E-04
        -0.76320E-04
        -0.55761E-04
        -0.50140E-05
        -0.22263E-04
        -0.48339E-05
        -0.20383E-04
        -0.70820E-06
        -0.11376E-04
        -0.12133E-03
        -0.69616E-04
        -0.75859E-04
        -0.54984E-04
        -0.17201E-04
        -0.59238E-05
        -0.27331E-05
        -0.83438E-05
        -0.29777E-03
        -0.27041E-03
        -0.26345E-03
        -0.15422E-04
        -0.50813E-05
        -0.22919E-05
        -0.66443E-04
        -0.10050E-05
        -0.78508E-05
        -0.13877E-04
        -0.32571E-04
        -0.13472E-04
        -0.13080E-04
        -0.10115E-04
        -0.24562E-03
        -0.74255E-04
        -0.97802E-04
        -0.94892E-04
        -0.28308E-05
        -0.22639E-04
        -0.29951E-03
        -0.31685E-03
        -0.30151E-03
        -0.15736E-03
        -0.93116E-04
        -0.31839E-04
        -0.37300E-04
        -0.52196E-04
        -0.85626E-06
        -0.12820E-05
        -0.13783E-03
        -0.10624E-03
        -0.42637E-02
        -0.43330E-02
        -0.34963E-02
        -0.23803E-02
        -0.13219E-02
        -0.28042E-03
        -0.17486E-04
        -0.18282E-03
        -0.31358E-03
        -0.10574E-02
        -0.33426E-02
        -0.46586E-02
        -0.32734E-02
        -0.29635E-02
        -0.36023E-02
        -0.38239E-02
        -0.31841E-02
        -0.28489E-02
        -0.73680E-03
        -0.50068E-04
        -0.24260E-03
        -0.24969E-03
        -0.78708E-03
        -0.23619E-02
        -0.38731E-02
        -0.38503E-02
        -0.14384E-04
        -0.61777E-06
        -0.21958E-05
        -0.18401E-04
        -0.76170E-04
        -0.55658E-04
        -0.50766E-05
        -0.22146E-04
        -0.48411E-05
        -0.20335E-04
        -0.67741E-06
        -0.11431E-04
        -0.12148E-03
        -0.69269E-04
        -0.75776E-04
        -0.55123E-04
        -0.17284E-04
        -0.58900E-05
        -0.27300E-05
        -0.83151E-05
        -0.29777E-03
        -0.27039E-03
        -0.26350E-03
        -0.15424E-04
        -0.51145E-05
        -0.23038E-05
        -0.66468E-04
        -0.96783E-06
        -0.79592E-05
        -0.13895E-04
        -0.32682E-04
        -0.13478E-04
        -0.12967E-04
        -0.10123E-04
        -0.24588E-03
        -0.74196E-04
        -0.97745E-04
        -0.95191E-04
        -0.28830E-05
        -0.22782E-04
        -0.29992E-03
        -0.31728E-03
        -0.30165E-03
        -0.15734E-03
        -0.93049E-04
        -0.31807E-04
        -0.37289E-04
        -0.52234E-04
        -0.84278E-06
        -0.12737E-05
        -0.13766E-03
        -0.10593E-03
        -0.42608E-02
        -0.43308E-02
        -0.34956E-02
        -0.23803E-02
        -0.13211E-02
        -0.28025E-03
        -0.17525E-04
        -0.18305E-03
        -0.31305E-03
        -0.10566E-02
        -0.33416E-02
        -0.46590E-02
        -0.32732E-02
        -0.29633E-02
        -0.36034E-02
        -0.38262E-02
        -0.31856E-02
        -0.28500E-02
        -0.73638E-03
        -0.50108E-04
        -0.24224E-03
        -0.24949E-03
        -0.78592E-03
        -0.23590E-02
        -0.38693E-02
        -0.38469E-02
        -0.14431E-04
        -0.62375E-06
        -0.22013E-05
        -0.18424E-04
        -0.76025E-04
        -0.55558E-04
        -0.51409E-05
        -0.22026E-04
        -0.48487E-05
        -0.20290E-04
        -0.64716E-06
        -0.11487E-04
        -0.12163E-03
        -0.68923E-04
        -0.75692E-04
        -0.55262E-04
        -0.17364E-04
        -0.58561E-05
        -0.27275E-05
        -0.82870E-05
        -0.29776E-03
        -0.27038E-03
        -0.26355E-03
        -0.15428E-04
        -0.51440E-05
        -0.23143E-05
        -0.66496E-04
        -0.93052E-06
        -0.80693E-05
        -0.13916E-04
        -0.32787E-04
        -0.13479E-04
        -0.12851E-04
        -0.10128E-04
        -0.24613E-03
        -0.74141E-04
        -0.97692E-04
        -0.95490E-04
        -0.29360E-05
        -0.22928E-04
        -0.30034E-03
        -0.31772E-03
        -0.30180E-03
        -0.15733E-03
        -0.92988E-04
        -0.31779E-04
        -0.37272E-04
        -0.52269E-04
        -0.82828E-06
        -0.12673E-05
        -0.13752E-03
        -0.10562E-03
        -0.42579E-02
        -0.43286E-02
        -0.34950E-02
        -0.23803E-02
        -0.13203E-02
        -0.28008E-03
        -0.17564E-04
        -0.18327E-03
        -0.31252E-03
        -0.10557E-02
        -0.33405E-02
        -0.46594E-02
        -0.32729E-02
        -0.29631E-02
        -0.36046E-02
        -0.38286E-02
        -0.31870E-02
        -0.28510E-02
        -0.73596E-03
        -0.50142E-04
        -0.24186E-03
        -0.24930E-03
        -0.78480E-03
        -0.23561E-02
        -0.38655E-02
        -0.38435E-02
        -0.14477E-04
        -0.63007E-06
        -0.22061E-05
        -0.18446E-04
        -0.75885E-04
        -0.55454E-04
        -0.52063E-05
        -0.21906E-04
        -0.48566E-05
        -0.20246E-04
        -0.61753E-06
        -0.11542E-04
        -0.12178E-03
        -0.68577E-04
        -0.75608E-04
        -0.55401E-04
        -0.17443E-04
        -0.58221E-05
        -0.27246E-05
        -0.82607E-05
        -0.29775E-03
        -0.27036E-03
        -0.26359E-03
        -0.15431E-04
        -0.51716E-05
        -0.23243E-05
        -0.66525E-04
        -0.89372E-06
        -0.81817E-05
        -0.13938E-04
        -0.32889E-04
        -0.13477E-04
        -0.12735E-04
        -0.10133E-04
        -0.24640E-03
        -0.74093E-04
        -0.97645E-04
        -0.95788E-04
        -0.29895E-05
        -0.23074E-04
        -0.30075E-03
        -0.31818E-03
        -0.30194E-03
        -0.15733E-03
        -0.92932E-04
        -0.31755E-04
        -0.37253E-04
        -0.52301E-04
        -0.81345E-06
        -0.12618E-05
        -0.13737E-03
        -0.10532E-03
        -0.42550E-02
        -0.43263E-02
        -0.34943E-02
        -0.23803E-02
        -0.13194E-02
        -0.27990E-03
        -0.17603E-04
        -0.18350E-03
        -0.31199E-03
        -0.10549E-02
        -0.33394E-02
        -0.46598E-02
        -0.32727E-02
        -0.29629E-02
        -0.36057E-02
        -0.38309E-02
        -0.31885E-02
        -0.28520E-02
        -0.73553E-03
        -0.50174E-04
        -0.24148E-03
        -0.24911E-03
        -0.78369E-03
        -0.23533E-02
        -0.38616E-02
        -0.38400E-02
        -0.14522E-04
        -0.63649E-06
        -0.22108E-05
        -0.18468E-04
        -0.75742E-04
        -0.55351E-04
        -0.52717E-05
        -0.21786E-04
        -0.48647E-05
        -0.20204E-04
        -0.58870E-06
        -0.11598E-04
        -0.12194E-03
        -0.68235E-04
        -0.75524E-04
        -0.55539E-04
        -0.17521E-04
        -0.57884E-05
        -0.27217E-05
        -0.82333E-05
        -0.29774E-03
        -0.27034E-03
        -0.26364E-03
        -0.15435E-04
        -0.51992E-05
        -0.23341E-05
        -0.66556E-04
        -0.85773E-06
        -0.82947E-05
        -0.13960E-04
        -0.32992E-04
        -0.13475E-04
        -0.12620E-04
        -0.10138E-04
        -0.24668E-03
        -0.74040E-04
        -0.97598E-04
        -0.96087E-04
        -0.30437E-05
        -0.23220E-04
        -0.30117E-03
        -0.31862E-03
        -0.30209E-03
        -0.15733E-03
        -0.92880E-04
        -0.31731E-04
        -0.37234E-04
        -0.52334E-04
        -0.79873E-06
        -0.12565E-05
        -0.13723E-03
        -0.10502E-03
        -0.42520E-02
        -0.43241E-02
        -0.34936E-02
        -0.23803E-02
        -0.13186E-02
        -0.27973E-03
        -0.17641E-04
        -0.18372E-03
        -0.31147E-03
        -0.10541E-02
        -0.33383E-02
        -0.46601E-02
        -0.32724E-02
        -0.29627E-02
        -0.36069E-02
        -0.38333E-02
        -0.31899E-02
        -0.28530E-02
        -0.73509E-03
        -0.50206E-04
        -0.24111E-03
        -0.24891E-03
        -0.78257E-03
        -0.23504E-02
        -0.38578E-02
        -0.38366E-02
        -0.14567E-04
        -0.64302E-06
        -0.22155E-05
        -0.18491E-04
        -0.75599E-04
        -0.55249E-04
        -0.53379E-05
        -0.21667E-04
        -0.48727E-05
        -0.20161E-04
        -0.56054E-06
        -0.11653E-04
        -0.12209E-03
        -0.67893E-04
        -0.75440E-04
        -0.55677E-04
        -0.17600E-04
        -0.57551E-05
        -0.27187E-05
        -0.82069E-05
        -0.29773E-03
        -0.27032E-03
        -0.26368E-03
        -0.15440E-04
        -0.52269E-05
        -0.23439E-05
        -0.66587E-04
        -0.82267E-06
        -0.84081E-05
        -0.13982E-04
        -0.33094E-04
        -0.13473E-04
        -0.12505E-04
        -0.10143E-04
        -0.24694E-03
        -0.73993E-04
        -0.97552E-04
        -0.96386E-04
        -0.30984E-05
        -0.23369E-04
        -0.30159E-03
        -0.31907E-03
        -0.30223E-03
        -0.15733E-03
        -0.92825E-04
        -0.31705E-04
        -0.37215E-04
        -0.52368E-04
        -0.78427E-06
        -0.12508E-05
        -0.13708E-03
        -0.10471E-03
        -0.42491E-02
        -0.43219E-02
        -0.34930E-02
        -0.23803E-02
        -0.13178E-02
        -0.27956E-03
        -0.17680E-04
        -0.18394E-03
        -0.31094E-03
        -0.10532E-02
        -0.33372E-02
        -0.46605E-02
        -0.32722E-02
        -0.29625E-02
        -0.36081E-02
        -0.38356E-02
        -0.31914E-02
        -0.28540E-02
        -0.73467E-03
        -0.50237E-04
        -0.24073E-03
        -0.24872E-03
        -0.78145E-03
        -0.23476E-02
        -0.38540E-02
        -0.38332E-02
        -0.14613E-04
        -0.64952E-06
        -0.22204E-05
        -0.18513E-04
        -0.75460E-04
        -0.55149E-04
        -0.54039E-05
        -0.21547E-04
        -0.48807E-05
        -0.20119E-04
        -0.53303E-06
        -0.11710E-04
        -0.12224E-03
        -0.67553E-04
        -0.75354E-04
        -0.55815E-04
        -0.17679E-04
        -0.57219E-05
        -0.27164E-05
        -0.81793E-05
        -0.29772E-03
        -0.27031E-03
        -0.26373E-03
        -0.15444E-04
        -0.52543E-05
        -0.23537E-05
        -0.66619E-04
        -0.78832E-06
        -0.85221E-05
        -0.14003E-04
        -0.33196E-04
        -0.13471E-04
        -0.12391E-04
        -0.10148E-04
        -0.24721E-03
        -0.73941E-04
        -0.97506E-04
        -0.96685E-04
        -0.31538E-05
        -0.23515E-04
        -0.30200E-03
        -0.31952E-03
        -0.30238E-03
        -0.15733E-03
        -0.92770E-04
        -0.31683E-04
        -0.37195E-04
        -0.52401E-04
        -0.76980E-06
        -0.12453E-05
        -0.13695E-03
        -0.10441E-03
        -0.42461E-02
        -0.43197E-02
        -0.34923E-02
        -0.23803E-02
        -0.13170E-02
        -0.27939E-03
        -0.17717E-04
        -0.18416E-03
        -0.31042E-03
        -0.10524E-02
        -0.33361E-02
        -0.46609E-02
        -0.32719E-02
        -0.29623E-02
        -0.36092E-02
        -0.38380E-02
        -0.31928E-02
        -0.28549E-02
        -0.73424E-03
        -0.50267E-04
        -0.24035E-03
        -0.24852E-03
        -0.78033E-03
        -0.23447E-02
        -0.38502E-02
        -0.38298E-02
        -0.14658E-04
        -0.65603E-06
        -0.22250E-05
        -0.18535E-04
        -0.75318E-04
        -0.55047E-04
        -0.54707E-05
        -0.21428E-04
        -0.48886E-05
        -0.20076E-04
        -0.50629E-06
        -0.11766E-04
        -0.12239E-03
        -0.67215E-04
        -0.75269E-04
        -0.55953E-04
        -0.17758E-04
        -0.56885E-05
        -0.27136E-05
        -0.81530E-05
        -0.29771E-03
        -0.27029E-03
        -0.26378E-03
        -0.15448E-04
        -0.52817E-05
        -0.23638E-05
        -0.66650E-04
        -0.75485E-06
        -0.86358E-05
        -0.14026E-04
        -0.33299E-04
        -0.13469E-04
        -0.12277E-04
        -0.10153E-04
        -0.24748E-03
        -0.73891E-04
        -0.97458E-04
        -0.96983E-04
        -0.32097E-05
        -0.23665E-04
        -0.30242E-03
        -0.31996E-03
        -0.30252E-03
        -0.15733E-03
        -0.92715E-04
        -0.31660E-04
        -0.37176E-04
        -0.52435E-04
        -0.75545E-06
        -0.12400E-05
        -0.13680E-03
        -0.10411E-03
        -0.42432E-02
        -0.43175E-02
        -0.34916E-02
        -0.23803E-02
        -0.13162E-02
        -0.27922E-03
        -0.17755E-04
        -0.18438E-03
        -0.30989E-03
        -0.10516E-02
        -0.33350E-02
        -0.46613E-02
        -0.32716E-02
        -0.29621E-02
        -0.36104E-02
        -0.38403E-02
        -0.31942E-02
        -0.28559E-02
        -0.73381E-03
        -0.50298E-04
        -0.23997E-03
        -0.24833E-03
        -0.77922E-03
        -0.23419E-02
        -0.38464E-02
        -0.38264E-02
        -0.14704E-04
        -0.66266E-06
        -0.22296E-05
        -0.18557E-04
        -0.75176E-04
        -0.54944E-04
        -0.55378E-05
        -0.21310E-04
        -0.48963E-05
        -0.20033E-04
        -0.48031E-06
        -0.11822E-04
        -0.12255E-03
        -0.66877E-04
        -0.75183E-04
        -0.56091E-04
        -0.17838E-04
        -0.56552E-05
        -0.27109E-05
        -0.81259E-05
        -0.29770E-03
        -0.27028E-03
        -0.26382E-03
        -0.15453E-04
        -0.53088E-05
        -0.23737E-05
        -0.66681E-04
        -0.72204E-06
        -0.87512E-05
        -0.14048E-04
        -0.33402E-04
        -0.13467E-04
        -0.12163E-04
        -0.10158E-04
        -0.24775E-03
        -0.73845E-04
        -0.97413E-04
        -0.97280E-04
        -0.32663E-05
        -0.23814E-04
        -0.30284E-03
        -0.32041E-03
        -0.30267E-03
        -0.15733E-03
        -0.92664E-04
        -0.31632E-04
        -0.37156E-04
        -0.52468E-04
        -0.74116E-06
        -0.12345E-05
        -0.13666E-03
        -0.10381E-03
        -0.42403E-02
        -0.43153E-02
        -0.34910E-02
        -0.23803E-02
        -0.13154E-02
        -0.27905E-03
        -0.17794E-04
        -0.18460E-03
        -0.30936E-03
        -0.10507E-02
        -0.33339E-02
        -0.46616E-02
        -0.32714E-02
        -0.29619E-02
        -0.36116E-02
        -0.38427E-02
        -0.31957E-02
        -0.28569E-02
        -0.73338E-03
        -0.50329E-04
        -0.23959E-03
        -0.24814E-03
        -0.77811E-03
        -0.23391E-02
        -0.38426E-02
        -0.38230E-02
        -0.14750E-04
        -0.66920E-06
        -0.22342E-05
        -0.18578E-04
        -0.75038E-04
        -0.54842E-04
        -0.56045E-05
        -0.21192E-04
        -0.49041E-05
        -0.19989E-04
        -0.45506E-06
        -0.11879E-04
        -0.12270E-03
        -0.66540E-04
        -0.75097E-04
        -0.56229E-04
        -0.17917E-04
        -0.56222E-05
        -0.27087E-05
        -0.80997E-05
        -0.29769E-03
        -0.27026E-03
        -0.26387E-03
        -0.15458E-04
        -0.53359E-05
        -0.23835E-05
        -0.66709E-04
        -0.69016E-06
        -0.88673E-05
        -0.14069E-04
        -0.33505E-04
        -0.13465E-04
        -0.12050E-04
        -0.10163E-04
        -0.24802E-03
        -0.73795E-04
        -0.97367E-04
        -0.97576E-04
        -0.33234E-05
        -0.23965E-04
        -0.30326E-03
        -0.32085E-03
        -0.30282E-03
        -0.15733E-03
        -0.92609E-04
        -0.31609E-04
        -0.37136E-04
        -0.52501E-04
        -0.72706E-06
        -0.12290E-05
        -0.13652E-03
        -0.10351E-03
        -0.42373E-02
        -0.43131E-02
        -0.34903E-02
        -0.23804E-02
        -0.13146E-02
        -0.27888E-03
        -0.17832E-04
        -0.18481E-03
        -0.30884E-03
        -0.10499E-02
        -0.33328E-02
        -0.46620E-02
        -0.32711E-02
        -0.29617E-02
        -0.36127E-02
        -0.38450E-02
        -0.31972E-02
        -0.28579E-02
        -0.73295E-03
        -0.50358E-04
        -0.23921E-03
        -0.24796E-03
        -0.77699E-03
        -0.23362E-02
        -0.38388E-02
        -0.38196E-02
        -0.14796E-04
        -0.67573E-06
        -0.22388E-05
        -0.18600E-04
        -0.74897E-04
        -0.54739E-04
        -0.56722E-05
        -0.21074E-04
        -0.49119E-05
        -0.19947E-04
        -0.43049E-06
        -0.11936E-04
        -0.12285E-03
        -0.66205E-04
        -0.75010E-04
        -0.56367E-04
        -0.17996E-04
        -0.55893E-05
        -0.27060E-05
        -0.80725E-05
        -0.29769E-03
        -0.27024E-03
        -0.26391E-03
        -0.15462E-04
        -0.53630E-05
        -0.23934E-05
        -0.66739E-04
        -0.65900E-06
        -0.89840E-05
        -0.14091E-04
        -0.33607E-04
        -0.13463E-04
        -0.11937E-04
        -0.10168E-04
        -0.24829E-03
        -0.73749E-04
        -0.97322E-04
        -0.97870E-04
        -0.33810E-05
        -0.24115E-04
        -0.30368E-03
        -0.32129E-03
        -0.30296E-03
        -0.15733E-03
        -0.92553E-04
        -0.31586E-04
        -0.37117E-04
        -0.52535E-04
        -0.71287E-06
        -0.12237E-05
        -0.13637E-03
        -0.10321E-03
        -0.42344E-02
        -0.43110E-02
        -0.34896E-02
        -0.23804E-02
        -0.13137E-02
        -0.27870E-03
        -0.17870E-04
        -0.18503E-03
        -0.30831E-03
        -0.10490E-02
        -0.33318E-02
        -0.46624E-02
        -0.32708E-02
        -0.29615E-02
        -0.36139E-02
        -0.38474E-02
        -0.31986E-02
        -0.28589E-02
        -0.73253E-03
        -0.50387E-04
        -0.23883E-03
        -0.24777E-03
        -0.77588E-03
        -0.23334E-02
        -0.38351E-02
        -0.38162E-02
        -0.14842E-04
        -0.68246E-06
        -0.22434E-05
        -0.18622E-04
        -0.74756E-04
        -0.54641E-04
        -0.57399E-05
        -0.20956E-04
        -0.49197E-05
        -0.19904E-04
        -0.40660E-06
        -0.11993E-04
        -0.12301E-03
        -0.65871E-04
        -0.74923E-04
        -0.56505E-04
        -0.18076E-04
        -0.55568E-05
        -0.27033E-05
        -0.80463E-05
        -0.29767E-03
        -0.27022E-03
        -0.26396E-03
        -0.15467E-04
        -0.53897E-05
        -0.24034E-05
        -0.66769E-04
        -0.62859E-06
        -0.91012E-05
        -0.14112E-04
        -0.33710E-04
        -0.13461E-04
        -0.11825E-04
        -0.10172E-04
        -0.24856E-03
        -0.73700E-04
        -0.97276E-04
        -0.98165E-04
        -0.34395E-05
        -0.24265E-04
        -0.30409E-03
        -0.32174E-03
        -0.30310E-03
        -0.15732E-03
        -0.92502E-04
        -0.31561E-04
        -0.37097E-04
        -0.52568E-04
        -0.69897E-06
        -0.12182E-05
        -0.13623E-03
        -0.10291E-03
        -0.42314E-02
        -0.43088E-02
        -0.34889E-02
        -0.23804E-02
        -0.13129E-02
        -0.27853E-03
        -0.17907E-04
        -0.18524E-03
        -0.30779E-03
        -0.10482E-02
        -0.33307E-02
        -0.46628E-02
        -0.32706E-02
        -0.29613E-02
        -0.36150E-02
        -0.38497E-02
        -0.32001E-02
        -0.28598E-02
        -0.73210E-03
        -0.50417E-04
        -0.23845E-03
        -0.24758E-03
        -0.77477E-03
        -0.23305E-02
        -0.38313E-02
        -0.38127E-02
        -0.14888E-04
        -0.68912E-06
        -0.22481E-05
        -0.18644E-04
        -0.74619E-04
        -0.54539E-04
        -0.58082E-05
        -0.20838E-04
        -0.49272E-05
        -0.19859E-04
        -0.38340E-06
        -0.12050E-04
        -0.12316E-03
        -0.65537E-04
        -0.74834E-04
        -0.56645E-04
        -0.18156E-04
        -0.55244E-05
        -0.27008E-05
        -0.80193E-05
        -0.29767E-03
        -0.27020E-03
        -0.26400E-03
        -0.15472E-04
        -0.54159E-05
        -0.24132E-05
        -0.66795E-04
        -0.59862E-06
        -0.92181E-05
        -0.14133E-04
        -0.33814E-04
        -0.13459E-04
        -0.11714E-04
        -0.10178E-04
        -0.24884E-03
        -0.73650E-04
        -0.97229E-04
        -0.98458E-04
        -0.34990E-05
        -0.24418E-04
        -0.30449E-03
        -0.32217E-03
        -0.30324E-03
        -0.15733E-03
        -0.92446E-04
        -0.31537E-04
        -0.37078E-04
        -0.52603E-04
        -0.68526E-06
        -0.12127E-05
        -0.13609E-03
        -0.10261E-03
        -0.42285E-02
        -0.43066E-02
        -0.34883E-02
        -0.23803E-02
        -0.13121E-02
        -0.27836E-03
        -0.17943E-04
        -0.18545E-03
        -0.30727E-03
        -0.10474E-02
        -0.33296E-02
        -0.46633E-02
        -0.32704E-02
        -0.29611E-02
        -0.36162E-02
        -0.38521E-02
        -0.32015E-02
        -0.28608E-02
        -0.73167E-03
        -0.50446E-04
        -0.23808E-03
        -0.24738E-03
        -0.77366E-03
        -0.23277E-02
        -0.38275E-02
        -0.38093E-02
        -0.14934E-04
        -0.69580E-06
        -0.22526E-05
        -0.18665E-04
        -0.74479E-04
        -0.54437E-04
        -0.58765E-05
        -0.20721E-04
        -0.49340E-05
        -0.19810E-04
        -0.36092E-06
        -0.12108E-04
        -0.12331E-03
        -0.65203E-04
        -0.74744E-04
        -0.56783E-04
        -0.18235E-04
        -0.54919E-05
        -0.26989E-05
        -0.79936E-05
        -0.29765E-03
        -0.27018E-03
        -0.26405E-03
        -0.15476E-04
        -0.54405E-05
        -0.24235E-05
        -0.66810E-04
        -0.56866E-06
        -0.93366E-05
        -0.14156E-04
        -0.33917E-04
        -0.13457E-04
        -0.11603E-04
        -0.10183E-04
        -0.24910E-03
        -0.73605E-04
        -0.97184E-04
        -0.98745E-04
        -0.35607E-05
        -0.24568E-04
        -0.30487E-03
        -0.32257E-03
        -0.30336E-03
        -0.15733E-03
        -0.92392E-04
        -0.31512E-04
        -0.37059E-04
        -0.52637E-04
        -0.67172E-06
        -0.12072E-05
        -0.13595E-03
        -0.10231E-03
        -0.42256E-02
        -0.43044E-02
        -0.34876E-02
        -0.23803E-02
        -0.13113E-02
        -0.27819E-03
        -0.17980E-04
        -0.18567E-03
        -0.30676E-03
        -0.10465E-02
        -0.33285E-02
        -0.46640E-02
        -0.32703E-02
        -0.29610E-02
        -0.36173E-02
        -0.38544E-02
        -0.32030E-02
        -0.28618E-02
        -0.73124E-03
        -0.50475E-04
        -0.23770E-03
        -0.24719E-03
        -0.77256E-03
        -0.23249E-02
        -0.38237E-02
        -0.38059E-02
        -0.14980E-04
        -0.70247E-06
        -0.22571E-05
        -0.18687E-04
        -0.74338E-04
        -0.54335E-04
        -0.59455E-05
        -0.20604E-04
        -0.49401E-05
        -0.19756E-04
        -0.33918E-06
        -0.12165E-04
        -0.12347E-03
        -0.64866E-04
        -0.74651E-04
        -0.56921E-04
        -0.18314E-04
        -0.54595E-05
        -0.26965E-05
        -0.79671E-05
        -0.29765E-03
        -0.27015E-03
        -0.26410E-03
        -0.15481E-04
        -0.54631E-05
        -0.24334E-05
        -0.66816E-04
        -0.53860E-06
        -0.94556E-05
        -0.14178E-04
        -0.34021E-04
        -0.13455E-04
        -0.11492E-04
        -0.10188E-04
        -0.24938E-03
        -0.73556E-04
        -0.97140E-04
        -0.99027E-04
        -0.36247E-05
        -0.24719E-04
        -0.30522E-03
        -0.32294E-03
        -0.30347E-03
        -0.15733E-03
        -0.92340E-04
        -0.31489E-04
        -0.37039E-04
        -0.52671E-04
        -0.65816E-06
        -0.12019E-05
        -0.13580E-03
        -0.10201E-03
        -0.42226E-02
        -0.43023E-02
        -0.34869E-02
        -0.23803E-02
        -0.13105E-02
        -0.27802E-03
        -0.18016E-04
        -0.18588E-03
        -0.30625E-03
        -0.10456E-02
        -0.33273E-02
        -0.46649E-02
        -0.32703E-02
        -0.29608E-02
        -0.36185E-02
        -0.38567E-02
        -0.32044E-02
        -0.28627E-02
        -0.73081E-03
        -0.50504E-04
        -0.23733E-03
        -0.24700E-03
        -0.77145E-03
        -0.23220E-02
        -0.38199E-02
        -0.38025E-02
        -0.15027E-04
        -0.70922E-06
        -0.22618E-05
        -0.18708E-04
        -0.74201E-04
        -0.54237E-04
        -0.60141E-05
        -0.20488E-04
        -0.49458E-05
        -0.19701E-04
        -0.31826E-06
        -0.12222E-04
        -0.12362E-03
        -0.64531E-04
        -0.74558E-04
        -0.57060E-04
        -0.18393E-04
        -0.54275E-05
        -0.26939E-05
        -0.79414E-05
        -0.29764E-03
        -0.27013E-03
        -0.26414E-03
        -0.15486E-04
        -0.54851E-05
        -0.24433E-05
        -0.66819E-04
        -0.50926E-06
        -0.95745E-05
        -0.14199E-04
        -0.34125E-04
        -0.13453E-04
        -0.11382E-04
        -0.10193E-04
        -0.24966E-03
        -0.73511E-04
        -0.97093E-04
        -0.99304E-04
        -0.36899E-05
        -0.24867E-04
        -0.30555E-03
        -0.32329E-03
        -0.30357E-03
        -0.15733E-03
        -0.92285E-04
        -0.31466E-04
        -0.37022E-04
        -0.52707E-04
        -0.64489E-06
        -0.11963E-05
        -0.13567E-03
        -0.10171E-03
        -0.42197E-02
        -0.43001E-02
        -0.34862E-02
        -0.23804E-02
        -0.13097E-02
        -0.27784E-03
        -0.18052E-04
        -0.18608E-03
        -0.30575E-03
        -0.10447E-02
        -0.33262E-02
        -0.46659E-02
        -0.32704E-02
        -0.29606E-02
        -0.36196E-02
        -0.38591E-02
        -0.32059E-02
        -0.28637E-02
        -0.73038E-03
        -0.50536E-04
        -0.23696E-03
        -0.24681E-03
        -0.77035E-03
        -0.23192E-02
        -0.38161E-02
        -0.37992E-02
        -0.15212E-04
        -0.72129E-06
        -0.22880E-05
        -0.18899E-04
        -0.74747E-04
        -0.54640E-04
        -0.61325E-05
        -0.20580E-04
        -0.49962E-05
        -0.19843E-04
        -0.30351E-06
        -0.12383E-04
        -0.12491E-03
        -0.64856E-04
        -0.75223E-04
        -0.57709E-04
        -0.18639E-04
        -0.54470E-05
        -0.27151E-05
        -0.79866E-05
        -0.30030E-03
        -0.27259E-03
        -0.26652E-03
        -0.15631E-04
        -0.55572E-05
        -0.24745E-05
        -0.67488E-04
        -0.48726E-06
        -0.97777E-05
        -0.14353E-04
        -0.34536E-04
        -0.13572E-04
        -0.11386E-04
        -0.10294E-04
        -0.25227E-03
        -0.74151E-04
        -0.97945E-04
        -0.10056E-03
        -0.37865E-05
        -0.25246E-04
        -0.30885E-03
        -0.32676E-03
        -0.30653E-03
        -0.15871E-03
        -0.93065E-04
        -0.31728E-04
        -0.37350E-04
        -0.53238E-04
        -0.63908E-06
        -0.12017E-05
        -0.13680E-03
        -0.10237E-03
        -0.42627E-02
        -0.43437E-02
        -0.35233E-02
        -0.24056E-02
        -0.13231E-02
        -0.28069E-03
        -0.18302E-04
        -0.18834E-03
        -0.30873E-03
        -0.10558E-02
        -0.33629E-02
        -0.47176E-02
        -0.33036E-02
        -0.29895E-02
        -0.36559E-02
        -0.38986E-02
        -0.32384E-02
        -0.28940E-02
        -0.73788E-03
        -0.51140E-04
        -0.23913E-03
        -0.24913E-03
        -0.77734E-03
        -0.23406E-02
        -0.38516E-02
        -0.38346E-02
        -0.34286E-04
        -0.16488E-05
        -0.51390E-05
        -0.42698E-04
        -0.15630E-03
        -0.11633E-03
        -0.13958E-04
        -0.45861E-04
        -0.11186E-04
        -0.44068E-04
        -0.64595E-06
        -0.25102E-04
        -0.26033E-03
        -0.14056E-03
        -0.15402E-03
        -0.13020E-03
        -0.41877E-04
        -0.12250E-04
        -0.59643E-05
        -0.17637E-04
        -0.62395E-03
        -0.58124E-03
        -0.55650E-03
        -0.34867E-04
        -0.12595E-04
        -0.56164E-05
        -0.14887E-03
        -0.10668E-05
        -0.22456E-04
        -0.32462E-04
        -0.78006E-04
        -0.30485E-04
        -0.25604E-04
        -0.23276E-04
        -0.50935E-03
        -0.15788E-03
        -0.20875E-03
        -0.21557E-03
        -0.84000E-05
        -0.56084E-04
        -0.66622E-03
        -0.71458E-03
        -0.66864E-03
        -0.33606E-03
        -0.19585E-03
        -0.63131E-04
        -0.78118E-04
        -0.11425E-03
        -0.13659E-05
        -0.25735E-05
        -0.27974E-03
        -0.21673E-03
        -0.68389E-02
        -0.69401E-02
        -0.56384E-02
        -0.38688E-02
        -0.21259E-02
        -0.45372E-03
        -0.30371E-04
        -0.31702E-03
        -0.51709E-03
        -0.17499E-02
        -0.55841E-02
        -0.77924E-02
        -0.55610E-02
        -0.50567E-02
        -0.60276E-02
        -0.62849E-02
        -0.51899E-02
        -0.45968E-02
        -0.11721E-02
        -0.81583E-04
        -0.38795E-03
        -0.40743E-03
        -0.12631E-02
        -0.38293E-02
        -0.62608E-02
        -0.61880E-02
  
SCALARS                      strain_yy  double 1
LOOKUP_TABLE default
         0.71134E-04
         0.74407E-05
         0.52058E-04
         0.14663E-04
        -0.31596E-19
        -0.24003E-20
        -0.48528E-19
        -0.28232E-19
         0.70427E-03
         0.31055E-03
        -0.10748E-18
        -0.83301E-19
         0.49936E-03
         0.12871E-05
        -0.55046E-19
        -0.22627E-21
         0.70194E-04
         0.82119E-03
        -0.11915E-22
        -0.12474E-20
         0.20689E-03
         0.27802E-02
         0.32670E-02
        -0.28925E-18
        -0.86269E-18
        -0.60273E-18
         0.27065E-04
         0.26443E-02
        -0.14967E-18
        -0.56328E-18
         0.91405E-04
         0.64544E-04
         0.53678E-04
        -0.40224E-19
        -0.41917E-19
        -0.18067E-22
         0.77401E-03
         0.65328E-03
        -0.13621E-18
        -0.82453E-19
         0.72053E-03
         0.27096E-03
        -0.77795E-19
        -0.64971E-19
         0.63008E-03
         0.76920E-04
        -0.85605E-22
        -0.20481E-19
         0.44587E-03
        -0.45402E-20
         0.53911E-05
        -0.29783E-22
         0.14097E-05
        -0.67933E-19
         0.60390E-04
        -0.22988E-19
         0.64264E-03
         0.22117E-04
        -0.16919E-22
        -0.69698E-22
         0.13423E-03
         0.17378E-02
        -0.31409E-20
        -0.43944E-19
         0.49796E-04
        -0.12797E-19
         0.88804E-03
        -0.18992E-19
         0.53586E-03
         0.14898E-03
        -0.29005E-21
        -0.50566E-19
         0.17840E-02
        -0.24382E-18
         0.41389E-02
        -0.22858E-18
         0.41550E-02
        -0.13172E-18
         0.28401E-02
        -0.92538E-19
         0.63565E-02
         0.38977E-02
        -0.38081E-19
        -0.18720E-20
         0.82505E-04
        -0.23438E-22
         0.15366E-02
        -0.91976E-19
         0.83009E-02
        -0.28188E-18
         0.15764E-01
         0.59645E-02
        -0.62008E-18
        -0.40624E-18
         0.30069E-02
        -0.24479E-18
         0.24535E-02
        -0.25622E-18
         0.22954E-02
        -0.29621E-18
         0.63288E-02
         0.44249E-02
        -0.25616E-18
        -0.58811E-19
         0.26600E-02
         0.39391E-03
        -0.31671E-19
        -0.48908E-19
         0.15976E-01
        -0.35051E-18
         0.34014E-01
        -0.74996E-18
         0.49103E-01
        -0.11439E-17
         0.62007E-01
        -0.11255E-17
         0.78867E-01
        -0.70484E-18
         0.78150E-01
        -0.42212E-18
         0.68911E-01
        -0.36516E-18
         0.54655E-01
        -0.33055E-18
         0.30792E-01
        -0.13500E-18
         0.15584E-01
        -0.14716E-19
         0.43731E-02
        -0.61443E-20
         0.24063E-04
        -0.13881E-19
         0.44923E-02
        -0.37029E-20
         0.15023E-01
        -0.33866E-19
         0.35928E-01
        -0.26982E-18
         0.41398E-01
        -0.65792E-18
         0.46271E-01
        -0.11308E-17
         0.73740E-01
        -0.11288E-17
         0.82105E-01
        -0.86021E-18
         0.71468E-01
        -0.81706E-18
         0.45777E-01
        -0.82726E-18
         0.21170E-01
        -0.51730E-18
         0.10882E-01
        -0.18089E-18
         0.58063E-02
        -0.10815E-18
        -0.24455E-04
        -0.64797E-05
        -0.49448E-05
        -0.48256E-06
        -0.51248E-05
        -0.58770E-05
        -0.64143E-07
        -0.15306E-04
        -0.11468E-04
        -0.24432E-04
        -0.64701E-05
        -0.11736E-03
        -0.55338E-04
        -0.74464E-06
        -0.12030E-03
        -0.17213E-05
        -0.13482E-05
        -0.56204E-06
        -0.94034E-06
        -0.53938E-06
        -0.45237E-06
        -0.30874E-06
        -0.34605E-05
        -0.24623E-07
        -0.11393E-04
        -0.24888E-06
        -0.65929E-09
        -0.20177E-06
        -0.29414E-06
        -0.69550E-05
        -0.16383E-05
        -0.19033E-05
        -0.86633E-06
        -0.50978E-07
        -0.13357E-06
        -0.39807E-05
        -0.20147E-04
        -0.93457E-04
        -0.77938E-04
        -0.54899E-04
        -0.48174E-04
        -0.30464E-05
        -0.20800E-05
        -0.15608E-04
        -0.42184E-04
        -0.11033E-03
        -0.48319E-04
        -0.25255E-04
        -0.28717E-04
        -0.32013E-04
        -0.43431E-04
        -0.92420E-05
        -0.30832E-04
        -0.45562E-04
        -0.33315E-03
        -0.63928E-03
        -0.10381E-02
        -0.14482E-02
        -0.14454E-02
        -0.11785E-02
        -0.10688E-02
        -0.95378E-03
        -0.39574E-03
        -0.78792E-04
        -0.15405E-04
        -0.30049E-05
        -0.70983E-05
        -0.11152E-03
        -0.37674E-03
        -0.63643E-03
        -0.90287E-03
        -0.11971E-02
        -0.10734E-02
        -0.95877E-03
        -0.82835E-03
        -0.39632E-03
        -0.13738E-03
        -0.10651E-03
        -0.12245E-03
        -0.48709E-04
        -0.41710E-04
        -0.23467E-05
        -0.70362E-04
        -0.14233E-04
        -0.89496E-05
        -0.10938E-03
        -0.47038E-04
        -0.96755E-04
        -0.27045E-04
        -0.50657E-03
        -0.17780E-03
        -0.36716E-05
        -0.49172E-03
        -0.17610E-04
        -0.16173E-05
        -0.14741E-05
        -0.29947E-04
        -0.11194E-05
        -0.22248E-04
        -0.11215E-04
        -0.37694E-05
        -0.26854E-05
        -0.43875E-04
        -0.26843E-05
        -0.16902E-06
        -0.58410E-06
        -0.14904E-05
        -0.43659E-04
        -0.20454E-04
        -0.14193E-05
        -0.85451E-05
        -0.64423E-05
        -0.14647E-05
        -0.13610E-04
        -0.49613E-04
        -0.28402E-03
        -0.22087E-03
        -0.17154E-03
        -0.92578E-04
        -0.56527E-05
        -0.23982E-04
        -0.37419E-04
        -0.62045E-04
        -0.25891E-03
        -0.87663E-04
        -0.38335E-04
        -0.60554E-04
        -0.84392E-04
        -0.90606E-04
        -0.51008E-06
        -0.14080E-03
        -0.28810E-03
        -0.15602E-02
        -0.26056E-02
        -0.43404E-02
        -0.62499E-02
        -0.59965E-02
        -0.45733E-02
        -0.42002E-02
        -0.41115E-02
        -0.16213E-02
        -0.17612E-03
        -0.27965E-04
        -0.20532E-04
        -0.44043E-05
        -0.31694E-03
        -0.12720E-02
        -0.24638E-02
        -0.41731E-02
        -0.51312E-02
        -0.39569E-02
        -0.35368E-02
        -0.35155E-02
        -0.17429E-02
        -0.47034E-03
        -0.42169E-03
        -0.12260E-03
        -0.48727E-04
        -0.41752E-04
        -0.23812E-05
        -0.70378E-04
        -0.14255E-04
        -0.89721E-05
        -0.10975E-03
        -0.47207E-04
        -0.97479E-04
        -0.27077E-04
        -0.50648E-03
        -0.17788E-03
        -0.36718E-05
        -0.49298E-03
        -0.17612E-04
        -0.16468E-05
        -0.14697E-05
        -0.29988E-04
        -0.11069E-05
        -0.22358E-04
        -0.11237E-04
        -0.37712E-05
        -0.26828E-05
        -0.44274E-04
        -0.26745E-05
        -0.17303E-06
        -0.59066E-06
        -0.14708E-05
        -0.43844E-04
        -0.20461E-04
        -0.14131E-05
        -0.85830E-05
        -0.64634E-05
        -0.14373E-05
        -0.13628E-04
        -0.49609E-04
        -0.28489E-03
        -0.22182E-03
        -0.17193E-03
        -0.92721E-04
        -0.56223E-05
        -0.24032E-04
        -0.37457E-04
        -0.62049E-04
        -0.25891E-03
        -0.87681E-04
        -0.38289E-04
        -0.60392E-04
        -0.84166E-04
        -0.90528E-04
        -0.49475E-06
        -0.14054E-03
        -0.28813E-03
        -0.15607E-02
        -0.26057E-02
        -0.43393E-02
        -0.62457E-02
        -0.59915E-02
        -0.45706E-02
        -0.41984E-02
        -0.41092E-02
        -0.16206E-02
        -0.17629E-03
        -0.27960E-04
        -0.20617E-04
        -0.43328E-05
        -0.31727E-03
        -0.12731E-02
        -0.24649E-02
        -0.41730E-02
        -0.51306E-02
        -0.39563E-02
        -0.35365E-02
        -0.35138E-02
        -0.17404E-02
        -0.46930E-03
        -0.42058E-03
        -0.12276E-03
        -0.48746E-04
        -0.41794E-04
        -0.24164E-05
        -0.70394E-04
        -0.14279E-04
        -0.89945E-05
        -0.11012E-03
        -0.47377E-04
        -0.98202E-04
        -0.27110E-04
        -0.50640E-03
        -0.17797E-03
        -0.36710E-05
        -0.49423E-03
        -0.17615E-04
        -0.16770E-05
        -0.14652E-05
        -0.30030E-04
        -0.10944E-05
        -0.22470E-04
        -0.11258E-04
        -0.37741E-05
        -0.26796E-05
        -0.44669E-04
        -0.26634E-05
        -0.17736E-06
        -0.59766E-06
        -0.14495E-05
        -0.44023E-04
        -0.20467E-04
        -0.14056E-05
        -0.86212E-05
        -0.64842E-05
        -0.14100E-05
        -0.13646E-04
        -0.49602E-04
        -0.28577E-03
        -0.22278E-03
        -0.17233E-03
        -0.92871E-04
        -0.55889E-05
        -0.24078E-04
        -0.37506E-04
        -0.62064E-04
        -0.25892E-03
        -0.87697E-04
        -0.38242E-04
        -0.60233E-04
        -0.83940E-04
        -0.90453E-04
        -0.47971E-06
        -0.14028E-03
        -0.28816E-03
        -0.15613E-02
        -0.26057E-02
        -0.43383E-02
        -0.62415E-02
        -0.59865E-02
        -0.45678E-02
        -0.41967E-02
        -0.41070E-02
        -0.16200E-02
        -0.17646E-03
        -0.27957E-04
        -0.20702E-04
        -0.42615E-05
        -0.31762E-03
        -0.12743E-02
        -0.24661E-02
        -0.41729E-02
        -0.51299E-02
        -0.39558E-02
        -0.35362E-02
        -0.35120E-02
        -0.17379E-02
        -0.46827E-03
        -0.41947E-03
        -0.12291E-03
        -0.48764E-04
        -0.41836E-04
        -0.24520E-05
        -0.70411E-04
        -0.14302E-04
        -0.90184E-05
        -0.11048E-03
        -0.47548E-04
        -0.98918E-04
        -0.27142E-04
        -0.50631E-03
        -0.17807E-03
        -0.36712E-05
        -0.49549E-03
        -0.17618E-04
        -0.17079E-05
        -0.14607E-05
        -0.30074E-04
        -0.10811E-05
        -0.22584E-04
        -0.11277E-04
        -0.37806E-05
        -0.26743E-05
        -0.45053E-04
        -0.26489E-05
        -0.18190E-06
        -0.60699E-06
        -0.14234E-05
        -0.44185E-04
        -0.20470E-04
        -0.13955E-05
        -0.86591E-05
        -0.65052E-05
        -0.13831E-05
        -0.13664E-04
        -0.49595E-04
        -0.28666E-03
        -0.22376E-03
        -0.17277E-03
        -0.93044E-04
        -0.55464E-05
        -0.24116E-04
        -0.37579E-04
        -0.62101E-04
        -0.25895E-03
        -0.87727E-04
        -0.38195E-04
        -0.60073E-04
        -0.83714E-04
        -0.90372E-04
        -0.46494E-06
        -0.14001E-03
        -0.28819E-03
        -0.15619E-02
        -0.26058E-02
        -0.43372E-02
        -0.62372E-02
        -0.59814E-02
        -0.45651E-02
        -0.41949E-02
        -0.41047E-02
        -0.16194E-02
        -0.17667E-03
        -0.27958E-04
        -0.20785E-04
        -0.41903E-05
        -0.31799E-03
        -0.12757E-02
        -0.24674E-02
        -0.41727E-02
        -0.51293E-02
        -0.39552E-02
        -0.35359E-02
        -0.35102E-02
        -0.17355E-02
        -0.46724E-03
        -0.41836E-03
        -0.12306E-03
        -0.48781E-04
        -0.41878E-04
        -0.24876E-05
        -0.70427E-04
        -0.14324E-04
        -0.90405E-05
        -0.11085E-03
        -0.47719E-04
        -0.99628E-04
        -0.27175E-04
        -0.50622E-03
        -0.17816E-03
        -0.36716E-05
        -0.49676E-03
        -0.17621E-04
        -0.17396E-05
        -0.14561E-05
        -0.30120E-04
        -0.10672E-05
        -0.22700E-04
        -0.11293E-04
        -0.37906E-05
        -0.26668E-05
        -0.45424E-04
        -0.26306E-05
        -0.18701E-06
        -0.61852E-06
        -0.13923E-05
        -0.44330E-04
        -0.20471E-04
        -0.13823E-05
        -0.86969E-05
        -0.65263E-05
        -0.13563E-05
        -0.13682E-04
        -0.49591E-04
        -0.28755E-03
        -0.22476E-03
        -0.17322E-03
        -0.93241E-04
        -0.54946E-05
        -0.24145E-04
        -0.37680E-04
        -0.62163E-04
        -0.25901E-03
        -0.87766E-04
        -0.38154E-04
        -0.59915E-04
        -0.83486E-04
        -0.90296E-04
        -0.45032E-06
        -0.13975E-03
        -0.28823E-03
        -0.15625E-02
        -0.26058E-02
        -0.43362E-02
        -0.62330E-02
        -0.59764E-02
        -0.45623E-02
        -0.41932E-02
        -0.41024E-02
        -0.16188E-02
        -0.17692E-03
        -0.27963E-04
        -0.20867E-04
        -0.41195E-05
        -0.31840E-03
        -0.12773E-02
        -0.24689E-02
        -0.41727E-02
        -0.51286E-02
        -0.39547E-02
        -0.35356E-02
        -0.35084E-02
        -0.17330E-02
        -0.46622E-03
        -0.41726E-03
        -0.12320E-03
        -0.48793E-04
        -0.41920E-04
        -0.25240E-05
        -0.70444E-04
        -0.14347E-04
        -0.90604E-05
        -0.11120E-03
        -0.47893E-04
        -0.10032E-03
        -0.27212E-04
        -0.50615E-03
        -0.17825E-03
        -0.36729E-05
        -0.49802E-03
        -0.17625E-04
        -0.17723E-05
        -0.14516E-05
        -0.30166E-04
        -0.10531E-05
        -0.22817E-04
        -0.11310E-04
        -0.38020E-05
        -0.26586E-05
        -0.45788E-04
        -0.26112E-05
        -0.19259E-06
        -0.63138E-06
        -0.13595E-05
        -0.44468E-04
        -0.20468E-04
        -0.13678E-05
        -0.87358E-05
        -0.65485E-05
        -0.13296E-05
        -0.13702E-04
        -0.49590E-04
        -0.28845E-03
        -0.22577E-03
        -0.17370E-03
        -0.93445E-04
        -0.54400E-05
        -0.24170E-04
        -0.37789E-04
        -0.62239E-04
        -0.25910E-03
        -0.87812E-04
        -0.38120E-04
        -0.59766E-04
        -0.83265E-04
        -0.90219E-04
        -0.43593E-06
        -0.13949E-03
        -0.28826E-03
        -0.15630E-02
        -0.26058E-02
        -0.43351E-02
        -0.62287E-02
        -0.59713E-02
        -0.45595E-02
        -0.41914E-02
        -0.41001E-02
        -0.16183E-02
        -0.17718E-03
        -0.27971E-04
        -0.20950E-04
        -0.40495E-05
        -0.31881E-03
        -0.12789E-02
        -0.24704E-02
        -0.41725E-02
        -0.51280E-02
        -0.39542E-02
        -0.35354E-02
        -0.35066E-02
        -0.17305E-02
        -0.46520E-03
        -0.41616E-03
        -0.12334E-03
        -0.48790E-04
        -0.41960E-04
        -0.25616E-05
        -0.70462E-04
        -0.14371E-04
        -0.90761E-05
        -0.11152E-03
        -0.48069E-04
        -0.10099E-03
        -0.27256E-04
        -0.50610E-03
        -0.17837E-03
        -0.36786E-05
        -0.49930E-03
        -0.17631E-04
        -0.18061E-05
        -0.14472E-05
        -0.30213E-04
        -0.10391E-05
        -0.22935E-04
        -0.11326E-04
        -0.38136E-05
        -0.26505E-05
        -0.46145E-04
        -0.25918E-05
        -0.19927E-06
        -0.64522E-06
        -0.13264E-05
        -0.44602E-04
        -0.20465E-04
        -0.13523E-05
        -0.87760E-05
        -0.65717E-05
        -0.13030E-05
        -0.13723E-04
        -0.49593E-04
        -0.28937E-03
        -0.22679E-03
        -0.17417E-03
        -0.93656E-04
        -0.53845E-05
        -0.24194E-04
        -0.37899E-04
        -0.62321E-04
        -0.25920E-03
        -0.87883E-04
        -0.38108E-04
        -0.59642E-04
        -0.83052E-04
        -0.90143E-04
        -0.42160E-06
        -0.13922E-03
        -0.28829E-03
        -0.15636E-02
        -0.26059E-02
        -0.43341E-02
        -0.62245E-02
        -0.59662E-02
        -0.45568E-02
        -0.41897E-02
        -0.40978E-02
        -0.16178E-02
        -0.17744E-03
        -0.27979E-04
        -0.21033E-04
        -0.39799E-05
        -0.31923E-03
        -0.12805E-02
        -0.24719E-02
        -0.41723E-02
        -0.51273E-02
        -0.39537E-02
        -0.35352E-02
        -0.35048E-02
        -0.17280E-02
        -0.46418E-03
        -0.41506E-03
        -0.12346E-03
        -0.48784E-04
        -0.42001E-04
        -0.25999E-05
        -0.70481E-04
        -0.14394E-04
        -0.90882E-05
        -0.11182E-03
        -0.48248E-04
        -0.10164E-03
        -0.27305E-04
        -0.50604E-03
        -0.17849E-03
        -0.36851E-05
        -0.50058E-03
        -0.17638E-04
        -0.18407E-05
        -0.14426E-05
        -0.30260E-04
        -0.10251E-05
        -0.23052E-04
        -0.11343E-04
        -0.38250E-05
        -0.26428E-05
        -0.46500E-04
        -0.25725E-05
        -0.20633E-06
        -0.65956E-06
        -0.12936E-05
        -0.44736E-04
        -0.20460E-04
        -0.13362E-05
        -0.88168E-05
        -0.65959E-05
        -0.12765E-05
        -0.13745E-04
        -0.49600E-04
        -0.29029E-03
        -0.22782E-03
        -0.17465E-03
        -0.93866E-04
        -0.53292E-05
        -0.24218E-04
        -0.38010E-04
        -0.62406E-04
        -0.25932E-03
        -0.87964E-04
        -0.38102E-04
        -0.59527E-04
        -0.82844E-04
        -0.90070E-04
        -0.40753E-06
        -0.13896E-03
        -0.28832E-03
        -0.15641E-02
        -0.26059E-02
        -0.43330E-02
        -0.62203E-02
        -0.59611E-02
        -0.45540E-02
        -0.41879E-02
        -0.40955E-02
        -0.16173E-02
        -0.17770E-03
        -0.27987E-04
        -0.21117E-04
        -0.39108E-05
        -0.31964E-03
        -0.12822E-02
        -0.24734E-02
        -0.41721E-02
        -0.51266E-02
        -0.39534E-02
        -0.35351E-02
        -0.35029E-02
        -0.17255E-02
        -0.46316E-03
        -0.41396E-03
        -0.12359E-03
        -0.48778E-04
        -0.42041E-04
        -0.26386E-05
        -0.70499E-04
        -0.14417E-04
        -0.91006E-05
        -0.11213E-03
        -0.48427E-04
        -0.10229E-03
        -0.27352E-04
        -0.50599E-03
        -0.17861E-03
        -0.36927E-05
        -0.50188E-03
        -0.17645E-04
        -0.18757E-05
        -0.14380E-05
        -0.30306E-04
        -0.10112E-05
        -0.23170E-04
        -0.11360E-04
        -0.38364E-05
        -0.26351E-05
        -0.46855E-04
        -0.25534E-05
        -0.21370E-06
        -0.67390E-06
        -0.12613E-05
        -0.44869E-04
        -0.20456E-04
        -0.13205E-05
        -0.88578E-05
        -0.66197E-05
        -0.12501E-05
        -0.13766E-04
        -0.49606E-04
        -0.29122E-03
        -0.22886E-03
        -0.17512E-03
        -0.94077E-04
        -0.52746E-05
        -0.24241E-04
        -0.38121E-04
        -0.62493E-04
        -0.25944E-03
        -0.88041E-04
        -0.38097E-04
        -0.59415E-04
        -0.82638E-04
        -0.89999E-04
        -0.39362E-06
        -0.13870E-03
        -0.28835E-03
        -0.15647E-02
        -0.26060E-02
        -0.43320E-02
        -0.62160E-02
        -0.59560E-02
        -0.45512E-02
        -0.41862E-02
        -0.40931E-02
        -0.16167E-02
        -0.17796E-03
        -0.27996E-04
        -0.21202E-04
        -0.38425E-05
        -0.32006E-03
        -0.12838E-02
        -0.24749E-02
        -0.41718E-02
        -0.51260E-02
        -0.39530E-02
        -0.35349E-02
        -0.35011E-02
        -0.17231E-02
        -0.46214E-03
        -0.41286E-03
        -0.12371E-03
        -0.48770E-04
        -0.42081E-04
        -0.26773E-05
        -0.70516E-04
        -0.14439E-04
        -0.91129E-05
        -0.11243E-03
        -0.48607E-04
        -0.10294E-03
        -0.27401E-04
        -0.50594E-03
        -0.17873E-03
        -0.36992E-05
        -0.50316E-03
        -0.17651E-04
        -0.19113E-05
        -0.14334E-05
        -0.30352E-04
        -0.99728E-06
        -0.23288E-04
        -0.11377E-04
        -0.38474E-05
        -0.26274E-05
        -0.47211E-04
        -0.25344E-05
        -0.22099E-06
        -0.68825E-06
        -0.12295E-05
        -0.45003E-04
        -0.20451E-04
        -0.13047E-05
        -0.88983E-05
        -0.66438E-05
        -0.12241E-05
        -0.13789E-04
        -0.49614E-04
        -0.29216E-03
        -0.22990E-03
        -0.17560E-03
        -0.94288E-04
        -0.52204E-05
        -0.24265E-04
        -0.38232E-04
        -0.62578E-04
        -0.25956E-03
        -0.88123E-04
        -0.38095E-04
        -0.59300E-04
        -0.82428E-04
        -0.89923E-04
        -0.38001E-06
        -0.13844E-03
        -0.28838E-03
        -0.15652E-02
        -0.26060E-02
        -0.43309E-02
        -0.62117E-02
        -0.59508E-02
        -0.45484E-02
        -0.41845E-02
        -0.40908E-02
        -0.16162E-02
        -0.17822E-03
        -0.28005E-04
        -0.21288E-04
        -0.37749E-05
        -0.32048E-03
        -0.12854E-02
        -0.24764E-02
        -0.41716E-02
        -0.51253E-02
        -0.39526E-02
        -0.35348E-02
        -0.34992E-02
        -0.17206E-02
        -0.46114E-03
        -0.41176E-03
        -0.12384E-03
        -0.48761E-04
        -0.42121E-04
        -0.27163E-05
        -0.70534E-04
        -0.14462E-04
        -0.91265E-05
        -0.11273E-03
        -0.48787E-04
        -0.10360E-03
        -0.27450E-04
        -0.50589E-03
        -0.17885E-03
        -0.37064E-05
        -0.50446E-03
        -0.17658E-04
        -0.19472E-05
        -0.14288E-05
        -0.30398E-04
        -0.98337E-06
        -0.23407E-04
        -0.11393E-04
        -0.38589E-05
        -0.26198E-05
        -0.47567E-04
        -0.25155E-05
        -0.22854E-06
        -0.70252E-06
        -0.11982E-05
        -0.45137E-04
        -0.20447E-04
        -0.12891E-05
        -0.89392E-05
        -0.66679E-05
        -0.11982E-05
        -0.13811E-04
        -0.49622E-04
        -0.29309E-03
        -0.23094E-03
        -0.17607E-03
        -0.94498E-04
        -0.51664E-05
        -0.24289E-04
        -0.38341E-04
        -0.62663E-04
        -0.25968E-03
        -0.88205E-04
        -0.38089E-04
        -0.59188E-04
        -0.82222E-04
        -0.89853E-04
        -0.36661E-06
        -0.13817E-03
        -0.28841E-03
        -0.15657E-02
        -0.26060E-02
        -0.43299E-02
        -0.62075E-02
        -0.59457E-02
        -0.45457E-02
        -0.41828E-02
        -0.40884E-02
        -0.16157E-02
        -0.17847E-03
        -0.28014E-04
        -0.21372E-04
        -0.37077E-05
        -0.32089E-03
        -0.12871E-02
        -0.24779E-02
        -0.41714E-02
        -0.51246E-02
        -0.39522E-02
        -0.35346E-02
        -0.34974E-02
        -0.17181E-02
        -0.46013E-03
        -0.41066E-03
        -0.12396E-03
        -0.48754E-04
        -0.42161E-04
        -0.27559E-05
        -0.70552E-04
        -0.14485E-04
        -0.91386E-05
        -0.11303E-03
        -0.48969E-04
        -0.10425E-03
        -0.27499E-04
        -0.50584E-03
        -0.17897E-03
        -0.37135E-05
        -0.50575E-03
        -0.17665E-04
        -0.19836E-05
        -0.14241E-05
        -0.30445E-04
        -0.96968E-06
        -0.23526E-04
        -0.11409E-04
        -0.38703E-05
        -0.26124E-05
        -0.47925E-04
        -0.24968E-05
        -0.23604E-06
        -0.71688E-06
        -0.11672E-05
        -0.45271E-04
        -0.20442E-04
        -0.12735E-05
        -0.89801E-05
        -0.66924E-05
        -0.11725E-05
        -0.13833E-04
        -0.49627E-04
        -0.29403E-03
        -0.23198E-03
        -0.17655E-03
        -0.94709E-04
        -0.51132E-05
        -0.24312E-04
        -0.38452E-04
        -0.62749E-04
        -0.25980E-03
        -0.88283E-04
        -0.38088E-04
        -0.59075E-04
        -0.82017E-04
        -0.89781E-04
        -0.35346E-06
        -0.13791E-03
        -0.28844E-03
        -0.15663E-02
        -0.26061E-02
        -0.43288E-02
        -0.62032E-02
        -0.59406E-02
        -0.45429E-02
        -0.41811E-02
        -0.40861E-02
        -0.16151E-02
        -0.17873E-03
        -0.28022E-04
        -0.21457E-04
        -0.36409E-05
        -0.32131E-03
        -0.12887E-02
        -0.24793E-02
        -0.41711E-02
        -0.51239E-02
        -0.39519E-02
        -0.35344E-02
        -0.34955E-02
        -0.17157E-02
        -0.45913E-03
        -0.40957E-03
        -0.12409E-03
        -0.48747E-04
        -0.42201E-04
        -0.27959E-05
        -0.70570E-04
        -0.14508E-04
        -0.91510E-05
        -0.11333E-03
        -0.49150E-04
        -0.10491E-03
        -0.27548E-04
        -0.50579E-03
        -0.17909E-03
        -0.37198E-05
        -0.50705E-03
        -0.17672E-04
        -0.20203E-05
        -0.14194E-05
        -0.30491E-04
        -0.95614E-06
        -0.23645E-04
        -0.11425E-04
        -0.38816E-05
        -0.26049E-05
        -0.48283E-04
        -0.24780E-05
        -0.24388E-06
        -0.73122E-06
        -0.11368E-05
        -0.45404E-04
        -0.20437E-04
        -0.12579E-05
        -0.90208E-05
        -0.67166E-05
        -0.11470E-05
        -0.13856E-04
        -0.49634E-04
        -0.29497E-03
        -0.23303E-03
        -0.17702E-03
        -0.94922E-04
        -0.50597E-05
        -0.24335E-04
        -0.38564E-04
        -0.62837E-04
        -0.25990E-03
        -0.88366E-04
        -0.38083E-04
        -0.58964E-04
        -0.81811E-04
        -0.89704E-04
        -0.34058E-06
        -0.13765E-03
        -0.28846E-03
        -0.15668E-02
        -0.26061E-02
        -0.43278E-02
        -0.61990E-02
        -0.59354E-02
        -0.45401E-02
        -0.41793E-02
        -0.40836E-02
        -0.16146E-02
        -0.17899E-03
        -0.28031E-04
        -0.21542E-04
        -0.35748E-05
        -0.32172E-03
        -0.12903E-02
        -0.24808E-02
        -0.41709E-02
        -0.51233E-02
        -0.39515E-02
        -0.35343E-02
        -0.34936E-02
        -0.17132E-02
        -0.45814E-03
        -0.40848E-03
        -0.12421E-03
        -0.48740E-04
        -0.42242E-04
        -0.28362E-05
        -0.70588E-04
        -0.14531E-04
        -0.91649E-05
        -0.11363E-03
        -0.49332E-04
        -0.10557E-03
        -0.27597E-04
        -0.50574E-03
        -0.17921E-03
        -0.37270E-05
        -0.50834E-03
        -0.17678E-04
        -0.20574E-05
        -0.14148E-05
        -0.30537E-04
        -0.94270E-06
        -0.23764E-04
        -0.11441E-04
        -0.38930E-05
        -0.25975E-05
        -0.48643E-04
        -0.24592E-05
        -0.25164E-06
        -0.74552E-06
        -0.11068E-05
        -0.45537E-04
        -0.20432E-04
        -0.12425E-05
        -0.90618E-05
        -0.67411E-05
        -0.11217E-05
        -0.13878E-04
        -0.49639E-04
        -0.29592E-03
        -0.23408E-03
        -0.17749E-03
        -0.95134E-04
        -0.50066E-05
        -0.24359E-04
        -0.38674E-04
        -0.62924E-04
        -0.26002E-03
        -0.88450E-04
        -0.38079E-04
        -0.58850E-04
        -0.81605E-04
        -0.89634E-04
        -0.32802E-06
        -0.13738E-03
        -0.28849E-03
        -0.15673E-02
        -0.26062E-02
        -0.43267E-02
        -0.61947E-02
        -0.59303E-02
        -0.45373E-02
        -0.41776E-02
        -0.40812E-02
        -0.16141E-02
        -0.17925E-03
        -0.28039E-04
        -0.21628E-04
        -0.35096E-05
        -0.32214E-03
        -0.12920E-02
        -0.24823E-02
        -0.41707E-02
        -0.51226E-02
        -0.39511E-02
        -0.35341E-02
        -0.34918E-02
        -0.17107E-02
        -0.45714E-03
        -0.40739E-03
        -0.12433E-03
        -0.48733E-04
        -0.42282E-04
        -0.28766E-05
        -0.70606E-04
        -0.14554E-04
        -0.91774E-05
        -0.11393E-03
        -0.49515E-04
        -0.10622E-03
        -0.27647E-04
        -0.50569E-03
        -0.17933E-03
        -0.37330E-05
        -0.50965E-03
        -0.17685E-04
        -0.20951E-05
        -0.14102E-05
        -0.30583E-04
        -0.92924E-06
        -0.23884E-04
        -0.11457E-04
        -0.39041E-05
        -0.25903E-05
        -0.49004E-04
        -0.24406E-05
        -0.25966E-06
        -0.75968E-06
        -0.10774E-05
        -0.45671E-04
        -0.20427E-04
        -0.12271E-05
        -0.91028E-05
        -0.67656E-05
        -0.10967E-05
        -0.13901E-04
        -0.49646E-04
        -0.29687E-03
        -0.23514E-03
        -0.17797E-03
        -0.95346E-04
        -0.49539E-05
        -0.24383E-04
        -0.38785E-04
        -0.63011E-04
        -0.26014E-03
        -0.88527E-04
        -0.38077E-04
        -0.58737E-04
        -0.81398E-04
        -0.89563E-04
        -0.31562E-06
        -0.13712E-03
        -0.28851E-03
        -0.15679E-02
        -0.26062E-02
        -0.43257E-02
        -0.61904E-02
        -0.59251E-02
        -0.45345E-02
        -0.41759E-02
        -0.40788E-02
        -0.16136E-02
        -0.17951E-03
        -0.28048E-04
        -0.21714E-04
        -0.34449E-05
        -0.32255E-03
        -0.12936E-02
        -0.24838E-02
        -0.41705E-02
        -0.51219E-02
        -0.39508E-02
        -0.35339E-02
        -0.34899E-02
        -0.17083E-02
        -0.45616E-03
        -0.40630E-03
        -0.12446E-03
        -0.48724E-04
        -0.42321E-04
        -0.29172E-05
        -0.70623E-04
        -0.14577E-04
        -0.91903E-05
        -0.11423E-03
        -0.49699E-04
        -0.10688E-03
        -0.27696E-04
        -0.50564E-03
        -0.17945E-03
        -0.37400E-05
        -0.51095E-03
        -0.17692E-04
        -0.21334E-05
        -0.14056E-05
        -0.30630E-04
        -0.91592E-06
        -0.24005E-04
        -0.11473E-04
        -0.39154E-05
        -0.25831E-05
        -0.49366E-04
        -0.24220E-05
        -0.26759E-06
        -0.77382E-06
        -0.10485E-05
        -0.45805E-04
        -0.20422E-04
        -0.12120E-05
        -0.91437E-05
        -0.67904E-05
        -0.10718E-05
        -0.13923E-04
        -0.49653E-04
        -0.29782E-03
        -0.23619E-03
        -0.17843E-03
        -0.95558E-04
        -0.49016E-05
        -0.24407E-04
        -0.38894E-04
        -0.63099E-04
        -0.26026E-03
        -0.88610E-04
        -0.38073E-04
        -0.58626E-04
        -0.81193E-04
        -0.89489E-04
        -0.30345E-06
        -0.13685E-03
        -0.28854E-03
        -0.15684E-02
        -0.26062E-02
        -0.43247E-02
        -0.61861E-02
        -0.59199E-02
        -0.45317E-02
        -0.41742E-02
        -0.40764E-02
        -0.16130E-02
        -0.17977E-03
        -0.28055E-04
        -0.21798E-04
        -0.33807E-05
        -0.32296E-03
        -0.12952E-02
        -0.24853E-02
        -0.41703E-02
        -0.51213E-02
        -0.39504E-02
        -0.35338E-02
        -0.34880E-02
        -0.17058E-02
        -0.45517E-03
        -0.40521E-03
        -0.12458E-03
        -0.48716E-04
        -0.42362E-04
        -0.29583E-05
        -0.70642E-04
        -0.14600E-04
        -0.92037E-05
        -0.11453E-03
        -0.49884E-04
        -0.10754E-03
        -0.27746E-04
        -0.50559E-03
        -0.17957E-03
        -0.37458E-05
        -0.51225E-03
        -0.17699E-04
        -0.21722E-05
        -0.14009E-05
        -0.30676E-04
        -0.90286E-06
        -0.24125E-04
        -0.11487E-04
        -0.39267E-05
        -0.25760E-05
        -0.49729E-04
        -0.24033E-05
        -0.27586E-06
        -0.78793E-06
        -0.10199E-05
        -0.45936E-04
        -0.20417E-04
        -0.11968E-05
        -0.91847E-05
        -0.68151E-05
        -0.10471E-05
        -0.13945E-04
        -0.49658E-04
        -0.29879E-03
        -0.23725E-03
        -0.17890E-03
        -0.95769E-04
        -0.48500E-05
        -0.24431E-04
        -0.39006E-04
        -0.63187E-04
        -0.26038E-03
        -0.88693E-04
        -0.38071E-04
        -0.58515E-04
        -0.80988E-04
        -0.89417E-04
        -0.29161E-06
        -0.13659E-03
        -0.28856E-03
        -0.15689E-02
        -0.26063E-02
        -0.43236E-02
        -0.61818E-02
        -0.59146E-02
        -0.45289E-02
        -0.41725E-02
        -0.40739E-02
        -0.16125E-02
        -0.18003E-03
        -0.28061E-04
        -0.21883E-04
        -0.33174E-05
        -0.32338E-03
        -0.12969E-02
        -0.24868E-02
        -0.41701E-02
        -0.51206E-02
        -0.39500E-02
        -0.35336E-02
        -0.34861E-02
        -0.17033E-02
        -0.45420E-03
        -0.40412E-03
        -0.12470E-03
        -0.48709E-04
        -0.42402E-04
        -0.29999E-05
        -0.70659E-04
        -0.14622E-04
        -0.92166E-05
        -0.11483E-03
        -0.50071E-04
        -0.10820E-03
        -0.27795E-04
        -0.50554E-03
        -0.17969E-03
        -0.37525E-05
        -0.51355E-03
        -0.17706E-04
        -0.22117E-05
        -0.13961E-05
        -0.30722E-04
        -0.89049E-06
        -0.24245E-04
        -0.11502E-04
        -0.39382E-05
        -0.25687E-05
        -0.50094E-04
        -0.23850E-05
        -0.28417E-06
        -0.80206E-06
        -0.99183E-06
        -0.46059E-04
        -0.20411E-04
        -0.11815E-05
        -0.92255E-05
        -0.68400E-05
        -0.10227E-05
        -0.13968E-04
        -0.49665E-04
        -0.29976E-03
        -0.23830E-03
        -0.17934E-03
        -0.95978E-04
        -0.47981E-05
        -0.24456E-04
        -0.39117E-04
        -0.63275E-04
        -0.26050E-03
        -0.88771E-04
        -0.38067E-04
        -0.58402E-04
        -0.80783E-04
        -0.89348E-04
        -0.28000E-06
        -0.13632E-03
        -0.28858E-03
        -0.15694E-02
        -0.26063E-02
        -0.43226E-02
        -0.61776E-02
        -0.59095E-02
        -0.45261E-02
        -0.41707E-02
        -0.40713E-02
        -0.16121E-02
        -0.18030E-03
        -0.28064E-04
        -0.21967E-04
        -0.32548E-05
        -0.32379E-03
        -0.12985E-02
        -0.24883E-02
        -0.41699E-02
        -0.51199E-02
        -0.39497E-02
        -0.35335E-02
        -0.34842E-02
        -0.17009E-02
        -0.45323E-03
        -0.40304E-03
        -0.12482E-03
        -0.48702E-04
        -0.42442E-04
        -0.30416E-05
        -0.70676E-04
        -0.14644E-04
        -0.92293E-05
        -0.11513E-03
        -0.50259E-04
        -0.10887E-03
        -0.27844E-04
        -0.50549E-03
        -0.17981E-03
        -0.37592E-05
        -0.51487E-03
        -0.17712E-04
        -0.22523E-05
        -0.13914E-05
        -0.30769E-04
        -0.87871E-06
        -0.24366E-04
        -0.11516E-04
        -0.39495E-05
        -0.25617E-05
        -0.50460E-04
        -0.23665E-05
        -0.29297E-06
        -0.81616E-06
        -0.96421E-06
        -0.46175E-04
        -0.20406E-04
        -0.11666E-05
        -0.92664E-05
        -0.68648E-05
        -0.99839E-06
        -0.13990E-04
        -0.49671E-04
        -0.30075E-03
        -0.23935E-03
        -0.17977E-03
        -0.96183E-04
        -0.47465E-05
        -0.24483E-04
        -0.39228E-04
        -0.63364E-04
        -0.26062E-03
        -0.88855E-04
        -0.38063E-04
        -0.58291E-04
        -0.80576E-04
        -0.89273E-04
        -0.26855E-06
        -0.13606E-03
        -0.28860E-03
        -0.15699E-02
        -0.26063E-02
        -0.43215E-02
        -0.61733E-02
        -0.59042E-02
        -0.45233E-02
        -0.41689E-02
        -0.40686E-02
        -0.16117E-02
        -0.18056E-03
        -0.28062E-04
        -0.22052E-04
        -0.31924E-05
        -0.32420E-03
        -0.13002E-02
        -0.24897E-02
        -0.41696E-02
        -0.51192E-02
        -0.39493E-02
        -0.35333E-02
        -0.34823E-02
        -0.16984E-02
        -0.45226E-03
        -0.40195E-03
        -0.12495E-03
        -0.48694E-04
        -0.42484E-04
        -0.30835E-05
        -0.70698E-04
        -0.14667E-04
        -0.92435E-05
        -0.11542E-03
        -0.50449E-04
        -0.10953E-03
        -0.27894E-04
        -0.50545E-03
        -0.17993E-03
        -0.37649E-05
        -0.51617E-03
        -0.17719E-04
        -0.22934E-05
        -0.13867E-05
        -0.30816E-04
        -0.86732E-06
        -0.24487E-04
        -0.11530E-04
        -0.39601E-05
        -0.25551E-05
        -0.50828E-04
        -0.23487E-05
        -0.30168E-06
        -0.82979E-06
        -0.93732E-06
        -0.46290E-04
        -0.20401E-04
        -0.11520E-05
        -0.93075E-05
        -0.68902E-05
        -0.97462E-06
        -0.14012E-04
        -0.49674E-04
        -0.30173E-03
        -0.24040E-03
        -0.18019E-03
        -0.96384E-04
        -0.46962E-05
        -0.24512E-04
        -0.39337E-04
        -0.63449E-04
        -0.26074E-03
        -0.88936E-04
        -0.38060E-04
        -0.58181E-04
        -0.80373E-04
        -0.89204E-04
        -0.25740E-06
        -0.13579E-03
        -0.28863E-03
        -0.15704E-02
        -0.26064E-02
        -0.43205E-02
        -0.61690E-02
        -0.58990E-02
        -0.45206E-02
        -0.41672E-02
        -0.40658E-02
        -0.16113E-02
        -0.18082E-03
        -0.28056E-04
        -0.22136E-04
        -0.31307E-05
        -0.32461E-03
        -0.13018E-02
        -0.24912E-02
        -0.41695E-02
        -0.51186E-02
        -0.39489E-02
        -0.35331E-02
        -0.34804E-02
        -0.16960E-02
        -0.45130E-03
        -0.40088E-03
        -0.12624E-03
        -0.49162E-04
        -0.42941E-04
        -0.31531E-05
        -0.71398E-04
        -0.14827E-04
        -0.93485E-05
        -0.11679E-03
        -0.51099E-04
        -0.11119E-03
        -0.28210E-04
        -0.51027E-03
        -0.18174E-03
        -0.38072E-05
        -0.52254E-03
        -0.17894E-04
        -0.23543E-05
        -0.13948E-05
        -0.31151E-04
        -0.86541E-06
        -0.24827E-04
        -0.11651E-04
        -0.40006E-05
        -0.25758E-05
        -0.51668E-04
        -0.23587E-05
        -0.31275E-06
        -0.84841E-06
        -0.92472E-06
        -0.46858E-04
        -0.20594E-04
        -0.11525E-05
        -0.94336E-05
        -0.69794E-05
        -0.96262E-06
        -0.14154E-04
        -0.50124E-04
        -0.30562E-03
        -0.24375E-03
        -0.18235E-03
        -0.97505E-04
        -0.47032E-05
        -0.24784E-04
        -0.39765E-04
        -0.64076E-04
        -0.26321E-03
        -0.89798E-04
        -0.38383E-04
        -0.58599E-04
        -0.80922E-04
        -0.89976E-04
        -0.24896E-06
        -0.13696E-03
        -0.29181E-03
        -0.15877E-02
        -0.26340E-02
        -0.43662E-02
        -0.62339E-02
        -0.59611E-02
        -0.45693E-02
        -0.42130E-02
        -0.41103E-02
        -0.16292E-02
        -0.18297E-03
        -0.28322E-04
        -0.22432E-04
        -0.31027E-05
        -0.32808E-03
        -0.13159E-02
        -0.25181E-02
        -0.42145E-02
        -0.51736E-02
        -0.39893E-02
        -0.35686E-02
        -0.35145E-02
        -0.17112E-02
        -0.45501E-03
        -0.40395E-03
        -0.28424E-03
        -0.11167E-03
        -0.96438E-04
        -0.71958E-05
        -0.14963E-03
        -0.31670E-04
        -0.21180E-04
        -0.26121E-03
        -0.11467E-03
        -0.24773E-03
        -0.61830E-04
        -0.10338E-02
        -0.37878E-03
        -0.82809E-05
        -0.10718E-02
        -0.40354E-04
        -0.53487E-05
        -0.31382E-05
        -0.68503E-04
        -0.19035E-05
        -0.51774E-04
        -0.24870E-04
        -0.83464E-05
        -0.57453E-05
        -0.11745E-03
        -0.53433E-05
        -0.70308E-06
        -0.19326E-05
        -0.20861E-05
        -0.10617E-03
        -0.46456E-04
        -0.25837E-05
        -0.21420E-04
        -0.15812E-04
        -0.18932E-05
        -0.30162E-04
        -0.10682E-03
        -0.65456E-03
        -0.53701E-03
        -0.40437E-03
        -0.21040E-03
        -0.10248E-04
        -0.54164E-04
        -0.84251E-04
        -0.13490E-03
        -0.52390E-03
        -0.18789E-03
        -0.82174E-04
        -0.12667E-03
        -0.17346E-03
        -0.18408E-03
        -0.51188E-06
        -0.21939E-03
        -0.46667E-03
        -0.25413E-02
        -0.42359E-02
        -0.70173E-02
        -0.10083E-01
        -0.98618E-02
        -0.76872E-02
        -0.70631E-02
        -0.68146E-02
        -0.27053E-02
        -0.30226E-03
        -0.47626E-04
        -0.38030E-04
        -0.50497E-05
        -0.52894E-03
        -0.21094E-02
        -0.40002E-02
        -0.66974E-02
        -0.82417E-02
        -0.64740E-02
        -0.58381E-02
        -0.57124E-02
        -0.27989E-02
        -0.73911E-03
        -0.65116E-03
  
SCALARS                      strain_zz  double 1
LOOKUP_TABLE default
         0.10682E+02
         0.10538E+02
         0.10629E+02
         0.10794E+02
        -0.32539E-08
        -0.36487E-08
        -0.34938E-08
        -0.31739E-08
         0.10524E+02
         0.10578E+02
        -0.32811E-08
        -0.31753E-08
         0.10328E+02
         0.10321E+02
        -0.38986E-08
        -0.36657E-08
         0.10770E+02
         0.10331E+02
        -0.28807E-08
        -0.31951E-08
         0.10171E+02
         0.10042E+02
         0.10241E+02
        -0.38640E-08
        -0.33745E-08
        -0.34845E-08
         0.10050E+02
         0.98649E+01
        -0.37070E-08
        -0.31262E-08
         0.10762E+02
         0.10571E+02
         0.10946E+02
        -0.31634E-08
        -0.29408E-08
        -0.28592E-08
         0.10651E+02
         0.10409E+02
        -0.33467E-08
        -0.30539E-08
         0.10553E+02
         0.10365E+02
        -0.28925E-08
        -0.25607E-08
         0.10711E+02
         0.10784E+02
        -0.31698E-08
        -0.35418E-08
         0.10218E+02
        -0.30966E-08
         0.10770E+02
        -0.36386E-08
         0.99982E+01
        -0.32701E-08
         0.99408E+01
        -0.31367E-08
         0.99396E+01
         0.10146E+02
        -0.31959E-08
        -0.31125E-08
         0.10758E+02
         0.10683E+02
        -0.32047E-08
        -0.36229E-08
         0.10804E+02
        -0.30923E-08
         0.10716E+02
        -0.33749E-08
         0.10472E+02
         0.10458E+02
        -0.32487E-08
        -0.34040E-08
         0.10409E+02
        -0.34326E-08
         0.97991E+01
        -0.27120E-08
         0.97659E+01
        -0.26324E-08
         0.97790E+01
        -0.27756E-08
         0.98595E+01
         0.99585E+01
        -0.26445E-08
        -0.27571E-08
         0.10148E+02
        -0.25678E-08
         0.10705E+02
        -0.33673E-08
         0.10614E+02
        -0.34464E-08
         0.10533E+02
         0.10505E+02
        -0.33097E-08
        -0.33483E-08
         0.10558E+02
        -0.30412E-08
         0.10592E+02
        -0.29978E-08
         0.10558E+02
        -0.32092E-08
         0.10539E+02
         0.10577E+02
        -0.31471E-08
        -0.32394E-08
         0.10332E+02
         0.10404E+02
        -0.24434E-08
        -0.22982E-08
         0.10304E+02
        -0.23332E-08
         0.10388E+02
        -0.22371E-08
         0.10298E+02
        -0.22059E-08
         0.10087E+02
        -0.20846E-08
         0.98758E+01
        -0.18520E-08
         0.97545E+01
        -0.16676E-08
         0.97426E+01
        -0.16560E-08
         0.97478E+01
        -0.17958E-08
         0.98816E+01
        -0.18874E-08
         0.10113E+02
        -0.17234E-08
         0.10375E+02
        -0.15534E-08
         0.10540E+02
        -0.15517E-08
         0.10701E+02
        -0.17344E-08
         0.10806E+02
        -0.19776E-08
         0.10797E+02
        -0.21245E-08
         0.10564E+02
        -0.22945E-08
         0.10405E+02
        -0.24582E-08
         0.10327E+02
        -0.22519E-08
         0.10409E+02
        -0.19755E-08
         0.10464E+02
        -0.19694E-08
         0.10399E+02
        -0.21548E-08
         0.10412E+02
        -0.22971E-08
         0.10462E+02
        -0.21800E-08
         0.10528E+02
        -0.21075E-08
        -0.49572E+00
        -0.49402E+00
        -0.49428E+00
        -0.49635E+00
        -0.49190E+00
        -0.49446E+00
        -0.49126E+00
        -0.49305E+00
        -0.49607E+00
        -0.49432E+00
        -0.48904E+00
        -0.48819E+00
        -0.49012E+00
        -0.49033E+00
        -0.48901E+00
        -0.49627E+00
        -0.49593E+00
        -0.49682E+00
        -0.49381E+00
        -0.49448E+00
        -0.49343E+00
        -0.49407E+00
        -0.49285E+00
        -0.49325E+00
        -0.49441E+00
        -0.49435E+00
        -0.49225E+00
        -0.49246E+00
        -0.49065E+00
        -0.49328E+00
        -0.49610E+00
        -0.49400E+00
        -0.49610E+00
        -0.49479E+00
        -0.48768E+00
        -0.49037E+00
        -0.49148E+00
        -0.49010E+00
        -0.48995E+00
        -0.48751E+00
        -0.48547E+00
        -0.49003E+00
        -0.49345E+00
        -0.49307E+00
        -0.49137E+00
        -0.48776E+00
        -0.49091E+00
        -0.49364E+00
        -0.49348E+00
        -0.49138E+00
        -0.48883E+00
        -0.49216E+00
        -0.47930E+00
        -0.48329E+00
        -0.48257E+00
        -0.48340E+00
        -0.48304E+00
        -0.48071E+00
        -0.47843E+00
        -0.47785E+00
        -0.47825E+00
        -0.47793E+00
        -0.47694E+00
        -0.48295E+00
        -0.48522E+00
        -0.48605E+00
        -0.48715E+00
        -0.48792E+00
        -0.48779E+00
        -0.48622E+00
        -0.48062E+00
        -0.48197E+00
        -0.48408E+00
        -0.48416E+00
        -0.48380E+00
        -0.48193E+00
        -0.48467E+00
        -0.48559E+00
         0.15688E-03
         0.58440E-04
         0.55987E-04
         0.42866E-04
         0.16185E-03
         0.94845E-04
         0.80309E-05
         0.12009E-03
         0.78326E-04
         0.10371E-03
         0.72654E-05
         0.51744E-03
         0.30434E-03
         0.30946E-04
         0.55391E-03
         0.79012E-04
         0.32784E-04
         0.26204E-04
         0.33394E-04
         0.12466E-04
         0.31751E-03
         0.28933E-03
         0.25716E-03
         0.13970E-04
         0.30839E-04
         0.30259E-05
         0.65093E-05
        -0.46478E-04
        -0.15681E-04
         0.42119E-04
         0.58759E-04
         0.14445E-04
         0.40898E-04
         0.45562E-04
         0.24718E-03
         0.89505E-04
         0.15324E-03
         0.36105E-03
         0.20970E-03
         0.18668E-03
         0.39192E-03
         0.31679E-03
         0.32336E-03
         0.18606E-03
         0.14826E-03
         0.28554E-03
         0.12638E-03
         0.95204E-04
         0.72263E-04
         0.10302E-03
         0.24553E-03
         0.13208E-03
         0.43942E-02
         0.46415E-02
         0.50490E-02
         0.50020E-02
         0.57026E-02
         0.65825E-02
         0.60558E-02
         0.48017E-02
         0.45536E-02
         0.51959E-02
         0.49872E-02
         0.48477E-02
         0.33067E-02
         0.30021E-02
         0.35965E-02
         0.41106E-02
         0.44311E-02
         0.52890E-02
         0.48983E-02
         0.51902E-02
         0.42110E-02
         0.37894E-02
         0.42975E-02
         0.41066E-02
         0.43635E-02
         0.43038E-02
         0.15594E-03
         0.57273E-04
         0.54861E-04
         0.41869E-04
         0.16036E-03
         0.93491E-04
         0.68149E-05
         0.11903E-03
         0.77285E-04
         0.10296E-03
         0.58047E-05
         0.51570E-03
         0.30308E-03
         0.29150E-04
         0.55339E-03
         0.77883E-04
         0.31523E-04
         0.25115E-04
         0.32039E-04
         0.10967E-04
         0.31608E-03
         0.28785E-03
         0.25559E-03
         0.12550E-04
         0.29679E-04
         0.16707E-05
         0.51534E-05
        -0.47980E-04
        -0.17161E-04
         0.40691E-04
         0.57657E-04
         0.13154E-04
         0.39735E-04
         0.44515E-04
         0.24588E-03
         0.88112E-04
         0.15183E-03
         0.36050E-03
         0.20908E-03
         0.18562E-03
         0.39074E-03
         0.31546E-03
         0.32185E-03
         0.18457E-03
         0.14678E-03
         0.28398E-03
         0.12496E-03
         0.93843E-04
         0.70851E-04
         0.10155E-03
         0.24387E-03
         0.13045E-03
         0.43883E-02
         0.46367E-02
         0.50464E-02
         0.49996E-02
         0.56982E-02
         0.65753E-02
         0.60479E-02
         0.47962E-02
         0.45484E-02
         0.51898E-02
         0.49825E-02
         0.48452E-02
         0.33038E-02
         0.29997E-02
         0.35950E-02
         0.41101E-02
         0.44309E-02
         0.52887E-02
         0.48952E-02
         0.51869E-02
         0.42075E-02
         0.37866E-02
         0.42922E-02
         0.40988E-02
         0.43562E-02
         0.42968E-02
         0.15641E-03
         0.57530E-04
         0.55161E-04
         0.42213E-04
         0.16058E-03
         0.93757E-04
         0.71656E-05
         0.11958E-03
         0.77668E-04
         0.10370E-03
         0.61003E-05
         0.51600E-03
         0.30360E-03
         0.29160E-04
         0.55498E-03
         0.77750E-04
         0.31557E-04
         0.25360E-04
         0.31735E-04
         0.10649E-04
         0.31590E-03
         0.28771E-03
         0.25456E-03
         0.11524E-04
         0.29419E-04
         0.71993E-06
         0.54732E-05
        -0.48207E-04
        -0.17705E-04
         0.39748E-04
         0.57760E-04
         0.12854E-04
         0.39953E-04
         0.44900E-04
         0.24650E-03
         0.88406E-04
         0.15206E-03
         0.36197E-03
         0.21035E-03
         0.18625E-03
         0.39123E-03
         0.31519E-03
         0.32109E-03
         0.18359E-03
         0.14649E-03
         0.28417E-03
         0.12522E-03
         0.94135E-04
         0.71018E-04
         0.10169E-03
         0.24402E-03
         0.13049E-03
         0.43859E-02
         0.46352E-02
         0.50472E-02
         0.50003E-02
         0.56968E-02
         0.65713E-02
         0.60435E-02
         0.47943E-02
         0.45467E-02
         0.51873E-02
         0.49812E-02
         0.48456E-02
         0.33032E-02
         0.29998E-02
         0.35962E-02
         0.41117E-02
         0.44328E-02
         0.52911E-02
         0.48953E-02
         0.51871E-02
         0.42073E-02
         0.37869E-02
         0.42901E-02
         0.40942E-02
         0.43519E-02
         0.42928E-02
         0.15646E-03
         0.57452E-04
         0.55114E-04
         0.42107E-04
         0.16032E-03
         0.93569E-04
         0.71393E-05
         0.11966E-03
         0.77495E-04
         0.10376E-03
         0.59501E-05
         0.51579E-03
         0.30373E-03
         0.28644E-04
         0.55595E-03
         0.76890E-04
         0.30863E-04
         0.25133E-04
         0.30561E-04
         0.93788E-05
         0.31485E-03
         0.28669E-03
         0.25223E-03
         0.92302E-05
         0.27956E-04
        -0.14437E-05
         0.51292E-05
        -0.49423E-04
        -0.19549E-04
         0.37197E-04
         0.57283E-04
         0.11692E-04
         0.39711E-04
         0.44756E-04
         0.24651E-03
         0.88222E-04
         0.15188E-03
         0.36284E-03
         0.21098E-03
         0.18609E-03
         0.39083E-03
         0.31367E-03
         0.31890E-03
         0.18129E-03
         0.14529E-03
         0.28355E-03
         0.12478E-03
         0.93874E-04
         0.70635E-04
         0.10123E-03
         0.24355E-03
         0.13002E-03
         0.43824E-02
         0.46328E-02
         0.50467E-02
         0.50000E-02
         0.56947E-02
         0.65667E-02
         0.60381E-02
         0.47913E-02
         0.45439E-02
         0.51836E-02
         0.49787E-02
         0.48446E-02
         0.33014E-02
         0.29990E-02
         0.35964E-02
         0.41120E-02
         0.44332E-02
         0.52925E-02
         0.48943E-02
         0.51861E-02
         0.42061E-02
         0.37860E-02
         0.42867E-02
         0.40885E-02
         0.43468E-02
         0.42880E-02
         0.15637E-03
         0.57270E-04
         0.54993E-04
         0.41995E-04
         0.16004E-03
         0.93339E-04
         0.70501E-05
         0.11962E-03
         0.77251E-04
         0.10378E-03
         0.57909E-05
         0.51565E-03
         0.30383E-03
         0.28111E-04
         0.55703E-03
         0.76358E-04
         0.30340E-04
         0.24920E-04
         0.29803E-04
         0.84512E-05
         0.31423E-03
         0.28596E-03
         0.25083E-03
         0.78060E-05
         0.27009E-04
        -0.28323E-05
         0.48302E-05
        -0.50303E-04
        -0.20800E-04
         0.35544E-04
         0.56783E-04
         0.10848E-04
         0.39308E-04
         0.44543E-04
         0.24653E-03
         0.88001E-04
         0.15166E-03
         0.36379E-03
         0.21170E-03
         0.18614E-03
         0.39075E-03
         0.31277E-03
         0.31753E-03
         0.17988E-03
         0.14450E-03
         0.28316E-03
         0.12440E-03
         0.93471E-04
         0.70099E-04
         0.10064E-03
         0.24297E-03
         0.12946E-03
         0.43789E-02
         0.46303E-02
         0.50463E-02
         0.49998E-02
         0.56927E-02
         0.65622E-02
         0.60328E-02
         0.47884E-02
         0.45412E-02
         0.51801E-02
         0.49765E-02
         0.48442E-02
         0.33001E-02
         0.29983E-02
         0.35969E-02
         0.41133E-02
         0.44346E-02
         0.52944E-02
         0.48936E-02
         0.51851E-02
         0.42047E-02
         0.37850E-02
         0.42832E-02
         0.40826E-02
         0.43416E-02
         0.42833E-02
         0.15585E-03
         0.56895E-04
         0.54872E-04
         0.42203E-04
         0.16009E-03
         0.93499E-04
         0.70119E-05
         0.11936E-03
         0.76839E-04
         0.10355E-03
         0.59216E-05
         0.51601E-03
         0.30422E-03
         0.27827E-04
         0.55868E-03
         0.76622E-04
         0.30307E-04
         0.25172E-04
         0.30009E-04
         0.85373E-05
         0.31455E-03
         0.28621E-03
         0.25091E-03
         0.77729E-05
         0.26829E-04
        -0.30318E-05
         0.47848E-05
        -0.50420E-04
        -0.20647E-04
         0.35634E-04
         0.56162E-04
         0.10398E-04
         0.38684E-04
         0.44514E-04
         0.24693E-03
         0.87980E-04
         0.15157E-03
         0.36529E-03
         0.21303E-03
         0.18705E-03
         0.39169E-03
         0.31335E-03
         0.31786E-03
         0.17988E-03
         0.14441E-03
         0.28315E-03
         0.12409E-03
         0.92665E-04
         0.69039E-04
         0.99944E-04
         0.24261E-03
         0.12924E-03
         0.43763E-02
         0.46288E-02
         0.50468E-02
         0.50002E-02
         0.56912E-02
         0.65583E-02
         0.60284E-02
         0.47864E-02
         0.45396E-02
         0.51779E-02
         0.49757E-02
         0.48453E-02
         0.33004E-02
         0.29987E-02
         0.35985E-02
         0.41165E-02
         0.44380E-02
         0.52972E-02
         0.48934E-02
         0.51847E-02
         0.42038E-02
         0.37842E-02
         0.42801E-02
         0.40774E-02
         0.43371E-02
         0.42792E-02
         0.15493E-03
         0.56204E-04
         0.54514E-04
         0.42160E-04
         0.15982E-03
         0.93410E-04
         0.65669E-05
         0.11858E-03
         0.76024E-04
         0.10289E-03
         0.55860E-05
         0.51587E-03
         0.30425E-03
         0.27026E-04
         0.55977E-03
         0.76564E-04
         0.29898E-04
         0.25080E-04
         0.29913E-04
         0.82906E-05
         0.31456E-03
         0.28614E-03
         0.25086E-03
         0.75971E-05
         0.26399E-04
        -0.33882E-05
         0.42541E-05
        -0.50879E-04
        -0.20711E-04
         0.35572E-04
         0.55243E-04
         0.96595E-05
         0.37770E-04
         0.44217E-04
         0.24692E-03
         0.87666E-04
         0.15120E-03
         0.36626E-03
         0.21386E-03
         0.18753E-03
         0.39226E-03
         0.31371E-03
         0.31801E-03
         0.17975E-03
         0.14401E-03
         0.28265E-03
         0.12333E-03
         0.91469E-04
         0.67618E-04
         0.98903E-04
         0.24195E-03
         0.12877E-03
         0.43729E-02
         0.46264E-02
         0.50466E-02
         0.50001E-02
         0.56891E-02
         0.65535E-02
         0.60231E-02
         0.47837E-02
         0.45371E-02
         0.51746E-02
         0.49739E-02
         0.48458E-02
         0.33001E-02
         0.29986E-02
         0.35995E-02
         0.41192E-02
         0.44410E-02
         0.52993E-02
         0.48921E-02
         0.51833E-02
         0.42021E-02
         0.37828E-02
         0.42762E-02
         0.40716E-02
         0.43319E-02
         0.42745E-02
         0.15479E-03
         0.55947E-04
         0.54393E-04
         0.42081E-04
         0.15954E-03
         0.93184E-04
         0.63775E-05
         0.11843E-03
         0.75917E-04
         0.10311E-03
         0.53559E-05
         0.51567E-03
         0.30428E-03
         0.26434E-04
         0.56079E-03
         0.76527E-04
         0.29799E-04
         0.24906E-04
         0.29828E-04
         0.80904E-05
         0.31451E-03
         0.28597E-03
         0.25077E-03
         0.74615E-05
         0.26490E-04
        -0.35943E-05
         0.40496E-05
        -0.51130E-04
        -0.20875E-04
         0.35520E-04
         0.55008E-04
         0.93560E-05
         0.37425E-04
         0.44063E-04
         0.24696E-03
         0.87489E-04
         0.15097E-03
         0.36717E-03
         0.21467E-03
         0.18788E-03
         0.39260E-03
         0.31388E-03
         0.31803E-03
         0.17966E-03
         0.14378E-03
         0.28247E-03
         0.12312E-03
         0.91193E-04
         0.67172E-04
         0.98405E-04
         0.24146E-03
         0.12826E-03
         0.43693E-02
         0.46239E-02
         0.50462E-02
         0.49999E-02
         0.56869E-02
         0.65488E-02
         0.60177E-02
         0.47807E-02
         0.45343E-02
         0.51708E-02
         0.49718E-02
         0.48462E-02
         0.32997E-02
         0.29981E-02
         0.36002E-02
         0.41216E-02
         0.44436E-02
         0.53013E-02
         0.48910E-02
         0.51823E-02
         0.42011E-02
         0.37821E-02
         0.42728E-02
         0.40658E-02
         0.43267E-02
         0.42696E-02
         0.15516E-03
         0.56122E-04
         0.54565E-04
         0.42189E-04
         0.15959E-03
         0.93151E-04
         0.66348E-05
         0.11886E-03
         0.76295E-04
         0.10396E-03
         0.55487E-05
         0.51588E-03
         0.30470E-03
         0.26366E-04
         0.56233E-03
         0.76905E-04
         0.30112E-04
         0.25001E-04
         0.30112E-04
         0.82590E-05
         0.31483E-03
         0.28618E-03
         0.25105E-03
         0.76932E-05
         0.27079E-04
        -0.33820E-05
         0.44359E-05
        -0.50874E-04
        -0.20594E-04
         0.35873E-04
         0.55299E-04
         0.95051E-05
         0.37487E-04
         0.44157E-04
         0.24744E-03
         0.87632E-04
         0.15108E-03
         0.36862E-03
         0.21594E-03
         0.18866E-03
         0.39342E-03
         0.31448E-03
         0.31842E-03
         0.17997E-03
         0.14398E-03
         0.28274E-03
         0.12336E-03
         0.91431E-04
         0.67255E-04
         0.98356E-04
         0.24136E-03
         0.12799E-03
         0.43666E-02
         0.46222E-02
         0.50464E-02
         0.50001E-02
         0.56853E-02
         0.65449E-02
         0.60131E-02
         0.47785E-02
         0.45322E-02
         0.51679E-02
         0.49705E-02
         0.48473E-02
         0.32999E-02
         0.29983E-02
         0.36016E-02
         0.41246E-02
         0.44469E-02
         0.53042E-02
         0.48907E-02
         0.51821E-02
         0.42008E-02
         0.37822E-02
         0.42701E-02
         0.40608E-02
         0.43222E-02
         0.42654E-02
         0.15528E-03
         0.56106E-04
         0.54576E-04
         0.42158E-04
         0.15943E-03
         0.92993E-04
         0.66789E-05
         0.11895E-03
         0.76336E-04
         0.10442E-03
         0.54630E-05
         0.51576E-03
         0.30494E-03
         0.25907E-04
         0.56334E-03
         0.76936E-04
         0.30089E-04
         0.24817E-04
         0.30048E-04
         0.80942E-05
         0.31486E-03
         0.28607E-03
         0.25102E-03
         0.76040E-05
         0.27376E-04
        -0.34712E-05
         0.43984E-05
        -0.50917E-04
        -0.20576E-04
         0.35931E-04
         0.55292E-04
         0.94009E-05
         0.37267E-04
         0.44052E-04
         0.24760E-03
         0.87540E-04
         0.15100E-03
         0.36957E-03
         0.21687E-03
         0.18915E-03
         0.39391E-03
         0.31479E-03
         0.31846E-03
         0.18002E-03
         0.14395E-03
         0.28275E-03
         0.12329E-03
         0.91324E-04
         0.67002E-04
         0.98031E-04
         0.24103E-03
         0.12756E-03
         0.43633E-02
         0.46199E-02
         0.50460E-02
         0.49999E-02
         0.56834E-02
         0.65403E-02
         0.60076E-02
         0.47755E-02
         0.45297E-02
         0.51643E-02
         0.49685E-02
         0.48478E-02
         0.32994E-02
         0.29980E-02
         0.36025E-02
         0.41273E-02
         0.44500E-02
         0.53066E-02
         0.48900E-02
         0.51812E-02
         0.41997E-02
         0.37815E-02
         0.42670E-02
         0.40554E-02
         0.43172E-02
         0.42606E-02
         0.15530E-03
         0.55972E-04
         0.54526E-04
         0.42167E-04
         0.15920E-03
         0.92868E-04
         0.66481E-05
         0.11900E-03
         0.76393E-04
         0.10488E-03
         0.53648E-05
         0.51560E-03
         0.30511E-03
         0.25479E-04
         0.56437E-03
         0.76923E-04
         0.30095E-04
         0.24696E-04
         0.29961E-04
         0.79590E-05
         0.31486E-03
         0.28596E-03
         0.25096E-03
         0.74666E-05
         0.27675E-04
        -0.36336E-05
         0.43841E-05
        -0.50992E-04
        -0.20566E-04
         0.36015E-04
         0.55239E-04
         0.92407E-05
         0.37112E-04
         0.44059E-04
         0.24767E-03
         0.87391E-04
         0.15085E-03
         0.37054E-03
         0.21779E-03
         0.18964E-03
         0.39446E-03
         0.31511E-03
         0.31852E-03
         0.18002E-03
         0.14388E-03
         0.28273E-03
         0.12324E-03
         0.91232E-04
         0.66756E-04
         0.97723E-04
         0.24073E-03
         0.12720E-03
         0.43597E-02
         0.46175E-02
         0.50456E-02
         0.49999E-02
         0.56814E-02
         0.65355E-02
         0.60021E-02
         0.47726E-02
         0.45272E-02
         0.51609E-02
         0.49668E-02
         0.48482E-02
         0.32989E-02
         0.29977E-02
         0.36034E-02
         0.41298E-02
         0.44529E-02
         0.53088E-02
         0.48891E-02
         0.51803E-02
         0.41987E-02
         0.37809E-02
         0.42638E-02
         0.40499E-02
         0.43122E-02
         0.42559E-02
         0.15557E-03
         0.56027E-04
         0.54617E-04
         0.42313E-04
         0.15919E-03
         0.92900E-04
         0.68421E-05
         0.11935E-03
         0.76670E-04
         0.10559E-03
         0.55523E-05
         0.51575E-03
         0.30542E-03
         0.25393E-04
         0.56587E-03
         0.77198E-04
         0.30289E-04
         0.24791E-04
         0.30149E-04
         0.80869E-05
         0.31514E-03
         0.28614E-03
         0.25117E-03
         0.76087E-05
         0.28156E-04
        -0.35008E-05
         0.46462E-05
        -0.50832E-04
        -0.20258E-04
         0.36386E-04
         0.55490E-04
         0.93372E-05
         0.37203E-04
         0.44244E-04
         0.24805E-03
         0.87476E-04
         0.15087E-03
         0.37196E-03
         0.21907E-03
         0.19050E-03
         0.39530E-03
         0.31566E-03
         0.31886E-03
         0.18025E-03
         0.14401E-03
         0.28292E-03
         0.12340E-03
         0.91391E-04
         0.66768E-04
         0.97651E-04
         0.24063E-03
         0.12702E-03
         0.43569E-02
         0.46157E-02
         0.50459E-02
         0.50001E-02
         0.56795E-02
         0.65311E-02
         0.59973E-02
         0.47704E-02
         0.45252E-02
         0.51580E-02
         0.49655E-02
         0.48490E-02
         0.32989E-02
         0.29979E-02
         0.36048E-02
         0.41328E-02
         0.44562E-02
         0.53115E-02
         0.48886E-02
         0.51799E-02
         0.41982E-02
         0.37808E-02
         0.42611E-02
         0.40448E-02
         0.43077E-02
         0.42517E-02
         0.15567E-03
         0.55921E-04
         0.54570E-04
         0.42270E-04
         0.15896E-03
         0.92710E-04
         0.67825E-05
         0.11942E-03
         0.76752E-04
         0.10601E-03
         0.54034E-05
         0.51555E-03
         0.30548E-03
         0.24899E-04
         0.56695E-03
         0.77215E-04
         0.30264E-04
         0.24597E-04
         0.30032E-04
         0.78997E-05
         0.31505E-03
         0.28595E-03
         0.25102E-03
         0.74505E-05
         0.28368E-04
        -0.36439E-05
         0.44788E-05
        -0.51069E-04
        -0.20356E-04
         0.36415E-04
         0.55448E-04
         0.91847E-05
         0.36953E-04
         0.44152E-04
         0.24812E-03
         0.87314E-04
         0.15067E-03
         0.37291E-03
         0.21989E-03
         0.19089E-03
         0.39567E-03
         0.31580E-03
         0.31884E-03
         0.18014E-03
         0.14385E-03
         0.28283E-03
         0.12330E-03
         0.91232E-04
         0.66489E-04
         0.97331E-04
         0.24027E-03
         0.12658E-03
         0.43534E-02
         0.46133E-02
         0.50455E-02
         0.49998E-02
         0.56772E-02
         0.65263E-02
         0.59920E-02
         0.47675E-02
         0.45226E-02
         0.51544E-02
         0.49633E-02
         0.48491E-02
         0.32983E-02
         0.29975E-02
         0.36056E-02
         0.41352E-02
         0.44587E-02
         0.53135E-02
         0.48877E-02
         0.51790E-02
         0.41972E-02
         0.37803E-02
         0.42580E-02
         0.40392E-02
         0.43026E-02
         0.42469E-02
         0.15583E-03
         0.55886E-04
         0.54586E-04
         0.42302E-04
         0.15882E-03
         0.92600E-04
         0.68378E-05
         0.11959E-03
         0.76949E-04
         0.10662E-03
         0.54004E-05
         0.51552E-03
         0.30572E-03
         0.24590E-04
         0.56817E-03
         0.77334E-04
         0.30385E-04
         0.24527E-04
         0.30060E-04
         0.78484E-05
         0.31512E-03
         0.28592E-03
         0.25104E-03
         0.74194E-05
         0.28736E-04
        -0.36897E-05
         0.45610E-05
        -0.51112E-04
        -0.20318E-04
         0.36542E-04
         0.55471E-04
         0.91153E-05
         0.36810E-04
         0.44158E-04
         0.24833E-03
         0.87242E-04
         0.15057E-03
         0.37401E-03
         0.22084E-03
         0.19141E-03
         0.39627E-03
         0.31617E-03
         0.31898E-03
         0.18021E-03
         0.14385E-03
         0.28289E-03
         0.12331E-03
         0.91187E-04
         0.66301E-04
         0.97099E-04
         0.24004E-03
         0.12624E-03
         0.43502E-02
         0.46112E-02
         0.50452E-02
         0.49997E-02
         0.56754E-02
         0.65218E-02
         0.59868E-02
         0.47647E-02
         0.45200E-02
         0.51509E-02
         0.49617E-02
         0.48497E-02
         0.32980E-02
         0.29972E-02
         0.36066E-02
         0.41379E-02
         0.44617E-02
         0.53159E-02
         0.48870E-02
         0.51782E-02
         0.41963E-02
         0.37799E-02
         0.42550E-02
         0.40339E-02
         0.42977E-02
         0.42423E-02
         0.15630E-03
         0.56217E-04
         0.54909E-04
         0.42578E-04
         0.15904E-03
         0.92777E-04
         0.73040E-05
         0.12013E-03
         0.77367E-04
         0.10751E-03
         0.58215E-05
         0.51598E-03
         0.30638E-03
         0.24676E-04
         0.56984E-03
         0.77761E-04
         0.30776E-04
         0.24738E-04
         0.30421E-04
         0.81532E-05
         0.31562E-03
         0.28627E-03
         0.25145E-03
         0.77292E-05
         0.29466E-04
        -0.33870E-05
         0.50380E-05
        -0.50660E-04
        -0.19789E-04
         0.37094E-04
         0.55877E-04
         0.94145E-05
         0.36991E-04
         0.44394E-04
         0.24895E-03
         0.87543E-04
         0.15087E-03
         0.37554E-03
         0.22231E-03
         0.19242E-03
         0.39726E-03
         0.31693E-03
         0.31948E-03
         0.18069E-03
         0.14425E-03
         0.28336E-03
         0.12370E-03
         0.91542E-04
         0.66454E-04
         0.97134E-04
         0.24008E-03
         0.12616E-03
         0.43478E-02
         0.46097E-02
         0.50457E-02
         0.50002E-02
         0.56741E-02
         0.65181E-02
         0.59822E-02
         0.47625E-02
         0.45183E-02
         0.51482E-02
         0.49606E-02
         0.48509E-02
         0.32982E-02
         0.29976E-02
         0.36082E-02
         0.41413E-02
         0.44655E-02
         0.53191E-02
         0.48870E-02
         0.51782E-02
         0.41961E-02
         0.37799E-02
         0.42525E-02
         0.40291E-02
         0.42935E-02
         0.42384E-02
         0.15634E-03
         0.56120E-04
         0.54867E-04
         0.42511E-04
         0.15878E-03
         0.92587E-04
         0.72605E-05
         0.12016E-03
         0.77407E-04
         0.10789E-03
         0.56779E-05
         0.51583E-03
         0.30656E-03
         0.24177E-04
         0.57085E-03
         0.77743E-04
         0.30717E-04
         0.24574E-04
         0.30253E-04
         0.79333E-05
         0.31559E-03
         0.28610E-03
         0.25139E-03
         0.75391E-05
         0.29651E-04
        -0.35863E-05
         0.48922E-05
        -0.50824E-04
        -0.19737E-04
         0.37160E-04
         0.55872E-04
         0.92444E-05
         0.36799E-04
         0.44276E-04
         0.24898E-03
         0.87390E-04
         0.15074E-03
         0.37646E-03
         0.22319E-03
         0.19293E-03
         0.39772E-03
         0.31712E-03
         0.31942E-03
         0.18063E-03
         0.14412E-03
         0.28329E-03
         0.12363E-03
         0.91465E-04
         0.66200E-04
         0.96760E-04
         0.23970E-03
         0.12571E-03
         0.43441E-02
         0.46072E-02
         0.50452E-02
         0.50000E-02
         0.56722E-02
         0.65134E-02
         0.59766E-02
         0.47595E-02
         0.45156E-02
         0.51446E-02
         0.49585E-02
         0.48510E-02
         0.32976E-02
         0.29973E-02
         0.36092E-02
         0.41440E-02
         0.44684E-02
         0.53212E-02
         0.48861E-02
         0.51773E-02
         0.41951E-02
         0.37793E-02
         0.42492E-02
         0.40236E-02
         0.42885E-02
         0.42336E-02
         0.15630E-03
         0.55877E-04
         0.54676E-04
         0.42399E-04
         0.15843E-03
         0.92290E-04
         0.71370E-05
         0.12015E-03
         0.77382E-04
         0.10810E-03
         0.54989E-05
         0.51558E-03
         0.30662E-03
         0.23674E-04
         0.57182E-03
         0.77689E-04
         0.30568E-04
         0.24390E-04
         0.30124E-04
         0.78073E-05
         0.31555E-03
         0.28588E-03
         0.25129E-03
         0.73763E-05
         0.29679E-04
        -0.37822E-05
         0.44999E-05
        -0.51084E-04
        -0.19131E-04
         0.37595E-04
         0.55786E-04
         0.90116E-05
         0.36608E-04
         0.44206E-04
         0.24898E-03
         0.87154E-04
         0.15050E-03
         0.37724E-03
         0.22408E-03
         0.19390E-03
         0.39832E-03
         0.31730E-03
         0.31929E-03
         0.18057E-03
         0.14394E-03
         0.28314E-03
         0.12345E-03
         0.91309E-04
         0.65927E-04
         0.96418E-04
         0.23934E-03
         0.12524E-03
         0.43406E-02
         0.46047E-02
         0.50448E-02
         0.49999E-02
         0.56700E-02
         0.65085E-02
         0.59709E-02
         0.47563E-02
         0.45129E-02
         0.51411E-02
         0.49561E-02
         0.48504E-02
         0.32968E-02
         0.29969E-02
         0.36100E-02
         0.41464E-02
         0.44712E-02
         0.53233E-02
         0.48850E-02
         0.51762E-02
         0.41940E-02
         0.37786E-02
         0.42459E-02
         0.40181E-02
         0.42834E-02
         0.42286E-02
         0.15675E-03
         0.56181E-04
         0.55022E-04
         0.42722E-04
         0.15867E-03
         0.92489E-04
         0.75565E-05
         0.12069E-03
         0.77732E-04
         0.10864E-03
         0.58821E-05
         0.51593E-03
         0.30718E-03
         0.23739E-04
         0.57343E-03
         0.78120E-04
         0.30874E-04
         0.24585E-04
         0.30534E-04
         0.83361E-05
         0.31597E-03
         0.28619E-03
         0.25165E-03
         0.77103E-05
         0.30152E-04
        -0.34512E-05
         0.44547E-05
        -0.50805E-04
        -0.17432E-04
         0.38967E-04
         0.56147E-04
         0.93161E-05
         0.36785E-04
         0.44509E-04
         0.24963E-03
         0.87494E-04
         0.15077E-03
         0.37852E-03
         0.22560E-03
         0.19583E-03
         0.39960E-03
         0.31802E-03
         0.31962E-03
         0.18100E-03
         0.14434E-03
         0.28365E-03
         0.12387E-03
         0.91635E-04
         0.66106E-04
         0.96544E-04
         0.23948E-03
         0.12521E-03
         0.43381E-02
         0.46033E-02
         0.50453E-02
         0.50004E-02
         0.56685E-02
         0.65044E-02
         0.59663E-02
         0.47543E-02
         0.45112E-02
         0.51388E-02
         0.49542E-02
         0.48503E-02
         0.32967E-02
         0.29972E-02
         0.36115E-02
         0.41495E-02
         0.44747E-02
         0.53264E-02
         0.48852E-02
         0.51763E-02
         0.41939E-02
         0.37789E-02
         0.42436E-02
         0.40135E-02
         0.42791E-02
         0.42247E-02
         0.15585E-03
         0.55063E-04
         0.53981E-04
         0.41747E-04
         0.15727E-03
         0.91197E-04
         0.64091E-05
         0.11961E-03
         0.76748E-04
         0.10769E-03
         0.45309E-05
         0.51435E-03
         0.30596E-03
         0.21981E-04
         0.57304E-03
         0.77183E-04
         0.29732E-04
         0.23501E-04
         0.29347E-04
         0.71343E-05
         0.31469E-03
         0.28481E-03
         0.25035E-03
         0.65229E-05
         0.29059E-04
        -0.45828E-05
         0.27714E-05
        -0.52227E-04
        -0.17976E-04
         0.38273E-04
         0.55169E-04
         0.81329E-05
         0.35619E-04
         0.43384E-04
         0.24840E-03
         0.86143E-04
         0.14936E-03
         0.37792E-03
         0.22523E-03
         0.19554E-03
         0.39878E-03
         0.31686E-03
         0.31827E-03
         0.17978E-03
         0.14298E-03
         0.28217E-03
         0.12255E-03
         0.90413E-04
         0.64753E-04
         0.95005E-04
         0.23774E-03
         0.12355E-03
         0.43322E-02
         0.45986E-02
         0.50425E-02
         0.49977E-02
         0.56639E-02
         0.64974E-02
         0.59584E-02
         0.47489E-02
         0.45063E-02
         0.51328E-02
         0.49493E-02
         0.48478E-02
         0.32941E-02
         0.29950E-02
         0.36103E-02
         0.41499E-02
         0.44753E-02
         0.53261E-02
         0.48817E-02
         0.51729E-02
         0.41906E-02
         0.37762E-02
         0.42381E-02
         0.40057E-02
         0.42720E-02
         0.42178E-02
         0.15663E-03
         0.55140E-04
         0.54231E-04
         0.42209E-04
         0.15758E-03
         0.91519E-04
         0.66666E-05
         0.12056E-03
         0.77712E-04
         0.10942E-03
         0.49370E-05
         0.51439E-03
         0.30585E-03
         0.22579E-04
         0.57498E-03
         0.78168E-04
         0.30670E-04
         0.24032E-04
         0.30056E-04
         0.77892E-05
         0.31543E-03
         0.28527E-03
         0.25138E-03
         0.74109E-05
         0.30741E-04
        -0.37609E-05
         0.42352E-05
        -0.50618E-04
        -0.16541E-04
         0.39647E-04
         0.55930E-04
         0.86321E-05
         0.35861E-04
         0.43248E-04
         0.24888E-03
         0.86020E-04
         0.14893E-03
         0.38004E-03
         0.22740E-03
         0.19703E-03
         0.39993E-03
         0.31800E-03
         0.31929E-03
         0.18079E-03
         0.14352E-03
         0.28251E-03
         0.12282E-03
         0.90981E-04
         0.65042E-04
         0.94821E-04
         0.23763E-03
         0.12328E-03
         0.43301E-02
         0.45978E-02
         0.50427E-02
         0.49972E-02
         0.56608E-02
         0.64922E-02
         0.59545E-02
         0.47476E-02
         0.45050E-02
         0.51297E-02
         0.49479E-02
         0.48496E-02
         0.32952E-02
         0.29954E-02
         0.36124E-02
         0.41541E-02
         0.44797E-02
         0.53295E-02
         0.48815E-02
         0.51722E-02
         0.41904E-02
         0.37766E-02
         0.42364E-02
         0.40020E-02
         0.42685E-02
         0.42146E-02
         0.43362E-02
         0.44139E-02
         0.43795E-02
         0.39887E-02
         0.51620E-02
         0.47617E-02
         0.47248E-02
         0.48994E-02
         0.41850E-02
         0.49025E-02
         0.52599E-02
         0.65905E-02
         0.57544E-02
         0.54487E-02
         0.68292E-02
         0.40934E-02
         0.43506E-02
         0.37980E-02
         0.45335E-02
         0.47187E-02
         0.53254E-02
         0.53347E-02
         0.50594E-02
         0.43162E-02
         0.48389E-02
         0.41236E-02
         0.53777E-02
         0.51583E-02
         0.51970E-02
         0.50132E-02
         0.41137E-02
         0.42778E-02
         0.40085E-02
         0.41905E-02
         0.58164E-02
         0.50752E-02
         0.51457E-02
         0.63156E-02
         0.59406E-02
         0.58205E-02
         0.61898E-02
         0.57898E-02
         0.55058E-02
         0.48482E-02
         0.50131E-02
         0.58841E-02
         0.51914E-02
         0.48106E-02
         0.46717E-02
         0.48820E-02
         0.55431E-02
         0.49508E-02
         0.14111E-01
         0.14145E-01
         0.14785E-01
         0.14407E-01
         0.15344E-01
         0.16634E-01
         0.16147E-01
         0.14832E-01
         0.14679E-01
         0.15593E-01
         0.15106E-01
         0.14437E-01
         0.11819E-01
         0.11033E-01
         0.11782E-01
         0.12527E-01
         0.12957E-01
         0.14554E-01
         0.14750E-01
         0.15063E-01
         0.13267E-01
         0.12543E-01
         0.13319E-01
         0.12989E-01
         0.13180E-01
         0.13132E-01
         0.45585E-01
         0.47560E-01
         0.46889E-01
         0.42885E-01
         0.52625E-01
         0.49420E-01
         0.51286E-01
         0.51848E-01
         0.44500E-01
         0.51812E-01
         0.56190E-01
         0.63552E-01
         0.57470E-01
         0.57837E-01
         0.65840E-01
         0.43657E-01
         0.46749E-01
         0.40966E-01
         0.48248E-01
         0.50655E-01
         0.52801E-01
         0.53868E-01
         0.50669E-01
         0.46441E-01
         0.52294E-01
         0.44848E-01
         0.57633E-01
         0.56587E-01
         0.56850E-01
         0.54096E-01
         0.44087E-01
         0.46241E-01
         0.43214E-01
         0.45124E-01
         0.57621E-01
         0.52782E-01
         0.53036E-01
         0.63533E-01
         0.61700E-01
         0.60917E-01
         0.62287E-01
         0.59125E-01
         0.56006E-01
         0.49404E-01
         0.51320E-01
         0.57655E-01
         0.53217E-01
         0.50086E-01
         0.49080E-01
         0.50864E-01
         0.55294E-01
         0.51036E-01
         0.96367E-01
         0.94411E-01
         0.96958E-01
         0.94111E-01
         0.97657E-01
         0.10353E+00
         0.10441E+00
         0.10240E+00
         0.10266E+00
         0.10577E+00
         0.10270E+00
         0.96876E-01
         0.85348E-01
         0.80508E-01
         0.81590E-01
         0.83290E-01
         0.84490E-01
         0.92227E-01
         0.97507E-01
         0.98302E-01
         0.90223E-01
         0.87070E-01
         0.90423E-01
         0.89503E-01
         0.88917E-01
         0.88535E-01
  
SCALARS                      strain_yz  double 1
LOOKUP_TABLE default
        -0.22472E-01
         0.72229E-02
         0.19179E-01
         0.10252E-01
        -0.25171E-09
        -0.69376E-10
        -0.31194E-09
        -0.23793E-09
         0.70209E-01
        -0.46738E-01
        -0.46423E-09
        -0.40870E-09
         0.58640E-01
         0.29762E-02
         0.33223E-09
        -0.21301E-10
        -0.22408E-01
        -0.75207E-01
         0.48879E-11
         0.50013E-10
         0.37492E-01
         0.13667E+00
         0.14941E+00
         0.76158E-09
         0.13152E-08
         0.10994E-08
         0.13491E-01
         0.13231E+00
         0.54782E-09
         0.10628E-08
        -0.25561E-01
        -0.21304E-01
         0.19745E-01
         0.28400E-09
         0.28992E-09
        -0.60190E-11
        -0.74024E-01
        -0.67302E-01
         0.52262E-09
         0.40661E-09
        -0.71118E-01
        -0.43258E-01
         0.39496E-09
         0.36094E-09
        -0.66958E-01
        -0.23470E-01
        -0.13102E-10
         0.20266E-09
        -0.55150E-01
         0.95415E-10
        -0.62096E-02
        -0.77280E-11
        -0.30724E-02
         0.36908E-09
         0.20061E-01
         0.21470E-09
         0.65432E-01
        -0.12246E-01
         0.58246E-11
        -0.11822E-10
        -0.30970E-01
        -0.11107E+00
        -0.79360E-10
        -0.29685E-09
        -0.18901E-01
        -0.16019E-09
        -0.79512E-01
        -0.19515E-09
         0.61088E-01
         0.32200E-01
        -0.24117E-10
         0.31843E-09
         0.11120E+00
         0.69922E-09
         0.16507E+00
         0.67702E-09
         0.16516E+00
         0.51393E-09
         0.13660E+00
         0.43076E-09
         0.20497E+00
         0.16122E+00
         0.27633E-09
        -0.61268E-10
         0.23650E-01
        -0.68555E-11
        -0.10453E+00
        -0.42945E-09
        -0.24196E+00
        -0.75181E-09
        -0.33218E+00
        -0.20416E+00
        -0.11151E-08
        -0.90255E-09
        -0.14531E+00
        -0.70062E-09
        -0.13145E+00
        -0.71677E-09
        -0.12695E+00
        -0.77068E-09
        -0.21055E+00
        -0.17638E+00
        -0.71670E-09
        -0.34341E-09
         0.13511E+00
        -0.52139E-01
         0.25200E-09
        -0.31316E-09
         0.33058E+00
         0.83836E-09
         0.48391E+00
         0.12263E-08
         0.57926E+00
         0.15145E-08
         0.64493E+00
         0.15023E-08
         0.72051E+00
         0.11888E-08
         0.71353E+00
         0.92002E-09
         0.66970E+00
         0.85570E-09
         0.59659E+00
         0.81414E-09
         0.45039E+00
         0.52030E-09
         0.32345E+00
         0.17178E-09
         0.17326E+00
         0.11100E-09
        -0.12950E-01
         0.16684E-09
        -0.17823E+00
         0.86169E-10
        -0.32745E+00
        -0.26059E-09
        -0.50608E+00
        -0.73556E-09
        -0.53802E+00
        -0.11486E-08
        -0.56519E+00
        -0.15058E-08
        -0.71063E+00
        -0.15045E-08
        -0.75224E+00
        -0.13134E-08
        -0.70366E+00
        -0.12800E-08
        -0.56189E+00
        -0.12880E-08
        -0.38250E+00
        -0.10185E-08
        -0.27471E+00
        -0.60227E-09
        -0.20115E+00
        -0.46568E-09
        -0.75663E-02
        -0.38939E-02
        -0.34017E-02
        -0.10629E-02
        -0.34621E-02
        -0.37086E-02
        -0.38729E-03
        -0.59839E-02
        -0.51816E-02
        -0.75615E-02
         0.38886E-02
         0.16559E-01
         0.11374E-01
         0.13194E-02
         0.16767E-01
         0.20075E-02
        -0.17766E-02
         0.11472E-02
         0.14833E-02
        -0.11235E-02
         0.10288E-02
         0.84997E-03
        -0.28452E-02
         0.24002E-03
        -0.51636E-02
         0.76318E-03
         0.39269E-04
         0.68701E-03
         0.82929E-03
        -0.40339E-02
         0.19584E-02
        -0.21104E-02
         0.14242E-02
        -0.34542E-03
         0.55861E-03
         0.30507E-02
         0.68640E-02
         0.14781E-01
         0.13498E-01
         0.11325E-01
         0.10606E-01
         0.26686E-02
        -0.22060E-02
        -0.60427E-02
        -0.99320E-02
        -0.16055E-01
        -0.10629E-01
        -0.76870E-02
        -0.81970E-02
        -0.86522E-02
        -0.10075E-01
        -0.46494E-02
         0.84774E-02
        -0.10311E-01
         0.27878E-01
         0.38621E-01
         0.49214E-01
         0.58108E-01
         0.58036E-01
         0.52402E-01
         0.49904E-01
         0.47141E-01
         0.30362E-01
         0.13558E-01
         0.59968E-02
         0.26489E-02
        -0.40717E-02
        -0.16140E-01
        -0.29665E-01
        -0.38549E-01
        -0.45882E-01
        -0.52841E-01
        -0.50051E-01
        -0.47303E-01
        -0.43966E-01
        -0.30404E-01
        -0.17907E-01
        -0.15769E-01
        -0.15669E-01
        -0.98828E-02
        -0.91453E-02
        -0.21692E-02
        -0.11878E-01
        -0.53422E-02
        -0.42362E-02
        -0.14809E-01
        -0.97117E-02
        -0.13929E-01
         0.73641E-02
         0.31867E-01
         0.18880E-01
         0.27133E-02
         0.31396E-01
         0.59423E-02
        -0.18008E-02
         0.17193E-02
         0.77492E-02
         0.14982E-02
         0.66787E-02
         0.47419E-02
        -0.27491E-02
         0.23205E-02
        -0.93796E-02
         0.23200E-02
         0.58217E-03
         0.10823E-02
        -0.17287E-02
        -0.93564E-02
         0.64041E-02
         0.16870E-02
         0.41394E-02
         0.35941E-02
        -0.17136E-02
         0.52239E-02
         0.99738E-02
         0.23862E-01
         0.21044E-01
         0.18545E-01
         0.13624E-01
        -0.33664E-02
        -0.69341E-02
        -0.86618E-02
        -0.11154E-01
        -0.22784E-01
        -0.13258E-01
        -0.87673E-02
        -0.11019E-01
        -0.13008E-01
        -0.13478E-01
        -0.10113E-02
         0.16784E-01
        -0.24007E-01
         0.55862E-01
         0.72193E-01
         0.93159E-01
         0.11176E+00
         0.10949E+00
         0.95648E-01
         0.91669E-01
         0.90681E-01
         0.56947E-01
         0.18770E-01
         0.74821E-02
         0.64117E-02
        -0.29691E-02
        -0.25184E-01
        -0.50447E-01
        -0.70195E-01
        -0.91365E-01
        -0.10130E+00
        -0.88982E-01
        -0.84134E-01
        -0.83871E-01
        -0.59057E-01
        -0.30677E-01
        -0.29047E-01
        -0.15679E-01
        -0.98846E-02
        -0.91498E-02
        -0.21851E-02
        -0.11879E-01
        -0.53463E-02
        -0.42416E-02
        -0.14834E-01
        -0.97291E-02
        -0.13981E-01
         0.73685E-02
         0.31864E-01
         0.18885E-01
         0.27134E-02
         0.31437E-01
         0.59426E-02
        -0.18172E-02
         0.17167E-02
         0.77544E-02
         0.14898E-02
         0.66952E-02
         0.47464E-02
        -0.27497E-02
         0.23194E-02
        -0.94221E-02
         0.23158E-02
         0.58903E-03
         0.10883E-02
        -0.17173E-02
        -0.93762E-02
         0.64053E-02
         0.16833E-02
         0.41485E-02
         0.36000E-02
        -0.16976E-02
         0.52273E-02
         0.99734E-02
         0.23899E-01
         0.21089E-01
         0.18567E-01
         0.13634E-01
        -0.33574E-02
        -0.69412E-02
        -0.86662E-02
        -0.11154E-01
        -0.22784E-01
        -0.13259E-01
        -0.87621E-02
        -0.11004E-01
        -0.12991E-01
        -0.13472E-01
        -0.99600E-03
         0.16769E-01
        -0.24009E-01
         0.55872E-01
         0.72194E-01
         0.93148E-01
         0.11173E+00
         0.10944E+00
         0.95619E-01
         0.91649E-01
         0.90656E-01
         0.56935E-01
         0.18779E-01
         0.74815E-02
         0.64249E-02
        -0.29449E-02
        -0.25197E-01
        -0.50470E-01
        -0.70211E-01
        -0.91363E-01
        -0.10130E+00
        -0.88975E-01
        -0.84131E-01
        -0.83849E-01
        -0.59015E-01
        -0.30643E-01
        -0.29009E-01
        -0.15689E-01
        -0.98865E-02
        -0.91544E-02
        -0.22012E-02
        -0.11880E-01
        -0.53507E-02
        -0.42469E-02
        -0.14859E-01
        -0.97467E-02
        -0.14032E-01
         0.73729E-02
         0.31862E-01
         0.18890E-01
         0.27131E-02
         0.31476E-01
         0.59430E-02
        -0.18338E-02
         0.17141E-02
         0.77598E-02
         0.14813E-02
         0.67119E-02
         0.47509E-02
        -0.27508E-02
         0.23180E-02
        -0.94641E-02
         0.23110E-02
         0.59636E-03
         0.10947E-02
        -0.17049E-02
        -0.93953E-02
         0.64063E-02
         0.16788E-02
         0.41578E-02
         0.36058E-02
        -0.16814E-02
         0.52309E-02
         0.99727E-02
         0.23936E-01
         0.21135E-01
         0.18588E-01
         0.13645E-01
        -0.33474E-02
        -0.69479E-02
        -0.86718E-02
        -0.11155E-01
        -0.22784E-01
        -0.13260E-01
        -0.87566E-02
        -0.10990E-01
        -0.12973E-01
        -0.13467E-01
        -0.98075E-03
         0.16753E-01
        -0.24010E-01
         0.55883E-01
         0.72194E-01
         0.93137E-01
         0.11169E+00
         0.10940E+00
         0.95591E-01
         0.91630E-01
         0.90631E-01
         0.56924E-01
         0.18788E-01
         0.74811E-02
         0.64381E-02
        -0.29206E-02
        -0.25211E-01
        -0.50494E-01
        -0.70228E-01
        -0.91362E-01
        -0.10129E+00
        -0.88969E-01
        -0.84127E-01
        -0.83828E-01
        -0.58973E-01
        -0.30609E-01
        -0.28971E-01
        -0.15698E-01
        -0.98883E-02
        -0.91591E-02
        -0.22174E-02
        -0.11882E-01
        -0.53551E-02
        -0.42525E-02
        -0.14884E-01
        -0.97643E-02
        -0.14083E-01
         0.73773E-02
         0.31859E-01
         0.18895E-01
         0.27132E-02
         0.31517E-01
         0.59435E-02
        -0.18506E-02
         0.17114E-02
         0.77655E-02
         0.14723E-02
         0.67290E-02
         0.47549E-02
        -0.27532E-02
         0.23157E-02
        -0.95047E-02
         0.23047E-02
         0.60393E-03
         0.11033E-02
        -0.16894E-02
        -0.94127E-02
         0.64067E-02
         0.16728E-02
         0.41669E-02
         0.36117E-02
        -0.16653E-02
         0.52343E-02
         0.99720E-02
         0.23973E-01
         0.21181E-01
         0.18612E-01
         0.13658E-01
        -0.33347E-02
        -0.69534E-02
        -0.86803E-02
        -0.11159E-01
        -0.22785E-01
        -0.13263E-01
        -0.87514E-02
        -0.10975E-01
        -0.12956E-01
        -0.13461E-01
        -0.96553E-03
         0.16737E-01
        -0.24012E-01
         0.55893E-01
         0.72195E-01
         0.93125E-01
         0.11165E+00
         0.10935E+00
         0.95562E-01
         0.91611E-01
         0.90606E-01
         0.56913E-01
         0.18799E-01
         0.74812E-02
         0.64511E-02
        -0.28961E-02
        -0.25226E-01
        -0.50521E-01
        -0.70247E-01
        -0.91361E-01
        -0.10129E+00
        -0.88963E-01
        -0.84124E-01
        -0.83807E-01
        -0.58931E-01
        -0.30576E-01
        -0.28933E-01
        -0.15708E-01
        -0.98901E-02
        -0.91637E-02
        -0.22334E-02
        -0.11883E-01
        -0.53593E-02
        -0.42577E-02
        -0.14909E-01
        -0.97818E-02
        -0.14134E-01
         0.73818E-02
         0.31856E-01
         0.18900E-01
         0.27133E-02
         0.31557E-01
         0.59441E-02
        -0.18677E-02
         0.17087E-02
         0.77715E-02
         0.14628E-02
         0.67462E-02
         0.47584E-02
        -0.27568E-02
         0.23124E-02
        -0.95438E-02
         0.22967E-02
         0.61236E-03
         0.11137E-02
        -0.16709E-02
        -0.94281E-02
         0.64068E-02
         0.16649E-02
         0.41760E-02
         0.36175E-02
        -0.16490E-02
         0.52377E-02
         0.99716E-02
         0.24010E-01
         0.21228E-01
         0.18636E-01
         0.13672E-01
        -0.33190E-02
        -0.69576E-02
        -0.86919E-02
        -0.11164E-01
        -0.22788E-01
        -0.13266E-01
        -0.87466E-02
        -0.10961E-01
        -0.12938E-01
        -0.13455E-01
        -0.95022E-03
         0.16722E-01
        -0.24013E-01
         0.55903E-01
         0.72195E-01
         0.93114E-01
         0.11161E+00
         0.10931E+00
         0.95533E-01
         0.91592E-01
         0.90581E-01
         0.56904E-01
         0.18812E-01
         0.74820E-02
         0.64638E-02
        -0.28715E-02
        -0.25242E-01
        -0.50552E-01
        -0.70268E-01
        -0.91360E-01
        -0.10128E+00
        -0.88957E-01
        -0.84121E-01
        -0.83786E-01
        -0.58889E-01
        -0.30542E-01
        -0.28895E-01
        -0.15717E-01
        -0.98913E-02
        -0.91682E-02
        -0.22497E-02
        -0.11885E-01
        -0.53636E-02
        -0.42624E-02
        -0.14932E-01
        -0.97996E-02
        -0.14183E-01
         0.73868E-02
         0.31854E-01
         0.18905E-01
         0.27138E-02
         0.31597E-01
         0.59448E-02
        -0.18852E-02
         0.17061E-02
         0.77774E-02
         0.14531E-02
         0.67635E-02
         0.47618E-02
        -0.27610E-02
         0.23089E-02
        -0.95819E-02
         0.22882E-02
         0.62143E-03
         0.11252E-02
        -0.16511E-02
        -0.94427E-02
         0.64064E-02
         0.16561E-02
         0.41853E-02
         0.36237E-02
        -0.16327E-02
         0.52415E-02
         0.99715E-02
         0.24048E-01
         0.21276E-01
         0.18662E-01
         0.13687E-01
        -0.33025E-02
        -0.69612E-02
        -0.87045E-02
        -0.11171E-01
        -0.22792E-01
        -0.13269E-01
        -0.87427E-02
        -0.10947E-01
        -0.12921E-01
        -0.13449E-01
        -0.93492E-03
         0.16706E-01
        -0.24014E-01
         0.55914E-01
         0.72196E-01
         0.93103E-01
         0.11158E+00
         0.10926E+00
         0.95504E-01
         0.91573E-01
         0.90556E-01
         0.56895E-01
         0.18826E-01
         0.74830E-02
         0.64765E-02
        -0.28470E-02
        -0.25258E-01
        -0.50584E-01
        -0.70290E-01
        -0.91358E-01
        -0.10127E+00
        -0.88951E-01
        -0.84118E-01
        -0.83764E-01
        -0.58847E-01
        -0.30509E-01
        -0.28857E-01
        -0.15726E-01
        -0.98910E-02
        -0.91726E-02
        -0.22664E-02
        -0.11886E-01
        -0.53680E-02
        -0.42661E-02
        -0.14954E-01
        -0.98176E-02
        -0.14230E-01
         0.73928E-02
         0.31852E-01
         0.18911E-01
         0.27159E-02
         0.31637E-01
         0.59458E-02
        -0.19031E-02
         0.17035E-02
         0.77834E-02
         0.14434E-02
         0.67810E-02
         0.47653E-02
        -0.27652E-02
         0.23054E-02
        -0.96192E-02
         0.22797E-02
         0.63211E-03
         0.11375E-02
        -0.16309E-02
        -0.94570E-02
         0.64058E-02
         0.16467E-02
         0.41949E-02
         0.36301E-02
        -0.16163E-02
         0.52455E-02
         0.99718E-02
         0.24086E-01
         0.21324E-01
         0.18687E-01
         0.13703E-01
        -0.32856E-02
        -0.69646E-02
        -0.87171E-02
        -0.11178E-01
        -0.22797E-01
        -0.13275E-01
        -0.87413E-02
        -0.10936E-01
        -0.12905E-01
        -0.13444E-01
        -0.91943E-03
         0.16690E-01
        -0.24016E-01
         0.55924E-01
         0.72196E-01
         0.93092E-01
         0.11154E+00
         0.10921E+00
         0.95475E-01
         0.91554E-01
         0.90530E-01
         0.56886E-01
         0.18840E-01
         0.74841E-02
         0.64893E-02
        -0.28224E-02
        -0.25275E-01
        -0.50617E-01
        -0.70311E-01
        -0.91356E-01
        -0.10127E+00
        -0.88946E-01
        -0.84116E-01
        -0.83743E-01
        -0.58805E-01
        -0.30476E-01
        -0.28818E-01
        -0.15734E-01
        -0.98904E-02
        -0.91771E-02
        -0.22833E-02
        -0.11888E-01
        -0.53723E-02
        -0.42689E-02
        -0.14974E-01
        -0.98358E-02
        -0.14276E-01
         0.73995E-02
         0.31851E-01
         0.18917E-01
         0.27183E-02
         0.31678E-01
         0.59469E-02
        -0.19212E-02
         0.17008E-02
         0.77895E-02
         0.14337E-02
         0.67984E-02
         0.47689E-02
        -0.27693E-02
         0.23020E-02
        -0.96561E-02
         0.22712E-02
         0.64322E-03
         0.11500E-02
        -0.16106E-02
        -0.94711E-02
         0.64052E-02
         0.16369E-02
         0.42047E-02
         0.36367E-02
        -0.15998E-02
         0.52499E-02
         0.99726E-02
         0.24124E-01
         0.21372E-01
         0.18713E-01
         0.13718E-01
        -0.32687E-02
        -0.69680E-02
        -0.87299E-02
        -0.11186E-01
        -0.22802E-01
        -0.13281E-01
        -0.87406E-02
        -0.10925E-01
        -0.12888E-01
        -0.13438E-01
        -0.90395E-03
         0.16675E-01
        -0.24017E-01
         0.55933E-01
         0.72197E-01
         0.93080E-01
         0.11150E+00
         0.10917E+00
         0.95446E-01
         0.91535E-01
         0.90505E-01
         0.56876E-01
         0.18854E-01
         0.74851E-02
         0.65023E-02
        -0.27978E-02
        -0.25291E-01
        -0.50649E-01
        -0.70332E-01
        -0.91353E-01
        -0.10126E+00
        -0.88942E-01
        -0.84114E-01
        -0.83721E-01
        -0.58763E-01
        -0.30442E-01
        -0.28780E-01
        -0.15742E-01
        -0.98897E-02
        -0.91814E-02
        -0.23002E-02
        -0.11889E-01
        -0.53765E-02
        -0.42718E-02
        -0.14994E-01
        -0.98541E-02
        -0.14321E-01
         0.74058E-02
         0.31849E-01
         0.18923E-01
         0.27211E-02
         0.31719E-01
         0.59481E-02
        -0.19394E-02
         0.16981E-02
         0.77954E-02
         0.14240E-02
         0.68157E-02
         0.47725E-02
        -0.27734E-02
         0.22987E-02
        -0.96929E-02
         0.22628E-02
         0.65460E-03
         0.11625E-02
        -0.15904E-02
        -0.94853E-02
         0.64044E-02
         0.16272E-02
         0.42144E-02
         0.36433E-02
        -0.15832E-02
         0.52539E-02
         0.99731E-02
         0.24163E-01
         0.21421E-01
         0.18738E-01
         0.13733E-01
        -0.32519E-02
        -0.69714E-02
        -0.87427E-02
        -0.11194E-01
        -0.22807E-01
        -0.13286E-01
        -0.87401E-02
        -0.10915E-01
        -0.12872E-01
        -0.13433E-01
        -0.88840E-03
         0.16659E-01
        -0.24018E-01
         0.55943E-01
         0.72197E-01
         0.93069E-01
         0.11146E+00
         0.10912E+00
         0.95417E-01
         0.91517E-01
         0.90479E-01
         0.56867E-01
         0.18868E-01
         0.74864E-02
         0.65155E-02
        -0.27733E-02
        -0.25307E-01
        -0.50681E-01
        -0.70353E-01
        -0.91351E-01
        -0.10125E+00
        -0.88938E-01
        -0.84112E-01
        -0.83698E-01
        -0.58721E-01
        -0.30409E-01
        -0.28742E-01
        -0.15750E-01
        -0.98889E-02
        -0.91858E-02
        -0.23170E-02
        -0.11891E-01
        -0.53807E-02
        -0.42747E-02
        -0.15014E-01
        -0.98724E-02
        -0.14367E-01
         0.74124E-02
         0.31847E-01
         0.18930E-01
         0.27235E-02
         0.31759E-01
         0.59492E-02
        -0.19577E-02
         0.16953E-02
         0.78014E-02
         0.14141E-02
         0.68331E-02
         0.47760E-02
        -0.27774E-02
         0.22953E-02
        -0.97296E-02
         0.22543E-02
         0.66568E-03
         0.11748E-02
        -0.15702E-02
        -0.94994E-02
         0.64037E-02
         0.16174E-02
         0.42241E-02
         0.36499E-02
        -0.15666E-02
         0.52582E-02
         0.99739E-02
         0.24202E-01
         0.21470E-01
         0.18764E-01
         0.13749E-01
        -0.32352E-02
        -0.69749E-02
        -0.87553E-02
        -0.11201E-01
        -0.22812E-01
        -0.13293E-01
        -0.87398E-02
        -0.10904E-01
        -0.12856E-01
        -0.13427E-01
        -0.87291E-03
         0.16643E-01
        -0.24019E-01
         0.55953E-01
         0.72198E-01
         0.93058E-01
         0.11142E+00
         0.10907E+00
         0.95388E-01
         0.91498E-01
         0.90453E-01
         0.56858E-01
         0.18881E-01
         0.74876E-02
         0.65286E-02
        -0.27488E-02
        -0.25324E-01
        -0.50713E-01
        -0.70374E-01
        -0.91348E-01
        -0.10125E+00
        -0.88934E-01
        -0.84110E-01
        -0.83676E-01
        -0.58678E-01
        -0.30376E-01
        -0.28704E-01
        -0.15758E-01
        -0.98881E-02
        -0.91902E-02
        -0.23338E-02
        -0.11892E-01
        -0.53850E-02
        -0.42779E-02
        -0.15034E-01
        -0.98907E-02
        -0.14413E-01
         0.74190E-02
         0.31846E-01
         0.18936E-01
         0.27262E-02
         0.31800E-01
         0.59504E-02
        -0.19760E-02
         0.16926E-02
         0.78073E-02
         0.14042E-02
         0.68504E-02
         0.47793E-02
        -0.27815E-02
         0.22920E-02
        -0.97663E-02
         0.22459E-02
         0.67695E-03
         0.11869E-02
        -0.15500E-02
        -0.95135E-02
         0.64030E-02
         0.16077E-02
         0.42338E-02
         0.36566E-02
        -0.15500E-02
         0.52624E-02
         0.99747E-02
         0.24240E-01
         0.21518E-01
         0.18789E-01
         0.13764E-01
        -0.32184E-02
        -0.69783E-02
        -0.87678E-02
        -0.11209E-01
        -0.22817E-01
        -0.13299E-01
        -0.87392E-02
        -0.10894E-01
        -0.12840E-01
        -0.13422E-01
        -0.85737E-03
         0.16627E-01
        -0.24021E-01
         0.55962E-01
         0.72198E-01
         0.93047E-01
         0.11139E+00
         0.10903E+00
         0.95359E-01
         0.91479E-01
         0.90427E-01
         0.56849E-01
         0.18895E-01
         0.74887E-02
         0.65415E-02
        -0.27242E-02
        -0.25340E-01
        -0.50745E-01
        -0.70395E-01
        -0.91346E-01
        -0.10124E+00
        -0.88930E-01
        -0.84108E-01
        -0.83654E-01
        -0.58636E-01
        -0.30343E-01
        -0.28666E-01
        -0.15766E-01
        -0.98874E-02
        -0.91945E-02
        -0.23508E-02
        -0.11894E-01
        -0.53893E-02
        -0.42807E-02
        -0.15055E-01
        -0.99090E-02
        -0.14458E-01
         0.74257E-02
         0.31844E-01
         0.18942E-01
         0.27288E-02
         0.31841E-01
         0.59516E-02
        -0.19943E-02
         0.16899E-02
         0.78133E-02
         0.13944E-02
         0.68678E-02
         0.47827E-02
        -0.27856E-02
         0.22887E-02
        -0.98029E-02
         0.22375E-02
         0.68797E-03
         0.11990E-02
        -0.15299E-02
        -0.95276E-02
         0.64022E-02
         0.15980E-02
         0.42434E-02
         0.36633E-02
        -0.15332E-02
         0.52666E-02
         0.99752E-02
         0.24279E-01
         0.21567E-01
         0.18814E-01
         0.13780E-01
        -0.32018E-02
        -0.69816E-02
        -0.87805E-02
        -0.11217E-01
        -0.22823E-01
        -0.13305E-01
        -0.87390E-02
        -0.10884E-01
        -0.12824E-01
        -0.13417E-01
        -0.84185E-03
         0.16611E-01
        -0.24022E-01
         0.55971E-01
         0.72199E-01
         0.93036E-01
         0.11135E+00
         0.10898E+00
         0.95330E-01
         0.91460E-01
         0.90401E-01
         0.56839E-01
         0.18908E-01
         0.74899E-02
         0.65545E-02
        -0.26995E-02
        -0.25357E-01
        -0.50777E-01
        -0.70416E-01
        -0.91343E-01
        -0.10123E+00
        -0.88925E-01
        -0.84106E-01
        -0.83632E-01
        -0.58594E-01
        -0.30310E-01
        -0.28628E-01
        -0.15774E-01
        -0.98866E-02
        -0.91989E-02
        -0.23678E-02
        -0.11895E-01
        -0.53936E-02
        -0.42836E-02
        -0.15075E-01
        -0.99274E-02
        -0.14504E-01
         0.74323E-02
         0.31843E-01
         0.18949E-01
         0.27311E-02
         0.31882E-01
         0.59527E-02
        -0.20127E-02
         0.16871E-02
         0.78192E-02
         0.13847E-02
         0.68852E-02
         0.47861E-02
        -0.27897E-02
         0.22855E-02
        -0.98395E-02
         0.22291E-02
         0.69930E-03
         0.12109E-02
        -0.15098E-02
        -0.95416E-02
         0.64015E-02
         0.15882E-02
         0.42530E-02
         0.36699E-02
        -0.15165E-02
         0.52710E-02
         0.99760E-02
         0.24318E-01
         0.21615E-01
         0.18840E-01
         0.13795E-01
        -0.31850E-02
        -0.69850E-02
        -0.87932E-02
        -0.11225E-01
        -0.22827E-01
        -0.13311E-01
        -0.87385E-02
        -0.10873E-01
        -0.12808E-01
        -0.13411E-01
        -0.82638E-03
         0.16595E-01
        -0.24023E-01
         0.55981E-01
         0.72200E-01
         0.93025E-01
         0.11131E+00
         0.10893E+00
         0.95301E-01
         0.91441E-01
         0.90374E-01
         0.56830E-01
         0.18922E-01
         0.74910E-02
         0.65675E-02
        -0.26749E-02
        -0.25373E-01
        -0.50809E-01
        -0.70437E-01
        -0.91341E-01
        -0.10123E+00
        -0.88921E-01
        -0.84105E-01
        -0.83610E-01
        -0.58552E-01
        -0.30277E-01
        -0.28589E-01
        -0.15781E-01
        -0.98859E-02
        -0.92033E-02
        -0.23847E-02
        -0.11897E-01
        -0.53978E-02
        -0.42869E-02
        -0.15094E-01
        -0.99457E-02
        -0.14549E-01
         0.74389E-02
         0.31841E-01
         0.18955E-01
         0.27337E-02
         0.31922E-01
         0.59538E-02
        -0.20311E-02
         0.16843E-02
         0.78251E-02
         0.13749E-02
         0.69025E-02
         0.47895E-02
        -0.27938E-02
         0.22822E-02
        -0.98761E-02
         0.22206E-02
         0.71034E-03
         0.12227E-02
        -0.14898E-02
        -0.95556E-02
         0.64007E-02
         0.15785E-02
         0.42627E-02
         0.36766E-02
        -0.14996E-02
         0.52751E-02
         0.99765E-02
         0.24357E-01
         0.21664E-01
         0.18865E-01
         0.13810E-01
        -0.31682E-02
        -0.69883E-02
        -0.88058E-02
        -0.11232E-01
        -0.22833E-01
        -0.13317E-01
        -0.87380E-02
        -0.10863E-01
        -0.12792E-01
        -0.13406E-01
        -0.81100E-03
         0.16580E-01
        -0.24024E-01
         0.55990E-01
         0.72200E-01
         0.93013E-01
         0.11127E+00
         0.10889E+00
         0.95271E-01
         0.91423E-01
         0.90348E-01
         0.56820E-01
         0.18936E-01
         0.74921E-02
         0.65806E-02
        -0.26504E-02
        -0.25389E-01
        -0.50842E-01
        -0.70458E-01
        -0.91339E-01
        -0.10122E+00
        -0.88917E-01
        -0.84103E-01
        -0.83587E-01
        -0.58510E-01
        -0.30244E-01
        -0.28551E-01
        -0.15789E-01
        -0.98852E-02
        -0.92077E-02
        -0.24017E-02
        -0.11898E-01
        -0.54020E-02
        -0.42898E-02
        -0.15114E-01
        -0.99642E-02
        -0.14594E-01
         0.74456E-02
         0.31840E-01
         0.18961E-01
         0.27359E-02
         0.31963E-01
         0.59549E-02
        -0.20497E-02
         0.16816E-02
         0.78310E-02
         0.13650E-02
         0.69199E-02
         0.47928E-02
        -0.27978E-02
         0.22790E-02
        -0.99127E-02
         0.22122E-02
         0.72157E-03
         0.12342E-02
        -0.14699E-02
        -0.95697E-02
         0.63999E-02
         0.15686E-02
         0.42723E-02
         0.36832E-02
        -0.14828E-02
         0.52794E-02
         0.99771E-02
         0.24396E-01
         0.21713E-01
         0.18890E-01
         0.13826E-01
        -0.31515E-02
        -0.69917E-02
        -0.88184E-02
        -0.11240E-01
        -0.22838E-01
        -0.13323E-01
        -0.87378E-02
        -0.10852E-01
        -0.12775E-01
        -0.13400E-01
        -0.79551E-03
         0.16564E-01
        -0.24025E-01
         0.56000E-01
         0.72201E-01
         0.93002E-01
         0.11123E+00
         0.10884E+00
         0.95242E-01
         0.91404E-01
         0.90321E-01
         0.56811E-01
         0.18949E-01
         0.74933E-02
         0.65936E-02
        -0.26259E-02
        -0.25406E-01
        -0.50874E-01
        -0.70479E-01
        -0.91336E-01
        -0.10121E+00
        -0.88913E-01
        -0.84101E-01
        -0.83565E-01
        -0.58468E-01
        -0.30211E-01
        -0.28513E-01
        -0.15797E-01
        -0.98843E-02
        -0.92120E-02
        -0.24186E-02
        -0.11900E-01
        -0.54063E-02
        -0.42928E-02
        -0.15134E-01
        -0.99827E-02
        -0.14639E-01
         0.74522E-02
         0.31838E-01
         0.18968E-01
         0.27385E-02
         0.32004E-01
         0.59561E-02
        -0.20683E-02
         0.16788E-02
         0.78370E-02
         0.13552E-02
         0.69373E-02
         0.47960E-02
        -0.28018E-02
         0.22759E-02
        -0.99492E-02
         0.22038E-02
         0.73251E-03
         0.12457E-02
        -0.14500E-02
        -0.95837E-02
         0.63992E-02
         0.15589E-02
         0.42819E-02
         0.36900E-02
        -0.14659E-02
         0.52836E-02
         0.99778E-02
         0.24435E-01
         0.21761E-01
         0.18914E-01
         0.13841E-01
        -0.31348E-02
        -0.69952E-02
        -0.88308E-02
        -0.11248E-01
        -0.22843E-01
        -0.13329E-01
        -0.87373E-02
        -0.10842E-01
        -0.12759E-01
        -0.13395E-01
        -0.78002E-03
         0.16548E-01
        -0.24026E-01
         0.56009E-01
         0.72201E-01
         0.92991E-01
         0.11119E+00
         0.10879E+00
         0.95213E-01
         0.91385E-01
         0.90294E-01
         0.56802E-01
         0.18963E-01
         0.74943E-02
         0.66064E-02
        -0.26013E-02
        -0.25422E-01
        -0.50906E-01
        -0.70500E-01
        -0.91334E-01
        -0.10121E+00
        -0.88909E-01
        -0.84099E-01
        -0.83543E-01
        -0.58426E-01
        -0.30179E-01
        -0.28475E-01
        -0.15805E-01
        -0.98835E-02
        -0.92164E-02
        -0.24356E-02
        -0.11901E-01
        -0.54105E-02
        -0.42960E-02
        -0.15154E-01
        -0.10001E-01
        -0.14684E-01
         0.74589E-02
         0.31836E-01
         0.18974E-01
         0.27406E-02
         0.32045E-01
         0.59573E-02
        -0.20870E-02
         0.16760E-02
         0.78429E-02
         0.13455E-02
         0.69547E-02
         0.47991E-02
        -0.28059E-02
         0.22727E-02
        -0.99858E-02
         0.21953E-02
         0.74374E-03
         0.12570E-02
        -0.14301E-02
        -0.95974E-02
         0.63983E-02
         0.15491E-02
         0.42915E-02
         0.36967E-02
        -0.14489E-02
         0.52878E-02
         0.99783E-02
         0.24475E-01
         0.21810E-01
         0.18939E-01
         0.13856E-01
        -0.31183E-02
        -0.69987E-02
        -0.88435E-02
        -0.11256E-01
        -0.22848E-01
        -0.13336E-01
        -0.87371E-02
        -0.10832E-01
        -0.12743E-01
        -0.13390E-01
        -0.76467E-03
         0.16532E-01
        -0.24027E-01
         0.56018E-01
         0.72202E-01
         0.92980E-01
         0.11116E+00
         0.10874E+00
         0.95183E-01
         0.91367E-01
         0.90267E-01
         0.56793E-01
         0.18977E-01
         0.74951E-02
         0.66192E-02
        -0.25768E-02
        -0.25438E-01
        -0.50938E-01
        -0.70521E-01
        -0.91331E-01
        -0.10120E+00
        -0.88905E-01
        -0.84097E-01
        -0.83520E-01
        -0.58384E-01
        -0.30146E-01
        -0.28437E-01
        -0.15812E-01
        -0.98827E-02
        -0.92207E-02
        -0.24526E-02
        -0.11903E-01
        -0.54147E-02
        -0.42990E-02
        -0.15174E-01
        -0.10020E-01
        -0.14730E-01
         0.74655E-02
         0.31835E-01
         0.18980E-01
         0.27431E-02
         0.32086E-01
         0.59584E-02
        -0.21059E-02
         0.16732E-02
         0.78488E-02
         0.13363E-02
         0.69720E-02
         0.48021E-02
        -0.28100E-02
         0.22695E-02
        -0.10022E-01
         0.21869E-02
         0.75486E-03
         0.12682E-02
        -0.14103E-02
        -0.96102E-02
         0.63975E-02
         0.15392E-02
         0.43010E-02
         0.37034E-02
        -0.14319E-02
         0.52922E-02
         0.99790E-02
         0.24515E-01
         0.21859E-01
         0.18963E-01
         0.13871E-01
        -0.31015E-02
        -0.70023E-02
        -0.88561E-02
        -0.11264E-01
        -0.22854E-01
        -0.13341E-01
        -0.87366E-02
        -0.10821E-01
        -0.12727E-01
        -0.13384E-01
        -0.74929E-03
         0.16516E-01
        -0.24028E-01
         0.56027E-01
         0.72202E-01
         0.92969E-01
         0.11112E+00
         0.10869E+00
         0.95154E-01
         0.91348E-01
         0.90238E-01
         0.56785E-01
         0.18991E-01
         0.74954E-02
         0.66320E-02
        -0.25524E-02
        -0.25454E-01
        -0.50970E-01
        -0.70542E-01
        -0.91329E-01
        -0.10119E+00
        -0.88901E-01
        -0.84095E-01
        -0.83497E-01
        -0.58342E-01
        -0.30114E-01
        -0.28398E-01
        -0.15820E-01
        -0.98820E-02
        -0.92251E-02
        -0.24696E-02
        -0.11904E-01
        -0.54188E-02
        -0.43019E-02
        -0.15193E-01
        -0.10039E-01
        -0.14775E-01
         0.74721E-02
         0.31833E-01
         0.18987E-01
         0.27455E-02
         0.32127E-01
         0.59595E-02
        -0.21251E-02
         0.16703E-02
         0.78548E-02
         0.13274E-02
         0.69893E-02
         0.48050E-02
        -0.28140E-02
         0.22664E-02
        -0.10059E-01
         0.21784E-02
         0.76646E-03
         0.12793E-02
        -0.13905E-02
        -0.96223E-02
         0.63966E-02
         0.15294E-02
         0.43105E-02
         0.37101E-02
        -0.14148E-02
         0.52963E-02
         0.99796E-02
         0.24555E-01
         0.21907E-01
         0.18985E-01
         0.13886E-01
        -0.30848E-02
        -0.70061E-02
        -0.88686E-02
        -0.11272E-01
        -0.22859E-01
        -0.13348E-01
        -0.87362E-02
        -0.10811E-01
        -0.12711E-01
        -0.13379E-01
        -0.73380E-03
         0.16500E-01
        -0.24029E-01
         0.56036E-01
         0.72203E-01
         0.92957E-01
         0.11108E+00
         0.10865E+00
         0.95125E-01
         0.91328E-01
         0.90208E-01
         0.56778E-01
         0.19005E-01
         0.74952E-02
         0.66448E-02
        -0.25278E-02
        -0.25470E-01
        -0.51003E-01
        -0.70563E-01
        -0.91327E-01
        -0.10119E+00
        -0.88897E-01
        -0.84093E-01
        -0.83475E-01
        -0.58300E-01
        -0.30082E-01
        -0.28360E-01
        -0.15828E-01
        -0.98813E-02
        -0.92297E-02
        -0.24866E-02
        -0.11906E-01
        -0.54231E-02
        -0.43052E-02
        -0.15213E-01
        -0.10058E-01
        -0.14820E-01
         0.74788E-02
         0.31832E-01
         0.18993E-01
         0.27476E-02
         0.32167E-01
         0.59607E-02
        -0.21445E-02
         0.16675E-02
         0.78608E-02
         0.13188E-02
         0.70068E-02
         0.48080E-02
        -0.28178E-02
         0.22635E-02
        -0.10095E-01
         0.21702E-02
         0.77776E-03
         0.12899E-02
        -0.13710E-02
        -0.96342E-02
         0.63959E-02
         0.15199E-02
         0.43201E-02
         0.37170E-02
        -0.13979E-02
         0.53005E-02
         0.99799E-02
         0.24595E-01
         0.21955E-01
         0.19007E-01
         0.13901E-01
        -0.30685E-02
        -0.70102E-02
        -0.88809E-02
        -0.11279E-01
        -0.22864E-01
        -0.13354E-01
        -0.87358E-02
        -0.10801E-01
        -0.12695E-01
        -0.13374E-01
        -0.71841E-03
         0.16483E-01
        -0.24030E-01
         0.56045E-01
         0.72203E-01
         0.92947E-01
         0.11104E+00
         0.10860E+00
         0.95096E-01
         0.91309E-01
         0.90177E-01
         0.56771E-01
         0.19019E-01
         0.74944E-02
         0.66575E-02
        -0.25033E-02
        -0.25486E-01
        -0.51035E-01
        -0.70584E-01
        -0.91325E-01
        -0.10118E+00
        -0.88893E-01
        -0.84091E-01
        -0.83452E-01
        -0.58258E-01
        -0.30050E-01
        -0.28322E-01
        -0.15898E-01
        -0.99214E-02
        -0.92725E-02
        -0.25128E-02
        -0.11955E-01
        -0.54483E-02
        -0.43262E-02
        -0.15291E-01
        -0.10115E-01
        -0.14920E-01
         0.75145E-02
         0.31951E-01
         0.19071E-01
         0.27605E-02
         0.32331E-01
         0.59860E-02
        -0.21712E-02
         0.16713E-02
         0.78975E-02
         0.13163E-02
         0.70493E-02
         0.48291E-02
        -0.28299E-02
         0.22711E-02
        -0.10170E-01
         0.21733E-02
         0.79120E-03
         0.13032E-02
        -0.13605E-02
        -0.96852E-02
         0.64217E-02
         0.15191E-02
         0.43464E-02
         0.37384E-02
        -0.13880E-02
         0.53228E-02
         0.10017E-01
         0.24728E-01
         0.22086E-01
         0.19103E-01
         0.13968E-01
        -0.30679E-02
        -0.70430E-02
        -0.89222E-02
        -0.11326E-01
        -0.22951E-01
        -0.13407E-01
        -0.87660E-02
        -0.10831E-01
        -0.12728E-01
        -0.13419E-01
        -0.70596E-03
         0.16527E-01
        -0.24123E-01
         0.56262E-01
         0.72471E-01
         0.93286E-01
         0.11143E+00
         0.10898E+00
         0.95447E-01
         0.91654E-01
         0.90511E-01
         0.56989E-01
         0.19101E-01
         0.75191E-02
         0.66928E-02
        -0.24887E-02
        -0.25586E-01
        -0.51237E-01
        -0.70855E-01
        -0.91665E-01
        -0.10155E+00
        -0.89210E-01
        -0.84388E-01
        -0.83732E-01
        -0.58431E-01
        -0.30129E-01
        -0.28388E-01
        -0.23692E-01
        -0.14845E-01
        -0.13797E-01
        -0.37714E-02
        -0.17169E-01
        -0.79033E-02
        -0.64612E-02
        -0.22688E-01
        -0.15051E-01
        -0.22095E-01
         0.11030E-01
         0.45042E-01
         0.27294E-01
         0.40356E-02
         0.45845E-01
         0.89299E-02
        -0.32494E-02
         0.24914E-02
         0.11626E-01
         0.19372E-02
         0.10099E-01
         0.69980E-02
        -0.40562E-02
         0.33679E-02
        -0.15212E-01
         0.32488E-02
         0.11759E-02
         0.19500E-02
        -0.20259E-02
        -0.14459E-01
         0.95807E-02
         0.22586E-02
         0.65065E-02
         0.55885E-02
        -0.19296E-02
         0.77084E-02
         0.14506E-01
         0.35842E-01
         0.32476E-01
         0.28185E-01
         0.20325E-01
        -0.44882E-02
        -0.10324E-01
        -0.12890E-01
        -0.16306E-01
        -0.32099E-01
        -0.19238E-01
        -0.12729E-01
        -0.15807E-01
        -0.18492E-01
        -0.19035E-01
        -0.10045E-02
         0.20624E-01
        -0.30089E-01
         0.70178E-01
         0.90649E-01
         0.11659E+00
         0.13960E+00
         0.13805E+00
         0.12194E+00
         0.11689E+00
         0.11474E+00
         0.72336E-01
         0.24203E-01
         0.96285E-02
         0.86114E-02
        -0.31371E-02
        -0.32095E-01
        -0.64079E-01
        -0.88115E-01
        -0.11392E+00
        -0.12635E+00
        -0.11215E+00
        -0.10657E+00
        -0.10535E+00
        -0.73753E-01
        -0.37903E-01
        -0.35579E-01
  
SCALARS                      strain_xz  double 1
LOOKUP_TABLE default
        -0.37083E-02
         0.25271E-01
         0.85261E-01
        -0.60874E-02
        -0.26053E-09
         0.92376E-10
         0.30889E-09
         0.61690E-10
         0.23430E+00
         0.15844E+00
         0.92390E-09
         0.83220E-09
        -0.95116E-02
         0.38738E-01
        -0.11395E-09
        -0.53380E-09
         0.88507E-02
         0.37278E-01
        -0.38558E-09
        -0.57426E-09
         0.52483E-01
         0.85643E-01
         0.85289E-01
        -0.38346E-09
        -0.17682E-09
         0.30892E-09
         0.90595E-01
         0.70140E-01
        -0.71779E-09
        -0.56939E-09
        -0.20671E-01
         0.43903E-01
        -0.45848E-02
         0.73080E-10
        -0.28241E-09
        -0.17399E-09
        -0.59761E-01
        -0.27176E-01
        -0.41929E-09
        -0.44644E-09
        -0.11641E+00
        -0.15762E+00
        -0.94580E-09
        -0.69748E-09
        -0.12931E+00
        -0.70013E-01
        -0.10386E-08
        -0.49993E-09
         0.32924E-01
        -0.31381E-09
        -0.89583E-01
        -0.87352E-10
         0.32476E-01
        -0.61318E-09
        -0.23901E-01
        -0.16220E-09
        -0.10458E+00
        -0.30239E-01
        -0.13895E-09
        -0.33586E-09
         0.22052E-02
        -0.59794E-01
         0.27791E-09
         0.19058E-09
         0.15968E-01
        -0.27954E-10
         0.52378E-01
         0.18387E-09
         0.32598E+00
         0.22230E+00
         0.11492E-08
         0.83351E-09
         0.14122E+00
         0.60690E-09
        -0.28498E-01
        -0.41983E-09
        -0.88412E-01
        -0.82397E-10
        -0.18819E+00
        -0.12783E-09
        -0.25475E+00
        -0.18539E+00
        -0.46849E-09
        -0.53579E-09
        -0.17176E+00
        -0.57622E-09
        -0.15665E+00
        -0.82961E-09
        -0.95540E-01
        -0.52914E-09
        -0.14776E+00
        -0.10775E+00
        -0.22583E-09
         0.30970E-09
         0.24926E-01
         0.36327E-09
         0.68984E-01
         0.15253E-09
         0.16438E+00
         0.37666E-09
         0.24219E+00
         0.16755E+00
         0.86849E-09
         0.90628E-09
         0.56740E+00
         0.64050E+00
         0.16048E-08
         0.15815E-08
         0.55927E+00
         0.13710E-08
         0.52121E+00
         0.10245E-08
         0.36560E+00
         0.56302E-09
         0.25217E+00
         0.60206E-10
         0.88793E-01
        -0.21444E-09
        -0.11083E+00
        -0.17156E-09
        -0.26364E+00
        -0.16863E-09
        -0.39216E+00
        -0.38026E-09
        -0.54606E+00
        -0.72345E-09
        -0.70563E+00
        -0.86331E-09
        -0.80095E+00
        -0.81455E-09
        -0.79265E+00
        -0.88577E-09
        -0.75373E+00
        -0.11496E-08
        -0.69425E+00
        -0.13556E-08
        -0.61150E+00
        -0.12602E-08
        -0.45945E+00
        -0.10241E-08
        -0.25889E+00
        -0.48348E-09
        -0.21843E-01
         0.92322E-10
         0.14562E+00
         0.22414E-09
         0.23071E+00
         0.36653E-09
         0.34068E+00
         0.71731E-09
         0.44974E+00
         0.11771E-08
         0.59939E+00
         0.14142E-08
         0.70118E+00
         0.14464E-08
        -0.23431E-02
         0.12138E-02
         0.14251E-02
        -0.28870E-02
         0.11038E-01
         0.85983E-02
         0.12865E-02
        -0.18992E-02
        -0.98831E-03
        -0.17498E-02
         0.94657E-03
         0.40916E-02
         0.85890E-02
        -0.27479E-02
        -0.32961E-02
         0.38412E-02
         0.32199E-02
        -0.14971E-02
        -0.23085E-02
        -0.24880E-02
        -0.13566E-01
        -0.14471E-01
        -0.13024E-01
        -0.40509E-02
         0.16295E-02
        -0.12140E-02
        -0.38775E-02
        -0.43503E-03
        -0.44297E-02
        -0.30678E-02
         0.34276E-02
         0.66853E-03
        -0.16151E-02
        -0.52021E-03
         0.16146E-01
         0.10358E-01
         0.94026E-02
        -0.65590E-02
        -0.37342E-02
        -0.79361E-02
        -0.16249E-01
        -0.15325E-01
        -0.15273E-01
        -0.11214E-01
        -0.80061E-02
        -0.62049E-02
         0.11748E-02
         0.49436E-02
         0.14289E-02
         0.45038E-02
         0.11952E-01
         0.10156E-01
         0.46315E-01
         0.49161E-01
         0.43873E-01
         0.37421E-01
         0.27855E-01
         0.14113E-01
        -0.83206E-03
        -0.99638E-02
        -0.15194E-01
        -0.26072E-01
        -0.42373E-01
        -0.52401E-01
        -0.48235E-01
        -0.46342E-01
        -0.49124E-01
        -0.49239E-01
        -0.44733E-01
        -0.39015E-01
        -0.19454E-01
         0.30882E-02
         0.11931E-01
         0.13297E-01
         0.22497E-01
         0.35732E-01
         0.46716E-01
         0.49237E-01
        -0.53205E-02
         0.10922E-02
        -0.20793E-02
        -0.60544E-02
         0.12419E-01
         0.10613E-01
         0.30921E-02
        -0.67499E-02
        -0.31015E-02
        -0.64171E-02
        -0.12964E-02
         0.47293E-02
         0.15559E-01
        -0.11932E-01
        -0.12358E-01
         0.10453E-01
         0.58193E-02
        -0.34855E-02
        -0.23456E-02
        -0.41193E-02
        -0.24440E-01
        -0.23292E-01
        -0.22985E-01
        -0.55597E-02
         0.31578E-02
         0.21262E-02
        -0.11531E-01
         0.15310E-02
        -0.38590E-02
        -0.52624E-02
         0.80309E-02
         0.51967E-02
        -0.52087E-02
        -0.44954E-02
         0.22147E-01
         0.12224E-01
         0.14022E-01
        -0.13705E-01
        -0.22947E-02
        -0.66531E-02
        -0.24441E-01
        -0.25142E-01
        -0.24576E-01
        -0.17770E-01
        -0.13684E-01
        -0.80066E-02
         0.86536E-02
         0.10216E-01
        -0.13505E-02
         0.16260E-02
         0.16666E-01
         0.14682E-01
         0.92490E-01
         0.93201E-01
         0.83654E-01
         0.68999E-01
         0.51475E-01
         0.23702E-01
        -0.58857E-02
        -0.19077E-01
        -0.25132E-01
        -0.46061E-01
        -0.81818E-01
        -0.96524E-01
        -0.80975E-01
        -0.77044E-01
        -0.84866E-01
        -0.87389E-01
        -0.79755E-01
        -0.75424E-01
        -0.38433E-01
         0.99886E-02
         0.22097E-01
         0.22390E-01
         0.39802E-01
         0.68917E-01
         0.88207E-01
         0.87930E-01
        -0.53306E-02
         0.10963E-02
        -0.20832E-02
        -0.60585E-02
         0.12407E-01
         0.10603E-01
         0.31118E-02
        -0.67328E-02
        -0.31049E-02
        -0.64120E-02
        -0.12701E-02
         0.47408E-02
         0.15568E-01
        -0.11903E-01
        -0.12352E-01
         0.10464E-01
         0.58321E-02
        -0.34758E-02
        -0.23445E-02
        -0.41120E-02
        -0.24438E-01
        -0.23290E-01
        -0.22983E-01
        -0.55600E-02
         0.31649E-02
         0.21298E-02
        -0.11534E-01
         0.15023E-02
        -0.38861E-02
        -0.52657E-02
         0.80426E-02
         0.51961E-02
        -0.51871E-02
        -0.44975E-02
         0.22158E-01
         0.12218E-01
         0.14017E-01
        -0.13727E-01
        -0.23167E-02
        -0.66740E-02
        -0.24457E-01
        -0.25156E-01
        -0.24577E-01
        -0.17767E-01
        -0.13680E-01
        -0.80025E-02
         0.86519E-02
         0.10220E-01
        -0.13406E-02
         0.16204E-02
         0.16655E-01
         0.14660E-01
         0.92458E-01
         0.93177E-01
         0.83647E-01
         0.68999E-01
         0.51459E-01
         0.23695E-01
        -0.58924E-02
        -0.19088E-01
        -0.25111E-01
        -0.46043E-01
        -0.81806E-01
        -0.96526E-01
        -0.80968E-01
        -0.77040E-01
        -0.84877E-01
        -0.87407E-01
        -0.79769E-01
        -0.75439E-01
        -0.38423E-01
         0.99932E-02
         0.22081E-01
         0.22381E-01
         0.39772E-01
         0.68875E-01
         0.88163E-01
         0.87891E-01
        -0.53407E-02
         0.11002E-02
        -0.20872E-02
        -0.60625E-02
         0.12394E-01
         0.10594E-01
         0.31315E-02
        -0.67157E-02
        -0.31081E-02
        -0.64066E-02
        -0.12440E-02
         0.47523E-02
         0.15578E-01
        -0.11874E-01
        -0.12345E-01
         0.10475E-01
         0.58451E-02
        -0.34661E-02
        -0.23433E-02
        -0.41050E-02
        -0.24436E-01
        -0.23287E-01
        -0.22982E-01
        -0.55603E-02
         0.31725E-02
         0.21336E-02
        -0.11537E-01
         0.14738E-02
        -0.39134E-02
        -0.52690E-02
         0.80547E-02
         0.51956E-02
        -0.51652E-02
        -0.44995E-02
         0.22170E-01
         0.12213E-01
         0.14012E-01
        -0.13749E-01
        -0.23387E-02
        -0.66952E-02
        -0.24472E-01
        -0.25171E-01
        -0.24579E-01
        -0.17765E-01
        -0.13675E-01
        -0.79986E-02
         0.86503E-02
         0.10223E-01
        -0.13305E-02
         0.16147E-02
         0.16645E-01
         0.14638E-01
         0.92427E-01
         0.93153E-01
         0.83640E-01
         0.69000E-01
         0.51443E-01
         0.23688E-01
        -0.58991E-02
        -0.19100E-01
        -0.25090E-01
        -0.46025E-01
        -0.81794E-01
        -0.96528E-01
        -0.80960E-01
        -0.77036E-01
        -0.84888E-01
        -0.87427E-01
        -0.79783E-01
        -0.75453E-01
        -0.38412E-01
         0.99977E-02
         0.22065E-01
         0.22372E-01
         0.39743E-01
         0.68833E-01
         0.88119E-01
         0.87852E-01
        -0.53508E-02
         0.11044E-02
        -0.20910E-02
        -0.60665E-02
         0.12382E-01
         0.10584E-01
         0.31510E-02
        -0.66985E-02
        -0.31109E-02
        -0.64003E-02
        -0.12178E-02
         0.47640E-02
         0.15587E-01
        -0.11844E-01
        -0.12338E-01
         0.10487E-01
         0.58587E-02
        -0.34563E-02
        -0.23423E-02
        -0.40977E-02
        -0.24434E-01
        -0.23285E-01
        -0.22982E-01
        -0.55606E-02
         0.31815E-02
         0.21383E-02
        -0.11540E-01
         0.14463E-02
        -0.39406E-02
        -0.52721E-02
         0.80676E-02
         0.51962E-02
        -0.51433E-02
        -0.45015E-02
         0.22180E-01
         0.12208E-01
         0.14008E-01
        -0.13771E-01
        -0.23606E-02
        -0.67161E-02
        -0.24488E-01
        -0.25187E-01
        -0.24582E-01
        -0.17763E-01
        -0.13669E-01
        -0.79943E-02
         0.86491E-02
         0.10226E-01
        -0.13204E-02
         0.16090E-02
         0.16634E-01
         0.14617E-01
         0.92395E-01
         0.93129E-01
         0.83632E-01
         0.69000E-01
         0.51428E-01
         0.23681E-01
        -0.59059E-02
        -0.19112E-01
        -0.25068E-01
        -0.46006E-01
        -0.81781E-01
        -0.96531E-01
        -0.80955E-01
        -0.77032E-01
        -0.84900E-01
        -0.87450E-01
        -0.79799E-01
        -0.75468E-01
        -0.38401E-01
         0.10002E-01
         0.22049E-01
         0.22363E-01
         0.39714E-01
         0.68791E-01
         0.88076E-01
         0.87813E-01
        -0.53607E-02
         0.11085E-02
        -0.20949E-02
        -0.60705E-02
         0.12370E-01
         0.10574E-01
         0.31708E-02
        -0.66812E-02
        -0.31133E-02
        -0.63930E-02
        -0.11917E-02
         0.47756E-02
         0.15597E-01
        -0.11815E-01
        -0.12332E-01
         0.10500E-01
         0.58729E-02
        -0.34465E-02
        -0.23410E-02
        -0.40903E-02
        -0.24434E-01
        -0.23284E-01
        -0.22983E-01
        -0.55609E-02
         0.31920E-02
         0.21437E-02
        -0.11543E-01
         0.14196E-02
        -0.39677E-02
        -0.52750E-02
         0.80815E-02
         0.51974E-02
        -0.51213E-02
        -0.45035E-02
         0.22192E-01
         0.12202E-01
         0.14004E-01
        -0.13793E-01
        -0.23824E-02
        -0.67374E-02
        -0.24505E-01
        -0.25204E-01
        -0.24587E-01
        -0.17762E-01
        -0.13664E-01
        -0.79897E-02
         0.86481E-02
         0.10230E-01
        -0.13103E-02
         0.16033E-02
         0.16624E-01
         0.14595E-01
         0.92363E-01
         0.93105E-01
         0.83625E-01
         0.69000E-01
         0.51412E-01
         0.23674E-01
        -0.59126E-02
        -0.19124E-01
        -0.25047E-01
        -0.45988E-01
        -0.81768E-01
        -0.96535E-01
        -0.80951E-01
        -0.77029E-01
        -0.84914E-01
        -0.87475E-01
        -0.79816E-01
        -0.75482E-01
        -0.38390E-01
         0.10007E-01
         0.22033E-01
         0.22355E-01
         0.39685E-01
         0.68749E-01
         0.88032E-01
         0.87774E-01
        -0.53703E-02
         0.11130E-02
        -0.20983E-02
        -0.60743E-02
         0.12358E-01
         0.10564E-01
         0.31906E-02
        -0.66636E-02
        -0.31156E-02
        -0.63854E-02
        -0.11655E-02
         0.47871E-02
         0.15606E-01
        -0.11785E-01
        -0.12325E-01
         0.10513E-01
         0.58870E-02
        -0.34367E-02
        -0.23397E-02
        -0.40833E-02
        -0.24433E-01
        -0.23283E-01
        -0.22985E-01
        -0.55614E-02
         0.32024E-02
         0.21493E-02
        -0.11545E-01
         0.13931E-02
        -0.39950E-02
        -0.52784E-02
         0.80952E-02
         0.51986E-02
        -0.50991E-02
        -0.45053E-02
         0.22203E-01
         0.12197E-01
         0.13999E-01
        -0.13815E-01
        -0.24042E-02
        -0.67586E-02
        -0.24521E-01
        -0.25221E-01
        -0.24592E-01
        -0.17762E-01
        -0.13659E-01
        -0.79857E-02
         0.86469E-02
         0.10234E-01
        -0.13000E-02
         0.15981E-02
         0.16614E-01
         0.14574E-01
         0.92332E-01
         0.93081E-01
         0.83617E-01
         0.69001E-01
         0.51396E-01
         0.23667E-01
        -0.59191E-02
        -0.19136E-01
        -0.25026E-01
        -0.45970E-01
        -0.81755E-01
        -0.96539E-01
        -0.80948E-01
        -0.77027E-01
        -0.84927E-01
        -0.87502E-01
        -0.79834E-01
        -0.75496E-01
        -0.38380E-01
         0.10011E-01
         0.22016E-01
         0.22346E-01
         0.39656E-01
         0.68707E-01
         0.87988E-01
         0.87735E-01
        -0.53792E-02
         0.11184E-02
        -0.21010E-02
        -0.60781E-02
         0.12346E-01
         0.10555E-01
         0.32107E-02
        -0.66456E-02
        -0.31181E-02
        -0.63783E-02
        -0.11392E-02
         0.47987E-02
         0.15616E-01
        -0.11756E-01
        -0.12318E-01
         0.10527E-01
         0.59007E-02
        -0.34267E-02
        -0.23386E-02
        -0.40764E-02
        -0.24433E-01
        -0.23283E-01
        -0.22987E-01
        -0.55620E-02
         0.32116E-02
         0.21542E-02
        -0.11547E-01
         0.13660E-02
        -0.40225E-02
        -0.52823E-02
         0.81082E-02
         0.51988E-02
        -0.50764E-02
        -0.45066E-02
         0.22215E-01
         0.12193E-01
         0.13996E-01
        -0.13836E-01
        -0.24263E-02
        -0.67803E-02
        -0.24538E-01
        -0.25239E-01
        -0.24598E-01
        -0.17761E-01
        -0.13655E-01
        -0.79821E-02
         0.86449E-02
         0.10237E-01
        -0.12887E-02
         0.15941E-02
         0.16605E-01
         0.14553E-01
         0.92300E-01
         0.93057E-01
         0.83609E-01
         0.69001E-01
         0.51380E-01
         0.23660E-01
        -0.59257E-02
        -0.19147E-01
        -0.25005E-01
        -0.45951E-01
        -0.81742E-01
        -0.96543E-01
        -0.80945E-01
        -0.77024E-01
        -0.84941E-01
        -0.87529E-01
        -0.79853E-01
        -0.75509E-01
        -0.38369E-01
         0.10014E-01
         0.21999E-01
         0.22337E-01
         0.39627E-01
         0.68665E-01
         0.87945E-01
         0.87696E-01
        -0.53876E-02
         0.11240E-02
        -0.21032E-02
        -0.60818E-02
         0.12335E-01
         0.10545E-01
         0.32310E-02
        -0.66274E-02
        -0.31206E-02
        -0.63715E-02
        -0.11128E-02
         0.48103E-02
         0.15626E-01
        -0.11726E-01
        -0.12311E-01
         0.10540E-01
         0.59140E-02
        -0.34168E-02
        -0.23374E-02
        -0.40699E-02
        -0.24433E-01
        -0.23282E-01
        -0.22989E-01
        -0.55626E-02
         0.32202E-02
         0.21588E-02
        -0.11550E-01
         0.13387E-02
        -0.40505E-02
        -0.52865E-02
         0.81208E-02
         0.51984E-02
        -0.50534E-02
        -0.45077E-02
         0.22227E-01
         0.12189E-01
         0.13992E-01
        -0.13858E-01
        -0.24483E-02
        -0.68018E-02
        -0.24555E-01
        -0.25257E-01
        -0.24604E-01
        -0.17761E-01
        -0.13650E-01
        -0.79791E-02
         0.86427E-02
         0.10241E-01
        -0.12771E-02
         0.15906E-02
         0.16596E-01
         0.14532E-01
         0.92268E-01
         0.93033E-01
         0.83601E-01
         0.69001E-01
         0.51364E-01
         0.23652E-01
        -0.59322E-02
        -0.19159E-01
        -0.24984E-01
        -0.45933E-01
        -0.81728E-01
        -0.96546E-01
        -0.80942E-01
        -0.77022E-01
        -0.84954E-01
        -0.87556E-01
        -0.79871E-01
        -0.75522E-01
        -0.38357E-01
         0.10017E-01
         0.21982E-01
         0.22329E-01
         0.39599E-01
         0.68624E-01
         0.87901E-01
         0.87657E-01
        -0.53961E-02
         0.11297E-02
        -0.21055E-02
        -0.60854E-02
         0.12323E-01
         0.10535E-01
         0.32513E-02
        -0.66093E-02
        -0.31232E-02
        -0.63648E-02
        -0.10865E-02
         0.48218E-02
         0.15635E-01
        -0.11697E-01
        -0.12304E-01
         0.10553E-01
         0.59274E-02
        -0.34069E-02
        -0.23361E-02
        -0.40632E-02
        -0.24432E-01
        -0.23281E-01
        -0.22991E-01
        -0.55634E-02
         0.32288E-02
         0.21634E-02
        -0.11552E-01
         0.13115E-02
        -0.40783E-02
        -0.52907E-02
         0.81335E-02
         0.51981E-02
        -0.50305E-02
        -0.45087E-02
         0.22239E-01
         0.12184E-01
         0.13989E-01
        -0.13879E-01
        -0.24704E-02
        -0.68233E-02
        -0.24572E-01
        -0.25275E-01
        -0.24610E-01
        -0.17761E-01
        -0.13647E-01
        -0.79761E-02
         0.86404E-02
         0.10244E-01
        -0.12655E-02
         0.15873E-02
         0.16588E-01
         0.14511E-01
         0.92236E-01
         0.93010E-01
         0.83593E-01
         0.69001E-01
         0.51348E-01
         0.23645E-01
        -0.59387E-02
        -0.19171E-01
        -0.24963E-01
        -0.45915E-01
        -0.81715E-01
        -0.96550E-01
        -0.80939E-01
        -0.77019E-01
        -0.84968E-01
        -0.87582E-01
        -0.79889E-01
        -0.75535E-01
        -0.38346E-01
         0.10021E-01
         0.21965E-01
         0.22320E-01
         0.39571E-01
         0.68582E-01
         0.87858E-01
         0.87618E-01
        -0.54045E-02
         0.11355E-02
        -0.21077E-02
        -0.60891E-02
         0.12312E-01
         0.10525E-01
         0.32716E-02
        -0.65912E-02
        -0.31258E-02
        -0.63580E-02
        -0.10602E-02
         0.48334E-02
         0.15645E-01
        -0.11668E-01
        -0.12298E-01
         0.10566E-01
         0.59407E-02
        -0.33971E-02
        -0.23348E-02
        -0.40566E-02
        -0.24432E-01
        -0.23280E-01
        -0.22993E-01
        -0.55641E-02
         0.32374E-02
         0.21680E-02
        -0.11555E-01
         0.12844E-02
        -0.41061E-02
        -0.52949E-02
         0.81461E-02
         0.51977E-02
        -0.50076E-02
        -0.45099E-02
         0.22251E-01
         0.12180E-01
         0.13986E-01
        -0.13901E-01
        -0.24925E-02
        -0.68451E-02
        -0.24589E-01
        -0.25292E-01
        -0.24616E-01
        -0.17761E-01
        -0.13643E-01
        -0.79729E-02
         0.86382E-02
         0.10247E-01
        -0.12540E-02
         0.15837E-02
         0.16579E-01
         0.14490E-01
         0.92205E-01
         0.92986E-01
         0.83585E-01
         0.69001E-01
         0.51332E-01
         0.23638E-01
        -0.59452E-02
        -0.19182E-01
        -0.24942E-01
        -0.45897E-01
        -0.81702E-01
        -0.96554E-01
        -0.80936E-01
        -0.77017E-01
        -0.84982E-01
        -0.87609E-01
        -0.79907E-01
        -0.75549E-01
        -0.38335E-01
         0.10024E-01
         0.21948E-01
         0.22311E-01
         0.39543E-01
         0.68541E-01
         0.87815E-01
         0.87579E-01
        -0.54129E-02
         0.11412E-02
        -0.21100E-02
        -0.60927E-02
         0.12300E-01
         0.10516E-01
         0.32918E-02
        -0.65730E-02
        -0.31283E-02
        -0.63514E-02
        -0.10338E-02
         0.48451E-02
         0.15655E-01
        -0.11639E-01
        -0.12291E-01
         0.10579E-01
         0.59540E-02
        -0.33873E-02
        -0.23338E-02
        -0.40498E-02
        -0.24432E-01
        -0.23280E-01
        -0.22995E-01
        -0.55649E-02
         0.32459E-02
         0.21725E-02
        -0.11558E-01
         0.12573E-02
        -0.41338E-02
        -0.52990E-02
         0.81586E-02
         0.51974E-02
        -0.49847E-02
        -0.45110E-02
         0.22263E-01
         0.12176E-01
         0.13982E-01
        -0.13923E-01
        -0.25146E-02
        -0.68665E-02
        -0.24606E-01
        -0.25310E-01
        -0.24622E-01
        -0.17761E-01
        -0.13639E-01
        -0.79700E-02
         0.86359E-02
         0.10250E-01
        -0.12424E-02
         0.15802E-02
         0.16570E-01
         0.14469E-01
         0.92173E-01
         0.92962E-01
         0.83577E-01
         0.69001E-01
         0.51316E-01
         0.23631E-01
        -0.59515E-02
        -0.19194E-01
        -0.24921E-01
        -0.45879E-01
        -0.81689E-01
        -0.96558E-01
        -0.80932E-01
        -0.77014E-01
        -0.84995E-01
        -0.87636E-01
        -0.79925E-01
        -0.75562E-01
        -0.38324E-01
         0.10027E-01
         0.21930E-01
         0.22303E-01
         0.39515E-01
         0.68499E-01
         0.87772E-01
         0.87540E-01
        -0.54213E-02
         0.11469E-02
        -0.21122E-02
        -0.60964E-02
         0.12289E-01
         0.10506E-01
         0.33121E-02
        -0.65548E-02
        -0.31309E-02
        -0.63446E-02
        -0.10076E-02
         0.48567E-02
         0.15665E-01
        -0.11609E-01
        -0.12284E-01
         0.10592E-01
         0.59673E-02
        -0.33774E-02
        -0.23326E-02
        -0.40433E-02
        -0.24431E-01
        -0.23279E-01
        -0.22997E-01
        -0.55657E-02
         0.32543E-02
         0.21772E-02
        -0.11561E-01
         0.12303E-02
        -0.41613E-02
        -0.53033E-02
         0.81713E-02
         0.51970E-02
        -0.49616E-02
        -0.45121E-02
         0.22275E-01
         0.12172E-01
         0.13979E-01
        -0.13944E-01
        -0.25368E-02
        -0.68884E-02
        -0.24623E-01
        -0.25328E-01
        -0.24628E-01
        -0.17761E-01
        -0.13635E-01
        -0.79671E-02
         0.86337E-02
         0.10254E-01
        -0.12308E-02
         0.15768E-02
         0.16562E-01
         0.14448E-01
         0.92141E-01
         0.92939E-01
         0.83569E-01
         0.69001E-01
         0.51300E-01
         0.23624E-01
        -0.59579E-02
        -0.19205E-01
        -0.24900E-01
        -0.45860E-01
        -0.81675E-01
        -0.96562E-01
        -0.80929E-01
        -0.77012E-01
        -0.85009E-01
        -0.87662E-01
        -0.79943E-01
        -0.75575E-01
        -0.38313E-01
         0.10030E-01
         0.21913E-01
         0.22294E-01
         0.39486E-01
         0.68458E-01
         0.87729E-01
         0.87501E-01
        -0.54298E-02
         0.11527E-02
        -0.21144E-02
        -0.61000E-02
         0.12277E-01
         0.10496E-01
         0.33323E-02
        -0.65367E-02
        -0.31333E-02
        -0.63378E-02
        -0.98138E-03
         0.48683E-02
         0.15675E-01
        -0.11580E-01
        -0.12277E-01
         0.10605E-01
         0.59806E-02
        -0.33674E-02
        -0.23315E-02
        -0.40366E-02
        -0.24431E-01
        -0.23278E-01
        -0.22999E-01
        -0.55665E-02
         0.32627E-02
         0.21817E-02
        -0.11563E-01
         0.12033E-02
        -0.41890E-02
        -0.53074E-02
         0.81839E-02
         0.51966E-02
        -0.49386E-02
        -0.45131E-02
         0.22287E-01
         0.12168E-01
         0.13976E-01
        -0.13965E-01
        -0.25591E-02
        -0.69100E-02
        -0.24640E-01
        -0.25345E-01
        -0.24634E-01
        -0.17761E-01
        -0.13631E-01
        -0.79637E-02
         0.86314E-02
         0.10257E-01
        -0.12191E-02
         0.15733E-02
         0.16553E-01
         0.14427E-01
         0.92109E-01
         0.92915E-01
         0.83561E-01
         0.69001E-01
         0.51285E-01
         0.23616E-01
        -0.59644E-02
        -0.19217E-01
        -0.24879E-01
        -0.45842E-01
        -0.81662E-01
        -0.96566E-01
        -0.80926E-01
        -0.77009E-01
        -0.85023E-01
        -0.87689E-01
        -0.79961E-01
        -0.75588E-01
        -0.38301E-01
         0.10033E-01
         0.21896E-01
         0.22285E-01
         0.39458E-01
         0.68417E-01
         0.87685E-01
         0.87462E-01
        -0.54382E-02
         0.11584E-02
        -0.21166E-02
        -0.61035E-02
         0.12266E-01
         0.10486E-01
         0.33523E-02
        -0.65185E-02
        -0.31358E-02
        -0.63309E-02
        -0.95524E-03
         0.48799E-02
         0.15685E-01
        -0.11551E-01
        -0.12270E-01
         0.10618E-01
         0.59939E-02
        -0.33576E-02
        -0.23305E-02
        -0.40301E-02
        -0.24430E-01
        -0.23278E-01
        -0.23001E-01
        -0.55674E-02
         0.32710E-02
         0.21862E-02
        -0.11566E-01
         0.11764E-02
        -0.42167E-02
        -0.53114E-02
         0.81964E-02
         0.51962E-02
        -0.49156E-02
        -0.45142E-02
         0.22300E-01
         0.12164E-01
         0.13972E-01
        -0.13987E-01
        -0.25814E-02
        -0.69318E-02
        -0.24657E-01
        -0.25363E-01
        -0.24640E-01
        -0.17761E-01
        -0.13627E-01
        -0.79608E-02
         0.86291E-02
         0.10260E-01
        -0.12074E-02
         0.15698E-02
         0.16544E-01
         0.14407E-01
         0.92077E-01
         0.92892E-01
         0.83553E-01
         0.69001E-01
         0.51269E-01
         0.23609E-01
        -0.59708E-02
        -0.19228E-01
        -0.24857E-01
        -0.45824E-01
        -0.81649E-01
        -0.96570E-01
        -0.80922E-01
        -0.77007E-01
        -0.85037E-01
        -0.87716E-01
        -0.79979E-01
        -0.75601E-01
        -0.38290E-01
         0.10036E-01
         0.21878E-01
         0.22277E-01
         0.39430E-01
         0.68375E-01
         0.87642E-01
         0.87423E-01
        -0.54467E-02
         0.11640E-02
        -0.21188E-02
        -0.61071E-02
         0.12254E-01
         0.10477E-01
         0.33725E-02
        -0.65003E-02
        -0.31383E-02
        -0.63242E-02
        -0.92909E-03
         0.48917E-02
         0.15694E-01
        -0.11522E-01
        -0.12262E-01
         0.10631E-01
         0.60072E-02
        -0.33478E-02
        -0.23294E-02
        -0.40233E-02
        -0.24430E-01
        -0.23277E-01
        -0.23003E-01
        -0.55682E-02
         0.32793E-02
         0.21907E-02
        -0.11568E-01
         0.11495E-02
        -0.42444E-02
        -0.53155E-02
         0.82090E-02
         0.51958E-02
        -0.48925E-02
        -0.45153E-02
         0.22311E-01
         0.12160E-01
         0.13969E-01
        -0.14008E-01
        -0.26036E-02
        -0.69535E-02
        -0.24674E-01
        -0.25380E-01
        -0.24645E-01
        -0.17761E-01
        -0.13623E-01
        -0.79579E-02
         0.86268E-02
         0.10263E-01
        -0.11956E-02
         0.15664E-02
         0.16535E-01
         0.14385E-01
         0.92045E-01
         0.92868E-01
         0.83545E-01
         0.69002E-01
         0.51253E-01
         0.23602E-01
        -0.59771E-02
        -0.19239E-01
        -0.24836E-01
        -0.45806E-01
        -0.81635E-01
        -0.96574E-01
        -0.80919E-01
        -0.77004E-01
        -0.85050E-01
        -0.87743E-01
        -0.79997E-01
        -0.75613E-01
        -0.38279E-01
         0.10039E-01
         0.21861E-01
         0.22269E-01
         0.39402E-01
         0.68334E-01
         0.87599E-01
         0.87384E-01
        -0.54552E-02
         0.11698E-02
        -0.21209E-02
        -0.61107E-02
         0.12243E-01
         0.10467E-01
         0.33926E-02
        -0.64821E-02
        -0.31408E-02
        -0.63174E-02
        -0.90294E-03
         0.49033E-02
         0.15704E-01
        -0.11493E-01
        -0.12255E-01
         0.10644E-01
         0.60204E-02
        -0.33380E-02
        -0.23282E-02
        -0.40168E-02
        -0.24430E-01
        -0.23276E-01
        -0.23005E-01
        -0.55690E-02
         0.32874E-02
         0.21953E-02
        -0.11571E-01
         0.11227E-02
        -0.42720E-02
        -0.53194E-02
         0.82215E-02
         0.51954E-02
        -0.48695E-02
        -0.45164E-02
         0.22324E-01
         0.12156E-01
         0.13966E-01
        -0.14029E-01
        -0.26260E-02
        -0.69751E-02
        -0.24691E-01
        -0.25398E-01
        -0.24651E-01
        -0.17761E-01
        -0.13619E-01
        -0.79546E-02
         0.86246E-02
         0.10267E-01
        -0.11839E-02
         0.15629E-02
         0.16527E-01
         0.14364E-01
         0.92014E-01
         0.92845E-01
         0.83537E-01
         0.69002E-01
         0.51237E-01
         0.23594E-01
        -0.59833E-02
        -0.19250E-01
        -0.24815E-01
        -0.45787E-01
        -0.81622E-01
        -0.96578E-01
        -0.80916E-01
        -0.77001E-01
        -0.85064E-01
        -0.87770E-01
        -0.80015E-01
        -0.75626E-01
        -0.38268E-01
         0.10042E-01
         0.21844E-01
         0.22260E-01
         0.39374E-01
         0.68292E-01
         0.87556E-01
         0.87345E-01
        -0.54636E-02
         0.11755E-02
        -0.21232E-02
        -0.61142E-02
         0.12232E-01
         0.10457E-01
         0.34127E-02
        -0.64639E-02
        -0.31432E-02
        -0.63103E-02
        -0.87681E-03
         0.49150E-02
         0.15714E-01
        -0.11464E-01
        -0.12248E-01
         0.10657E-01
         0.60337E-02
        -0.33283E-02
        -0.23271E-02
        -0.40100E-02
        -0.24429E-01
        -0.23275E-01
        -0.23007E-01
        -0.55699E-02
         0.32954E-02
         0.21998E-02
        -0.11573E-01
         0.10956E-02
        -0.42993E-02
        -0.53235E-02
         0.82342E-02
         0.51951E-02
        -0.48465E-02
        -0.45176E-02
         0.22336E-01
         0.12152E-01
         0.13962E-01
        -0.14050E-01
        -0.26487E-02
        -0.69970E-02
        -0.24707E-01
        -0.25415E-01
        -0.24657E-01
        -0.17761E-01
        -0.13615E-01
        -0.79517E-02
         0.86224E-02
         0.10270E-01
        -0.11722E-02
         0.15593E-02
         0.16518E-01
         0.14344E-01
         0.91982E-01
         0.92821E-01
         0.83529E-01
         0.69001E-01
         0.51221E-01
         0.23587E-01
        -0.59893E-02
        -0.19261E-01
        -0.24794E-01
        -0.45769E-01
        -0.81609E-01
        -0.96583E-01
        -0.80913E-01
        -0.76999E-01
        -0.85077E-01
        -0.87796E-01
        -0.80033E-01
        -0.75639E-01
        -0.38257E-01
         0.10045E-01
         0.21826E-01
         0.22251E-01
         0.39345E-01
         0.68251E-01
         0.87513E-01
         0.87306E-01
        -0.54721E-02
         0.11812E-02
        -0.21253E-02
        -0.61178E-02
         0.12220E-01
         0.10448E-01
         0.34327E-02
        -0.64458E-02
        -0.31454E-02
        -0.63024E-02
        -0.85071E-03
         0.49267E-02
         0.15724E-01
        -0.11434E-01
        -0.12241E-01
         0.10670E-01
         0.60469E-02
        -0.33185E-02
        -0.23263E-02
        -0.40036E-02
        -0.24429E-01
        -0.23274E-01
        -0.23009E-01
        -0.55707E-02
         0.33029E-02
         0.22045E-02
        -0.11574E-01
         0.10679E-02
        -0.43269E-02
        -0.53277E-02
         0.82468E-02
         0.51946E-02
        -0.48234E-02
        -0.45187E-02
         0.22348E-01
         0.12149E-01
         0.13959E-01
        -0.14070E-01
        -0.26719E-02
        -0.70185E-02
        -0.24723E-01
        -0.25431E-01
        -0.24662E-01
        -0.17761E-01
        -0.13611E-01
        -0.79485E-02
         0.86201E-02
         0.10273E-01
        -0.11606E-02
         0.15558E-02
         0.16510E-01
         0.14323E-01
         0.91950E-01
         0.92798E-01
         0.83521E-01
         0.69001E-01
         0.51205E-01
         0.23580E-01
        -0.59955E-02
        -0.19272E-01
        -0.24774E-01
        -0.45750E-01
        -0.81595E-01
        -0.96590E-01
        -0.80912E-01
        -0.76997E-01
        -0.85091E-01
        -0.87823E-01
        -0.80052E-01
        -0.75652E-01
        -0.38245E-01
         0.10048E-01
         0.21809E-01
         0.22243E-01
         0.39317E-01
         0.68209E-01
         0.87469E-01
         0.87268E-01
        -0.54805E-02
         0.11868E-02
        -0.21274E-02
        -0.61213E-02
         0.12209E-01
         0.10438E-01
         0.34528E-02
        -0.64275E-02
        -0.31473E-02
        -0.62938E-02
        -0.82469E-03
         0.49383E-02
         0.15733E-01
        -0.11405E-01
        -0.12233E-01
         0.10683E-01
         0.60599E-02
        -0.33087E-02
        -0.23253E-02
        -0.39970E-02
        -0.24429E-01
        -0.23273E-01
        -0.23011E-01
        -0.55716E-02
         0.33098E-02
         0.22090E-02
        -0.11575E-01
         0.10392E-02
        -0.43544E-02
        -0.53318E-02
         0.82593E-02
         0.51942E-02
        -0.48003E-02
        -0.45198E-02
         0.22361E-01
         0.12144E-01
         0.13956E-01
        -0.14090E-01
        -0.26958E-02
        -0.70401E-02
        -0.24737E-01
        -0.25445E-01
        -0.24666E-01
        -0.17761E-01
        -0.13607E-01
        -0.79457E-02
         0.86178E-02
         0.10277E-01
        -0.11488E-02
         0.15524E-02
         0.16501E-01
         0.14302E-01
         0.91918E-01
         0.92775E-01
         0.83512E-01
         0.69001E-01
         0.51190E-01
         0.23573E-01
        -0.60015E-02
        -0.19283E-01
        -0.24753E-01
        -0.45731E-01
        -0.81581E-01
        -0.96600E-01
        -0.80912E-01
        -0.76994E-01
        -0.85104E-01
        -0.87849E-01
        -0.80070E-01
        -0.75664E-01
        -0.38234E-01
         0.10050E-01
         0.21792E-01
         0.22234E-01
         0.39289E-01
         0.68168E-01
         0.87426E-01
         0.87229E-01
        -0.54890E-02
         0.11925E-02
        -0.21296E-02
        -0.61248E-02
         0.12197E-01
         0.10428E-01
         0.34727E-02
        -0.64094E-02
        -0.31491E-02
        -0.62850E-02
        -0.79885E-03
         0.49498E-02
         0.15743E-01
        -0.11375E-01
        -0.12225E-01
         0.10696E-01
         0.60730E-02
        -0.32990E-02
        -0.23242E-02
        -0.39905E-02
        -0.24428E-01
        -0.23272E-01
        -0.23013E-01
        -0.55724E-02
         0.33164E-02
         0.22134E-02
        -0.11575E-01
         0.10105E-02
        -0.43817E-02
        -0.53359E-02
         0.82720E-02
         0.51938E-02
        -0.47774E-02
        -0.45210E-02
         0.22373E-01
         0.12141E-01
         0.13953E-01
        -0.14110E-01
        -0.27200E-02
        -0.70611E-02
        -0.24750E-01
        -0.25459E-01
        -0.24670E-01
        -0.17761E-01
        -0.13603E-01
        -0.79427E-02
         0.86158E-02
         0.10280E-01
        -0.11371E-02
         0.15488E-02
         0.16493E-01
         0.14281E-01
         0.91886E-01
         0.92752E-01
         0.83505E-01
         0.69002E-01
         0.51174E-01
         0.23565E-01
        -0.60075E-02
        -0.19294E-01
        -0.24733E-01
        -0.45711E-01
        -0.81567E-01
        -0.96610E-01
        -0.80913E-01
        -0.76992E-01
        -0.85118E-01
        -0.87876E-01
        -0.80088E-01
        -0.75677E-01
        -0.38223E-01
         0.10054E-01
         0.21775E-01
         0.22226E-01
         0.39261E-01
         0.68127E-01
         0.87383E-01
         0.87190E-01
        -0.55188E-02
         0.12017E-02
        -0.21404E-02
        -0.61519E-02
         0.12232E-01
         0.10459E-01
         0.35039E-02
        -0.64187E-02
        -0.31630E-02
        -0.63027E-02
        -0.77944E-03
         0.49773E-02
         0.15811E-01
        -0.11394E-01
        -0.12267E-01
         0.10750E-01
         0.61091E-02
        -0.33028E-02
        -0.23315E-02
        -0.39987E-02
        -0.24517E-01
        -0.23358E-01
        -0.23098E-01
        -0.55945E-02
         0.33355E-02
         0.22260E-02
        -0.11623E-01
         0.98762E-03
        -0.44241E-02
        -0.53604E-02
         0.83160E-02
         0.52131E-02
        -0.47750E-02
        -0.45401E-02
         0.22469E-01
         0.12183E-01
         0.14002E-01
        -0.14185E-01
        -0.27527E-02
        -0.71080E-02
        -0.24859E-01
        -0.25572E-01
        -0.24769E-01
        -0.17825E-01
        -0.13649E-01
        -0.79683E-02
         0.86467E-02
         0.10324E-01
        -0.11311E-02
         0.15511E-02
         0.16547E-01
         0.14316E-01
         0.92202E-01
         0.93072E-01
         0.83811E-01
         0.69258E-01
         0.51351E-01
         0.23646E-01
        -0.60388E-02
        -0.19378E-01
        -0.24811E-01
        -0.45873E-01
        -0.81877E-01
        -0.96988E-01
        -0.81208E-01
        -0.77263E-01
        -0.85427E-01
        -0.88202E-01
        -0.80379E-01
        -0.75959E-01
        -0.38355E-01
         0.10097E-01
         0.21841E-01
         0.22297E-01
         0.39379E-01
         0.68338E-01
         0.87658E-01
         0.87465E-01
        -0.82284E-02
         0.18038E-02
        -0.31850E-02
        -0.91869E-02
         0.17548E-01
         0.15147E-01
         0.52451E-02
        -0.95065E-02
        -0.47009E-02
        -0.93189E-02
        -0.11274E-02
         0.70189E-02
         0.22628E-01
        -0.16626E-01
        -0.17379E-01
         0.16040E-01
         0.90922E-02
        -0.49224E-02
        -0.34305E-02
        -0.58967E-02
        -0.35058E-01
        -0.33831E-01
        -0.33121E-01
        -0.82968E-02
         0.49816E-02
         0.33308E-02
        -0.17111E-01
         0.14488E-02
        -0.66467E-02
        -0.79952E-02
         0.12415E-01
         0.77582E-02
        -0.71137E-02
        -0.67805E-02
         0.31650E-01
         0.17636E-01
         0.20278E-01
        -0.20569E-01
        -0.40617E-02
        -0.10497E-01
        -0.36168E-01
        -0.37478E-01
        -0.36272E-01
        -0.25744E-01
        -0.19647E-01
        -0.11143E-01
         0.12404E-01
         0.15009E-01
        -0.16414E-02
         0.22524E-02
         0.23465E-01
         0.20669E-01
         0.11515E+00
         0.11603E+00
         0.10453E+00
         0.86632E-01
         0.64174E-01
         0.29614E-01
        -0.76610E-02
        -0.24764E-01
        -0.31627E-01
        -0.58145E-01
        -0.10393E+00
        -0.12289E+00
        -0.10404E+00
        -0.99299E-01
        -0.10838E+00
        -0.11063E+00
        -0.10051E+00
        -0.94459E-01
        -0.47658E-01
         0.12571E-01
         0.27454E-01
         0.28152E-01
         0.49536E-01
         0.86268E-01
         0.11031E+00
         0.10968E+00
  
SCALARS                      strain_xy  double 1
LOOKUP_TABLE default
         0.11738E-04
         0.26033E-04
         0.23142E-03
        -0.87065E-05
        -0.32703E-19
         0.31960E-20
         0.48053E-19
         0.73199E-20
         0.23503E-02
        -0.10528E-02
         0.21390E-18
         0.16962E-18
        -0.80998E-04
         0.16753E-04
         0.18880E-19
        -0.56703E-20
        -0.27726E-04
        -0.40704E-03
         0.93990E-21
         0.14323E-19
         0.28961E-03
         0.17421E-02
         0.18649E-02
         0.14564E-18
         0.11598E-18
        -0.16937E-18
         0.18175E-03
         0.14018E-02
         0.19610E-18
         0.30178E-18
         0.73918E-04
        -0.13301E-03
        -0.12464E-04
        -0.10350E-19
         0.40832E-19
        -0.52225E-21
         0.62488E-03
         0.26379E-03
         0.10928E-18
         0.90528E-19
         0.11794E-02
         0.98731E-03
         0.18629E-18
         0.12555E-18
         0.12168E-02
         0.22946E-03
        -0.67864E-20
         0.50525E-19
        -0.26618E-03
         0.14932E-19
         0.77774E-04
        -0.33665E-21
        -0.14901E-04
         0.11286E-18
        -0.71951E-04
         0.17367E-19
        -0.10271E-02
         0.54614E-04
         0.40361E-21
        -0.19801E-20
        -0.95575E-05
         0.93556E-03
         0.10999E-19
         0.28212E-19
        -0.42071E-04
        -0.22332E-20
        -0.58500E-03
         0.17894E-19
         0.28595E-02
         0.10285E-02
         0.13822E-19
        -0.13236E-18
         0.22655E-02
        -0.21163E-18
        -0.71452E-03
         0.14175E-18
        -0.22242E-02
         0.21118E-19
        -0.39127E-02
         0.27462E-19
        -0.79002E-02
        -0.44820E-02
         0.64561E-19
        -0.16371E-19
        -0.59921E-03
        -0.19700E-20
         0.23027E-02
        -0.17768E-18
         0.32776E-02
        -0.19839E-18
         0.70121E-02
         0.31478E-02
        -0.12558E-18
         0.13940E-18
        -0.51580E-03
         0.12693E-18
        -0.12876E-02
         0.54523E-19
        -0.29722E-02
         0.14477E-18
        -0.72798E-02
        -0.42033E-02
         0.31042E-18
         0.15521E-18
         0.11170E-01
        -0.48390E-02
        -0.20168E-18
         0.24698E-18
         0.27028E-01
        -0.57318E-18
         0.36636E-01
        -0.62657E-18
         0.30992E-01
        -0.42524E-18
         0.24245E-01
        -0.45106E-19
         0.97193E-02
         0.12713E-18
        -0.12139E-01
         0.78716E-19
        -0.27127E-01
         0.71959E-19
        -0.35926E-01
         0.15439E-18
        -0.37332E-01
         0.18772E-18
        -0.33996E-01
         0.73957E-19
        -0.20216E-01
         0.45089E-19
         0.14729E-02
         0.73698E-19
         0.18998E-01
         0.49401E-19
         0.31851E-01
        -0.17617E-18
         0.43411E-01
        -0.46226E-18
         0.35352E-01
        -0.58664E-18
         0.21195E-01
        -0.36307E-18
         0.22666E-02
         0.69268E-19
        -0.15895E-01
         0.14681E-18
        -0.23433E-01
         0.23397E-18
        -0.27755E-01
         0.46073E-18
        -0.24892E-01
         0.59785E-18
        -0.23744E-01
         0.42475E-18
        -0.20240E-01
         0.33591E-18
        -0.75732E-05
         0.20199E-05
         0.20715E-05
        -0.13107E-05
         0.16339E-04
         0.13626E-04
         0.21307E-06
        -0.48579E-05
        -0.21874E-05
        -0.56537E-05
        -0.15750E-05
        -0.28997E-04
        -0.41788E-04
         0.15508E-05
         0.23648E-04
        -0.32935E-05
         0.24436E-05
         0.73348E-06
         0.14634E-05
        -0.11944E-05
         0.59650E-05
         0.52562E-05
        -0.15841E-04
         0.41558E-06
         0.35954E-05
         0.39591E-06
         0.65099E-07
         0.12777E-06
         0.15711E-05
        -0.52893E-05
        -0.28672E-05
         0.60292E-06
         0.98246E-06
        -0.76775E-07
        -0.38605E-05
        -0.13516E-04
        -0.27598E-04
         0.41471E-04
         0.21562E-04
         0.38471E-04
         0.73807E-04
         0.17494E-04
        -0.14401E-04
        -0.28964E-04
        -0.34004E-04
        -0.42639E-04
         0.53403E-05
         0.16241E-04
         0.50060E-05
         0.16664E-04
         0.51524E-04
         0.20188E-04
        -0.16844E-03
         0.21724E-03
        -0.52431E-03
        -0.61941E-03
        -0.58758E-03
        -0.35174E-03
         0.20723E-04
         0.22409E-03
         0.32539E-03
         0.52750E-03
         0.55230E-03
         0.30452E-03
         0.12391E-03
         0.52572E-04
        -0.85640E-04
        -0.34021E-03
        -0.56811E-03
        -0.64412E-03
        -0.38282E-03
         0.69963E-04
         0.25589E-03
         0.26951E-03
         0.42385E-03
         0.46577E-03
         0.35840E-03
         0.33256E-03
        -0.41578E-04
         0.53832E-05
        -0.94835E-05
        -0.65497E-05
         0.73567E-04
         0.28275E-04
         0.65325E-05
        -0.49853E-04
        -0.15022E-04
        -0.44576E-04
         0.47610E-05
        -0.75179E-04
        -0.14652E-03
         0.16147E-04
         0.19355E-03
        -0.30978E-04
         0.52262E-05
         0.29885E-05
         0.90648E-05
         0.30778E-05
         0.81415E-04
         0.55089E-04
        -0.31516E-04
         0.64339E-05
         0.14771E-04
        -0.24601E-05
         0.33477E-05
        -0.82632E-06
        -0.33269E-05
        -0.24555E-04
        -0.25650E-04
        -0.43720E-05
         0.10753E-04
         0.80578E-05
         0.18929E-04
        -0.31847E-04
        -0.69748E-04
         0.16312E-03
         0.24084E-04
         0.61537E-04
         0.16609E-03
        -0.42216E-04
        -0.84997E-04
        -0.76767E-04
        -0.76123E-04
        -0.90986E-04
         0.57219E-04
         0.44670E-04
        -0.74214E-05
         0.10549E-04
         0.11204E-03
         0.74050E-05
        -0.77588E-03
         0.11184E-02
        -0.23364E-02
        -0.24904E-02
        -0.23983E-02
        -0.13254E-02
         0.32235E-03
         0.91213E-03
         0.11515E-02
         0.20884E-02
         0.23294E-02
         0.90571E-03
         0.30265E-03
         0.24672E-03
        -0.12589E-03
        -0.10998E-02
        -0.20109E-02
        -0.26473E-02
        -0.17555E-02
         0.50594E-03
         0.98264E-03
         0.94121E-03
         0.16683E-02
         0.20339E-02
         0.13524E-02
         0.12765E-02
        -0.41683E-04
         0.54041E-05
        -0.95062E-05
        -0.66021E-05
         0.73505E-04
         0.28271E-04
         0.65822E-05
        -0.49811E-04
        -0.15065E-04
        -0.44708E-04
         0.46674E-05
        -0.75355E-04
        -0.14665E-03
         0.16107E-04
         0.19369E-03
        -0.31012E-04
         0.52853E-05
         0.29757E-05
         0.90665E-05
         0.30552E-05
         0.81608E-04
         0.55136E-04
        -0.31521E-04
         0.64312E-05
         0.14872E-04
        -0.24597E-05
         0.33881E-05
        -0.81532E-06
        -0.33282E-05
        -0.24623E-04
        -0.25691E-04
        -0.43619E-05
         0.10732E-04
         0.80746E-05
         0.18761E-04
        -0.31853E-04
        -0.69723E-04
         0.16364E-03
         0.24367E-04
         0.61803E-04
         0.16632E-03
        -0.42127E-04
        -0.85089E-04
        -0.76795E-04
        -0.76098E-04
        -0.90939E-04
         0.57213E-04
         0.44658E-04
        -0.73573E-05
         0.10499E-04
         0.11192E-03
         0.72821E-05
        -0.77489E-03
         0.11182E-02
        -0.23366E-02
        -0.24904E-02
        -0.23972E-02
        -0.13246E-02
         0.32258E-03
         0.91242E-03
         0.11503E-02
         0.20870E-02
         0.23286E-02
         0.90615E-03
         0.30259E-03
         0.24721E-03
        -0.12488E-03
        -0.11006E-02
        -0.20122E-02
        -0.26484E-02
        -0.17549E-02
         0.50614E-03
         0.98185E-03
         0.94079E-03
         0.16667E-02
         0.20312E-02
         0.13502E-02
         0.12742E-02
        -0.41788E-04
         0.54248E-05
        -0.95288E-05
        -0.66552E-05
         0.73440E-04
         0.28269E-04
         0.66323E-05
        -0.49768E-04
        -0.15108E-04
        -0.44835E-04
         0.45740E-05
        -0.75531E-04
        -0.14677E-03
         0.16066E-04
         0.19384E-03
        -0.31047E-04
         0.53454E-05
         0.29629E-05
         0.90683E-05
         0.30326E-05
         0.81805E-04
         0.55181E-04
        -0.31531E-04
         0.64276E-05
         0.14974E-04
        -0.24590E-05
         0.34313E-05
        -0.80462E-06
        -0.33272E-05
        -0.24688E-04
        -0.25734E-04
        -0.43500E-05
         0.10710E-04
         0.80912E-05
         0.18591E-04
        -0.31861E-04
        -0.69695E-04
         0.16415E-03
         0.24652E-04
         0.62071E-04
         0.16656E-03
        -0.42026E-04
        -0.85177E-04
        -0.76835E-04
        -0.76081E-04
        -0.90898E-04
         0.57208E-04
         0.44645E-04
        -0.72922E-05
         0.10447E-04
         0.11180E-03
         0.71601E-05
        -0.77390E-03
         0.11180E-02
        -0.23368E-02
        -0.24904E-02
        -0.23962E-02
        -0.13238E-02
         0.32281E-03
         0.91271E-03
         0.11491E-02
         0.20856E-02
         0.23277E-02
         0.90662E-03
         0.30255E-03
         0.24771E-03
        -0.12386E-03
        -0.11015E-02
        -0.20135E-02
        -0.26496E-02
        -0.17544E-02
         0.50633E-03
         0.98106E-03
         0.94039E-03
         0.16650E-02
         0.20285E-02
         0.13481E-02
         0.12720E-02
        -0.41893E-04
         0.54462E-05
        -0.95511E-05
        -0.67084E-05
         0.73376E-04
         0.28266E-04
         0.66825E-05
        -0.49724E-04
        -0.15149E-04
        -0.44954E-04
         0.44806E-05
        -0.75711E-04
        -0.14690E-03
         0.16026E-04
         0.19398E-03
        -0.31085E-04
         0.54070E-05
         0.29499E-05
         0.90711E-05
         0.30088E-05
         0.82008E-04
         0.55224E-04
        -0.31558E-04
         0.64216E-05
         0.15081E-04
        -0.24577E-05
         0.34757E-05
        -0.79572E-06
        -0.33200E-05
        -0.24748E-04
        -0.25777E-04
        -0.43348E-05
         0.10688E-04
         0.81080E-05
         0.18422E-04
        -0.31867E-04
        -0.69668E-04
         0.16467E-03
         0.24937E-04
         0.62343E-04
         0.16682E-03
        -0.41893E-04
        -0.85255E-04
        -0.76903E-04
        -0.76074E-04
        -0.90853E-04
         0.57210E-04
         0.44634E-04
        -0.72271E-05
         0.10396E-04
         0.11168E-03
         0.70385E-05
        -0.77291E-03
         0.11178E-02
        -0.23371E-02
        -0.24905E-02
        -0.23952E-02
        -0.13229E-02
         0.32305E-03
         0.91300E-03
         0.11479E-02
         0.20842E-02
         0.23269E-02
         0.90718E-03
         0.30253E-03
         0.24820E-03
        -0.12284E-03
        -0.11024E-02
        -0.20150E-02
        -0.26508E-02
        -0.17539E-02
         0.50653E-03
         0.98027E-03
         0.93998E-03
         0.16634E-02
         0.20258E-02
         0.13459E-02
         0.12698E-02
        -0.41997E-04
         0.54675E-05
        -0.95737E-05
        -0.67614E-05
         0.73314E-04
         0.28262E-04
         0.67327E-05
        -0.49677E-04
        -0.15188E-04
        -0.45063E-04
         0.43869E-05
        -0.75888E-04
        -0.14703E-03
         0.15988E-04
         0.19412E-03
        -0.31127E-04
         0.54702E-05
         0.29369E-05
         0.90730E-05
         0.29840E-05
         0.82216E-04
         0.55262E-04
        -0.31601E-04
         0.64130E-05
         0.15193E-04
        -0.24554E-05
         0.35250E-05
        -0.78843E-06
        -0.33062E-05
        -0.24803E-04
        -0.25821E-04
        -0.43154E-05
         0.10666E-04
         0.81248E-05
         0.18252E-04
        -0.31874E-04
        -0.69643E-04
         0.16519E-03
         0.25224E-04
         0.62623E-04
         0.16711E-03
        -0.41725E-04
        -0.85323E-04
        -0.77001E-04
        -0.76081E-04
        -0.90812E-04
         0.57216E-04
         0.44626E-04
        -0.71626E-05
         0.10346E-04
         0.11156E-03
         0.69166E-05
        -0.77192E-03
         0.11175E-02
        -0.23373E-02
        -0.24905E-02
        -0.23942E-02
        -0.13221E-02
         0.32327E-03
         0.91329E-03
         0.11467E-02
         0.20828E-02
         0.23262E-02
         0.90785E-03
         0.30255E-03
         0.24868E-03
        -0.12182E-03
        -0.11034E-02
        -0.20167E-02
        -0.26521E-02
        -0.17534E-02
         0.50673E-03
         0.97949E-03
         0.93957E-03
         0.16617E-02
         0.20231E-02
         0.13438E-02
         0.12675E-02
        -0.42097E-04
         0.54902E-05
        -0.95941E-05
        -0.68150E-05
         0.73251E-04
         0.28258E-04
         0.67821E-05
        -0.49625E-04
        -0.15227E-04
        -0.45167E-04
         0.42934E-05
        -0.76065E-04
        -0.14715E-03
         0.15950E-04
         0.19426E-03
        -0.31170E-04
         0.55347E-05
         0.29241E-05
         0.90748E-05
         0.29591E-05
         0.82427E-04
         0.55299E-04
        -0.31652E-04
         0.64036E-05
         0.15303E-04
        -0.24527E-05
         0.35778E-05
        -0.78171E-06
        -0.32894E-05
        -0.24857E-04
        -0.25864E-04
        -0.42935E-05
         0.10643E-04
         0.81418E-05
         0.18081E-04
        -0.31884E-04
        -0.69622E-04
         0.16570E-03
         0.25513E-04
         0.62906E-04
         0.16741E-03
        -0.41546E-04
        -0.85387E-04
        -0.77109E-04
        -0.76100E-04
        -0.90781E-04
         0.57223E-04
         0.44622E-04
        -0.70972E-05
         0.10298E-04
         0.11144E-03
         0.67954E-05
        -0.77093E-03
         0.11173E-02
        -0.23375E-02
        -0.24905E-02
        -0.23931E-02
        -0.13212E-02
         0.32349E-03
         0.91357E-03
         0.11455E-02
         0.20814E-02
         0.23254E-02
         0.90856E-03
         0.30258E-03
         0.24916E-03
        -0.12080E-03
        -0.11045E-02
        -0.20184E-02
        -0.26534E-02
        -0.17529E-02
         0.50691E-03
         0.97870E-03
         0.93917E-03
         0.16601E-02
         0.20205E-02
         0.13416E-02
         0.12653E-02
        -0.42189E-04
         0.55166E-05
        -0.96109E-05
        -0.68698E-05
         0.73191E-04
         0.28256E-04
         0.68307E-05
        -0.49562E-04
        -0.15267E-04
        -0.45266E-04
         0.41999E-05
        -0.76246E-04
        -0.14729E-03
         0.15923E-04
         0.19440E-03
        -0.31214E-04
         0.56001E-05
         0.29111E-05
         0.90778E-05
         0.29344E-05
         0.82637E-04
         0.55339E-04
        -0.31703E-04
         0.63947E-05
         0.15407E-04
        -0.24491E-05
         0.36401E-05
        -0.77485E-06
        -0.32715E-05
        -0.24913E-04
        -0.25903E-04
        -0.42693E-05
         0.10620E-04
         0.81585E-05
         0.17909E-04
        -0.31897E-04
        -0.69605E-04
         0.16623E-03
         0.25804E-04
         0.63193E-04
         0.16771E-03
        -0.41362E-04
        -0.85450E-04
        -0.77219E-04
        -0.76126E-04
        -0.90758E-04
         0.57233E-04
         0.44630E-04
        -0.70285E-05
         0.10259E-04
         0.11134E-03
         0.66731E-05
        -0.76994E-03
         0.11171E-02
        -0.23377E-02
        -0.24906E-02
        -0.23921E-02
        -0.13204E-02
         0.32371E-03
         0.91385E-03
         0.11443E-02
         0.20800E-02
         0.23247E-02
         0.90927E-03
         0.30261E-03
         0.24964E-03
        -0.11977E-03
        -0.11055E-02
        -0.20202E-02
        -0.26547E-02
        -0.17523E-02
         0.50704E-03
         0.97789E-03
         0.93878E-03
         0.16585E-02
         0.20178E-02
         0.13395E-02
         0.12630E-02
        -0.42277E-04
         0.55441E-05
        -0.96260E-05
        -0.69252E-05
         0.73133E-04
         0.28252E-04
         0.68786E-05
        -0.49493E-04
        -0.15308E-04
        -0.45363E-04
         0.41063E-05
        -0.76426E-04
        -0.14743E-03
         0.15897E-04
         0.19454E-03
        -0.31259E-04
         0.56662E-05
         0.28981E-05
         0.90800E-05
         0.29100E-05
         0.82848E-04
         0.55378E-04
        -0.31753E-04
         0.63860E-05
         0.15507E-04
        -0.24452E-05
         0.37049E-05
        -0.76776E-06
        -0.32533E-05
        -0.24970E-04
        -0.25941E-04
        -0.42436E-05
         0.10597E-04
         0.81754E-05
         0.17735E-04
        -0.31913E-04
        -0.69593E-04
         0.16675E-03
         0.26097E-04
         0.63482E-04
         0.16802E-03
        -0.41178E-04
        -0.85512E-04
        -0.77331E-04
        -0.76154E-04
        -0.90745E-04
         0.57245E-04
         0.44640E-04
        -0.69586E-05
         0.10224E-04
         0.11123E-03
         0.65514E-05
        -0.76895E-03
         0.11169E-02
        -0.23379E-02
        -0.24906E-02
        -0.23911E-02
        -0.13195E-02
         0.32393E-03
         0.91413E-03
         0.11431E-02
         0.20785E-02
         0.23239E-02
         0.90997E-03
         0.30264E-03
         0.25013E-03
        -0.11875E-03
        -0.11066E-02
        -0.20219E-02
        -0.26560E-02
        -0.17518E-02
         0.50717E-03
         0.97708E-03
         0.93840E-03
         0.16569E-02
         0.20151E-02
         0.13374E-02
         0.12608E-02
        -0.42365E-04
         0.55719E-05
        -0.96408E-05
        -0.69807E-05
         0.73073E-04
         0.28249E-04
         0.69264E-05
        -0.49425E-04
        -0.15349E-04
        -0.45461E-04
         0.40127E-05
        -0.76605E-04
        -0.14758E-03
         0.15874E-04
         0.19469E-03
        -0.31304E-04
         0.57329E-05
         0.28850E-05
         0.90820E-05
         0.28854E-05
         0.83059E-04
         0.55418E-04
        -0.31803E-04
         0.63775E-05
         0.15608E-04
        -0.24413E-05
         0.37713E-05
        -0.76027E-06
        -0.32345E-05
        -0.25028E-04
        -0.25978E-04
        -0.42182E-05
         0.10573E-04
         0.81922E-05
         0.17561E-04
        -0.31926E-04
        -0.69581E-04
         0.16728E-03
         0.26393E-04
         0.63768E-04
         0.16832E-03
        -0.40995E-04
        -0.85574E-04
        -0.77446E-04
        -0.76186E-04
        -0.90732E-04
         0.57255E-04
         0.44652E-04
        -0.68889E-05
         0.10190E-04
         0.11113E-03
         0.64294E-05
        -0.76796E-03
         0.11166E-02
        -0.23380E-02
        -0.24906E-02
        -0.23900E-02
        -0.13186E-02
         0.32415E-03
         0.91441E-03
         0.11419E-02
         0.20771E-02
         0.23232E-02
         0.91067E-03
         0.30268E-03
         0.25063E-03
        -0.11773E-03
        -0.11076E-02
        -0.20237E-02
        -0.26572E-02
        -0.17512E-02
         0.50730E-03
         0.97626E-03
         0.93802E-03
         0.16552E-02
         0.20124E-02
         0.13352E-02
         0.12586E-02
        -0.42452E-04
         0.56000E-05
        -0.96556E-05
        -0.70361E-05
         0.73013E-04
         0.28244E-04
         0.69745E-05
        -0.49355E-04
        -0.15390E-04
        -0.45557E-04
         0.39191E-05
        -0.76785E-04
        -0.14772E-03
         0.15848E-04
         0.19483E-03
        -0.31349E-04
         0.57999E-05
         0.28721E-05
         0.90839E-05
         0.28609E-05
         0.83269E-04
         0.55457E-04
        -0.31851E-04
         0.63691E-05
         0.15709E-04
        -0.24373E-05
         0.38360E-05
        -0.75246E-06
        -0.32153E-05
        -0.25084E-04
        -0.26015E-04
        -0.41926E-05
         0.10549E-04
         0.82091E-05
         0.17386E-04
        -0.31942E-04
        -0.69570E-04
         0.16781E-03
         0.26689E-04
         0.64059E-04
         0.16863E-03
        -0.40813E-04
        -0.85637E-04
        -0.77558E-04
        -0.76215E-04
        -0.90716E-04
         0.57267E-04
         0.44665E-04
        -0.68196E-05
         0.10154E-04
         0.11103E-03
         0.63081E-05
        -0.76696E-03
         0.11164E-02
        -0.23382E-02
        -0.24906E-02
        -0.23890E-02
        -0.13178E-02
         0.32436E-03
         0.91467E-03
         0.11407E-02
         0.20757E-02
         0.23224E-02
         0.91136E-03
         0.30272E-03
         0.25113E-03
        -0.11671E-03
        -0.11087E-02
        -0.20254E-02
        -0.26585E-02
        -0.17506E-02
         0.50743E-03
         0.97545E-03
         0.93763E-03
         0.16536E-02
         0.20098E-02
         0.13331E-02
         0.12563E-02
        -0.42540E-04
         0.56277E-05
        -0.96709E-05
        -0.70913E-05
         0.72955E-04
         0.28241E-04
         0.70227E-05
        -0.49285E-04
        -0.15431E-04
        -0.45654E-04
         0.38251E-05
        -0.76967E-04
        -0.14786E-03
         0.15823E-04
         0.19497E-03
        -0.31394E-04
         0.58674E-05
         0.28593E-05
         0.90870E-05
         0.28361E-05
         0.83479E-04
         0.55494E-04
        -0.31901E-04
         0.63608E-05
         0.15809E-04
        -0.24333E-05
         0.39019E-05
        -0.74419E-06
        -0.31955E-05
        -0.25141E-04
        -0.26053E-04
        -0.41672E-05
         0.10525E-04
         0.82260E-05
         0.17211E-04
        -0.31956E-04
        -0.69559E-04
         0.16834E-03
         0.26988E-04
         0.64345E-04
         0.16893E-03
        -0.40629E-04
        -0.85699E-04
        -0.77667E-04
        -0.76245E-04
        -0.90704E-04
         0.57278E-04
         0.44676E-04
        -0.67500E-05
         0.10119E-04
         0.11093E-03
         0.61870E-05
        -0.76596E-03
         0.11162E-02
        -0.23384E-02
        -0.24906E-02
        -0.23880E-02
        -0.13169E-02
         0.32456E-03
         0.91495E-03
         0.11395E-02
         0.20743E-02
         0.23217E-02
         0.91206E-03
         0.30275E-03
         0.25162E-03
        -0.11568E-03
        -0.11098E-02
        -0.20271E-02
        -0.26597E-02
        -0.17501E-02
         0.50754E-03
         0.97463E-03
         0.93725E-03
         0.16520E-02
         0.20071E-02
         0.13310E-02
         0.12541E-02
        -0.42627E-04
         0.56555E-05
        -0.96854E-05
        -0.71471E-05
         0.72896E-04
         0.28237E-04
         0.70707E-05
        -0.49215E-04
        -0.15472E-04
        -0.45749E-04
         0.37313E-05
        -0.77149E-04
        -0.14800E-03
         0.15799E-04
         0.19511E-03
        -0.31439E-04
         0.59351E-05
         0.28463E-05
         0.90892E-05
         0.28117E-05
         0.83689E-04
         0.55531E-04
        -0.31951E-04
         0.63527E-05
         0.15910E-04
        -0.24294E-05
         0.39663E-05
        -0.73562E-06
        -0.31749E-05
        -0.25199E-04
        -0.26090E-04
        -0.41417E-05
         0.10500E-04
         0.82431E-05
         0.17034E-04
        -0.31971E-04
        -0.69545E-04
         0.16887E-03
         0.27287E-04
         0.64638E-04
         0.16924E-03
        -0.40448E-04
        -0.85761E-04
        -0.77779E-04
        -0.76275E-04
        -0.90692E-04
         0.57288E-04
         0.44689E-04
        -0.66804E-05
         0.10085E-04
         0.11083E-03
         0.60662E-05
        -0.76497E-03
         0.11159E-02
        -0.23386E-02
        -0.24907E-02
        -0.23869E-02
        -0.13161E-02
         0.32477E-03
         0.91522E-03
         0.11383E-02
         0.20729E-02
         0.23209E-02
         0.91276E-03
         0.30279E-03
         0.25211E-03
        -0.11465E-03
        -0.11108E-02
        -0.20289E-02
        -0.26610E-02
        -0.17495E-02
         0.50767E-03
         0.97381E-03
         0.93686E-03
         0.16504E-02
         0.20045E-02
         0.13289E-02
         0.12519E-02
        -0.42715E-04
         0.56835E-05
        -0.97001E-05
        -0.72030E-05
         0.72837E-04
         0.28234E-04
         0.71187E-05
        -0.49144E-04
        -0.15513E-04
        -0.45843E-04
         0.36375E-05
        -0.77328E-04
        -0.14815E-03
         0.15772E-04
         0.19525E-03
        -0.31484E-04
         0.60030E-05
         0.28332E-05
         0.90916E-05
         0.27874E-05
         0.83900E-04
         0.55570E-04
        -0.32000E-04
         0.63446E-05
         0.16010E-04
        -0.24253E-05
         0.40326E-05
        -0.72661E-06
        -0.31541E-05
        -0.25255E-04
        -0.26127E-04
        -0.41159E-05
         0.10475E-04
         0.82600E-05
         0.16857E-04
        -0.31987E-04
        -0.69534E-04
         0.16939E-03
         0.27589E-04
         0.64928E-04
         0.16955E-03
        -0.40264E-04
        -0.85823E-04
        -0.77893E-04
        -0.76307E-04
        -0.90671E-04
         0.57301E-04
         0.44701E-04
        -0.66107E-05
         0.10050E-04
         0.11072E-03
         0.59461E-05
        -0.76397E-03
         0.11157E-02
        -0.23387E-02
        -0.24907E-02
        -0.23859E-02
        -0.13152E-02
         0.32499E-03
         0.91548E-03
         0.11371E-02
         0.20714E-02
         0.23201E-02
         0.91345E-03
         0.30282E-03
         0.25260E-03
        -0.11363E-03
        -0.11119E-02
        -0.20306E-02
        -0.26622E-02
        -0.17490E-02
         0.50779E-03
         0.97300E-03
         0.93649E-03
         0.16488E-02
         0.20018E-02
         0.13268E-02
         0.12496E-02
        -0.42803E-04
         0.57111E-05
        -0.97147E-05
        -0.72589E-05
         0.72779E-04
         0.28230E-04
         0.71669E-05
        -0.49072E-04
        -0.15554E-04
        -0.45937E-04
         0.35438E-05
        -0.77508E-04
        -0.14829E-03
         0.15748E-04
         0.19538E-03
        -0.31528E-04
         0.60715E-05
         0.28203E-05
         0.90948E-05
         0.27633E-05
         0.84110E-04
         0.55607E-04
        -0.32050E-04
         0.63365E-05
         0.16111E-04
        -0.24211E-05
         0.40972E-05
        -0.71730E-06
        -0.31328E-05
        -0.25312E-04
        -0.26164E-04
        -0.40904E-05
         0.10450E-04
         0.82770E-05
         0.16679E-04
        -0.32002E-04
        -0.69521E-04
         0.16992E-03
         0.27892E-04
         0.65219E-04
         0.16985E-03
        -0.40080E-04
        -0.85885E-04
        -0.78004E-04
        -0.76337E-04
        -0.90659E-04
         0.57312E-04
         0.44712E-04
        -0.65412E-05
         0.10015E-04
         0.11062E-03
         0.58270E-05
        -0.76297E-03
         0.11155E-02
        -0.23389E-02
        -0.24907E-02
        -0.23849E-02
        -0.13144E-02
         0.32519E-03
         0.91573E-03
         0.11359E-02
         0.20700E-02
         0.23194E-02
         0.91415E-03
         0.30285E-03
         0.25309E-03
        -0.11260E-03
        -0.11129E-02
        -0.20324E-02
        -0.26635E-02
        -0.17484E-02
         0.50790E-03
         0.97219E-03
         0.93611E-03
         0.16471E-02
         0.19992E-02
         0.13247E-02
         0.12474E-02
        -0.42891E-04
         0.57385E-05
        -0.97293E-05
        -0.73148E-05
         0.72720E-04
         0.28225E-04
         0.72150E-05
        -0.49000E-04
        -0.15595E-04
        -0.46031E-04
         0.34499E-05
        -0.77692E-04
        -0.14843E-03
         0.15721E-04
         0.19552E-03
        -0.31573E-04
         0.61404E-05
         0.28075E-05
         0.90971E-05
         0.27388E-05
         0.84321E-04
         0.55644E-04
        -0.32099E-04
         0.63286E-05
         0.16211E-04
        -0.24169E-05
         0.41629E-05
        -0.70755E-06
        -0.31112E-05
        -0.25368E-04
        -0.26201E-04
        -0.40646E-05
         0.10424E-04
         0.82939E-05
         0.16501E-04
        -0.32018E-04
        -0.69510E-04
         0.17045E-03
         0.28196E-04
         0.65511E-04
         0.17016E-03
        -0.39896E-04
        -0.85947E-04
        -0.78115E-04
        -0.76367E-04
        -0.90648E-04
         0.57322E-04
         0.44726E-04
        -0.64708E-05
         0.99802E-05
         0.11052E-03
         0.57074E-05
        -0.76198E-03
         0.11152E-02
        -0.23391E-02
        -0.24907E-02
        -0.23839E-02
        -0.13135E-02
         0.32539E-03
         0.91597E-03
         0.11347E-02
         0.20685E-02
         0.23186E-02
         0.91485E-03
         0.30289E-03
         0.25359E-03
        -0.11158E-03
        -0.11140E-02
        -0.20341E-02
        -0.26648E-02
        -0.17479E-02
         0.50802E-03
         0.97138E-03
         0.93573E-03
         0.16455E-02
         0.19965E-02
         0.13226E-02
         0.12452E-02
        -0.42979E-04
         0.57665E-05
        -0.97439E-05
        -0.73705E-05
         0.72660E-04
         0.28222E-04
         0.72630E-05
        -0.48927E-04
        -0.15637E-04
        -0.46124E-04
         0.33558E-05
        -0.77873E-04
        -0.14857E-03
         0.15696E-04
         0.19566E-03
        -0.31618E-04
         0.62099E-05
         0.27947E-05
         0.90995E-05
         0.27147E-05
         0.84531E-04
         0.55679E-04
        -0.32148E-04
         0.63208E-05
         0.16312E-04
        -0.24126E-05
         0.42269E-05
        -0.69743E-06
        -0.30891E-05
        -0.25424E-04
        -0.26238E-04
        -0.40391E-05
         0.10398E-04
         0.83112E-05
         0.16322E-04
        -0.32033E-04
        -0.69498E-04
         0.17099E-03
         0.28502E-04
         0.65800E-04
         0.17046E-03
        -0.39712E-04
        -0.86010E-04
        -0.78223E-04
        -0.76399E-04
        -0.90631E-04
         0.57334E-04
         0.44737E-04
        -0.64014E-05
         0.99452E-05
         0.11041E-03
         0.55881E-05
        -0.76098E-03
         0.11150E-02
        -0.23392E-02
        -0.24907E-02
        -0.23828E-02
        -0.13126E-02
         0.32558E-03
         0.91621E-03
         0.11335E-02
         0.20671E-02
         0.23179E-02
         0.91555E-03
         0.30292E-03
         0.25407E-03
        -0.11055E-03
        -0.11150E-02
        -0.20359E-02
        -0.26660E-02
        -0.17473E-02
         0.50813E-03
         0.97056E-03
         0.93535E-03
         0.16439E-02
         0.19938E-02
         0.13206E-02
         0.12430E-02
        -0.43066E-04
         0.57941E-05
        -0.97588E-05
        -0.74266E-05
         0.72603E-04
         0.28218E-04
         0.73114E-05
        -0.48854E-04
        -0.15678E-04
        -0.46214E-04
         0.32616E-05
        -0.78055E-04
        -0.14872E-03
         0.15668E-04
         0.19579E-03
        -0.31663E-04
         0.62799E-05
         0.27819E-05
         0.91021E-05
         0.26908E-05
         0.84741E-04
         0.55713E-04
        -0.32197E-04
         0.63131E-05
         0.16411E-04
        -0.24083E-05
         0.42926E-05
        -0.68678E-06
        -0.30662E-05
        -0.25480E-04
        -0.26275E-04
        -0.40135E-05
         0.10373E-04
         0.83285E-05
         0.16142E-04
        -0.32047E-04
        -0.69485E-04
         0.17152E-03
         0.28812E-04
         0.66093E-04
         0.17077E-03
        -0.39529E-04
        -0.86073E-04
        -0.78337E-04
        -0.76429E-04
        -0.90619E-04
         0.57346E-04
         0.44751E-04
        -0.63323E-05
         0.99102E-05
         0.11031E-03
         0.54702E-05
        -0.75998E-03
         0.11148E-02
        -0.23394E-02
        -0.24908E-02
        -0.23818E-02
        -0.13118E-02
         0.32577E-03
         0.91646E-03
         0.11323E-02
         0.20656E-02
         0.23171E-02
         0.91626E-03
         0.30294E-03
         0.25455E-03
        -0.10953E-03
        -0.11161E-02
        -0.20376E-02
        -0.26673E-02
        -0.17467E-02
         0.50825E-03
         0.96975E-03
         0.93497E-03
         0.16423E-02
         0.19912E-02
         0.13185E-02
         0.12407E-02
        -0.43154E-04
         0.58216E-05
        -0.97731E-05
        -0.74829E-05
         0.72544E-04
         0.28213E-04
         0.73595E-05
        -0.48779E-04
        -0.15718E-04
        -0.46298E-04
         0.31673E-05
        -0.78237E-04
        -0.14886E-03
         0.15642E-04
         0.19592E-03
        -0.31708E-04
         0.63507E-05
         0.27690E-05
         0.91059E-05
         0.26680E-05
         0.84950E-04
         0.55746E-04
        -0.32247E-04
         0.63050E-05
         0.16509E-04
        -0.24042E-05
         0.43572E-05
        -0.67535E-06
        -0.30431E-05
        -0.25535E-04
        -0.26312E-04
        -0.39874E-05
         0.10346E-04
         0.83457E-05
         0.15961E-04
        -0.32064E-04
        -0.69474E-04
         0.17205E-03
         0.29130E-04
         0.66378E-04
         0.17106E-03
        -0.39341E-04
        -0.86135E-04
        -0.78449E-04
        -0.76460E-04
        -0.90603E-04
         0.57357E-04
         0.44763E-04
        -0.62634E-05
         0.98753E-05
         0.11021E-03
         0.53523E-05
        -0.75898E-03
         0.11145E-02
        -0.23395E-02
        -0.24908E-02
        -0.23808E-02
        -0.13109E-02
         0.32596E-03
         0.91671E-03
         0.11311E-02
         0.20641E-02
         0.23164E-02
         0.91701E-03
         0.30295E-03
         0.25504E-03
        -0.10851E-03
        -0.11171E-02
        -0.20394E-02
        -0.26685E-02
        -0.17462E-02
         0.50836E-03
         0.96894E-03
         0.93458E-03
         0.16407E-02
         0.19886E-02
         0.13164E-02
         0.12385E-02
        -0.43242E-04
         0.58491E-05
        -0.97875E-05
        -0.75391E-05
         0.72484E-04
         0.28208E-04
         0.74076E-05
        -0.48704E-04
        -0.15757E-04
        -0.46376E-04
         0.30731E-05
        -0.78418E-04
        -0.14900E-03
         0.15615E-04
         0.19605E-03
        -0.31752E-04
         0.64224E-05
         0.27561E-05
         0.91087E-05
         0.26459E-05
         0.85161E-04
         0.55777E-04
        -0.32297E-04
         0.62974E-05
         0.16603E-04
        -0.23997E-05
         0.44244E-05
        -0.66301E-06
        -0.30195E-05
        -0.25586E-04
        -0.26348E-04
        -0.39618E-05
         0.10319E-04
         0.83629E-05
         0.15779E-04
        -0.32079E-04
        -0.69462E-04
         0.17257E-03
         0.29455E-04
         0.66663E-04
         0.17134E-03
        -0.39152E-04
        -0.86197E-04
        -0.78559E-04
        -0.76492E-04
        -0.90592E-04
         0.57368E-04
         0.44775E-04
        -0.61939E-05
         0.98408E-05
         0.11011E-03
         0.52339E-05
        -0.75798E-03
         0.11143E-02
        -0.23397E-02
        -0.24908E-02
        -0.23798E-02
        -0.13101E-02
         0.32614E-03
         0.91695E-03
         0.11299E-02
         0.20625E-02
         0.23157E-02
         0.91778E-03
         0.30294E-03
         0.25552E-03
        -0.10748E-03
        -0.11182E-02
        -0.20411E-02
        -0.26697E-02
        -0.17456E-02
         0.50847E-03
         0.96813E-03
         0.93420E-03
         0.16390E-02
         0.19859E-02
         0.13144E-02
         0.12363E-02
        -0.43330E-04
         0.58767E-05
        -0.98026E-05
        -0.75953E-05
         0.72428E-04
         0.28205E-04
         0.74559E-05
        -0.48629E-04
        -0.15796E-04
        -0.46453E-04
         0.29795E-05
        -0.78596E-04
        -0.14914E-03
         0.15587E-04
         0.19617E-03
        -0.31797E-04
         0.64948E-05
         0.27434E-05
         0.91113E-05
         0.26245E-05
         0.85372E-04
         0.55808E-04
        -0.32343E-04
         0.62903E-05
         0.16697E-04
        -0.23955E-05
         0.44897E-05
        -0.65006E-06
        -0.29957E-05
        -0.25637E-04
        -0.26385E-04
        -0.39367E-05
         0.10293E-04
         0.83805E-05
         0.15599E-04
        -0.32094E-04
        -0.69448E-04
         0.17310E-03
         0.29784E-04
         0.66938E-04
         0.17161E-03
        -0.38965E-04
        -0.86261E-04
        -0.78668E-04
        -0.76520E-04
        -0.90578E-04
         0.57381E-04
         0.44789E-04
        -0.61253E-05
         0.98055E-05
         0.11001E-03
         0.51168E-05
        -0.75697E-03
         0.11141E-02
        -0.23398E-02
        -0.24908E-02
        -0.23788E-02
        -0.13092E-02
         0.32632E-03
         0.91717E-03
         0.11288E-02
         0.20609E-02
         0.23150E-02
         0.91854E-03
         0.30291E-03
         0.25600E-03
        -0.10645E-03
        -0.11192E-02
        -0.20429E-02
        -0.26710E-02
        -0.17451E-02
         0.50860E-03
         0.96733E-03
         0.93381E-03
         0.16374E-02
         0.19833E-02
         0.13123E-02
         0.12341E-02
        -0.43820E-04
         0.59548E-05
        -0.99121E-05
        -0.77195E-05
         0.73053E-04
         0.28463E-04
         0.75716E-05
        -0.49027E-04
        -0.15978E-04
        -0.46972E-04
         0.29261E-05
        -0.79490E-04
        -0.15067E-03
         0.15714E-04
         0.19826E-03
        -0.32135E-04
         0.66244E-05
         0.27564E-05
         0.91966E-05
         0.26290E-05
         0.86346E-04
         0.56355E-04
        -0.32654E-04
         0.63453E-05
         0.16945E-04
        -0.24159E-05
         0.45942E-05
        -0.64296E-06
        -0.30069E-05
        -0.25934E-04
        -0.26669E-04
        -0.39550E-05
         0.10364E-04
         0.84761E-05
         0.15583E-04
        -0.32396E-04
        -0.70067E-04
         0.17531E-03
         0.30380E-04
         0.67849E-04
         0.17353E-03
        -0.39202E-04
        -0.87162E-04
        -0.79443E-04
        -0.77222E-04
        -0.91384E-04
         0.57914E-04
         0.45204E-04
        -0.61196E-05
         0.98614E-05
         0.11095E-03
         0.50484E-05
        -0.76408E-03
         0.11258E-02
        -0.23652E-02
        -0.25172E-02
        -0.24035E-02
        -0.13228E-02
         0.33031E-03
         0.92767E-03
         0.11405E-02
         0.20832E-02
         0.23407E-02
         0.92907E-03
         0.30588E-03
         0.25896E-03
        -0.10650E-03
        -0.11310E-02
        -0.20643E-02
        -0.26995E-02
        -0.17635E-02
         0.51437E-03
         0.97670E-03
         0.94289E-03
         0.16528E-02
         0.20013E-02
         0.13238E-02
         0.12446E-02
        -0.98719E-04
         0.13569E-04
        -0.22262E-04
        -0.17528E-04
         0.15293E-03
         0.60698E-04
         0.17193E-04
        -0.10945E-03
        -0.35815E-04
        -0.10448E-03
         0.63197E-05
        -0.16109E-03
        -0.31402E-03
         0.34116E-04
         0.40629E-03
        -0.72486E-04
         0.14966E-04
         0.62003E-05
         0.20213E-04
         0.57941E-05
         0.17973E-03
         0.12023E-03
        -0.68152E-04
         0.14153E-04
         0.38460E-04
        -0.54781E-05
         0.10231E-04
        -0.14359E-05
        -0.68445E-05
        -0.58708E-04
        -0.60198E-04
        -0.88750E-05
         0.23419E-04
         0.19185E-04
         0.31053E-04
        -0.69007E-04
        -0.14933E-03
         0.37564E-03
         0.67163E-04
         0.15060E-03
         0.37440E-03
        -0.85575E-04
        -0.19031E-03
        -0.16826E-03
        -0.16254E-03
        -0.18186E-03
         0.12115E-03
         0.96893E-04
        -0.13154E-04
         0.21128E-04
         0.22692E-03
         0.10533E-04
        -0.12249E-02
         0.17996E-02
        -0.37853E-02
        -0.40482E-02
        -0.38624E-02
        -0.21388E-02
         0.54728E-03
         0.15611E-02
         0.19111E-02
         0.34532E-02
         0.38867E-02
         0.15347E-02
         0.51464E-03
         0.43853E-03
        -0.17446E-03
        -0.18233E-02
        -0.33087E-02
        -0.42881E-02
        -0.28018E-02
         0.81999E-03
         0.15848E-02
         0.15423E-02
         0.26861E-02
         0.32738E-02
         0.21511E-02
         0.20073E-02
  
SCALARS                      strain_eq  double 1
LOOKUP_TABLE default
         0.87222E+01
         0.86042E+01
         0.86788E+01
         0.88131E+01
         0.26895E-08
         0.29821E-08
         0.28973E-08
         0.26070E-08
         0.85978E+01
         0.86390E+01
         0.29330E-08
         0.28049E-08
         0.84332E+01
         0.84270E+01
         0.32089E-08
         0.30559E-08
         0.87935E+01
         0.84360E+01
         0.23938E-08
         0.26924E-08
         0.83046E+01
         0.82017E+01
         0.83640E+01
         0.33050E-08
         0.31527E-08
         0.31358E-08
         0.82063E+01
         0.80565E+01
         0.32013E-08
         0.29075E-08
         0.87870E+01
         0.86316E+01
         0.89375E+01
         0.26050E-08
         0.24462E-08
         0.23432E-08
         0.86968E+01
         0.84989E+01
         0.28400E-08
         0.25891E-08
         0.86181E+01
         0.84649E+01
         0.26417E-08
         0.22790E-08
         0.87472E+01
         0.88052E+01
         0.28525E-08
         0.29582E-08
         0.83431E+01
         0.25566E-08
         0.87939E+01
         0.29727E-08
         0.81636E+01
         0.27950E-08
         0.81167E+01
         0.25799E-08
         0.81169E+01
         0.82841E+01
         0.26144E-08
         0.25708E-08
         0.87838E+01
         0.87236E+01
         0.26378E-08
         0.29860E-08
         0.88211E+01
         0.25318E-08
         0.87499E+01
         0.27729E-08
         0.85590E+01
         0.85427E+01
         0.29661E-08
         0.29642E-08
         0.85012E+01
         0.29997E-08
         0.80032E+01
         0.23978E-08
         0.79768E+01
         0.22318E-08
         0.79890E+01
         0.23249E-08
         0.80591E+01
         0.81360E+01
         0.22487E-08
         0.23357E-08
         0.82883E+01
         0.21997E-08
         0.87437E+01
         0.29535E-08
         0.86714E+01
         0.30076E-08
         0.86106E+01
         0.85817E+01
         0.30047E-08
         0.29476E-08
         0.86224E+01
         0.26451E-08
         0.86504E+01
         0.25899E-08
         0.86243E+01
         0.28013E-08
         0.86129E+01
         0.86403E+01
         0.28798E-08
         0.28720E-08
         0.84627E+01
         0.85274E+01
         0.27384E-08
         0.26432E-08
         0.84466E+01
         0.26594E-08
         0.85212E+01
         0.25964E-08
         0.84457E+01
         0.25933E-08
         0.82748E+01
         0.24313E-08
         0.81073E+01
         0.20572E-08
         0.80083E+01
         0.17383E-08
         0.79984E+01
         0.16860E-08
         0.80019E+01
         0.17963E-08
         0.81098E+01
         0.18530E-08
         0.83065E+01
         0.17358E-08
         0.85241E+01
         0.15843E-08
         0.86548E+01
         0.16396E-08
         0.87834E+01
         0.19435E-08
         0.88679E+01
         0.22689E-08
         0.88632E+01
         0.24182E-08
         0.86640E+01
         0.25821E-08
         0.85261E+01
         0.27136E-08
         0.84723E+01
         0.25318E-08
         0.85454E+01
         0.22290E-08
         0.85869E+01
         0.22247E-08
         0.85247E+01
         0.24481E-08
         0.85291E+01
         0.25977E-08
         0.85760E+01
         0.25136E-08
         0.86378E+01
         0.24576E-08
         0.40486E+00
         0.40339E+00
         0.40360E+00
         0.40528E+00
         0.40186E+00
         0.40387E+00
         0.40111E+00
         0.40264E+00
         0.40508E+00
         0.40371E+00
         0.39932E+00
         0.39909E+00
         0.40052E+00
         0.40036E+00
         0.39976E+00
         0.40523E+00
         0.40495E+00
         0.40565E+00
         0.40321E+00
         0.40375E+00
         0.40319E+00
         0.40376E+00
         0.40270E+00
         0.40277E+00
         0.40373E+00
         0.40363E+00
         0.40194E+00
         0.40209E+00
         0.40065E+00
         0.40280E+00
         0.40509E+00
         0.40335E+00
         0.40507E+00
         0.40399E+00
         0.39862E+00
         0.40058E+00
         0.40152E+00
         0.40060E+00
         0.40037E+00
         0.39837E+00
         0.39702E+00
         0.40051E+00
         0.40330E+00
         0.40286E+00
         0.40147E+00
         0.39875E+00
         0.40102E+00
         0.40320E+00
         0.40304E+00
         0.40137E+00
         0.39953E+00
         0.40205E+00
         0.39511E+00
         0.39885E+00
         0.39856E+00
         0.39955E+00
         0.39977E+00
         0.39853E+00
         0.39635E+00
         0.39500E+00
         0.39511E+00
         0.39516E+00
         0.39404E+00
         0.39925E+00
         0.40014E+00
         0.40046E+00
         0.40181E+00
         0.40285E+00
         0.40308E+00
         0.40202E+00
         0.39662E+00
         0.39825E+00
         0.39969E+00
         0.39937E+00
         0.39912E+00
         0.39721E+00
         0.39993E+00
         0.40095E+00
         0.19108E-01
         0.11481E-01
         0.10830E-01
         0.74263E-02
         0.19844E-01
         0.13720E-01
         0.60561E-02
         0.18793E-01
         0.11772E-01
         0.17709E-01
         0.86342E-02
         0.37205E-01
         0.28252E-01
         0.14130E-01
         0.38966E-01
         0.13884E-01
         0.70340E-02
         0.44877E-02
         0.93490E-02
         0.50614E-02
         0.29258E-01
         0.27449E-01
         0.26732E-01
         0.69565E-02
         0.11428E-01
         0.36338E-02
         0.13331E-01
         0.21653E-02
         0.48827E-02
         0.12396E-01
         0.11861E-01
         0.63089E-02
         0.76826E-02
         0.66461E-02
         0.25651E-01
         0.15350E-01
         0.19870E-01
         0.31778E-01
         0.24444E-01
         0.22752E-01
         0.32314E-01
         0.29293E-01
         0.29488E-01
         0.22828E-01
         0.20386E-01
         0.27887E-01
         0.18282E-01
         0.15545E-01
         0.12819E-01
         0.15138E-01
         0.24752E-01
         0.16994E-01
         0.10866E+00
         0.11126E+00
         0.11630E+00
         0.11546E+00
         0.12307E+00
         0.13214E+00
         0.12680E+00
         0.11276E+00
         0.10988E+00
         0.11760E+00
         0.11525E+00
         0.11368E+00
         0.93978E-01
         0.89338E-01
         0.98143E-01
         0.10512E+00
         0.10909E+00
         0.11913E+00
         0.11459E+00
         0.11770E+00
         0.10598E+00
         0.10063E+00
         0.10731E+00
         0.10491E+00
         0.10795E+00
         0.10704E+00
         0.19123E-01
         0.11484E-01
         0.10836E-01
         0.74369E-02
         0.19835E-01
         0.13712E-01
         0.60744E-02
         0.18811E-01
         0.11793E-01
         0.17761E-01
         0.86340E-02
         0.37204E-01
         0.28263E-01
         0.14097E-01
         0.39006E-01
         0.13895E-01
         0.70537E-02
         0.44764E-02
         0.93544E-02
         0.50502E-02
         0.29260E-01
         0.27447E-01
         0.26730E-01
         0.69563E-02
         0.11477E-01
         0.36330E-02
         0.13336E-01
         0.21424E-02
         0.49059E-02
         0.12417E-01
         0.11872E-01
         0.63069E-02
         0.76696E-02
         0.66522E-02
         0.25663E-01
         0.15346E-01
         0.19865E-01
         0.31827E-01
         0.24499E-01
         0.22783E-01
         0.32335E-01
         0.29308E-01
         0.29491E-01
         0.22827E-01
         0.20382E-01
         0.27886E-01
         0.18282E-01
         0.15544E-01
         0.12801E-01
         0.15117E-01
         0.24738E-01
         0.16967E-01
         0.10862E+00
         0.11123E+00
         0.11630E+00
         0.11546E+00
         0.12305E+00
         0.13210E+00
         0.12675E+00
         0.11273E+00
         0.10985E+00
         0.11756E+00
         0.11523E+00
         0.11369E+00
         0.93969E-01
         0.89334E-01
         0.98154E-01
         0.10515E+00
         0.10912E+00
         0.11916E+00
         0.11459E+00
         0.11769E+00
         0.10597E+00
         0.10062E+00
         0.10728E+00
         0.10484E+00
         0.10789E+00
         0.10699E+00
         0.19137E-01
         0.11487E-01
         0.10842E-01
         0.74476E-02
         0.19826E-01
         0.13704E-01
         0.60929E-02
         0.18829E-01
         0.11813E-01
         0.17812E-01
         0.86339E-02
         0.37202E-01
         0.28274E-01
         0.14064E-01
         0.39046E-01
         0.13907E-01
         0.70737E-02
         0.44650E-02
         0.93600E-02
         0.50393E-02
         0.29263E-01
         0.27445E-01
         0.26728E-01
         0.69560E-02
         0.11526E-01
         0.36319E-02
         0.13340E-01
         0.21203E-02
         0.49290E-02
         0.12439E-01
         0.11884E-01
         0.63048E-02
         0.76566E-02
         0.66582E-02
         0.25674E-01
         0.15342E-01
         0.19860E-01
         0.31877E-01
         0.24554E-01
         0.22815E-01
         0.32357E-01
         0.29324E-01
         0.29495E-01
         0.22828E-01
         0.20379E-01
         0.27885E-01
         0.18282E-01
         0.15543E-01
         0.12783E-01
         0.15096E-01
         0.24724E-01
         0.16941E-01
         0.10858E+00
         0.11121E+00
         0.11630E+00
         0.11546E+00
         0.12303E+00
         0.13205E+00
         0.12670E+00
         0.11270E+00
         0.10982E+00
         0.11752E+00
         0.11521E+00
         0.11369E+00
         0.93961E-01
         0.89330E-01
         0.98166E-01
         0.10517E+00
         0.10915E+00
         0.11918E+00
         0.11458E+00
         0.11768E+00
         0.10596E+00
         0.10061E+00
         0.10724E+00
         0.10477E+00
         0.10783E+00
         0.10693E+00
         0.19152E-01
         0.11489E-01
         0.10848E-01
         0.74583E-02
         0.19816E-01
         0.13697E-01
         0.61115E-02
         0.18847E-01
         0.11833E-01
         0.17863E-01
         0.86339E-02
         0.37201E-01
         0.28286E-01
         0.14031E-01
         0.39087E-01
         0.13919E-01
         0.70945E-02
         0.44535E-02
         0.93660E-02
         0.50278E-02
         0.29267E-01
         0.27444E-01
         0.26729E-01
         0.69553E-02
         0.11574E-01
         0.36303E-02
         0.13344E-01
         0.21008E-02
         0.49508E-02
         0.12458E-01
         0.11896E-01
         0.63033E-02
         0.76435E-02
         0.66642E-02
         0.25685E-01
         0.15338E-01
         0.19856E-01
         0.31927E-01
         0.24610E-01
         0.22849E-01
         0.32380E-01
         0.29340E-01
         0.29501E-01
         0.22831E-01
         0.20376E-01
         0.27885E-01
         0.18284E-01
         0.15542E-01
         0.12765E-01
         0.15076E-01
         0.24710E-01
         0.16915E-01
         0.10854E+00
         0.11118E+00
         0.11630E+00
         0.11546E+00
         0.12301E+00
         0.13201E+00
         0.12664E+00
         0.11267E+00
         0.10980E+00
         0.11749E+00
         0.11519E+00
         0.11370E+00
         0.93954E-01
         0.89327E-01
         0.98180E-01
         0.10520E+00
         0.10918E+00
         0.11921E+00
         0.11457E+00
         0.11768E+00
         0.10594E+00
         0.10061E+00
         0.10720E+00
         0.10470E+00
         0.10777E+00
         0.10687E+00
         0.19166E-01
         0.11492E-01
         0.10854E-01
         0.74690E-02
         0.19808E-01
         0.13689E-01
         0.61299E-02
         0.18865E-01
         0.11854E-01
         0.17913E-01
         0.86341E-02
         0.37200E-01
         0.28297E-01
         0.13998E-01
         0.39127E-01
         0.13933E-01
         0.71161E-02
         0.44420E-02
         0.93721E-02
         0.50161E-02
         0.29271E-01
         0.27444E-01
         0.26730E-01
         0.69543E-02
         0.11620E-01
         0.36278E-02
         0.13347E-01
         0.20839E-02
         0.49712E-02
         0.12475E-01
         0.11909E-01
         0.63019E-02
         0.76304E-02
         0.66703E-02
         0.25697E-01
         0.15333E-01
         0.19851E-01
         0.31977E-01
         0.24667E-01
         0.22883E-01
         0.32405E-01
         0.29357E-01
         0.29507E-01
         0.22835E-01
         0.20375E-01
         0.27886E-01
         0.18286E-01
         0.15542E-01
         0.12747E-01
         0.15054E-01
         0.24697E-01
         0.16889E-01
         0.10850E+00
         0.11115E+00
         0.11630E+00
         0.11546E+00
         0.12299E+00
         0.13196E+00
         0.12659E+00
         0.11264E+00
         0.10977E+00
         0.11745E+00
         0.11517E+00
         0.11370E+00
         0.93950E-01
         0.89325E-01
         0.98194E-01
         0.10524E+00
         0.10922E+00
         0.11924E+00
         0.11457E+00
         0.11767E+00
         0.10593E+00
         0.10060E+00
         0.10717E+00
         0.10463E+00
         0.10771E+00
         0.10682E+00
         0.19180E-01
         0.11494E-01
         0.10860E-01
         0.74797E-02
         0.19799E-01
         0.13681E-01
         0.61479E-02
         0.18882E-01
         0.11874E-01
         0.17961E-01
         0.86351E-02
         0.37199E-01
         0.28308E-01
         0.13965E-01
         0.39167E-01
         0.13946E-01
         0.71378E-02
         0.44305E-02
         0.93782E-02
         0.50047E-02
         0.29277E-01
         0.27444E-01
         0.26733E-01
         0.69532E-02
         0.11666E-01
         0.36250E-02
         0.13350E-01
         0.20682E-02
         0.49915E-02
         0.12492E-01
         0.11921E-01
         0.63001E-02
         0.76174E-02
         0.66763E-02
         0.25709E-01
         0.15330E-01
         0.19847E-01
         0.32027E-01
         0.24725E-01
         0.22920E-01
         0.32430E-01
         0.29374E-01
         0.29515E-01
         0.22841E-01
         0.20376E-01
         0.27889E-01
         0.18289E-01
         0.15543E-01
         0.12730E-01
         0.15034E-01
         0.24683E-01
         0.16863E-01
         0.10846E+00
         0.11113E+00
         0.11630E+00
         0.11546E+00
         0.12297E+00
         0.13192E+00
         0.12654E+00
         0.11261E+00
         0.10974E+00
         0.11742E+00
         0.11516E+00
         0.11371E+00
         0.93947E-01
         0.89324E-01
         0.98209E-01
         0.10527E+00
         0.10925E+00
         0.11927E+00
         0.11456E+00
         0.11766E+00
         0.10592E+00
         0.10059E+00
         0.10713E+00
         0.10456E+00
         0.10765E+00
         0.10676E+00
         0.19192E-01
         0.11494E-01
         0.10866E-01
         0.74905E-02
         0.19790E-01
         0.13673E-01
         0.61653E-02
         0.18896E-01
         0.11895E-01
         0.18007E-01
         0.86373E-02
         0.37200E-01
         0.28321E-01
         0.13932E-01
         0.39208E-01
         0.13960E-01
         0.71592E-02
         0.44189E-02
         0.93845E-02
         0.49934E-02
         0.29281E-01
         0.27444E-01
         0.26736E-01
         0.69523E-02
         0.11710E-01
         0.36217E-02
         0.13354E-01
         0.20530E-02
         0.50121E-02
         0.12508E-01
         0.11932E-01
         0.62970E-02
         0.76042E-02
         0.66821E-02
         0.25721E-01
         0.15327E-01
         0.19844E-01
         0.32077E-01
         0.24783E-01
         0.22956E-01
         0.32456E-01
         0.29392E-01
         0.29522E-01
         0.22847E-01
         0.20377E-01
         0.27892E-01
         0.18293E-01
         0.15544E-01
         0.12715E-01
         0.15015E-01
         0.24671E-01
         0.16838E-01
         0.10843E+00
         0.11110E+00
         0.11630E+00
         0.11546E+00
         0.12295E+00
         0.13187E+00
         0.12648E+00
         0.11257E+00
         0.10971E+00
         0.11738E+00
         0.11514E+00
         0.11372E+00
         0.93943E-01
         0.89322E-01
         0.98223E-01
         0.10531E+00
         0.10929E+00
         0.11930E+00
         0.11455E+00
         0.11765E+00
         0.10591E+00
         0.10059E+00
         0.10709E+00
         0.10450E+00
         0.10759E+00
         0.10670E+00
         0.19204E-01
         0.11494E-01
         0.10872E-01
         0.75013E-02
         0.19782E-01
         0.13666E-01
         0.61821E-02
         0.18909E-01
         0.11916E-01
         0.18052E-01
         0.86403E-02
         0.37200E-01
         0.28334E-01
         0.13900E-01
         0.39249E-01
         0.13974E-01
         0.71803E-02
         0.44072E-02
         0.93908E-02
         0.49826E-02
         0.29287E-01
         0.27444E-01
         0.26739E-01
         0.69514E-02
         0.11754E-01
         0.36183E-02
         0.13357E-01
         0.20383E-02
         0.50333E-02
         0.12525E-01
         0.11943E-01
         0.62932E-02
         0.75910E-02
         0.66879E-02
         0.25733E-01
         0.15325E-01
         0.19841E-01
         0.32128E-01
         0.24842E-01
         0.22992E-01
         0.32482E-01
         0.29410E-01
         0.29530E-01
         0.22853E-01
         0.20379E-01
         0.27897E-01
         0.18297E-01
         0.15547E-01
         0.12702E-01
         0.14996E-01
         0.24659E-01
         0.16813E-01
         0.10839E+00
         0.11108E+00
         0.11629E+00
         0.11546E+00
         0.12293E+00
         0.13183E+00
         0.12643E+00
         0.11254E+00
         0.10969E+00
         0.11735E+00
         0.11512E+00
         0.11373E+00
         0.93940E-01
         0.89320E-01
         0.98238E-01
         0.10534E+00
         0.10933E+00
         0.11932E+00
         0.11455E+00
         0.11765E+00
         0.10590E+00
         0.10059E+00
         0.10705E+00
         0.10443E+00
         0.10753E+00
         0.10665E+00
         0.19216E-01
         0.11494E-01
         0.10877E-01
         0.75121E-02
         0.19773E-01
         0.13658E-01
         0.61989E-02
         0.18922E-01
         0.11937E-01
         0.18097E-01
         0.86430E-02
         0.37200E-01
         0.28347E-01
         0.13867E-01
         0.39290E-01
         0.13988E-01
         0.72014E-02
         0.43955E-02
         0.93970E-02
         0.49715E-02
         0.29291E-01
         0.27444E-01
         0.26742E-01
         0.69508E-02
         0.11797E-01
         0.36149E-02
         0.13361E-01
         0.20240E-02
         0.50547E-02
         0.12541E-01
         0.11954E-01
         0.62895E-02
         0.75778E-02
         0.66936E-02
         0.25746E-01
         0.15322E-01
         0.19839E-01
         0.32179E-01
         0.24900E-01
         0.23028E-01
         0.32507E-01
         0.29428E-01
         0.29538E-01
         0.22860E-01
         0.20381E-01
         0.27901E-01
         0.18301E-01
         0.15549E-01
         0.12688E-01
         0.14977E-01
         0.24648E-01
         0.16788E-01
         0.10835E+00
         0.11105E+00
         0.11629E+00
         0.11546E+00
         0.12291E+00
         0.13178E+00
         0.12638E+00
         0.11251E+00
         0.10966E+00
         0.11731E+00
         0.11510E+00
         0.11373E+00
         0.93936E-01
         0.89319E-01
         0.98253E-01
         0.10538E+00
         0.10937E+00
         0.11935E+00
         0.11454E+00
         0.11764E+00
         0.10589E+00
         0.10058E+00
         0.10702E+00
         0.10436E+00
         0.10747E+00
         0.10659E+00
         0.19228E-01
         0.11494E-01
         0.10883E-01
         0.75231E-02
         0.19765E-01
         0.13650E-01
         0.62158E-02
         0.18935E-01
         0.11958E-01
         0.18142E-01
         0.86463E-02
         0.37200E-01
         0.28360E-01
         0.13835E-01
         0.39331E-01
         0.14002E-01
         0.72227E-02
         0.43840E-02
         0.94031E-02
         0.49607E-02
         0.29297E-01
         0.27444E-01
         0.26744E-01
         0.69501E-02
         0.11841E-01
         0.36115E-02
         0.13365E-01
         0.20103E-02
         0.50762E-02
         0.12558E-01
         0.11965E-01
         0.62857E-02
         0.75648E-02
         0.66995E-02
         0.25758E-01
         0.15320E-01
         0.19836E-01
         0.32231E-01
         0.24959E-01
         0.23064E-01
         0.32533E-01
         0.29445E-01
         0.29545E-01
         0.22866E-01
         0.20383E-01
         0.27906E-01
         0.18306E-01
         0.15552E-01
         0.12674E-01
         0.14957E-01
         0.24636E-01
         0.16762E-01
         0.10831E+00
         0.11102E+00
         0.11629E+00
         0.11546E+00
         0.12289E+00
         0.13174E+00
         0.12632E+00
         0.11248E+00
         0.10963E+00
         0.11727E+00
         0.11508E+00
         0.11374E+00
         0.93933E-01
         0.89317E-01
         0.98268E-01
         0.10541E+00
         0.10940E+00
         0.11938E+00
         0.11453E+00
         0.11763E+00
         0.10588E+00
         0.10058E+00
         0.10698E+00
         0.10429E+00
         0.10741E+00
         0.10653E+00
         0.19240E-01
         0.11494E-01
         0.10888E-01
         0.75339E-02
         0.19757E-01
         0.13642E-01
         0.62329E-02
         0.18947E-01
         0.11979E-01
         0.18187E-01
         0.86496E-02
         0.37200E-01
         0.28373E-01
         0.13803E-01
         0.39372E-01
         0.14016E-01
         0.72439E-02
         0.43725E-02
         0.94093E-02
         0.49495E-02
         0.29301E-01
         0.27444E-01
         0.26747E-01
         0.69495E-02
         0.11884E-01
         0.36081E-02
         0.13369E-01
         0.19969E-02
         0.50979E-02
         0.12575E-01
         0.11976E-01
         0.62820E-02
         0.75518E-02
         0.67052E-02
         0.25771E-01
         0.15317E-01
         0.19833E-01
         0.32282E-01
         0.25017E-01
         0.23100E-01
         0.32559E-01
         0.29463E-01
         0.29553E-01
         0.22872E-01
         0.20385E-01
         0.27910E-01
         0.18310E-01
         0.15554E-01
         0.12661E-01
         0.14939E-01
         0.24625E-01
         0.16737E-01
         0.10827E+00
         0.11100E+00
         0.11629E+00
         0.11546E+00
         0.12287E+00
         0.13169E+00
         0.12627E+00
         0.11245E+00
         0.10960E+00
         0.11724E+00
         0.11506E+00
         0.11375E+00
         0.93929E-01
         0.89315E-01
         0.98283E-01
         0.10545E+00
         0.10944E+00
         0.11941E+00
         0.11452E+00
         0.11762E+00
         0.10587E+00
         0.10057E+00
         0.10694E+00
         0.10422E+00
         0.10735E+00
         0.10648E+00
         0.19252E-01
         0.11494E-01
         0.10894E-01
         0.75448E-02
         0.19748E-01
         0.13635E-01
         0.62498E-02
         0.18960E-01
         0.12000E-01
         0.18232E-01
         0.86530E-02
         0.37200E-01
         0.28385E-01
         0.13771E-01
         0.39413E-01
         0.14029E-01
         0.72652E-02
         0.43608E-02
         0.94155E-02
         0.49387E-02
         0.29306E-01
         0.27444E-01
         0.26750E-01
         0.69489E-02
         0.11927E-01
         0.36049E-02
         0.13373E-01
         0.19841E-02
         0.51196E-02
         0.12591E-01
         0.11987E-01
         0.62783E-02
         0.75388E-02
         0.67111E-02
         0.25784E-01
         0.15315E-01
         0.19830E-01
         0.32333E-01
         0.25076E-01
         0.23136E-01
         0.32585E-01
         0.29481E-01
         0.29561E-01
         0.22879E-01
         0.20388E-01
         0.27915E-01
         0.18315E-01
         0.15557E-01
         0.12648E-01
         0.14920E-01
         0.24613E-01
         0.16712E-01
         0.10823E+00
         0.11097E+00
         0.11629E+00
         0.11546E+00
         0.12285E+00
         0.13165E+00
         0.12622E+00
         0.11242E+00
         0.10958E+00
         0.11720E+00
         0.11504E+00
         0.11376E+00
         0.93925E-01
         0.89314E-01
         0.98298E-01
         0.10548E+00
         0.10948E+00
         0.11943E+00
         0.11452E+00
         0.11762E+00
         0.10586E+00
         0.10057E+00
         0.10691E+00
         0.10416E+00
         0.10729E+00
         0.10642E+00
         0.19263E-01
         0.11494E-01
         0.10899E-01
         0.75557E-02
         0.19740E-01
         0.13627E-01
         0.62667E-02
         0.18973E-01
         0.12021E-01
         0.18277E-01
         0.86566E-02
         0.37201E-01
         0.28398E-01
         0.13739E-01
         0.39455E-01
         0.14043E-01
         0.72864E-02
         0.43491E-02
         0.94217E-02
         0.49277E-02
         0.29311E-01
         0.27444E-01
         0.26753E-01
         0.69484E-02
         0.11970E-01
         0.36016E-02
         0.13376E-01
         0.19716E-02
         0.51417E-02
         0.12608E-01
         0.11998E-01
         0.62745E-02
         0.75259E-02
         0.67169E-02
         0.25796E-01
         0.15313E-01
         0.19828E-01
         0.32384E-01
         0.25135E-01
         0.23172E-01
         0.32611E-01
         0.29499E-01
         0.29568E-01
         0.22886E-01
         0.20390E-01
         0.27919E-01
         0.18319E-01
         0.15560E-01
         0.12634E-01
         0.14901E-01
         0.24601E-01
         0.16687E-01
         0.10819E+00
         0.11094E+00
         0.11629E+00
         0.11546E+00
         0.12283E+00
         0.13160E+00
         0.12616E+00
         0.11239E+00
         0.10955E+00
         0.11716E+00
         0.11502E+00
         0.11376E+00
         0.93922E-01
         0.89312E-01
         0.98313E-01
         0.10552E+00
         0.10952E+00
         0.11946E+00
         0.11451E+00
         0.11761E+00
         0.10586E+00
         0.10056E+00
         0.10687E+00
         0.10409E+00
         0.10723E+00
         0.10636E+00
         0.19275E-01
         0.11494E-01
         0.10905E-01
         0.75667E-02
         0.19732E-01
         0.13619E-01
         0.62839E-02
         0.18986E-01
         0.12042E-01
         0.18322E-01
         0.86603E-02
         0.37201E-01
         0.28411E-01
         0.13706E-01
         0.39495E-01
         0.14057E-01
         0.73078E-02
         0.43376E-02
         0.94279E-02
         0.49169E-02
         0.29316E-01
         0.27444E-01
         0.26756E-01
         0.69478E-02
         0.12013E-01
         0.35983E-02
         0.13380E-01
         0.19597E-02
         0.51641E-02
         0.12624E-01
         0.12009E-01
         0.62708E-02
         0.75130E-02
         0.67227E-02
         0.25809E-01
         0.15310E-01
         0.19825E-01
         0.32435E-01
         0.25194E-01
         0.23208E-01
         0.32637E-01
         0.29516E-01
         0.29576E-01
         0.22892E-01
         0.20392E-01
         0.27923E-01
         0.18324E-01
         0.15562E-01
         0.12621E-01
         0.14882E-01
         0.24590E-01
         0.16662E-01
         0.10815E+00
         0.11092E+00
         0.11628E+00
         0.11546E+00
         0.12281E+00
         0.13156E+00
         0.12611E+00
         0.11236E+00
         0.10952E+00
         0.11713E+00
         0.11500E+00
         0.11377E+00
         0.93918E-01
         0.89310E-01
         0.98328E-01
         0.10555E+00
         0.10955E+00
         0.11949E+00
         0.11450E+00
         0.11760E+00
         0.10585E+00
         0.10056E+00
         0.10683E+00
         0.10402E+00
         0.10717E+00
         0.10631E+00
         0.19287E-01
         0.11494E-01
         0.10910E-01
         0.75777E-02
         0.19724E-01
         0.13611E-01
         0.63010E-02
         0.18999E-01
         0.12063E-01
         0.18367E-01
         0.86641E-02
         0.37201E-01
         0.28424E-01
         0.13674E-01
         0.39537E-01
         0.14071E-01
         0.73292E-02
         0.43260E-02
         0.94341E-02
         0.49058E-02
         0.29322E-01
         0.27444E-01
         0.26759E-01
         0.69473E-02
         0.12056E-01
         0.35950E-02
         0.13384E-01
         0.19480E-02
         0.51866E-02
         0.12640E-01
         0.12019E-01
         0.62670E-02
         0.75002E-02
         0.67285E-02
         0.25822E-01
         0.15308E-01
         0.19823E-01
         0.32487E-01
         0.25253E-01
         0.23244E-01
         0.32662E-01
         0.29534E-01
         0.29584E-01
         0.22898E-01
         0.20394E-01
         0.27928E-01
         0.18328E-01
         0.15565E-01
         0.12607E-01
         0.14863E-01
         0.24578E-01
         0.16637E-01
         0.10811E+00
         0.11089E+00
         0.11628E+00
         0.11546E+00
         0.12279E+00
         0.13151E+00
         0.12605E+00
         0.11233E+00
         0.10949E+00
         0.11709E+00
         0.11499E+00
         0.11378E+00
         0.93914E-01
         0.89309E-01
         0.98343E-01
         0.10559E+00
         0.10959E+00
         0.11952E+00
         0.11449E+00
         0.11760E+00
         0.10584E+00
         0.10055E+00
         0.10679E+00
         0.10395E+00
         0.10711E+00
         0.10625E+00
         0.19298E-01
         0.11493E-01
         0.10916E-01
         0.75887E-02
         0.19715E-01
         0.13604E-01
         0.63180E-02
         0.19012E-01
         0.12084E-01
         0.18411E-01
         0.86681E-02
         0.37202E-01
         0.28437E-01
         0.13642E-01
         0.39578E-01
         0.14085E-01
         0.73507E-02
         0.43145E-02
         0.94403E-02
         0.48950E-02
         0.29327E-01
         0.27444E-01
         0.26762E-01
         0.69468E-02
         0.12099E-01
         0.35918E-02
         0.13388E-01
         0.19368E-02
         0.52093E-02
         0.12657E-01
         0.12030E-01
         0.62634E-02
         0.74875E-02
         0.67345E-02
         0.25835E-01
         0.15306E-01
         0.19820E-01
         0.32538E-01
         0.25312E-01
         0.23279E-01
         0.32688E-01
         0.29552E-01
         0.29591E-01
         0.22904E-01
         0.20396E-01
         0.27932E-01
         0.18333E-01
         0.15567E-01
         0.12594E-01
         0.14844E-01
         0.24566E-01
         0.16612E-01
         0.10807E+00
         0.11087E+00
         0.11628E+00
         0.11547E+00
         0.12277E+00
         0.13147E+00
         0.12600E+00
         0.11230E+00
         0.10947E+00
         0.11705E+00
         0.11497E+00
         0.11379E+00
         0.93911E-01
         0.89307E-01
         0.98358E-01
         0.10562E+00
         0.10963E+00
         0.11954E+00
         0.11449E+00
         0.11759E+00
         0.10583E+00
         0.10055E+00
         0.10676E+00
         0.10388E+00
         0.10705E+00
         0.10619E+00
         0.19310E-01
         0.11493E-01
         0.10921E-01
         0.75997E-02
         0.19707E-01
         0.13596E-01
         0.63353E-02
         0.19024E-01
         0.12106E-01
         0.18456E-01
         0.86721E-02
         0.37202E-01
         0.28450E-01
         0.13610E-01
         0.39619E-01
         0.14098E-01
         0.73722E-02
         0.43030E-02
         0.94465E-02
         0.48841E-02
         0.29332E-01
         0.27443E-01
         0.26764E-01
         0.69464E-02
         0.12142E-01
         0.35885E-02
         0.13391E-01
         0.19258E-02
         0.52319E-02
         0.12673E-01
         0.12041E-01
         0.62598E-02
         0.74750E-02
         0.67404E-02
         0.25848E-01
         0.15303E-01
         0.19817E-01
         0.32589E-01
         0.25370E-01
         0.23315E-01
         0.32713E-01
         0.29569E-01
         0.29598E-01
         0.22911E-01
         0.20399E-01
         0.27937E-01
         0.18337E-01
         0.15570E-01
         0.12581E-01
         0.14825E-01
         0.24554E-01
         0.16587E-01
         0.10803E+00
         0.11084E+00
         0.11628E+00
         0.11547E+00
         0.12275E+00
         0.13142E+00
         0.12594E+00
         0.11227E+00
         0.10944E+00
         0.11701E+00
         0.11495E+00
         0.11379E+00
         0.93908E-01
         0.89305E-01
         0.98372E-01
         0.10566E+00
         0.10967E+00
         0.11957E+00
         0.11448E+00
         0.11758E+00
         0.10582E+00
         0.10054E+00
         0.10672E+00
         0.10381E+00
         0.10699E+00
         0.10614E+00
         0.19322E-01
         0.11493E-01
         0.10927E-01
         0.76108E-02
         0.19699E-01
         0.13588E-01
         0.63524E-02
         0.19037E-01
         0.12127E-01
         0.18500E-01
         0.86763E-02
         0.37202E-01
         0.28462E-01
         0.13578E-01
         0.39659E-01
         0.14112E-01
         0.73937E-02
         0.42914E-02
         0.94528E-02
         0.48737E-02
         0.29337E-01
         0.27443E-01
         0.26768E-01
         0.69458E-02
         0.12185E-01
         0.35855E-02
         0.13393E-01
         0.19148E-02
         0.52550E-02
         0.12688E-01
         0.12052E-01
         0.62560E-02
         0.74623E-02
         0.67463E-02
         0.25860E-01
         0.15301E-01
         0.19815E-01
         0.32641E-01
         0.25429E-01
         0.23349E-01
         0.32737E-01
         0.29585E-01
         0.29605E-01
         0.22918E-01
         0.20401E-01
         0.27942E-01
         0.18342E-01
         0.15573E-01
         0.12567E-01
         0.14806E-01
         0.24543E-01
         0.16562E-01
         0.10799E+00
         0.11082E+00
         0.11628E+00
         0.11547E+00
         0.12273E+00
         0.13138E+00
         0.12589E+00
         0.11224E+00
         0.10941E+00
         0.11697E+00
         0.11493E+00
         0.11381E+00
         0.93907E-01
         0.89304E-01
         0.98387E-01
         0.10569E+00
         0.10970E+00
         0.11960E+00
         0.11447E+00
         0.11757E+00
         0.10581E+00
         0.10054E+00
         0.10668E+00
         0.10375E+00
         0.10693E+00
         0.10608E+00
         0.19333E-01
         0.11493E-01
         0.10932E-01
         0.76219E-02
         0.19690E-01
         0.13580E-01
         0.63696E-02
         0.19050E-01
         0.12148E-01
         0.18544E-01
         0.86805E-02
         0.37202E-01
         0.28476E-01
         0.13545E-01
         0.39701E-01
         0.14126E-01
         0.74152E-02
         0.42798E-02
         0.94591E-02
         0.48632E-02
         0.29342E-01
         0.27442E-01
         0.26771E-01
         0.69454E-02
         0.12228E-01
         0.35823E-02
         0.13395E-01
         0.19037E-02
         0.52782E-02
         0.12703E-01
         0.12063E-01
         0.62523E-02
         0.74498E-02
         0.67522E-02
         0.25873E-01
         0.15299E-01
         0.19812E-01
         0.32693E-01
         0.25488E-01
         0.23382E-01
         0.32760E-01
         0.29599E-01
         0.29611E-01
         0.22924E-01
         0.20403E-01
         0.27946E-01
         0.18346E-01
         0.15575E-01
         0.12554E-01
         0.14787E-01
         0.24531E-01
         0.16536E-01
         0.10795E+00
         0.11079E+00
         0.11627E+00
         0.11547E+00
         0.12271E+00
         0.13133E+00
         0.12583E+00
         0.11221E+00
         0.10938E+00
         0.11693E+00
         0.11491E+00
         0.11382E+00
         0.93907E-01
         0.89303E-01
         0.98402E-01
         0.10573E+00
         0.10974E+00
         0.11963E+00
         0.11446E+00
         0.11757E+00
         0.10580E+00
         0.10053E+00
         0.10664E+00
         0.10368E+00
         0.10687E+00
         0.10602E+00
         0.19345E-01
         0.11493E-01
         0.10938E-01
         0.76330E-02
         0.19683E-01
         0.13573E-01
         0.63869E-02
         0.19062E-01
         0.12170E-01
         0.18588E-01
         0.86849E-02
         0.37203E-01
         0.28488E-01
         0.13513E-01
         0.39741E-01
         0.14140E-01
         0.74369E-02
         0.42684E-02
         0.94654E-02
         0.48529E-02
         0.29347E-01
         0.27442E-01
         0.26773E-01
         0.69451E-02
         0.12270E-01
         0.35794E-02
         0.13396E-01
         0.18926E-02
         0.53014E-02
         0.12717E-01
         0.12074E-01
         0.62488E-02
         0.74375E-02
         0.67583E-02
         0.25886E-01
         0.15297E-01
         0.19809E-01
         0.32745E-01
         0.25546E-01
         0.23414E-01
         0.32781E-01
         0.29613E-01
         0.29617E-01
         0.22930E-01
         0.20405E-01
         0.27951E-01
         0.18351E-01
         0.15578E-01
         0.12541E-01
         0.14768E-01
         0.24520E-01
         0.16512E-01
         0.10791E+00
         0.11076E+00
         0.11627E+00
         0.11547E+00
         0.12269E+00
         0.13129E+00
         0.12578E+00
         0.11218E+00
         0.10936E+00
         0.11689E+00
         0.11489E+00
         0.11383E+00
         0.93908E-01
         0.89302E-01
         0.98417E-01
         0.10576E+00
         0.10978E+00
         0.11965E+00
         0.11446E+00
         0.11756E+00
         0.10579E+00
         0.10053E+00
         0.10661E+00
         0.10361E+00
         0.10682E+00
         0.10597E+00
         0.19753E-01
         0.12090E-01
         0.11556E-01
         0.83359E-02
         0.20195E-01
         0.14162E-01
         0.74972E-02
         0.19563E-01
         0.12706E-01
         0.19126E-01
         0.97234E-02
         0.37727E-01
         0.28989E-01
         0.14249E-01
         0.40320E-01
         0.14596E-01
         0.82865E-02
         0.52807E-02
         0.10203E-01
         0.62027E-02
         0.29777E-01
         0.27885E-01
         0.27187E-01
         0.78120E-02
         0.12975E-01
         0.49235E-02
         0.14150E-01
         0.46156E-02
         0.68243E-02
         0.13422E-01
         0.12589E-01
         0.71772E-02
         0.81425E-02
         0.76042E-02
         0.26426E-01
         0.15902E-01
         0.20319E-01
         0.33321E-01
         0.26154E-01
         0.24011E-01
         0.33313E-01
         0.30114E-01
         0.30074E-01
         0.23355E-01
         0.20885E-01
         0.28462E-01
         0.18903E-01
         0.16124E-01
         0.13141E-01
         0.15333E-01
         0.25014E-01
         0.17037E-01
         0.10883E+00
         0.11168E+00
         0.11726E+00
         0.11642E+00
         0.12368E+00
         0.13234E+00
         0.12682E+00
         0.11318E+00
         0.11036E+00
         0.11794E+00
         0.11592E+00
         0.11482E+00
         0.94704E-01
         0.90036E-01
         0.99197E-01
         0.10659E+00
         0.11064E+00
         0.12061E+00
         0.11544E+00
         0.11856E+00
         0.10666E+00
         0.10135E+00
         0.10745E+00
         0.10441E+00
         0.10763E+00
         0.10678E+00
         0.47160E-01
         0.42499E-01
         0.41630E-01
         0.36845E-01
         0.51478E-01
         0.44916E-01
         0.42963E-01
         0.50981E-01
         0.40641E-01
         0.50561E-01
         0.47632E-01
         0.73919E-01
         0.62274E-01
         0.51190E-01
         0.78076E-01
         0.41473E-01
         0.39765E-01
         0.34050E-01
         0.41807E-01
         0.41976E-01
         0.60280E-01
         0.59381E-01
         0.56537E-01
         0.39303E-01
         0.46527E-01
         0.37010E-01
         0.51055E-01
         0.46288E-01
         0.47106E-01
         0.48114E-01
         0.40295E-01
         0.38891E-01
         0.36998E-01
         0.38215E-01
         0.59618E-01
         0.48490E-01
         0.52001E-01
         0.70487E-01
         0.62979E-01
         0.60664E-01
         0.69871E-01
         0.65042E-01
         0.63149E-01
         0.52273E-01
         0.51236E-01
         0.61283E-01
         0.50860E-01
         0.46785E-01
         0.44076E-01
         0.46770E-01
         0.57059E-01
         0.48036E-01
         0.15643E+00
         0.15855E+00
         0.16568E+00
         0.16405E+00
         0.17329E+00
         0.18540E+00
         0.18117E+00
         0.16637E+00
         0.16314E+00
         0.17196E+00
         0.16869E+00
         0.16498E+00
         0.13941E+00
         0.13261E+00
         0.14191E+00
         0.14950E+00
         0.15408E+00
         0.16724E+00
         0.16344E+00
         0.16729E+00
         0.15243E+00
         0.14587E+00
         0.15347E+00
         0.15015E+00
         0.15312E+00
         0.15161E+00
  
SCALARS                     nodal_mass  double 1
LOOKUP_TABLE default
         0.24608E-05
         0.19551E-05
         0.20945E-05
         0.35953E-05
         0.12304E-05
         0.97770E-06
         0.10472E-05
         0.17973E-05
         0.19315E-05
         0.24627E-05
         0.96570E-06
         0.12312E-05
         0.13823E-05
         0.16614E-05
         0.69133E-06
         0.83095E-06
         0.27274E-05
         0.20125E-05
         0.13635E-05
         0.10066E-05
         0.81737E-06
         0.15393E-05
         0.16929E-05
         0.40889E-06
         0.76975E-06
         0.84649E-06
         0.13859E-05
         0.17532E-05
         0.69345E-06
         0.87672E-06
         0.32470E-05
         0.25355E-05
         0.32225E-05
         0.16233E-05
         0.12675E-05
         0.16109E-05
         0.18980E-05
         0.21673E-05
         0.94902E-06
         0.10836E-05
         0.20482E-05
         0.22683E-05
         0.10242E-05
         0.11342E-05
         0.17426E-05
         0.10823E-05
         0.87140E-06
         0.54121E-06
         0.20598E-05
         0.10301E-05
         0.17103E-05
         0.85523E-06
         0.17977E-05
         0.89958E-06
         0.18362E-05
         0.91859E-06
         0.15911E-05
         0.19369E-05
         0.79575E-06
         0.96860E-06
         0.24553E-05
         0.17361E-05
         0.12277E-05
         0.86816E-06
         0.27409E-05
         0.13702E-05
         0.23792E-05
         0.11891E-05
         0.10821E-05
         0.16705E-05
         0.54106E-06
         0.83538E-06
         0.18955E-05
         0.94787E-06
         0.20026E-05
         0.10014E-05
         0.19316E-05
         0.96578E-06
         0.15181E-05
         0.75906E-06
         0.95443E-06
         0.15782E-05
         0.47723E-06
         0.78918E-06
         0.20886E-05
         0.10443E-05
         0.16867E-05
         0.84342E-06
         0.14838E-05
         0.74203E-06
         0.97224E-06
         0.16569E-05
         0.48620E-06
         0.82849E-06
         0.22482E-05
         0.11241E-05
         0.23568E-05
         0.11783E-05
         0.19018E-05
         0.95085E-06
         0.11709E-05
         0.20091E-05
         0.58544E-06
         0.10044E-05
         0.74681E-06
         0.94889E-06
         0.37348E-06
         0.47447E-06
         0.88885E-06
         0.44455E-06
         0.10466E-05
         0.52333E-06
         0.10205E-05
         0.51021E-06
         0.99108E-06
         0.49550E-06
         0.10560E-05
         0.52791E-06
         0.11142E-05
         0.55694E-06
         0.10497E-05
         0.52469E-06
         0.82085E-06
         0.41039E-06
         0.66950E-06
         0.33475E-06
         0.86397E-06
         0.43199E-06
         0.11504E-05
         0.57519E-06
         0.12637E-05
         0.63182E-06
         0.12132E-05
         0.60658E-06
         0.10948E-05
         0.54745E-06
         0.99429E-06
         0.49718E-06
         0.80759E-06
         0.40382E-06
         0.67982E-06
         0.33995E-06
         0.88797E-06
         0.44401E-06
         0.11753E-05
         0.58766E-06
         0.12140E-05
         0.60702E-06
         0.98236E-06
         0.49125E-06
         0.79766E-06
         0.39889E-06
         0.97540E-06
         0.48769E-06
         0.11548E-05
         0.57743E-06
         0.24609E-05
         0.19547E-05
         0.20946E-05
         0.35969E-05
         0.19318E-05
         0.24634E-05
         0.13815E-05
         0.16603E-05
         0.27283E-05
         0.20111E-05
         0.81658E-06
         0.15390E-05
         0.16927E-05
         0.13839E-05
         0.17528E-05
         0.32479E-05
         0.25367E-05
         0.32241E-05
         0.18980E-05
         0.21675E-05
         0.20481E-05
         0.22684E-05
         0.17424E-05
         0.10822E-05
         0.20589E-05
         0.17102E-05
         0.17950E-05
         0.18344E-05
         0.15904E-05
         0.19365E-05
         0.24555E-05
         0.17359E-05
         0.27423E-05
         0.23814E-05
         0.10820E-05
         0.16702E-05
         0.18953E-05
         0.20025E-05
         0.19317E-05
         0.15181E-05
         0.95442E-06
         0.15780E-05
         0.20884E-05
         0.16864E-05
         0.14835E-05
         0.97197E-06
         0.16567E-05
         0.22482E-05
         0.23571E-05
         0.19022E-05
         0.11709E-05
         0.20101E-05
         0.74658E-06
         0.94886E-06
         0.88841E-06
         0.10467E-05
         0.10207E-05
         0.99128E-06
         0.10565E-05
         0.11150E-05
         0.10503E-05
         0.82102E-06
         0.66954E-06
         0.86398E-06
         0.11506E-05
         0.12640E-05
         0.12133E-05
         0.10948E-05
         0.99421E-06
         0.80751E-06
         0.67970E-06
         0.88789E-06
         0.11752E-05
         0.12140E-05
         0.98215E-06
         0.79747E-06
         0.97551E-06
         0.11548E-05
         0.24611E-05
         0.19543E-05
         0.20949E-05
         0.35987E-05
         0.19321E-05
         0.24642E-05
         0.13808E-05
         0.16594E-05
         0.27293E-05
         0.20098E-05
         0.81582E-06
         0.15388E-05
         0.16927E-05
         0.13821E-05
         0.17525E-05
         0.32489E-05
         0.25379E-05
         0.32257E-05
         0.18982E-05
         0.21678E-05
         0.20480E-05
         0.22685E-05
         0.17423E-05
         0.10821E-05
         0.20580E-05
         0.17101E-05
         0.17924E-05
         0.18326E-05
         0.15898E-05
         0.19361E-05
         0.24558E-05
         0.17357E-05
         0.27438E-05
         0.23836E-05
         0.10821E-05
         0.16699E-05
         0.18951E-05
         0.20024E-05
         0.19318E-05
         0.15183E-05
         0.95445E-06
         0.15778E-05
         0.20884E-05
         0.16862E-05
         0.14831E-05
         0.97174E-06
         0.16566E-05
         0.22483E-05
         0.23575E-05
         0.19026E-05
         0.11709E-05
         0.20112E-05
         0.74636E-06
         0.94886E-06
         0.88800E-06
         0.10467E-05
         0.10210E-05
         0.99152E-06
         0.10570E-05
         0.11159E-05
         0.10509E-05
         0.82122E-06
         0.66961E-06
         0.86402E-06
         0.11507E-05
         0.12643E-05
         0.12135E-05
         0.10948E-05
         0.99417E-06
         0.80747E-06
         0.67961E-06
         0.88784E-06
         0.11752E-05
         0.12140E-05
         0.98197E-06
         0.79731E-06
         0.97565E-06
         0.11548E-05
         0.24612E-05
         0.19539E-05
         0.20950E-05
         0.36004E-05
         0.19324E-05
         0.24650E-05
         0.13801E-05
         0.16584E-05
         0.27303E-05
         0.20085E-05
         0.81504E-06
         0.15385E-05
         0.16925E-05
         0.13801E-05
         0.17521E-05
         0.32498E-05
         0.25390E-05
         0.32274E-05
         0.18982E-05
         0.21681E-05
         0.20479E-05
         0.22686E-05
         0.17421E-05
         0.10820E-05
         0.20571E-05
         0.17099E-05
         0.17897E-05
         0.18308E-05
         0.15891E-05
         0.19356E-05
         0.24561E-05
         0.17355E-05
         0.27453E-05
         0.23857E-05
         0.10820E-05
         0.16696E-05
         0.18948E-05
         0.20022E-05
         0.19320E-05
         0.15183E-05
         0.95445E-06
         0.15776E-05
         0.20883E-05
         0.16859E-05
         0.14828E-05
         0.97149E-06
         0.16564E-05
         0.22483E-05
         0.23578E-05
         0.19030E-05
         0.11710E-05
         0.20122E-05
         0.74613E-06
         0.94884E-06
         0.88756E-06
         0.10467E-05
         0.10212E-05
         0.99173E-06
         0.10574E-05
         0.11167E-05
         0.10515E-05
         0.82140E-06
         0.66966E-06
         0.86404E-06
         0.11509E-05
         0.12646E-05
         0.12136E-05
         0.10947E-05
         0.99410E-06
         0.80740E-06
         0.67950E-06
         0.88777E-06
         0.11752E-05
         0.12140E-05
         0.98177E-06
         0.79713E-06
         0.97576E-06
         0.11547E-05
         0.24613E-05
         0.19535E-05
         0.20952E-05
         0.36022E-05
         0.19327E-05
         0.24657E-05
         0.13794E-05
         0.16574E-05
         0.27313E-05
         0.20072E-05
         0.81426E-06
         0.15382E-05
         0.16924E-05
         0.13782E-05
         0.17517E-05
         0.32508E-05
         0.25402E-05
         0.32290E-05
         0.18983E-05
         0.21684E-05
         0.20479E-05
         0.22687E-05
         0.17420E-05
         0.10819E-05
         0.20563E-05
         0.17098E-05
         0.17870E-05
         0.18290E-05
         0.15884E-05
         0.19352E-05
         0.24563E-05
         0.17353E-05
         0.27467E-05
         0.23879E-05
         0.10820E-05
         0.16693E-05
         0.18946E-05
         0.20021E-05
         0.19321E-05
         0.15184E-05
         0.95445E-06
         0.15773E-05
         0.20882E-05
         0.16857E-05
         0.14824E-05
         0.97124E-06
         0.16563E-05
         0.22484E-05
         0.23582E-05
         0.19034E-05
         0.11710E-05
         0.20132E-05
         0.74590E-06
         0.94883E-06
         0.88713E-06
         0.10468E-05
         0.10215E-05
         0.99194E-06
         0.10579E-05
         0.11175E-05
         0.10521E-05
         0.82159E-06
         0.66972E-06
         0.86406E-06
         0.11510E-05
         0.12649E-05
         0.12138E-05
         0.10947E-05
         0.99404E-06
         0.80734E-06
         0.67940E-06
         0.88771E-06
         0.11752E-05
         0.12140E-05
         0.98157E-06
         0.79696E-06
         0.97588E-06
         0.11547E-05
         0.24615E-05
         0.19531E-05
         0.20954E-05
         0.36039E-05
         0.19331E-05
         0.24665E-05
         0.13787E-05
         0.16564E-05
         0.27322E-05
         0.20059E-05
         0.81349E-06
         0.15380E-05
         0.16923E-05
         0.13763E-05
         0.17514E-05
         0.32518E-05
         0.25414E-05
         0.32306E-05
         0.18984E-05
         0.21687E-05
         0.20478E-05
         0.22688E-05
         0.17418E-05
         0.10818E-05
         0.20554E-05
         0.17096E-05
         0.17843E-05
         0.18272E-05
         0.15878E-05
         0.19347E-05
         0.24566E-05
         0.17351E-05
         0.27482E-05
         0.23901E-05
         0.10820E-05
         0.16690E-05
         0.18943E-05
         0.20019E-05
         0.19322E-05
         0.15185E-05
         0.95446E-06
         0.15771E-05
         0.20881E-05
         0.16855E-05
         0.14821E-05
         0.97100E-06
         0.16562E-05
         0.22484E-05
         0.23586E-05
         0.19038E-05
         0.11710E-05
         0.20142E-05
         0.74568E-06
         0.94882E-06
         0.88671E-06
         0.10468E-05
         0.10217E-05
         0.99216E-06
         0.10583E-05
         0.11183E-05
         0.10528E-05
         0.82178E-06
         0.66977E-06
         0.86408E-06
         0.11512E-05
         0.12652E-05
         0.12139E-05
         0.10947E-05
         0.99398E-06
         0.80728E-06
         0.67930E-06
         0.88766E-06
         0.11752E-05
         0.12140E-05
         0.98138E-06
         0.79679E-06
         0.97601E-06
         0.11547E-05
         0.24616E-05
         0.19527E-05
         0.20956E-05
         0.36056E-05
         0.19334E-05
         0.24672E-05
         0.13779E-05
         0.16554E-05
         0.27332E-05
         0.20046E-05
         0.81271E-06
         0.15377E-05
         0.16922E-05
         0.13744E-05
         0.17510E-05
         0.32527E-05
         0.25425E-05
         0.32322E-05
         0.18984E-05
         0.21689E-05
         0.20477E-05
         0.22689E-05
         0.17416E-05
         0.10816E-05
         0.20545E-05
         0.17095E-05
         0.17817E-05
         0.18254E-05
         0.15871E-05
         0.19343E-05
         0.24568E-05
         0.17349E-05
         0.27496E-05
         0.23922E-05
         0.10820E-05
         0.16686E-05
         0.18941E-05
         0.20018E-05
         0.19324E-05
         0.15186E-05
         0.95446E-06
         0.15769E-05
         0.20880E-05
         0.16852E-05
         0.14817E-05
         0.97074E-06
         0.16560E-05
         0.22484E-05
         0.23589E-05
         0.19042E-05
         0.11710E-05
         0.20152E-05
         0.74544E-06
         0.94880E-06
         0.88627E-06
         0.10469E-05
         0.10219E-05
         0.99237E-06
         0.10588E-05
         0.11191E-05
         0.10534E-05
         0.82196E-06
         0.66982E-06
         0.86410E-06
         0.11513E-05
         0.12654E-05
         0.12140E-05
         0.10947E-05
         0.99391E-06
         0.80721E-06
         0.67919E-06
         0.88759E-06
         0.11751E-05
         0.12140E-05
         0.98118E-06
         0.79661E-06
         0.97612E-06
         0.11546E-05
         0.24618E-05
         0.19523E-05
         0.20957E-05
         0.36073E-05
         0.19337E-05
         0.24680E-05
         0.13772E-05
         0.16545E-05
         0.27341E-05
         0.20033E-05
         0.81194E-06
         0.15374E-05
         0.16921E-05
         0.13725E-05
         0.17506E-05
         0.32537E-05
         0.25437E-05
         0.32339E-05
         0.18985E-05
         0.21692E-05
         0.20476E-05
         0.22690E-05
         0.17414E-05
         0.10815E-05
         0.20536E-05
         0.17093E-05
         0.17790E-05
         0.18236E-05
         0.15864E-05
         0.19339E-05
         0.24571E-05
         0.17347E-05
         0.27511E-05
         0.23944E-05
         0.10820E-05
         0.16683E-05
         0.18938E-05
         0.20016E-05
         0.19325E-05
         0.15186E-05
         0.95446E-06
         0.15767E-05
         0.20878E-05
         0.16850E-05
         0.14814E-05
         0.97050E-06
         0.16559E-05
         0.22484E-05
         0.23593E-05
         0.19046E-05
         0.11711E-05
         0.20162E-05
         0.74522E-06
         0.94878E-06
         0.88584E-06
         0.10469E-05
         0.10222E-05
         0.99258E-06
         0.10593E-05
         0.11199E-05
         0.10540E-05
         0.82215E-06
         0.66988E-06
         0.86413E-06
         0.11515E-05
         0.12657E-05
         0.12142E-05
         0.10946E-05
         0.99385E-06
         0.80715E-06
         0.67909E-06
         0.88752E-06
         0.11751E-05
         0.12140E-05
         0.98098E-06
         0.79643E-06
         0.97624E-06
         0.11546E-05
         0.24619E-05
         0.19519E-05
         0.20959E-05
         0.36091E-05
         0.19340E-05
         0.24688E-05
         0.13765E-05
         0.16535E-05
         0.27351E-05
         0.20020E-05
         0.81117E-06
         0.15372E-05
         0.16920E-05
         0.13706E-05
         0.17503E-05
         0.32546E-05
         0.25448E-05
         0.32355E-05
         0.18986E-05
         0.21695E-05
         0.20475E-05
         0.22691E-05
         0.17413E-05
         0.10814E-05
         0.20527E-05
         0.17092E-05
         0.17763E-05
         0.18219E-05
         0.15858E-05
         0.19334E-05
         0.24573E-05
         0.17345E-05
         0.27525E-05
         0.23966E-05
         0.10820E-05
         0.16680E-05
         0.18936E-05
         0.20015E-05
         0.19326E-05
         0.15187E-05
         0.95447E-06
         0.15765E-05
         0.20878E-05
         0.16848E-05
         0.14810E-05
         0.97025E-06
         0.16557E-05
         0.22485E-05
         0.23597E-05
         0.19050E-05
         0.11711E-05
         0.20172E-05
         0.74499E-06
         0.94877E-06
         0.88541E-06
         0.10469E-05
         0.10224E-05
         0.99280E-06
         0.10597E-05
         0.11207E-05
         0.10546E-05
         0.82234E-06
         0.66994E-06
         0.86415E-06
         0.11517E-05
         0.12660E-05
         0.12143E-05
         0.10946E-05
         0.99379E-06
         0.80709E-06
         0.67898E-06
         0.88746E-06
         0.11751E-05
         0.12140E-05
         0.98079E-06
         0.79626E-06
         0.97636E-06
         0.11546E-05
         0.24621E-05
         0.19515E-05
         0.20961E-05
         0.36108E-05
         0.19343E-05
         0.24695E-05
         0.13758E-05
         0.16525E-05
         0.27361E-05
         0.20006E-05
         0.81039E-06
         0.15369E-05
         0.16919E-05
         0.13686E-05
         0.17499E-05
         0.32556E-05
         0.25460E-05
         0.32371E-05
         0.18986E-05
         0.21697E-05
         0.20474E-05
         0.22692E-05
         0.17411E-05
         0.10813E-05
         0.20519E-05
         0.17091E-05
         0.17736E-05
         0.18201E-05
         0.15851E-05
         0.19330E-05
         0.24575E-05
         0.17342E-05
         0.27540E-05
         0.23987E-05
         0.10820E-05
         0.16677E-05
         0.18933E-05
         0.20014E-05
         0.19328E-05
         0.15188E-05
         0.95448E-06
         0.15763E-05
         0.20876E-05
         0.16845E-05
         0.14807E-05
         0.97000E-06
         0.16556E-05
         0.22485E-05
         0.23600E-05
         0.19053E-05
         0.11711E-05
         0.20182E-05
         0.74476E-06
         0.94875E-06
         0.88498E-06
         0.10470E-05
         0.10227E-05
         0.99301E-06
         0.10602E-05
         0.11215E-05
         0.10553E-05
         0.82252E-06
         0.66999E-06
         0.86417E-06
         0.11518E-05
         0.12663E-05
         0.12145E-05
         0.10946E-05
         0.99373E-06
         0.80702E-06
         0.67888E-06
         0.88740E-06
         0.11751E-05
         0.12140E-05
         0.98058E-06
         0.79608E-06
         0.97648E-06
         0.11546E-05
         0.24622E-05
         0.19511E-05
         0.20963E-05
         0.36125E-05
         0.19346E-05
         0.24703E-05
         0.13751E-05
         0.16515E-05
         0.27370E-05
         0.19993E-05
         0.80962E-06
         0.15366E-05
         0.16917E-05
         0.13667E-05
         0.17495E-05
         0.32565E-05
         0.25471E-05
         0.32388E-05
         0.18987E-05
         0.21700E-05
         0.20473E-05
         0.22693E-05
         0.17409E-05
         0.10812E-05
         0.20510E-05
         0.17089E-05
         0.17710E-05
         0.18183E-05
         0.15844E-05
         0.19325E-05
         0.24578E-05
         0.17340E-05
         0.27554E-05
         0.24009E-05
         0.10820E-05
         0.16674E-05
         0.18931E-05
         0.20012E-05
         0.19329E-05
         0.15189E-05
         0.95448E-06
         0.15760E-05
         0.20875E-05
         0.16843E-05
         0.14803E-05
         0.96975E-06
         0.16555E-05
         0.22485E-05
         0.23604E-05
         0.19057E-05
         0.11712E-05
         0.20192E-05
         0.74453E-06
         0.94874E-06
         0.88455E-06
         0.10470E-05
         0.10229E-05
         0.99322E-06
         0.10606E-05
         0.11223E-05
         0.10559E-05
         0.82270E-06
         0.67004E-06
         0.86419E-06
         0.11520E-05
         0.12666E-05
         0.12146E-05
         0.10945E-05
         0.99366E-06
         0.80696E-06
         0.67877E-06
         0.88733E-06
         0.11751E-05
         0.12140E-05
         0.98038E-06
         0.79590E-06
         0.97660E-06
         0.11545E-05
         0.24623E-05
         0.19507E-05
         0.20964E-05
         0.36142E-05
         0.19349E-05
         0.24710E-05
         0.13743E-05
         0.16505E-05
         0.27380E-05
         0.19980E-05
         0.80885E-06
         0.15364E-05
         0.16916E-05
         0.13648E-05
         0.17492E-05
         0.32575E-05
         0.25483E-05
         0.32404E-05
         0.18988E-05
         0.21703E-05
         0.20473E-05
         0.22694E-05
         0.17407E-05
         0.10811E-05
         0.20501E-05
         0.17088E-05
         0.17683E-05
         0.18165E-05
         0.15837E-05
         0.19321E-05
         0.24580E-05
         0.17338E-05
         0.27569E-05
         0.24031E-05
         0.10820E-05
         0.16670E-05
         0.18928E-05
         0.20011E-05
         0.19330E-05
         0.15189E-05
         0.95448E-06
         0.15758E-05
         0.20874E-05
         0.16840E-05
         0.14800E-05
         0.96950E-06
         0.16553E-05
         0.22485E-05
         0.23608E-05
         0.19061E-05
         0.11712E-05
         0.20202E-05
         0.74430E-06
         0.94872E-06
         0.88412E-06
         0.10470E-05
         0.10231E-05
         0.99344E-06
         0.10611E-05
         0.11231E-05
         0.10565E-05
         0.82289E-06
         0.67009E-06
         0.86422E-06
         0.11521E-05
         0.12669E-05
         0.12147E-05
         0.10945E-05
         0.99360E-06
         0.80690E-06
         0.67867E-06
         0.88727E-06
         0.11750E-05
         0.12140E-05
         0.98019E-06
         0.79573E-06
         0.97672E-06
         0.11545E-05
         0.24625E-05
         0.19503E-05
         0.20966E-05
         0.36160E-05
         0.19352E-05
         0.24718E-05
         0.13736E-05
         0.16496E-05
         0.27389E-05
         0.19967E-05
         0.80807E-06
         0.15361E-05
         0.16915E-05
         0.13629E-05
         0.17488E-05
         0.32584E-05
         0.25495E-05
         0.32420E-05
         0.18988E-05
         0.21705E-05
         0.20472E-05
         0.22695E-05
         0.17406E-05
         0.10810E-05
         0.20492E-05
         0.17086E-05
         0.17656E-05
         0.18147E-05
         0.15831E-05
         0.19317E-05
         0.24583E-05
         0.17336E-05
         0.27583E-05
         0.24053E-05
         0.10820E-05
         0.16667E-05
         0.18926E-05
         0.20009E-05
         0.19331E-05
         0.15190E-05
         0.95449E-06
         0.15756E-05
         0.20873E-05
         0.16838E-05
         0.14796E-05
         0.96925E-06
         0.16552E-05
         0.22486E-05
         0.23611E-05
         0.19065E-05
         0.11712E-05
         0.20212E-05
         0.74407E-06
         0.94870E-06
         0.88368E-06
         0.10471E-05
         0.10234E-05
         0.99365E-06
         0.10616E-05
         0.11239E-05
         0.10571E-05
         0.82307E-06
         0.67014E-06
         0.86424E-06
         0.11523E-05
         0.12672E-05
         0.12149E-05
         0.10945E-05
         0.99354E-06
         0.80683E-06
         0.67856E-06
         0.88721E-06
         0.11750E-05
         0.12140E-05
         0.97999E-06
         0.79555E-06
         0.97684E-06
         0.11545E-05
         0.24626E-05
         0.19499E-05
         0.20968E-05
         0.36177E-05
         0.19355E-05
         0.24725E-05
         0.13729E-05
         0.16486E-05
         0.27399E-05
         0.19954E-05
         0.80730E-06
         0.15358E-05
         0.16914E-05
         0.13610E-05
         0.17484E-05
         0.32594E-05
         0.25506E-05
         0.32437E-05
         0.18989E-05
         0.21708E-05
         0.20471E-05
         0.22696E-05
         0.17404E-05
         0.10808E-05
         0.20483E-05
         0.17085E-05
         0.17629E-05
         0.18129E-05
         0.15824E-05
         0.19312E-05
         0.24585E-05
         0.17334E-05
         0.27598E-05
         0.24074E-05
         0.10820E-05
         0.16664E-05
         0.18923E-05
         0.20008E-05
         0.19333E-05
         0.15191E-05
         0.95449E-06
         0.15754E-05
         0.20872E-05
         0.16835E-05
         0.14793E-05
         0.96901E-06
         0.16550E-05
         0.22486E-05
         0.23615E-05
         0.19069E-05
         0.11713E-05
         0.20222E-05
         0.74384E-06
         0.94869E-06
         0.88325E-06
         0.10471E-05
         0.10236E-05
         0.99386E-06
         0.10620E-05
         0.11247E-05
         0.10577E-05
         0.82326E-06
         0.67020E-06
         0.86426E-06
         0.11524E-05
         0.12674E-05
         0.12150E-05
         0.10944E-05
         0.99348E-06
         0.80677E-06
         0.67846E-06
         0.88714E-06
         0.11750E-05
         0.12140E-05
         0.97979E-06
         0.79538E-06
         0.97696E-06
         0.11544E-05
         0.24628E-05
         0.19495E-05
         0.20970E-05
         0.36194E-05
         0.19358E-05
         0.24733E-05
         0.13722E-05
         0.16476E-05
         0.27409E-05
         0.19941E-05
         0.80652E-06
         0.15355E-05
         0.16913E-05
         0.13591E-05
         0.17481E-05
         0.32604E-05
         0.25518E-05
         0.32453E-05
         0.18990E-05
         0.21711E-05
         0.20470E-05
         0.22697E-05
         0.17402E-05
         0.10807E-05
         0.20474E-05
         0.17084E-05
         0.17603E-05
         0.18111E-05
         0.15817E-05
         0.19308E-05
         0.24588E-05
         0.17332E-05
         0.27613E-05
         0.24096E-05
         0.10819E-05
         0.16661E-05
         0.18921E-05
         0.20006E-05
         0.19334E-05
         0.15192E-05
         0.95450E-06
         0.15752E-05
         0.20871E-05
         0.16833E-05
         0.14789E-05
         0.96876E-06
         0.16549E-05
         0.22486E-05
         0.23619E-05
         0.19073E-05
         0.11713E-05
         0.20232E-05
         0.74362E-06
         0.94868E-06
         0.88282E-06
         0.10472E-05
         0.10238E-05
         0.99408E-06
         0.10625E-05
         0.11255E-05
         0.10584E-05
         0.82345E-06
         0.67025E-06
         0.86428E-06
         0.11526E-05
         0.12677E-05
         0.12152E-05
         0.10944E-05
         0.99342E-06
         0.80671E-06
         0.67836E-06
         0.88709E-06
         0.11750E-05
         0.12140E-05
         0.97959E-06
         0.79521E-06
         0.97708E-06
         0.11544E-05
         0.24629E-05
         0.19491E-05
         0.20972E-05
         0.36212E-05
         0.19361E-05
         0.24741E-05
         0.13715E-05
         0.16466E-05
         0.27418E-05
         0.19928E-05
         0.80575E-06
         0.15353E-05
         0.16912E-05
         0.13572E-05
         0.17477E-05
         0.32613E-05
         0.25529E-05
         0.32469E-05
         0.18990E-05
         0.21714E-05
         0.20469E-05
         0.22698E-05
         0.17400E-05
         0.10806E-05
         0.20466E-05
         0.17082E-05
         0.17576E-05
         0.18093E-05
         0.15810E-05
         0.19303E-05
         0.24590E-05
         0.17330E-05
         0.27627E-05
         0.24118E-05
         0.10819E-05
         0.16658E-05
         0.18919E-05
         0.20005E-05
         0.19335E-05
         0.15192E-05
         0.95450E-06
         0.15750E-05
         0.20870E-05
         0.16831E-05
         0.14786E-05
         0.96851E-06
         0.16548E-05
         0.22487E-05
         0.23622E-05
         0.19077E-05
         0.11713E-05
         0.20242E-05
         0.74339E-06
         0.94866E-06
         0.88239E-06
         0.10472E-05
         0.10241E-05
         0.99429E-06
         0.10630E-05
         0.11263E-05
         0.10590E-05
         0.82363E-06
         0.67030E-06
         0.86430E-06
         0.11527E-05
         0.12680E-05
         0.12153E-05
         0.10944E-05
         0.99335E-06
         0.80665E-06
         0.67825E-06
         0.88702E-06
         0.11749E-05
         0.12140E-05
         0.97939E-06
         0.79503E-06
         0.97720E-06
         0.11544E-05
         0.24631E-05
         0.19487E-05
         0.20973E-05
         0.36229E-05
         0.19364E-05
         0.24748E-05
         0.13707E-05
         0.16456E-05
         0.27428E-05
         0.19915E-05
         0.80498E-06
         0.15350E-05
         0.16911E-05
         0.13553E-05
         0.17473E-05
         0.32623E-05
         0.25541E-05
         0.32486E-05
         0.18991E-05
         0.21716E-05
         0.20468E-05
         0.22699E-05
         0.17399E-05
         0.10805E-05
         0.20457E-05
         0.17081E-05
         0.17549E-05
         0.18075E-05
         0.15804E-05
         0.19299E-05
         0.24592E-05
         0.17328E-05
         0.27642E-05
         0.24140E-05
         0.10819E-05
         0.16654E-05
         0.18916E-05
         0.20003E-05
         0.19337E-05
         0.15193E-05
         0.95450E-06
         0.15748E-05
         0.20869E-05
         0.16828E-05
         0.14782E-05
         0.96826E-06
         0.16546E-05
         0.22487E-05
         0.23626E-05
         0.19081E-05
         0.11714E-05
         0.20253E-05
         0.74316E-06
         0.94864E-06
         0.88196E-06
         0.10472E-05
         0.10243E-05
         0.99450E-06
         0.10634E-05
         0.11271E-05
         0.10596E-05
         0.82381E-06
         0.67036E-06
         0.86432E-06
         0.11529E-05
         0.12683E-05
         0.12154E-05
         0.10943E-05
         0.99329E-06
         0.80658E-06
         0.67815E-06
         0.88696E-06
         0.11749E-05
         0.12140E-05
         0.97919E-06
         0.79485E-06
         0.97732E-06
         0.11544E-05
         0.24632E-05
         0.19483E-05
         0.20975E-05
         0.36246E-05
         0.19368E-05
         0.24756E-05
         0.13700E-05
         0.16447E-05
         0.27437E-05
         0.19902E-05
         0.80421E-06
         0.15347E-05
         0.16910E-05
         0.13534E-05
         0.17470E-05
         0.32632E-05
         0.25552E-05
         0.32502E-05
         0.18992E-05
         0.21719E-05
         0.20467E-05
         0.22700E-05
         0.17397E-05
         0.10804E-05
         0.20448E-05
         0.17079E-05
         0.17523E-05
         0.18057E-05
         0.15797E-05
         0.19295E-05
         0.24595E-05
         0.17326E-05
         0.27656E-05
         0.24161E-05
         0.10819E-05
         0.16651E-05
         0.18914E-05
         0.20002E-05
         0.19338E-05
         0.15194E-05
         0.95451E-06
         0.15745E-05
         0.20868E-05
         0.16826E-05
         0.14779E-05
         0.96801E-06
         0.16545E-05
         0.22487E-05
         0.23630E-05
         0.19085E-05
         0.11714E-05
         0.20263E-05
         0.74293E-06
         0.94863E-06
         0.88153E-06
         0.10473E-05
         0.10245E-05
         0.99472E-06
         0.10639E-05
         0.11279E-05
         0.10602E-05
         0.82400E-06
         0.67041E-06
         0.86435E-06
         0.11530E-05
         0.12686E-05
         0.12156E-05
         0.10943E-05
         0.99323E-06
         0.80652E-06
         0.67804E-06
         0.88690E-06
         0.11749E-05
         0.12140E-05
         0.97900E-06
         0.79468E-06
         0.97744E-06
         0.11543E-05
         0.24633E-05
         0.19479E-05
         0.20977E-05
         0.36264E-05
         0.19371E-05
         0.24763E-05
         0.13693E-05
         0.16437E-05
         0.27447E-05
         0.19888E-05
         0.80343E-06
         0.15345E-05
         0.16908E-05
         0.13515E-05
         0.17466E-05
         0.32642E-05
         0.25564E-05
         0.32518E-05
         0.18992E-05
         0.21722E-05
         0.20466E-05
         0.22701E-05
         0.17395E-05
         0.10803E-05
         0.20439E-05
         0.17078E-05
         0.17496E-05
         0.18039E-05
         0.15790E-05
         0.19290E-05
         0.24597E-05
         0.17323E-05
         0.27671E-05
         0.24183E-05
         0.10819E-05
         0.16648E-05
         0.18911E-05
         0.20001E-05
         0.19339E-05
         0.15195E-05
         0.95452E-06
         0.15743E-05
         0.20867E-05
         0.16823E-05
         0.14775E-05
         0.96776E-06
         0.16543E-05
         0.22487E-05
         0.23633E-05
         0.19089E-05
         0.11714E-05
         0.20273E-05
         0.74270E-06
         0.94861E-06
         0.88109E-06
         0.10473E-05
         0.10248E-05
         0.99493E-06
         0.10643E-05
         0.11287E-05
         0.10609E-05
         0.82418E-06
         0.67046E-06
         0.86437E-06
         0.11532E-05
         0.12689E-05
         0.12157E-05
         0.10943E-05
         0.99316E-06
         0.80646E-06
         0.67794E-06
         0.88683E-06
         0.11749E-05
         0.12140E-05
         0.97879E-06
         0.79450E-06
         0.97755E-06
         0.11543E-05
         0.24635E-05
         0.19475E-05
         0.20979E-05
         0.36281E-05
         0.19374E-05
         0.24771E-05
         0.13686E-05
         0.16427E-05
         0.27456E-05
         0.19875E-05
         0.80266E-06
         0.15342E-05
         0.16907E-05
         0.13496E-05
         0.17463E-05
         0.32651E-05
         0.25575E-05
         0.32534E-05
         0.18993E-05
         0.21724E-05
         0.20466E-05
         0.22702E-05
         0.17393E-05
         0.10802E-05
         0.20430E-05
         0.17076E-05
         0.17469E-05
         0.18021E-05
         0.15784E-05
         0.19286E-05
         0.24600E-05
         0.17321E-05
         0.27685E-05
         0.24205E-05
         0.10819E-05
         0.16645E-05
         0.18909E-05
         0.19999E-05
         0.19341E-05
         0.15195E-05
         0.95452E-06
         0.15741E-05
         0.20866E-05
         0.16821E-05
         0.14772E-05
         0.96751E-06
         0.16542E-05
         0.22488E-05
         0.23637E-05
         0.19092E-05
         0.11715E-05
         0.20283E-05
         0.74247E-06
         0.94860E-06
         0.88066E-06
         0.10473E-05
         0.10250E-05
         0.99514E-06
         0.10648E-05
         0.11295E-05
         0.10615E-05
         0.82437E-06
         0.67052E-06
         0.86439E-06
         0.11533E-05
         0.12691E-05
         0.12159E-05
         0.10942E-05
         0.99310E-06
         0.80639E-06
         0.67783E-06
         0.88676E-06
         0.11748E-05
         0.12140E-05
         0.97859E-06
         0.79433E-06
         0.97767E-06
         0.11543E-05
         0.24636E-05
         0.19471E-05
         0.20980E-05
         0.36298E-05
         0.19377E-05
         0.24779E-05
         0.13679E-05
         0.16417E-05
         0.27466E-05
         0.19862E-05
         0.80189E-06
         0.15339E-05
         0.16906E-05
         0.13477E-05
         0.17459E-05
         0.32661E-05
         0.25587E-05
         0.32551E-05
         0.18994E-05
         0.21727E-05
         0.20465E-05
         0.22703E-05
         0.17392E-05
         0.10800E-05
         0.20421E-05
         0.17075E-05
         0.17443E-05
         0.18003E-05
         0.15777E-05
         0.19281E-05
         0.24602E-05
         0.17319E-05
         0.27700E-05
         0.24227E-05
         0.10819E-05
         0.16642E-05
         0.18906E-05
         0.19998E-05
         0.19342E-05
         0.15196E-05
         0.95453E-06
         0.15739E-05
         0.20865E-05
         0.16819E-05
         0.14768E-05
         0.96727E-06
         0.16541E-05
         0.22488E-05
         0.23640E-05
         0.19096E-05
         0.11715E-05
         0.20293E-05
         0.74225E-06
         0.94859E-06
         0.88023E-06
         0.10474E-05
         0.10253E-05
         0.99535E-06
         0.10653E-05
         0.11303E-05
         0.10621E-05
         0.82456E-06
         0.67057E-06
         0.86441E-06
         0.11535E-05
         0.12694E-05
         0.12160E-05
         0.10942E-05
         0.99304E-06
         0.80633E-06
         0.67773E-06
         0.88671E-06
         0.11748E-05
         0.12140E-05
         0.97840E-06
         0.79415E-06
         0.97780E-06
         0.11542E-05
         0.24637E-05
         0.19466E-05
         0.20982E-05
         0.36315E-05
         0.19380E-05
         0.24786E-05
         0.13671E-05
         0.16407E-05
         0.27475E-05
         0.19849E-05
         0.80110E-06
         0.15336E-05
         0.16905E-05
         0.13457E-05
         0.17455E-05
         0.32669E-05
         0.25598E-05
         0.32567E-05
         0.18994E-05
         0.21729E-05
         0.20464E-05
         0.22703E-05
         0.17390E-05
         0.10799E-05
         0.20412E-05
         0.17073E-05
         0.17416E-05
         0.17985E-05
         0.15770E-05
         0.19277E-05
         0.24604E-05
         0.17317E-05
         0.27714E-05
         0.24248E-05
         0.10819E-05
         0.16638E-05
         0.18903E-05
         0.19996E-05
         0.19343E-05
         0.15196E-05
         0.95451E-06
         0.15737E-05
         0.20864E-05
         0.16816E-05
         0.14765E-05
         0.96700E-06
         0.16539E-05
         0.22488E-05
         0.23644E-05
         0.19100E-05
         0.11715E-05
         0.20303E-05
         0.74200E-06
         0.94855E-06
         0.87978E-06
         0.10474E-05
         0.10255E-05
         0.99555E-06
         0.10657E-05
         0.11311E-05
         0.10627E-05
         0.82472E-06
         0.67061E-06
         0.86442E-06
         0.11536E-05
         0.12697E-05
         0.12161E-05
         0.10941E-05
         0.99295E-06
         0.80625E-06
         0.67761E-06
         0.88662E-06
         0.11748E-05
         0.12140E-05
         0.97818E-06
         0.79396E-06
         0.97790E-06
         0.11542E-05
         0.24639E-05
         0.19463E-05
         0.20984E-05
         0.36333E-05
         0.19383E-05
         0.24794E-05
         0.13664E-05
         0.16398E-05
         0.27485E-05
         0.19836E-05
         0.80034E-06
         0.15334E-05
         0.16904E-05
         0.13439E-05
         0.17452E-05
         0.32679E-05
         0.25610E-05
         0.32583E-05
         0.18995E-05
         0.21732E-05
         0.20463E-05
         0.22704E-05
         0.17388E-05
         0.10798E-05
         0.20404E-05
         0.17072E-05
         0.17389E-05
         0.17967E-05
         0.15763E-05
         0.19272E-05
         0.24607E-05
         0.17315E-05
         0.27729E-05
         0.24270E-05
         0.10819E-05
         0.16635E-05
         0.18901E-05
         0.19995E-05
         0.19345E-05
         0.15197E-05
         0.95453E-06
         0.15735E-05
         0.20863E-05
         0.16814E-05
         0.14761E-05
         0.96677E-06
         0.16538E-05
         0.22488E-05
         0.23647E-05
         0.19104E-05
         0.11716E-05
         0.20313E-05
         0.74179E-06
         0.94855E-06
         0.87936E-06
         0.10475E-05
         0.10257E-05
         0.99577E-06
         0.10662E-05
         0.11319E-05
         0.10633E-05
         0.82492E-06
         0.67068E-06
         0.86446E-06
         0.11538E-05
         0.12700E-05
         0.12163E-05
         0.10941E-05
         0.99291E-06
         0.80620E-06
         0.67752E-06
         0.88657E-06
         0.11748E-05
         0.12140E-05
         0.97800E-06
         0.79380E-06
         0.97803E-06
         0.11542E-05
         0.12320E-05
         0.97306E-06
         0.10493E-05
         0.18171E-05
         0.96926E-06
         0.12399E-05
         0.68306E-06
         0.81967E-06
         0.13745E-05
         0.99152E-06
         0.39999E-06
         0.76665E-06
         0.84519E-06
         0.67148E-06
         0.87252E-06
         0.16343E-05
         0.12808E-05
         0.16296E-05
         0.94981E-06
         0.10867E-05
         0.10232E-05
         0.11353E-05
         0.86940E-06
         0.53990E-06
         0.10200E-05
         0.85360E-06
         0.86884E-06
         0.89793E-06
         0.78802E-06
         0.96354E-06
         0.12305E-05
         0.86572E-06
         0.13869E-05
         0.12141E-05
         0.54095E-06
         0.83170E-06
         0.94503E-06
         0.99975E-06
         0.96729E-06
         0.75992E-06
         0.47728E-06
         0.78670E-06
         0.10432E-05
         0.84065E-06
         0.73800E-06
         0.48334E-06
         0.82688E-06
         0.11245E-05
         0.11825E-05
         0.95534E-06
         0.58581E-06
         0.10159E-05
         0.37085E-06
         0.47429E-06
         0.43959E-06
         0.52375E-06
         0.51294E-06
         0.49796E-06
         0.53322E-06
         0.56619E-06
         0.53185E-06
         0.41252E-06
         0.33536E-06
         0.43225E-06
         0.57696E-06
         0.63509E-06
         0.60820E-06
         0.54708E-06
         0.49646E-06
         0.40310E-06
         0.33875E-06
         0.44329E-06
         0.58740E-06
         0.60700E-06
         0.48897E-06
         0.39687E-06
         0.48906E-06
         0.57710E-06
  
SCALARS                 Poissons_ratio  double 1
LOOKUP_TABLE default
         0.30000E+00
         0.30000E+00
         0.30000E+00
         0.30000E+00
         0.30000E+00
         0.30000E+00
         0.30000E+00
         0.30000E+00
         0.30000E+00
         0.30000E+00
         0.30000E+00
         0.30000E+00
         0.30000E+00
         0.30000E+00
         0.30000E+00
         0.30000E+00
         0.30000E+00
         0.30000E+00
         0.30000E+00
         0.30000E+00
         0.30000E+00
         0.30000E+00
         0.30000E+00
         0.30000E+00
         0.30000E+00
         0.30000E+00
         0.30000E+00
         0.30000E+00
         0.30000E+00
         0.30000E+00
         0.30000E+00
         0.30000E+00
         0.30000E+00
         0.30000E+00
         0.30000E+00
         0.30000E+00
         0.30000E+00
         0.30000E+00
         0.30000E+00
         0.30000E+00
         0.30000E+00
         0.30000E+00
         0.30000E+00
         0.30000E+00
         0.30000E+00
         0.30000E+00
         0.30000E+00
         0.30000E+00
         0.30000E+00
         0.30000E+00
         0.30000E+00
         0.30000E+00
         0.30000E+00
         0.30000E+00
         0.30000E+00
         0.30000E+00
         0.30000E+00
         0.30000E+00
         0.30000E+00
         0.30000E+00
         0.30000E+00
         0.30000E+00
         0.30000E+00
         0.30000E+00
         0.30000E+00
         0.30000E+00
         0.30000E+00
         0.30000E+00
         0.30000E+00
         0.30000E+00
         0.30000E+00
         0.30000E+00
         0.30000E+00
         0.30000E+00
         0.30000E+00
         0.30000E+00
         0.30000E+00
         0.30000E+00
         0.30000E+00
         0.30000E+00
         0.30000E+00
         0.30000E+00
         0.30000E+00
         0.30000E+00
         0.30000E+00
         0.30000E+00
         0.30000E+00
         0.30000E+00
         0.30000E+00
         0.30000E+00
         0.30000E+00
         0.30000E+00
         0.30000E+00
         0.30000E+00
         0.30000E+00
         0.30000E+00
         0.30000E+00
         0.30000E+00
         0.30000E+00
         0.30000E+00
         0.30000E+00
         0.30000E+00
         0.30000E+00
         0.30000E+00
         0.30000E+00
         0.30000E+00
         0.30000E+00
         0.30000E+00
         0.30000E+00
         0.30000E+00
         0.30000E+00
         0.30000E+00
         0.30000E+00
         0.30000E+00
         0.30000E+00
         0.30000E+00
         0.30000E+00
         0.30000E+00
         0.30000E+00
         0.30000E+00
         0.30000E+00
         0.30000E+00
         0.30000E+00
         0.30000E+00
         0.30000E+00
         0.30000E+00
         0.30000E+00
         0.30000E+00
         0.30000E+00
         0.30000E+00
         0.30000E+00
         0.30000E+00
         0.30000E+00
         0.30000E+00
         0.30000E+00
         0.30000E+00
         0.30000E+00
         0.30000E+00
         0.30000E+00
         0.30000E+00
         0.30000E+00
         0.30000E+00
         0.30000E+00
         0.30000E+00
         0.30000E+00
         0.30000E+00
         0.30000E+00
         0.30000E+00
         0.30000E+00
         0.30000E+00
         0.30000E+00
         0.30000E+00
         0.30000E+00
         0.30000E+00
         0.30000E+00
         0.30000E+00
         0.30000E+00
         0.30000E+00
         0.30000E+00
         0.30000E+00
         0.30000E+00
         0.30000E+00
         0.30000E+00
         0.30000E+00
         0.30000E+00
         0.30000E+00
         0.30000E+00
         0.30000E+00
         0.30000E+00
         0.30000E+00
         0.30000E+00
         0.30000E+00
         0.30000E+00
         0.30000E+00
         0.30000E+00
         0.30000E+00
         0.30000E+00
         0.30000E+00
         0.30000E+00
         0.30000E+00
         0.30000E+00
         0.30000E+00
         0.30000E+00
         0.30000E+00
         0.30000E+00
         0.30000E+00
         0.30000E+00
         0.30000E+00
         0.30000E+00
         0.30000E+00
         0.30000E+00
         0.30000E+00
         0.30000E+00
         0.30000E+00
         0.30000E+00
         0.30000E+00
         0.30000E+00
         0.30000E+00
         0.30000E+00
         0.30000E+00
         0.30000E+00
         0.30000E+00
         0.30000E+00
         0.30000E+00
         0.30000E+00
         0.30000E+00
         0.30000E+00
         0.30000E+00
         0.30000E+00
         0.30000E+00
         0.30000E+00
         0.30000E+00
         0.30000E+00
         0.30000E+00
         0.30000E+00
         0.30000E+00
         0.30000E+00
         0.30000E+00
         0.30000E+00
         0.30000E+00
         0.30000E+00
         0.30000E+00
         0.30000E+00
         0.30000E+00
         0.30000E+00
         0.30000E+00
         0.30000E+00
         0.30000E+00
         0.30000E+00
         0.30000E+00
         0.30000E+00
         0.30000E+00
         0.30000E+00
         0.30000E+00
         0.30000E+00
         0.30000E+00
         0.30000E+00
         0.30000E+00
         0.30000E+00
         0.30000E+00
         0.30000E+00
         0.30000E+00
         0.30000E+00
         0.30000E+00
         0.30000E+00
         0.30000E+00
         0.30000E+00
         0.30000E+00
         0.30000E+00
         0.30000E+00
         0.30000E+00
         0.30000E+00
         0.30000E+00
         0.30000E+00
         0.30000E+00
         0.30000E+00
         0.30000E+00
         0.30000E+00
         0.30000E+00
         0.30000E+00
         0.30000E+00
         0.30000E+00
         0.30000E+00
         0.30000E+00
         0.30000E+00
         0.30000E+00
         0.30000E+00
         0.30000E+00
         0.30000E+00
         0.30000E+00
         0.30000E+00
         0.30000E+00
         0.30000E+00
         0.30000E+00
         0.30000E+00
         0.30000E+00
         0.30000E+00
         0.30000E+00
         0.30000E+00
         0.30000E+00
         0.30000E+00
         0.30000E+00
         0.30000E+00
         0.30000E+00
         0.30000E+00
         0.30000E+00
         0.30000E+00
         0.30000E+00
         0.30000E+00
         0.30000E+00
         0.30000E+00
         0.30000E+00
         0.30000E+00
         0.30000E+00
         0.30000E+00
         0.30000E+00
         0.30000E+00
         0.30000E+00
         0.30000E+00
         0.30000E+00
         0.30000E+00
         0.30000E+00
         0.30000E+00
         0.30000E+00
         0.30000E+00
         0.30000E+00
         0.30000E+00
         0.30000E+00
         0.30000E+00
         0.30000E+00
         0.30000E+00
         0.30000E+00
         0.30000E+00
         0.30000E+00
         0.30000E+00
         0.30000E+00
         0.30000E+00
         0.30000E+00
         0.30000E+00
         0.30000E+00
         0.30000E+00
         0.30000E+00
         0.30000E+00
         0.30000E+00
         0.30000E+00
         0.30000E+00
         0.30000E+00
         0.30000E+00
         0.30000E+00
         0.30000E+00
         0.30000E+00
         0.30000E+00
         0.30000E+00
         0.30000E+00
         0.30000E+00
         0.30000E+00
         0.30000E+00
         0.30000E+00
         0.30000E+00
         0.30000E+00
         0.30000E+00
         0.30000E+00
         0.30000E+00
         0.30000E+00
         0.30000E+00
         0.30000E+00
         0.30000E+00
         0.30000E+00
         0.30000E+00
         0.30000E+00
         0.30000E+00
         0.30000E+00
         0.30000E+00
         0.30000E+00
         0.30000E+00
         0.30000E+00
         0.30000E+00
         0.30000E+00
         0.30000E+00
         0.30000E+00
         0.30000E+00
         0.30000E+00
         0.30000E+00
         0.30000E+00
         0.30000E+00
         0.30000E+00
         0.30000E+00
         0.30000E+00
         0.30000E+00
         0.30000E+00
         0.30000E+00
         0.30000E+00
         0.30000E+00
         0.30000E+00
         0.30000E+00
         0.30000E+00
         0.30000E+00
         0.30000E+00
         0.30000E+00
         0.30000E+00
         0.30000E+00
         0.30000E+00
         0.30000E+00
         0.30000E+00
         0.30000E+00
         0.30000E+00
         0.30000E+00
         0.30000E+00
         0.30000E+00
         0.30000E+00
         0.30000E+00
         0.30000E+00
         0.30000E+00
         0.30000E+00
         0.30000E+00
         0.30000E+00
         0.30000E+00
         0.30000E+00
         0.30000E+00
         0.30000E+00
         0.30000E+00
         0.30000E+00
         0.30000E+00
         0.30000E+00
         0.30000E+00
         0.30000E+00
         0.30000E+00
         0.30000E+00
         0.30000E+00
         0.30000E+00
         0.30000E+00
         0.30000E+00
         0.30000E+00
         0.30000E+00
         0.30000E+00
         0.30000E+00
         0.30000E+00
         0.30000E+00
         0.30000E+00
         0.30000E+00
         0.30000E+00
         0.30000E+00
         0.30000E+00
         0.30000E+00
         0.30000E+00
         0.30000E+00
         0.30000E+00
         0.30000E+00
         0.30000E+00
         0.30000E+00
         0.30000E+00
         0.30000E+00
         0.30000E+00
         0.30000E+00
         0.30000E+00
         0.30000E+00
         0.30000E+00
         0.30000E+00
         0.30000E+00
         0.30000E+00
         0.30000E+00
         0.30000E+00
         0.30000E+00
         0.30000E+00
         0.30000E+00
         0.30000E+00
         0.30000E+00
         0.30000E+00
         0.30000E+00
         0.30000E+00
         0.30000E+00
         0.30000E+00
         0.30000E+00
         0.30000E+00
         0.30000E+00
         0.30000E+00
         0.30000E+00
         0.30000E+00
         0.30000E+00
         0.30000E+00
         0.30000E+00
         0.30000E+00
         0.30000E+00
         0.30000E+00
         0.30000E+00
         0.30000E+00
         0.30000E+00
         0.30000E+00
         0.30000E+00
         0.30000E+00
         0.30000E+00
         0.30000E+00
         0.30000E+00
         0.30000E+00
         0.30000E+00
         0.30000E+00
         0.30000E+00
         0.30000E+00
         0.30000E+00
         0.30000E+00
         0.30000E+00
         0.30000E+00
         0.30000E+00
         0.30000E+00
         0.30000E+00
         0.30000E+00
         0.30000E+00
         0.30000E+00
         0.30000E+00
         0.30000E+00
         0.30000E+00
         0.30000E+00
         0.30000E+00
         0.30000E+00
         0.30000E+00
         0.30000E+00
         0.30000E+00
         0.30000E+00
         0.30000E+00
         0.30000E+00
         0.30000E+00
         0.30000E+00
         0.30000E+00
         0.30000E+00
         0.30000E+00
         0.30000E+00
         0.30000E+00
         0.30000E+00
         0.30000E+00
         0.30000E+00
         0.30000E+00
         0.30000E+00
         0.30000E+00
         0.30000E+00
         0.30000E+00
         0.30000E+00
         0.30000E+00
         0.30000E+00
         0.30000E+00
         0.30000E+00
         0.30000E+00
         0.30000E+00
         0.30000E+00
         0.30000E+00
         0.30000E+00
         0.30000E+00
         0.30000E+00
         0.30000E+00
         0.30000E+00
         0.30000E+00
         0.30000E+00
         0.30000E+00
         0.30000E+00
         0.30000E+00
         0.30000E+00
         0.30000E+00
         0.30000E+00
         0.30000E+00
         0.30000E+00
         0.30000E+00
         0.30000E+00
         0.30000E+00
         0.30000E+00
         0.30000E+00
         0.30000E+00
         0.30000E+00
         0.30000E+00
         0.30000E+00
         0.30000E+00
         0.30000E+00
         0.30000E+00
         0.30000E+00
         0.30000E+00
         0.30000E+00
         0.30000E+00
         0.30000E+00
         0.30000E+00
         0.30000E+00
         0.30000E+00
         0.30000E+00
         0.30000E+00
         0.30000E+00
         0.30000E+00
         0.30000E+00
         0.30000E+00
         0.30000E+00
         0.30000E+00
         0.30000E+00
         0.30000E+00
         0.30000E+00
         0.30000E+00
         0.30000E+00
         0.30000E+00
         0.30000E+00
         0.30000E+00
         0.30000E+00
         0.30000E+00
         0.30000E+00
         0.30000E+00
         0.30000E+00
         0.30000E+00
         0.30000E+00
         0.30000E+00
         0.30000E+00
         0.30000E+00
         0.30000E+00
         0.30000E+00
         0.30000E+00
         0.30000E+00
         0.30000E+00
         0.30000E+00
         0.30000E+00
         0.30000E+00
         0.30000E+00
         0.30000E+00
         0.30000E+00
         0.30000E+00
         0.30000E+00
         0.30000E+00
         0.30000E+00
         0.30000E+00
         0.30000E+00
         0.30000E+00
         0.30000E+00
         0.30000E+00
         0.30000E+00
         0.30000E+00
         0.30000E+00
         0.30000E+00
         0.30000E+00
         0.30000E+00
         0.30000E+00
         0.30000E+00
         0.30000E+00
         0.30000E+00
         0.30000E+00
         0.30000E+00
         0.30000E+00
         0.30000E+00
         0.30000E+00
         0.30000E+00
         0.30000E+00
         0.30000E+00
         0.30000E+00
         0.30000E+00
         0.30000E+00
         0.30000E+00
         0.30000E+00
         0.30000E+00
         0.30000E+00
         0.30000E+00
         0.30000E+00
         0.30000E+00
         0.30000E+00
         0.30000E+00
         0.30000E+00
         0.30000E+00
         0.30000E+00
         0.30000E+00
         0.30000E+00
         0.30000E+00
         0.30000E+00
         0.30000E+00
         0.30000E+00
         0.30000E+00
         0.30000E+00
         0.30000E+00
         0.30000E+00
         0.30000E+00
         0.30000E+00
         0.30000E+00
         0.30000E+00
         0.30000E+00
         0.30000E+00
         0.30000E+00
         0.30000E+00
         0.30000E+00
         0.30000E+00
         0.30000E+00
         0.30000E+00
         0.30000E+00
         0.30000E+00
         0.30000E+00
         0.30000E+00
         0.30000E+00
         0.30000E+00
         0.30000E+00
         0.30000E+00
         0.30000E+00
         0.30000E+00
         0.30000E+00
         0.30000E+00
         0.30000E+00
         0.30000E+00
         0.30000E+00
         0.30000E+00
         0.30000E+00
         0.30000E+00
         0.30000E+00
         0.30000E+00
         0.30000E+00
         0.30000E+00
         0.30000E+00
         0.30000E+00
         0.30000E+00
         0.30000E+00
         0.30000E+00
         0.30000E+00
         0.30000E+00
         0.30000E+00
         0.30000E+00
         0.30000E+00
         0.30000E+00
         0.30000E+00
         0.30000E+00
         0.30000E+00
         0.30000E+00
         0.30000E+00
         0.30000E+00
         0.30000E+00
         0.30000E+00
         0.30000E+00
         0.30000E+00
         0.30000E+00
         0.30000E+00
         0.30000E+00
         0.30000E+00
         0.30000E+00
         0.30000E+00
         0.30000E+00
         0.30000E+00
         0.30000E+00
         0.30000E+00
         0.30000E+00
         0.30000E+00
         0.30000E+00
         0.30000E+00
         0.30000E+00
         0.30000E+00
         0.30000E+00
         0.30000E+00
         0.30000E+00
         0.30000E+00
         0.30000E+00
         0.30000E+00
         0.30000E+00
         0.30000E+00
         0.30000E+00
         0.30000E+00
         0.30000E+00
         0.30000E+00
         0.30000E+00
         0.30000E+00
         0.30000E+00
         0.30000E+00
         0.30000E+00
         0.30000E+00
         0.30000E+00
         0.30000E+00
         0.30000E+00
         0.30000E+00
         0.30000E+00
         0.30000E+00
         0.30000E+00
         0.30000E+00
         0.30000E+00
         0.30000E+00
         0.30000E+00
         0.30000E+00
         0.30000E+00
         0.30000E+00
         0.30000E+00
         0.30000E+00
         0.30000E+00
         0.30000E+00
         0.30000E+00
         0.30000E+00
         0.30000E+00
         0.30000E+00
         0.30000E+00
         0.30000E+00
         0.30000E+00
         0.30000E+00
         0.30000E+00
         0.30000E+00
         0.30000E+00
         0.30000E+00
         0.30000E+00
         0.30000E+00
         0.30000E+00
         0.30000E+00
         0.30000E+00
         0.30000E+00
         0.30000E+00
         0.30000E+00
         0.30000E+00
         0.30000E+00
         0.30000E+00
         0.30000E+00
         0.30000E+00
         0.30000E+00
         0.30000E+00
         0.30000E+00
         0.30000E+00
         0.30000E+00
         0.30000E+00
         0.30000E+00
         0.30000E+00
         0.30000E+00
         0.30000E+00
         0.30000E+00
         0.30000E+00
         0.30000E+00
         0.30000E+00
         0.30000E+00
         0.30000E+00
         0.30000E+00
         0.30000E+00
         0.30000E+00
         0.30000E+00
         0.30000E+00
         0.30000E+00
         0.30000E+00
         0.30000E+00
         0.30000E+00
         0.30000E+00
         0.30000E+00
         0.30000E+00
         0.30000E+00
         0.30000E+00
         0.30000E+00
         0.30000E+00
         0.30000E+00
         0.30000E+00
         0.30000E+00
         0.30000E+00
         0.30000E+00
         0.30000E+00
         0.30000E+00
         0.30000E+00
         0.30000E+00
         0.30000E+00
         0.30000E+00
         0.30000E+00
         0.30000E+00
         0.30000E+00
         0.30000E+00
         0.30000E+00
         0.30000E+00
         0.30000E+00
         0.30000E+00
         0.30000E+00
         0.30000E+00
         0.30000E+00
         0.30000E+00
         0.30000E+00
         0.30000E+00
         0.30000E+00
         0.30000E+00
         0.30000E+00
         0.30000E+00
         0.30000E+00
         0.30000E+00
         0.30000E+00
         0.30000E+00
         0.30000E+00
         0.30000E+00
         0.30000E+00
         0.30000E+00
         0.30000E+00
         0.30000E+00
         0.30000E+00
         0.30000E+00
         0.30000E+00
         0.30000E+00
         0.30000E+00
         0.30000E+00
         0.30000E+00
         0.30000E+00
         0.30000E+00
         0.30000E+00
         0.30000E+00
         0.30000E+00
         0.30000E+00
         0.30000E+00
         0.30000E+00
         0.30000E+00
         0.30000E+00
         0.30000E+00
         0.30000E+00
         0.30000E+00
         0.30000E+00
         0.30000E+00
         0.30000E+00
         0.30000E+00
         0.30000E+00
         0.30000E+00
         0.30000E+00
         0.30000E+00
         0.30000E+00
         0.30000E+00
         0.30000E+00
         0.30000E+00
         0.30000E+00
         0.30000E+00
         0.30000E+00
         0.30000E+00
         0.30000E+00
         0.30000E+00
         0.30000E+00
         0.30000E+00
         0.30000E+00
         0.30000E+00
         0.30000E+00
         0.30000E+00
         0.30000E+00
         0.30000E+00
         0.30000E+00
         0.30000E+00
         0.30000E+00
         0.30000E+00
         0.30000E+00
         0.30000E+00
         0.30000E+00
         0.30000E+00
         0.30000E+00
         0.30000E+00
         0.30000E+00
         0.30000E+00
         0.30000E+00
         0.30000E+00
         0.30000E+00
         0.30000E+00
         0.30000E+00
         0.30000E+00
         0.30000E+00
         0.30000E+00
         0.30000E+00
         0.30000E+00
         0.30000E+00
         0.30000E+00
         0.30000E+00
         0.30000E+00
         0.30000E+00
         0.30000E+00
         0.30000E+00
         0.30000E+00
         0.30000E+00
         0.30000E+00
         0.30000E+00
         0.30000E+00
         0.30000E+00
         0.30000E+00
         0.30000E+00
         0.30000E+00
         0.30000E+00
         0.30000E+00
         0.30000E+00
         0.30000E+00
         0.30000E+00
         0.30000E+00
         0.30000E+00
         0.30000E+00
         0.30000E+00
         0.30000E+00
         0.30000E+00
         0.30000E+00
         0.30000E+00
         0.30000E+00
         0.30000E+00
         0.30000E+00
         0.30000E+00
         0.30000E+00
         0.30000E+00
         0.30000E+00
         0.30000E+00
         0.30000E+00
         0.30000E+00
         0.30000E+00
         0.30000E+00
         0.30000E+00
         0.30000E+00
         0.30000E+00
         0.30000E+00
         0.30000E+00
         0.30000E+00
         0.30000E+00
         0.30000E+00
         0.30000E+00
         0.30000E+00
         0.30000E+00
         0.30000E+00
         0.30000E+00
         0.30000E+00
         0.30000E+00
         0.30000E+00
         0.30000E+00
         0.30000E+00
         0.30000E+00
         0.30000E+00
         0.30000E+00
         0.30000E+00
         0.30000E+00
         0.30000E+00
         0.30000E+00
         0.30000E+00
         0.30000E+00
         0.30000E+00
         0.30000E+00
         0.30000E+00
         0.30000E+00
         0.30000E+00
         0.30000E+00
         0.30000E+00
         0.30000E+00
         0.30000E+00
         0.30000E+00
         0.30000E+00
         0.30000E+00
         0.30000E+00
         0.30000E+00
         0.30000E+00
         0.30000E+00
         0.30000E+00
         0.30000E+00
         0.30000E+00
         0.30000E+00
         0.30000E+00
         0.30000E+00
         0.30000E+00
         0.30000E+00
         0.30000E+00
         0.30000E+00
         0.30000E+00
         0.30000E+00
         0.30000E+00
         0.30000E+00
         0.30000E+00
         0.30000E+00
         0.30000E+00
         0.30000E+00
         0.30000E+00
         0.30000E+00
         0.30000E+00
         0.30000E+00
         0.30000E+00
         0.30000E+00
         0.30000E+00
         0.30000E+00
         0.30000E+00
         0.30000E+00
         0.30000E+00
         0.30000E+00
         0.30000E+00
         0.30000E+00
         0.30000E+00
         0.30000E+00
         0.30000E+00
         0.30000E+00
         0.30000E+00
         0.30000E+00
         0.30000E+00
         0.30000E+00
         0.30000E+00
         0.30000E+00
         0.30000E+00
         0.30000E+00
         0.30000E+00
         0.30000E+00
         0.30000E+00
         0.30000E+00
         0.30000E+00
         0.30000E+00
         0.30000E+00
         0.30000E+00
         0.30000E+00
         0.30000E+00
         0.30000E+00
         0.30000E+00
         0.30000E+00
         0.30000E+00
         0.30000E+00
         0.30000E+00
         0.30000E+00
         0.30000E+00
         0.30000E+00
         0.30000E+00
         0.30000E+00
         0.30000E+00
         0.30000E+00
         0.30000E+00
         0.30000E+00
         0.30000E+00
         0.30000E+00
         0.30000E+00
         0.30000E+00
         0.30000E+00
         0.30000E+00
         0.30000E+00
         0.30000E+00
         0.30000E+00
         0.30000E+00
         0.30000E+00
         0.30000E+00
         0.30000E+00
         0.30000E+00
         0.30000E+00
         0.30000E+00
         0.30000E+00
         0.30000E+00
         0.30000E+00
         0.30000E+00
         0.30000E+00
         0.30000E+00
         0.30000E+00
         0.30000E+00
         0.30000E+00
         0.30000E+00
         0.30000E+00
         0.30000E+00
         0.30000E+00
         0.30000E+00
         0.30000E+00
         0.30000E+00
         0.30000E+00
         0.30000E+00
         0.30000E+00
         0.30000E+00
         0.30000E+00
         0.30000E+00
         0.30000E+00
         0.30000E+00
         0.30000E+00
         0.30000E+00
         0.30000E+00
         0.30000E+00
         0.30000E+00
         0.30000E+00
         0.30000E+00
         0.30000E+00
         0.30000E+00
         0.30000E+00
         0.30000E+00
         0.30000E+00
         0.30000E+00
         0.30000E+00
         0.30000E+00
         0.30000E+00
         0.30000E+00
         0.30000E+00
         0.30000E+00
         0.30000E+00
         0.30000E+00
         0.30000E+00
         0.30000E+00
         0.30000E+00
         0.30000E+00
         0.30000E+00
         0.30000E+00
         0.30000E+00
         0.30000E+00
         0.30000E+00
         0.30000E+00
         0.30000E+00
         0.30000E+00
         0.30000E+00
         0.30000E+00
         0.30000E+00
         0.30000E+00
         0.30000E+00
         0.30000E+00
         0.30000E+00
         0.30000E+00
         0.30000E+00
         0.30000E+00
         0.30000E+00
         0.30000E+00
         0.30000E+00
         0.30000E+00
         0.30000E+00
         0.30000E+00
         0.30000E+00
         0.30000E+00
         0.30000E+00
         0.30000E+00
         0.30000E+00
         0.30000E+00
         0.30000E+00
         0.30000E+00
         0.30000E+00
         0.30000E+00
         0.30000E+00
         0.30000E+00
         0.30000E+00
         0.30000E+00
         0.30000E+00
         0.30000E+00
         0.30000E+00
         0.30000E+00
         0.30000E+00
         0.30000E+00
         0.30000E+00
         0.30000E+00
         0.30000E+00
         0.30000E+00
         0.30000E+00
         0.30000E+00
         0.30000E+00
         0.30000E+00
         0.30000E+00
         0.30000E+00
         0.30000E+00
         0.30000E+00
         0.30000E+00
         0.30000E+00
         0.30000E+00
         0.30000E+00
         0.30000E+00
         0.30000E+00
         0.30000E+00
         0.30000E+00
         0.30000E+00
         0.30000E+00
         0.30000E+00
         0.30000E+00
         0.30000E+00
         0.30000E+00
         0.30000E+00
         0.30000E+00
         0.30000E+00
         0.30000E+00
         0.30000E+00
         0.30000E+00
         0.30000E+00
         0.30000E+00
         0.30000E+00
         0.30000E+00
         0.30000E+00
         0.30000E+00
         0.30000E+00
         0.30000E+00
         0.30000E+00
         0.30000E+00
         0.30000E+00
         0.30000E+00
         0.30000E+00
         0.30000E+00
         0.30000E+00
         0.30000E+00
         0.30000E+00
         0.30000E+00
         0.30000E+00
         0.30000E+00
         0.30000E+00
         0.30000E+00
         0.30000E+00
         0.30000E+00
         0.30000E+00
         0.30000E+00
         0.30000E+00
         0.30000E+00
         0.30000E+00
         0.30000E+00
         0.30000E+00
         0.30000E+00
         0.30000E+00
         0.30000E+00
         0.30000E+00
         0.30000E+00
         0.30000E+00
         0.30000E+00
         0.30000E+00
         0.30000E+00
         0.30000E+00
         0.30000E+00
         0.30000E+00
         0.30000E+00
         0.30000E+00
         0.30000E+00
         0.30000E+00
         0.30000E+00
         0.30000E+00
         0.30000E+00
         0.30000E+00
         0.30000E+00
         0.30000E+00
         0.30000E+00
         0.30000E+00
         0.30000E+00
         0.30000E+00
         0.30000E+00
         0.30000E+00
         0.30000E+00
         0.30000E+00
         0.30000E+00
         0.30000E+00
         0.30000E+00
         0.30000E+00
         0.30000E+00
         0.30000E+00
         0.30000E+00
         0.30000E+00
         0.30000E+00
         0.30000E+00
         0.30000E+00
         0.30000E+00
         0.30000E+00
         0.30000E+00
         0.30000E+00
         0.30000E+00
         0.30000E+00
         0.30000E+00
         0.30000E+00
         0.30000E+00
         0.30000E+00
         0.30000E+00
         0.30000E+00
         0.30000E+00
         0.30000E+00
         0.30000E+00
         0.30000E+00
         0.30000E+00
         0.30000E+00
         0.30000E+00
         0.30000E+00
         0.30000E+00
         0.30000E+00
         0.30000E+00
         0.30000E+00
         0.30000E+00
         0.30000E+00
         0.30000E+00
         0.30000E+00
         0.30000E+00
         0.30000E+00
         0.30000E+00
         0.30000E+00
         0.30000E+00
         0.30000E+00
         0.30000E+00
         0.30000E+00
         0.30000E+00
         0.30000E+00
         0.30000E+00
         0.30000E+00
         0.30000E+00
         0.30000E+00
         0.30000E+00
         0.30000E+00
         0.30000E+00
         0.30000E+00
         0.30000E+00
         0.30000E+00
         0.30000E+00
         0.30000E+00
         0.30000E+00
         0.30000E+00
         0.30000E+00
         0.30000E+00
         0.30000E+00
         0.30000E+00
         0.30000E+00
         0.30000E+00
         0.30000E+00
         0.30000E+00
         0.30000E+00
         0.30000E+00
         0.30000E+00
         0.30000E+00
         0.30000E+00
         0.30000E+00
         0.30000E+00
         0.30000E+00
         0.30000E+00
         0.30000E+00
         0.30000E+00
         0.30000E+00
         0.30000E+00
         0.30000E+00
         0.30000E+00
         0.30000E+00
         0.30000E+00
         0.30000E+00
         0.30000E+00
         0.30000E+00
         0.30000E+00
         0.30000E+00
         0.30000E+00
         0.30000E+00
         0.30000E+00
         0.30000E+00
         0.30000E+00
         0.30000E+00
         0.30000E+00
         0.30000E+00
         0.30000E+00
         0.30000E+00
         0.30000E+00
         0.30000E+00
         0.30000E+00
         0.30000E+00
         0.30000E+00
         0.30000E+00
         0.30000E+00
         0.30000E+00
         0.30000E+00
         0.30000E+00
         0.30000E+00
         0.30000E+00
         0.30000E+00
         0.30000E+00
         0.30000E+00
         0.30000E+00
         0.30000E+00
         0.30000E+00
         0.30000E+00
         0.30000E+00
         0.30000E+00
         0.30000E+00
         0.30000E+00
         0.30000E+00
         0.30000E+00
         0.30000E+00
         0.30000E+00
         0.30000E+00
         0.30000E+00
         0.30000E+00
         0.30000E+00
         0.30000E+00
         0.30000E+00
         0.30000E+00
         0.30000E+00
         0.30000E+00
         0.30000E+00
         0.30000E+00
         0.30000E+00
         0.30000E+00
         0.30000E+00
         0.30000E+00
         0.30000E+00
         0.30000E+00
         0.30000E+00
         0.30000E+00
         0.30000E+00
         0.30000E+00
         0.30000E+00
         0.30000E+00
         0.30000E+00
         0.30000E+00
         0.30000E+00
         0.30000E+00
         0.30000E+00
         0.30000E+00
         0.30000E+00
         0.30000E+00
         0.30000E+00
         0.30000E+00
         0.30000E+00
         0.30000E+00
         0.30000E+00
         0.30000E+00
         0.30000E+00
         0.30000E+00
         0.30000E+00
         0.30000E+00
         0.30000E+00
         0.30000E+00
         0.30000E+00
         0.30000E+00
         0.30000E+00
         0.30000E+00
         0.30000E+00
         0.30000E+00
         0.30000E+00
         0.30000E+00
         0.30000E+00
         0.30000E+00
         0.30000E+00
         0.30000E+00
         0.30000E+00
         0.30000E+00
         0.30000E+00
         0.30000E+00
         0.30000E+00
         0.30000E+00
         0.30000E+00
         0.30000E+00
         0.30000E+00
         0.30000E+00
         0.30000E+00
         0.30000E+00
         0.30000E+00
         0.30000E+00
         0.30000E+00
         0.30000E+00
         0.30000E+00
         0.30000E+00
         0.30000E+00
         0.30000E+00
         0.30000E+00
         0.30000E+00
         0.30000E+00
         0.30000E+00
         0.30000E+00
         0.30000E+00
         0.30000E+00
         0.30000E+00
         0.30000E+00
         0.30000E+00
         0.30000E+00
         0.30000E+00
         0.30000E+00
         0.30000E+00
         0.30000E+00
         0.30000E+00
         0.30000E+00
         0.30000E+00
         0.30000E+00
         0.30000E+00
         0.30000E+00
         0.30000E+00
         0.30000E+00
         0.30000E+00
         0.30000E+00
         0.30000E+00
         0.30000E+00
         0.30000E+00
         0.30000E+00
         0.30000E+00
         0.30000E+00
         0.30000E+00
         0.30000E+00
         0.30000E+00
         0.30000E+00
         0.30000E+00
         0.30000E+00
         0.30000E+00
         0.30000E+00
         0.30000E+00
         0.30000E+00
         0.30000E+00
         0.30000E+00
         0.30000E+00
         0.30000E+00
         0.30000E+00
         0.30000E+00
         0.30000E+00
         0.30000E+00
         0.30000E+00
         0.30000E+00
         0.30000E+00
         0.30000E+00
         0.30000E+00
         0.30000E+00
         0.30000E+00
         0.30000E+00
         0.30000E+00
         0.30000E+00
         0.30000E+00
         0.30000E+00
         0.30000E+00
         0.30000E+00
         0.30000E+00
         0.30000E+00
         0.30000E+00
         0.30000E+00
         0.30000E+00
         0.30000E+00
         0.30000E+00
         0.30000E+00
         0.30000E+00
         0.30000E+00
         0.30000E+00
         0.30000E+00
         0.30000E+00
         0.30000E+00
         0.30000E+00
         0.30000E+00
         0.30000E+00
         0.30000E+00
         0.30000E+00
         0.30000E+00
         0.30000E+00
         0.30000E+00
         0.30000E+00
         0.30000E+00
         0.30000E+00
         0.30000E+00
         0.30000E+00
         0.30000E+00
         0.30000E+00
         0.30000E+00
         0.30000E+00
         0.30000E+00
         0.30000E+00
         0.30000E+00
         0.30000E+00
         0.30000E+00
         0.30000E+00
         0.30000E+00
         0.30000E+00
         0.30000E+00
         0.30000E+00
         0.30000E+00
         0.30000E+00
         0.30000E+00
         0.30000E+00
         0.30000E+00
         0.30000E+00
         0.30000E+00
         0.30000E+00
         0.30000E+00
         0.30000E+00
         0.30000E+00
         0.30000E+00
         0.30000E+00
         0.30000E+00
         0.30000E+00
         0.30000E+00
         0.30000E+00
         0.30000E+00
         0.30000E+00
         0.30000E+00
         0.30000E+00
         0.30000E+00
         0.30000E+00
         0.30000E+00
         0.30000E+00
         0.30000E+00
         0.30000E+00
         0.30000E+00
         0.30000E+00
         0.30000E+00
         0.30000E+00
         0.30000E+00
         0.30000E+00
         0.30000E+00
         0.30000E+00
         0.30000E+00
         0.30000E+00
         0.30000E+00
         0.30000E+00
         0.30000E+00
         0.30000E+00
         0.30000E+00
         0.30000E+00
         0.30000E+00
         0.30000E+00
         0.30000E+00
         0.30000E+00
         0.30000E+00
         0.30000E+00
         0.30000E+00
         0.30000E+00
         0.30000E+00
         0.30000E+00
         0.30000E+00
         0.30000E+00
         0.30000E+00
         0.30000E+00
         0.30000E+00
         0.30000E+00
         0.30000E+00
         0.30000E+00
         0.30000E+00
         0.30000E+00
         0.30000E+00
         0.30000E+00
         0.30000E+00
         0.30000E+00
         0.30000E+00
         0.30000E+00
         0.30000E+00
         0.30000E+00
         0.30000E+00
         0.30000E+00
         0.30000E+00
         0.30000E+00
         0.30000E+00
         0.30000E+00
         0.30000E+00
         0.30000E+00
         0.30000E+00
         0.30000E+00
         0.30000E+00
         0.30000E+00
         0.30000E+00
         0.30000E+00
         0.30000E+00
         0.30000E+00
         0.30000E+00
         0.30000E+00
         0.30000E+00
         0.30000E+00
         0.30000E+00
         0.30000E+00
         0.30000E+00
         0.30000E+00
         0.30000E+00
         0.30000E+00
         0.30000E+00
         0.30000E+00
         0.30000E+00
         0.30000E+00
         0.30000E+00
         0.30000E+00
         0.30000E+00
         0.30000E+00
         0.30000E+00
         0.30000E+00
         0.30000E+00
         0.30000E+00
         0.30000E+00
         0.30000E+00
         0.30000E+00
         0.30000E+00
         0.30000E+00
         0.30000E+00
         0.30000E+00
         0.30000E+00
         0.30000E+00
         0.30000E+00
         0.30000E+00
         0.30000E+00
         0.30000E+00
         0.30000E+00
         0.30000E+00
         0.30000E+00
         0.30000E+00
         0.30000E+00
         0.30000E+00
         0.30000E+00
         0.30000E+00
         0.30000E+00
         0.30000E+00
         0.30000E+00
         0.30000E+00
         0.30000E+00
         0.30000E+00
         0.30000E+00
         0.30000E+00
         0.30000E+00
         0.30000E+00
         0.30000E+00
         0.30000E+00
         0.30000E+00
         0.30000E+00
         0.30000E+00
         0.30000E+00
         0.30000E+00
         0.30000E+00
         0.30000E+00
         0.30000E+00
         0.30000E+00
         0.30000E+00
         0.30000E+00
         0.30000E+00
         0.30000E+00
         0.30000E+00
         0.30000E+00
         0.30000E+00
         0.30000E+00
         0.30000E+00
         0.30000E+00
         0.30000E+00
         0.30000E+00
         0.30000E+00
         0.30000E+00
         0.30000E+00
         0.30000E+00
         0.30000E+00
         0.30000E+00
         0.30000E+00
         0.30000E+00
         0.30000E+00
         0.30000E+00
         0.30000E+00
         0.30000E+00
         0.30000E+00
         0.30000E+00
         0.30000E+00
         0.30000E+00
         0.30000E+00
         0.30000E+00
         0.30000E+00
         0.30000E+00
         0.30000E+00
         0.30000E+00
         0.30000E+00
         0.30000E+00
         0.30000E+00
         0.30000E+00
         0.30000E+00
         0.30000E+00
         0.30000E+00
         0.30000E+00
         0.30000E+00
         0.30000E+00
         0.30000E+00
         0.30000E+00
         0.30000E+00
         0.30000E+00
         0.30000E+00
         0.30000E+00
         0.30000E+00
         0.30000E+00
         0.30000E+00
         0.30000E+00
         0.30000E+00
         0.30000E+00
         0.30000E+00
         0.30000E+00
         0.30000E+00
         0.30000E+00
         0.30000E+00
         0.30000E+00
         0.30000E+00
         0.30000E+00
         0.30000E+00
         0.30000E+00
         0.30000E+00
         0.30000E+00
         0.30000E+00
         0.30000E+00
         0.30000E+00
         0.30000E+00
         0.30000E+00
         0.30000E+00
         0.30000E+00
         0.30000E+00
         0.30000E+00
         0.30000E+00
         0.30000E+00
         0.30000E+00
         0.30000E+00
         0.30000E+00
         0.30000E+00
         0.30000E+00
         0.30000E+00
         0.30000E+00
         0.30000E+00
         0.30000E+00
         0.30000E+00
         0.30000E+00
         0.30000E+00
         0.30000E+00
         0.30000E+00
         0.30000E+00
         0.30000E+00
         0.30000E+00
         0.30000E+00
         0.30000E+00
         0.30000E+00
         0.30000E+00
         0.30000E+00
         0.30000E+00
         0.30000E+00
         0.30000E+00
         0.30000E+00
         0.30000E+00
         0.30000E+00
         0.30000E+00
         0.30000E+00
         0.30000E+00
         0.30000E+00
         0.30000E+00
         0.30000E+00
         0.30000E+00
         0.30000E+00
         0.30000E+00
         0.30000E+00
         0.30000E+00
         0.30000E+00
         0.30000E+00
         0.30000E+00
         0.30000E+00
         0.30000E+00
         0.30000E+00
         0.30000E+00
         0.30000E+00
         0.30000E+00
         0.30000E+00
         0.30000E+00
         0.30000E+00
         0.30000E+00
         0.30000E+00
         0.30000E+00
         0.30000E+00
         0.30000E+00
         0.30000E+00
         0.30000E+00
         0.30000E+00
         0.30000E+00
         0.30000E+00
         0.30000E+00
         0.30000E+00
         0.30000E+00
         0.30000E+00
         0.30000E+00
         0.30000E+00
         0.30000E+00
         0.30000E+00
         0.30000E+00
         0.30000E+00
         0.30000E+00
         0.30000E+00
         0.30000E+00
         0.30000E+00
         0.30000E+00
         0.30000E+00
         0.30000E+00
         0.30000E+00
         0.30000E+00
         0.30000E+00
         0.30000E+00
         0.30000E+00
         0.30000E+00
         0.30000E+00
         0.30000E+00
         0.30000E+00
         0.30000E+00
         0.30000E+00
         0.30000E+00
         0.30000E+00
         0.30000E+00
         0.30000E+00
         0.30000E+00
         0.30000E+00
         0.30000E+00
         0.30000E+00
         0.30000E+00
         0.30000E+00
         0.30000E+00
         0.30000E+00
         0.30000E+00
         0.30000E+00
         0.30000E+00
         0.30000E+00
         0.30000E+00
         0.30000E+00
         0.30000E+00
         0.30000E+00
         0.30000E+00
         0.30000E+00
         0.30000E+00
         0.30000E+00
         0.30000E+00
         0.30000E+00
         0.30000E+00
         0.30000E+00
         0.30000E+00
         0.30000E+00
         0.30000E+00
         0.30000E+00
         0.30000E+00
         0.30000E+00
         0.30000E+00
         0.30000E+00
         0.30000E+00
         0.30000E+00
         0.30000E+00
         0.30000E+00
         0.30000E+00
         0.30000E+00
         0.30000E+00
         0.30000E+00
         0.30000E+00
         0.30000E+00
         0.30000E+00
         0.30000E+00
  
SCALARS                 Youngs_modulus  double 1
LOOKUP_TABLE default
         0.78200E+11
         0.78200E+11
         0.78200E+11
         0.78200E+11
         0.78200E+11
         0.78200E+11
         0.78200E+11
         0.78200E+11
         0.78200E+11
         0.78200E+11
         0.78200E+11
         0.78200E+11
         0.78200E+11
         0.78200E+11
         0.78200E+11
         0.78200E+11
         0.78200E+11
         0.78200E+11
         0.78200E+11
         0.78200E+11
         0.78200E+11
         0.78200E+11
         0.78200E+11
         0.78200E+11
         0.78200E+11
         0.78200E+11
         0.78200E+11
         0.78200E+11
         0.78200E+11
         0.78200E+11
         0.78200E+11
         0.78200E+11
         0.78200E+11
         0.78200E+11
         0.78200E+11
         0.78200E+11
         0.78200E+11
         0.78200E+11
         0.78200E+11
         0.78200E+11
         0.78200E+11
         0.78200E+11
         0.78200E+11
         0.78200E+11
         0.78200E+11
         0.78200E+11
         0.78200E+11
         0.78200E+11
         0.78200E+11
         0.78200E+11
         0.78200E+11
         0.78200E+11
         0.78200E+11
         0.78200E+11
         0.78200E+11
         0.78200E+11
         0.78200E+11
         0.78200E+11
         0.78200E+11
         0.78200E+11
         0.78200E+11
         0.78200E+11
         0.78200E+11
         0.78200E+11
         0.78200E+11
         0.78200E+11
         0.78200E+11
         0.78200E+11
         0.78200E+11
         0.78200E+11
         0.78200E+11
         0.78200E+11
         0.78200E+11
         0.78200E+11
         0.78200E+11
         0.78200E+11
         0.78200E+11
         0.78200E+11
         0.78200E+11
         0.78200E+11
         0.78200E+11
         0.78200E+11
         0.78200E+11
         0.78200E+11
         0.78200E+11
         0.78200E+11
         0.78200E+11
         0.78200E+11
         0.78200E+11
         0.78200E+11
         0.78200E+11
         0.78200E+11
         0.78200E+11
         0.78200E+11
         0.78200E+11
         0.78200E+11
         0.78200E+11
         0.78200E+11
         0.78200E+11
         0.78200E+11
         0.78200E+11
         0.78200E+11
         0.78200E+11
         0.78200E+11
         0.78200E+11
         0.78200E+11
         0.78200E+11
         0.78200E+11
         0.78200E+11
         0.78200E+11
         0.78200E+11
         0.78200E+11
         0.78200E+11
         0.78200E+11
         0.78200E+11
         0.78200E+11
         0.78200E+11
         0.78200E+11
         0.78200E+11
         0.78200E+11
         0.78200E+11
         0.78200E+11
         0.78200E+11
         0.78200E+11
         0.78200E+11
         0.78200E+11
         0.78200E+11
         0.78200E+11
         0.78200E+11
         0.78200E+11
         0.78200E+11
         0.78200E+11
         0.78200E+11
         0.78200E+11
         0.78200E+11
         0.78200E+11
         0.78200E+11
         0.78200E+11
         0.78200E+11
         0.78200E+11
         0.78200E+11
         0.78200E+11
         0.78200E+11
         0.78200E+11
         0.78200E+11
         0.78200E+11
         0.78200E+11
         0.78200E+11
         0.78200E+11
         0.78200E+11
         0.78200E+11
         0.78200E+11
         0.78200E+11
         0.78200E+11
         0.78200E+11
         0.78200E+11
         0.78200E+11
         0.78200E+11
         0.78200E+11
         0.78200E+11
         0.78200E+11
         0.78200E+11
         0.78200E+11
         0.78200E+11
         0.78200E+11
         0.78200E+11
         0.78200E+11
         0.78200E+11
         0.78200E+11
         0.78200E+11
         0.78200E+11
         0.78200E+11
         0.78200E+11
         0.78200E+11
         0.78200E+11
         0.78200E+11
         0.78200E+11
         0.78200E+11
         0.78200E+11
         0.78200E+11
         0.78200E+11
         0.78200E+11
         0.78200E+11
         0.78200E+11
         0.78200E+11
         0.78200E+11
         0.78200E+11
         0.78200E+11
         0.78200E+11
         0.78200E+11
         0.78200E+11
         0.78200E+11
         0.78200E+11
         0.78200E+11
         0.78200E+11
         0.78200E+11
         0.78200E+11
         0.78200E+11
         0.78200E+11
         0.78200E+11
         0.78200E+11
         0.78200E+11
         0.78200E+11
         0.78200E+11
         0.78200E+11
         0.78200E+11
         0.78200E+11
         0.78200E+11
         0.78200E+11
         0.78200E+11
         0.78200E+11
         0.78200E+11
         0.78200E+11
         0.78200E+11
         0.78200E+11
         0.78200E+11
         0.78200E+11
         0.78200E+11
         0.78200E+11
         0.78200E+11
         0.78200E+11
         0.78200E+11
         0.78200E+11
         0.78200E+11
         0.78200E+11
         0.78200E+11
         0.78200E+11
         0.78200E+11
         0.78200E+11
         0.78200E+11
         0.78200E+11
         0.78200E+11
         0.78200E+11
         0.78200E+11
         0.78200E+11
         0.78200E+11
         0.78200E+11
         0.78200E+11
         0.78200E+11
         0.78200E+11
         0.78200E+11
         0.78200E+11
         0.78200E+11
         0.78200E+11
         0.78200E+11
         0.78200E+11
         0.78200E+11
         0.78200E+11
         0.78200E+11
         0.78200E+11
         0.78200E+11
         0.78200E+11
         0.78200E+11
         0.78200E+11
         0.78200E+11
         0.78200E+11
         0.78200E+11
         0.78200E+11
         0.78200E+11
         0.78200E+11
         0.78200E+11
         0.78200E+11
         0.78200E+11
         0.78200E+11
         0.78200E+11
         0.78200E+11
         0.78200E+11
         0.78200E+11
         0.78200E+11
         0.78200E+11
         0.78200E+11
         0.78200E+11
         0.78200E+11
         0.78200E+11
         0.78200E+11
         0.78200E+11
         0.78200E+11
         0.78200E+11
         0.78200E+11
         0.78200E+11
         0.78200E+11
         0.78200E+11
         0.78200E+11
         0.78200E+11
         0.78200E+11
         0.78200E+11
         0.78200E+11
         0.78200E+11
         0.78200E+11
         0.78200E+11
         0.78200E+11
         0.78200E+11
         0.78200E+11
         0.78200E+11
         0.78200E+11
         0.78200E+11
         0.78200E+11
         0.78200E+11
         0.78200E+11
         0.78200E+11
         0.78200E+11
         0.78200E+11
         0.78200E+11
         0.78200E+11
         0.78200E+11
         0.78200E+11
         0.78200E+11
         0.78200E+11
         0.78200E+11
         0.78200E+11
         0.78200E+11
         0.78200E+11
         0.78200E+11
         0.78200E+11
         0.78200E+11
         0.78200E+11
         0.78200E+11
         0.78200E+11
         0.78200E+11
         0.78200E+11
         0.78200E+11
         0.78200E+11
         0.78200E+11
         0.78200E+11
         0.78200E+11
         0.78200E+11
         0.78200E+11
         0.78200E+11
         0.78200E+11
         0.78200E+11
         0.78200E+11
         0.78200E+11
         0.78200E+11
         0.78200E+11
         0.78200E+11
         0.78200E+11
         0.78200E+11
         0.78200E+11
         0.78200E+11
         0.78200E+11
         0.78200E+11
         0.78200E+11
         0.78200E+11
         0.78200E+11
         0.78200E+11
         0.78200E+11
         0.78200E+11
         0.78200E+11
         0.78200E+11
         0.78200E+11
         0.78200E+11
         0.78200E+11
         0.78200E+11
         0.78200E+11
         0.78200E+11
         0.78200E+11
         0.78200E+11
         0.78200E+11
         0.78200E+11
         0.78200E+11
         0.78200E+11
         0.78200E+11
         0.78200E+11
         0.78200E+11
         0.78200E+11
         0.78200E+11
         0.78200E+11
         0.78200E+11
         0.78200E+11
         0.78200E+11
         0.78200E+11
         0.78200E+11
         0.78200E+11
         0.78200E+11
         0.78200E+11
         0.78200E+11
         0.78200E+11
         0.78200E+11
         0.78200E+11
         0.78200E+11
         0.78200E+11
         0.78200E+11
         0.78200E+11
         0.78200E+11
         0.78200E+11
         0.78200E+11
         0.78200E+11
         0.78200E+11
         0.78200E+11
         0.78200E+11
         0.78200E+11
         0.78200E+11
         0.78200E+11
         0.78200E+11
         0.78200E+11
         0.78200E+11
         0.78200E+11
         0.78200E+11
         0.78200E+11
         0.78200E+11
         0.78200E+11
         0.78200E+11
         0.78200E+11
         0.78200E+11
         0.78200E+11
         0.78200E+11
         0.78200E+11
         0.78200E+11
         0.78200E+11
         0.78200E+11
         0.78200E+11
         0.78200E+11
         0.78200E+11
         0.78200E+11
         0.78200E+11
         0.78200E+11
         0.78200E+11
         0.78200E+11
         0.78200E+11
         0.78200E+11
         0.78200E+11
         0.78200E+11
         0.78200E+11
         0.78200E+11
         0.78200E+11
         0.78200E+11
         0.78200E+11
         0.78200E+11
         0.78200E+11
         0.78200E+11
         0.78200E+11
         0.78200E+11
         0.78200E+11
         0.78200E+11
         0.78200E+11
         0.78200E+11
         0.78200E+11
         0.78200E+11
         0.78200E+11
         0.78200E+11
         0.78200E+11
         0.78200E+11
         0.78200E+11
         0.78200E+11
         0.78200E+11
         0.78200E+11
         0.78200E+11
         0.78200E+11
         0.78200E+11
         0.78200E+11
         0.78200E+11
         0.78200E+11
         0.78200E+11
         0.78200E+11
         0.78200E+11
         0.78200E+11
         0.78200E+11
         0.78200E+11
         0.78200E+11
         0.78200E+11
         0.78200E+11
         0.78200E+11
         0.78200E+11
         0.78200E+11
         0.78200E+11
         0.78200E+11
         0.78200E+11
         0.78200E+11
         0.78200E+11
         0.78200E+11
         0.78200E+11
         0.78200E+11
         0.78200E+11
         0.78200E+11
         0.78200E+11
         0.78200E+11
         0.78200E+11
         0.78200E+11
         0.78200E+11
         0.78200E+11
         0.78200E+11
         0.78200E+11
         0.78200E+11
         0.78200E+11
         0.78200E+11
         0.78200E+11
         0.78200E+11
         0.78200E+11
         0.78200E+11
         0.78200E+11
         0.78200E+11
         0.78200E+11
         0.78200E+11
         0.78200E+11
         0.78200E+11
         0.78200E+11
         0.78200E+11
         0.78200E+11
         0.78200E+11
         0.78200E+11
         0.78200E+11
         0.78200E+11
         0.78200E+11
         0.78200E+11
         0.78200E+11
         0.78200E+11
         0.78200E+11
         0.78200E+11
         0.78200E+11
         0.78200E+11
         0.78200E+11
         0.78200E+11
         0.78200E+11
         0.78200E+11
         0.78200E+11
         0.78200E+11
         0.78200E+11
         0.78200E+11
         0.78200E+11
         0.78200E+11
         0.78200E+11
         0.78200E+11
         0.78200E+11
         0.78200E+11
         0.78200E+11
         0.78200E+11
         0.78200E+11
         0.78200E+11
         0.78200E+11
         0.78200E+11
         0.78200E+11
         0.78200E+11
         0.78200E+11
         0.78200E+11
         0.78200E+11
         0.78200E+11
         0.78200E+11
         0.78200E+11
         0.78200E+11
         0.78200E+11
         0.78200E+11
         0.78200E+11
         0.78200E+11
         0.78200E+11
         0.78200E+11
         0.78200E+11
         0.78200E+11
         0.78200E+11
         0.78200E+11
         0.78200E+11
         0.78200E+11
         0.78200E+11
         0.78200E+11
         0.78200E+11
         0.78200E+11
         0.78200E+11
         0.78200E+11
         0.78200E+11
         0.78200E+11
         0.78200E+11
         0.78200E+11
         0.78200E+11
         0.78200E+11
         0.78200E+11
         0.78200E+11
         0.78200E+11
         0.78200E+11
         0.78200E+11
         0.78200E+11
         0.78200E+11
         0.78200E+11
         0.78200E+11
         0.78200E+11
         0.78200E+11
         0.78200E+11
         0.78200E+11
         0.78200E+11
         0.78200E+11
         0.78200E+11
         0.78200E+11
         0.78200E+11
         0.78200E+11
         0.78200E+11
         0.78200E+11
         0.78200E+11
         0.78200E+11
         0.78200E+11
         0.78200E+11
         0.78200E+11
         0.78200E+11
         0.78200E+11
         0.78200E+11
         0.78200E+11
         0.78200E+11
         0.78200E+11
         0.78200E+11
         0.78200E+11
         0.78200E+11
         0.78200E+11
         0.78200E+11
         0.78200E+11
         0.78200E+11
         0.78200E+11
         0.78200E+11
         0.78200E+11
         0.78200E+11
         0.78200E+11
         0.78200E+11
         0.78200E+11
         0.78200E+11
         0.78200E+11
         0.78200E+11
         0.78200E+11
         0.78200E+11
         0.78200E+11
         0.78200E+11
         0.78200E+11
         0.78200E+11
         0.78200E+11
         0.78200E+11
         0.78200E+11
         0.78200E+11
         0.78200E+11
         0.78200E+11
         0.78200E+11
         0.78200E+11
         0.78200E+11
         0.78200E+11
         0.78200E+11
         0.78200E+11
         0.78200E+11
         0.78200E+11
         0.78200E+11
         0.78200E+11
         0.78200E+11
         0.78200E+11
         0.78200E+11
         0.78200E+11
         0.78200E+11
         0.78200E+11
         0.78200E+11
         0.78200E+11
         0.78200E+11
         0.78200E+11
         0.78200E+11
         0.78200E+11
         0.78200E+11
         0.78200E+11
         0.78200E+11
         0.78200E+11
         0.78200E+11
         0.78200E+11
         0.78200E+11
         0.78200E+11
         0.78200E+11
         0.78200E+11
         0.78200E+11
         0.78200E+11
         0.78200E+11
         0.78200E+11
         0.78200E+11
         0.78200E+11
         0.78200E+11
         0.78200E+11
         0.78200E+11
         0.78200E+11
         0.78200E+11
         0.78200E+11
         0.78200E+11
         0.78200E+11
         0.78200E+11
         0.78200E+11
         0.78200E+11
         0.78200E+11
         0.78200E+11
         0.78200E+11
         0.78200E+11
         0.78200E+11
         0.78200E+11
         0.78200E+11
         0.78200E+11
         0.78200E+11
         0.78200E+11
         0.78200E+11
         0.78200E+11
         0.78200E+11
         0.78200E+11
         0.78200E+11
         0.78200E+11
         0.78200E+11
         0.78200E+11
         0.78200E+11
         0.78200E+11
         0.78200E+11
         0.78200E+11
         0.78200E+11
         0.78200E+11
         0.78200E+11
         0.78200E+11
         0.78200E+11
         0.78200E+11
         0.78200E+11
         0.78200E+11
         0.78200E+11
         0.78200E+11
         0.78200E+11
         0.78200E+11
         0.78200E+11
         0.78200E+11
         0.78200E+11
         0.78200E+11
         0.78200E+11
         0.78200E+11
         0.78200E+11
         0.78200E+11
         0.78200E+11
         0.78200E+11
         0.78200E+11
         0.78200E+11
         0.78200E+11
         0.78200E+11
         0.78200E+11
         0.78200E+11
         0.78200E+11
         0.78200E+11
         0.78200E+11
         0.78200E+11
         0.78200E+11
         0.78200E+11
         0.78200E+11
         0.78200E+11
         0.78200E+11
         0.78200E+11
         0.78200E+11
         0.78200E+11
         0.78200E+11
         0.78200E+11
         0.78200E+11
         0.78200E+11
         0.78200E+11
         0.78200E+11
         0.78200E+11
         0.78200E+11
         0.78200E+11
         0.78200E+11
         0.78200E+11
         0.78200E+11
         0.78200E+11
         0.78200E+11
         0.78200E+11
         0.78200E+11
         0.78200E+11
         0.78200E+11
         0.78200E+11
         0.78200E+11
         0.78200E+11
         0.78200E+11
         0.78200E+11
         0.78200E+11
         0.78200E+11
         0.78200E+11
         0.78200E+11
         0.78200E+11
         0.78200E+11
         0.78200E+11
         0.78200E+11
         0.78200E+11
         0.78200E+11
         0.78200E+11
         0.78200E+11
         0.78200E+11
         0.78200E+11
         0.78200E+11
         0.78200E+11
         0.78200E+11
         0.78200E+11
         0.78200E+11
         0.78200E+11
         0.78200E+11
         0.78200E+11
         0.78200E+11
         0.78200E+11
         0.78200E+11
         0.78200E+11
         0.78200E+11
         0.78200E+11
         0.78200E+11
         0.78200E+11
         0.78200E+11
         0.78200E+11
         0.78200E+11
         0.78200E+11
         0.78200E+11
         0.78200E+11
         0.78200E+11
         0.78200E+11
         0.78200E+11
         0.78200E+11
         0.78200E+11
         0.78200E+11
         0.78200E+11
         0.78200E+11
         0.78200E+11
         0.78200E+11
         0.78200E+11
         0.78200E+11
         0.78200E+11
         0.78200E+11
         0.78200E+11
         0.78200E+11
         0.78200E+11
         0.78200E+11
         0.78200E+11
         0.78200E+11
         0.78200E+11
         0.78200E+11
         0.78200E+11
         0.78200E+11
         0.78200E+11
         0.78200E+11
         0.78200E+11
         0.78200E+11
         0.78200E+11
         0.78200E+11
         0.78200E+11
         0.78200E+11
         0.78200E+11
         0.78200E+11
         0.78200E+11
         0.78200E+11
         0.78200E+11
         0.78200E+11
         0.78200E+11
         0.78200E+11
         0.78200E+11
         0.78200E+11
         0.78200E+11
         0.78200E+11
         0.78200E+11
         0.78200E+11
         0.78200E+11
         0.78200E+11
         0.78200E+11
         0.78200E+11
         0.78200E+11
         0.78200E+11
         0.78200E+11
         0.78200E+11
         0.78200E+11
         0.78200E+11
         0.78200E+11
         0.78200E+11
         0.78200E+11
         0.78200E+11
         0.78200E+11
         0.78200E+11
         0.78200E+11
         0.78200E+11
         0.78200E+11
         0.78200E+11
         0.78200E+11
         0.78200E+11
         0.78200E+11
         0.78200E+11
         0.78200E+11
         0.78200E+11
         0.78200E+11
         0.78200E+11
         0.78200E+11
         0.78200E+11
         0.78200E+11
         0.78200E+11
         0.78200E+11
         0.78200E+11
         0.78200E+11
         0.78200E+11
         0.78200E+11
         0.78200E+11
         0.78200E+11
         0.78200E+11
         0.78200E+11
         0.78200E+11
         0.78200E+11
         0.78200E+11
         0.78200E+11
         0.78200E+11
         0.78200E+11
         0.78200E+11
         0.78200E+11
         0.78200E+11
         0.78200E+11
         0.78200E+11
         0.78200E+11
         0.78200E+11
         0.78200E+11
         0.78200E+11
         0.78200E+11
         0.78200E+11
         0.78200E+11
         0.78200E+11
         0.78200E+11
         0.78200E+11
         0.78200E+11
         0.78200E+11
         0.78200E+11
         0.78200E+11
         0.78200E+11
         0.78200E+11
         0.78200E+11
         0.78200E+11
         0.78200E+11
         0.78200E+11
         0.78200E+11
         0.78200E+11
         0.78200E+11
         0.78200E+11
         0.78200E+11
         0.78200E+11
         0.78200E+11
         0.78200E+11
         0.78200E+11
         0.78200E+11
         0.78200E+11
         0.78200E+11
         0.78200E+11
         0.78200E+11
         0.78200E+11
         0.78200E+11
         0.78200E+11
         0.78200E+11
         0.78200E+11
         0.78200E+11
         0.78200E+11
         0.78200E+11
         0.78200E+11
         0.78200E+11
         0.78200E+11
         0.78200E+11
         0.78200E+11
         0.78200E+11
         0.78200E+11
         0.78200E+11
         0.78200E+11
         0.78200E+11
         0.78200E+11
         0.78200E+11
         0.78200E+11
         0.78200E+11
         0.78200E+11
         0.78200E+11
         0.78200E+11
         0.78200E+11
         0.78200E+11
         0.78200E+11
         0.78200E+11
         0.78200E+11
         0.78200E+11
         0.78200E+11
         0.78200E+11
         0.78200E+11
         0.78200E+11
         0.78200E+11
         0.78200E+11
         0.78200E+11
         0.78200E+11
         0.78200E+11
         0.78200E+11
         0.78200E+11
         0.78200E+11
         0.78200E+11
         0.78200E+11
         0.78200E+11
         0.78200E+11
         0.78200E+11
         0.78200E+11
         0.78200E+11
         0.78200E+11
         0.78200E+11
         0.78200E+11
         0.78200E+11
         0.78200E+11
         0.78200E+11
         0.78200E+11
         0.78200E+11
         0.78200E+11
         0.78200E+11
         0.78200E+11
         0.78200E+11
         0.78200E+11
         0.78200E+11
         0.78200E+11
         0.78200E+11
         0.78200E+11
         0.78200E+11
         0.78200E+11
         0.78200E+11
         0.78200E+11
         0.78200E+11
         0.78200E+11
         0.78200E+11
         0.78200E+11
         0.78200E+11
         0.78200E+11
         0.78200E+11
         0.78200E+11
         0.78200E+11
         0.78200E+11
         0.78200E+11
         0.78200E+11
         0.78200E+11
         0.78200E+11
         0.78200E+11
         0.78200E+11
         0.78200E+11
         0.78200E+11
         0.78200E+11
         0.78200E+11
         0.78200E+11
         0.78200E+11
         0.78200E+11
         0.78200E+11
         0.78200E+11
         0.78200E+11
         0.78200E+11
         0.78200E+11
         0.78200E+11
         0.78200E+11
         0.78200E+11
         0.78200E+11
         0.78200E+11
         0.78200E+11
         0.78200E+11
         0.78200E+11
         0.78200E+11
         0.78200E+11
         0.78200E+11
         0.78200E+11
         0.78200E+11
         0.78200E+11
         0.78200E+11
         0.78200E+11
         0.78200E+11
         0.78200E+11
         0.78200E+11
         0.78200E+11
         0.78200E+11
         0.78200E+11
         0.78200E+11
         0.78200E+11
         0.78200E+11
         0.78200E+11
         0.78200E+11
         0.78200E+11
         0.78200E+11
         0.78200E+11
         0.78200E+11
         0.78200E+11
         0.78200E+11
         0.78200E+11
         0.78200E+11
         0.78200E+11
         0.78200E+11
         0.78200E+11
         0.78200E+11
         0.78200E+11
         0.78200E+11
         0.78200E+11
         0.78200E+11
         0.78200E+11
         0.78200E+11
         0.78200E+11
         0.78200E+11
         0.78200E+11
         0.78200E+11
         0.78200E+11
         0.78200E+11
         0.78200E+11
         0.78200E+11
         0.78200E+11
         0.78200E+11
         0.78200E+11
         0.78200E+11
         0.78200E+11
         0.78200E+11
         0.78200E+11
         0.78200E+11
         0.78200E+11
         0.78200E+11
         0.78200E+11
         0.78200E+11
         0.78200E+11
         0.78200E+11
         0.78200E+11
         0.78200E+11
         0.78200E+11
         0.78200E+11
         0.78200E+11
         0.78200E+11
         0.78200E+11
         0.78200E+11
         0.78200E+11
         0.78200E+11
         0.78200E+11
         0.78200E+11
         0.78200E+11
         0.78200E+11
         0.78200E+11
         0.78200E+11
         0.78200E+11
         0.78200E+11
         0.78200E+11
         0.78200E+11
         0.78200E+11
         0.78200E+11
         0.78200E+11
         0.78200E+11
         0.78200E+11
         0.78200E+11
         0.78200E+11
         0.78200E+11
         0.78200E+11
         0.78200E+11
         0.78200E+11
         0.78200E+11
         0.78200E+11
         0.78200E+11
         0.78200E+11
         0.78200E+11
         0.78200E+11
         0.78200E+11
         0.78200E+11
         0.78200E+11
         0.78200E+11
         0.78200E+11
         0.78200E+11
         0.78200E+11
         0.78200E+11
         0.78200E+11
         0.78200E+11
         0.78200E+11
         0.78200E+11
         0.78200E+11
         0.78200E+11
         0.78200E+11
         0.78200E+11
         0.78200E+11
         0.78200E+11
         0.78200E+11
         0.78200E+11
         0.78200E+11
         0.78200E+11
         0.78200E+11
         0.78200E+11
         0.78200E+11
         0.78200E+11
         0.78200E+11
         0.78200E+11
         0.78200E+11
         0.78200E+11
         0.78200E+11
         0.78200E+11
         0.78200E+11
         0.78200E+11
         0.78200E+11
         0.78200E+11
         0.78200E+11
         0.78200E+11
         0.78200E+11
         0.78200E+11
         0.78200E+11
         0.78200E+11
         0.78200E+11
         0.78200E+11
         0.78200E+11
         0.78200E+11
         0.78200E+11
         0.78200E+11
         0.78200E+11
         0.78200E+11
         0.78200E+11
         0.78200E+11
         0.78200E+11
         0.78200E+11
         0.78200E+11
         0.78200E+11
         0.78200E+11
         0.78200E+11
         0.78200E+11
         0.78200E+11
         0.78200E+11
         0.78200E+11
         0.78200E+11
         0.78200E+11
         0.78200E+11
         0.78200E+11
         0.78200E+11
         0.78200E+11
         0.78200E+11
         0.78200E+11
         0.78200E+11
         0.78200E+11
         0.78200E+11
         0.78200E+11
         0.78200E+11
         0.78200E+11
         0.78200E+11
         0.78200E+11
         0.78200E+11
         0.78200E+11
         0.78200E+11
         0.78200E+11
         0.78200E+11
         0.78200E+11
         0.78200E+11
         0.78200E+11
         0.78200E+11
         0.78200E+11
         0.78200E+11
         0.78200E+11
         0.78200E+11
         0.78200E+11
         0.78200E+11
         0.78200E+11
         0.78200E+11
         0.78200E+11
         0.78200E+11
         0.78200E+11
         0.78200E+11
         0.78200E+11
         0.78200E+11
         0.78200E+11
         0.78200E+11
         0.78200E+11
         0.78200E+11
         0.78200E+11
         0.78200E+11
         0.78200E+11
         0.78200E+11
         0.78200E+11
         0.78200E+11
         0.78200E+11
         0.78200E+11
         0.78200E+11
         0.78200E+11
         0.78200E+11
         0.78200E+11
         0.78200E+11
         0.78200E+11
         0.78200E+11
         0.78200E+11
         0.78200E+11
         0.78200E+11
         0.78200E+11
         0.78200E+11
         0.78200E+11
         0.78200E+11
         0.78200E+11
         0.78200E+11
         0.78200E+11
         0.78200E+11
         0.78200E+11
         0.78200E+11
         0.78200E+11
         0.78200E+11
         0.78200E+11
         0.78200E+11
         0.78200E+11
         0.78200E+11
         0.78200E+11
         0.78200E+11
         0.78200E+11
         0.78200E+11
         0.78200E+11
         0.78200E+11
         0.78200E+11
         0.78200E+11
         0.78200E+11
         0.78200E+11
         0.78200E+11
         0.78200E+11
         0.78200E+11
         0.78200E+11
         0.78200E+11
         0.78200E+11
         0.78200E+11
         0.78200E+11
         0.78200E+11
         0.78200E+11
         0.78200E+11
         0.78200E+11
         0.78200E+11
         0.78200E+11
         0.78200E+11
         0.78200E+11
         0.78200E+11
         0.78200E+11
         0.78200E+11
         0.78200E+11
         0.78200E+11
         0.78200E+11
         0.78200E+11
         0.78200E+11
         0.78200E+11
         0.78200E+11
         0.78200E+11
         0.78200E+11
         0.78200E+11
         0.78200E+11
         0.78200E+11
         0.78200E+11
         0.78200E+11
         0.78200E+11
         0.78200E+11
         0.78200E+11
         0.78200E+11
         0.78200E+11
         0.78200E+11
         0.78200E+11
         0.78200E+11
         0.78200E+11
         0.78200E+11
         0.78200E+11
         0.78200E+11
         0.78200E+11
         0.78200E+11
         0.78200E+11
         0.78200E+11
         0.78200E+11
         0.78200E+11
         0.78200E+11
         0.78200E+11
         0.78200E+11
         0.78200E+11
         0.78200E+11
         0.78200E+11
         0.78200E+11
         0.78200E+11
         0.78200E+11
         0.78200E+11
         0.78200E+11
         0.78200E+11
         0.78200E+11
         0.78200E+11
         0.78200E+11
         0.78200E+11
         0.78200E+11
         0.78200E+11
         0.78200E+11
         0.78200E+11
         0.78200E+11
         0.78200E+11
         0.78200E+11
         0.78200E+11
         0.78200E+11
         0.78200E+11
         0.78200E+11
         0.78200E+11
         0.78200E+11
         0.78200E+11
         0.78200E+11
         0.78200E+11
         0.78200E+11
         0.78200E+11
         0.78200E+11
         0.78200E+11
         0.78200E+11
         0.78200E+11
         0.78200E+11
         0.78200E+11
         0.78200E+11
         0.78200E+11
         0.78200E+11
         0.78200E+11
         0.78200E+11
         0.78200E+11
         0.78200E+11
         0.78200E+11
         0.78200E+11
         0.78200E+11
         0.78200E+11
         0.78200E+11
         0.78200E+11
         0.78200E+11
         0.78200E+11
         0.78200E+11
         0.78200E+11
         0.78200E+11
         0.78200E+11
         0.78200E+11
         0.78200E+11
         0.78200E+11
         0.78200E+11
         0.78200E+11
         0.78200E+11
         0.78200E+11
         0.78200E+11
         0.78200E+11
         0.78200E+11
         0.78200E+11
         0.78200E+11
         0.78200E+11
         0.78200E+11
         0.78200E+11
         0.78200E+11
         0.78200E+11
         0.78200E+11
         0.78200E+11
         0.78200E+11
         0.78200E+11
         0.78200E+11
         0.78200E+11
         0.78200E+11
         0.78200E+11
         0.78200E+11
         0.78200E+11
         0.78200E+11
         0.78200E+11
         0.78200E+11
         0.78200E+11
         0.78200E+11
         0.78200E+11
         0.78200E+11
         0.78200E+11
         0.78200E+11
         0.78200E+11
         0.78200E+11
         0.78200E+11
         0.78200E+11
         0.78200E+11
         0.78200E+11
         0.78200E+11
         0.78200E+11
         0.78200E+11
         0.78200E+11
         0.78200E+11
         0.78200E+11
         0.78200E+11
         0.78200E+11
         0.78200E+11
         0.78200E+11
         0.78200E+11
         0.78200E+11
         0.78200E+11
         0.78200E+11
         0.78200E+11
         0.78200E+11
         0.78200E+11
         0.78200E+11
         0.78200E+11
         0.78200E+11
         0.78200E+11
         0.78200E+11
         0.78200E+11
         0.78200E+11
         0.78200E+11
         0.78200E+11
         0.78200E+11
         0.78200E+11
         0.78200E+11
         0.78200E+11
         0.78200E+11
         0.78200E+11
         0.78200E+11
         0.78200E+11
         0.78200E+11
         0.78200E+11
         0.78200E+11
         0.78200E+11
         0.78200E+11
         0.78200E+11
         0.78200E+11
         0.78200E+11
         0.78200E+11
         0.78200E+11
         0.78200E+11
         0.78200E+11
         0.78200E+11
         0.78200E+11
         0.78200E+11
         0.78200E+11
         0.78200E+11
         0.78200E+11
         0.78200E+11
         0.78200E+11
         0.78200E+11
         0.78200E+11
         0.78200E+11
         0.78200E+11
         0.78200E+11
         0.78200E+11
         0.78200E+11
         0.78200E+11
         0.78200E+11
         0.78200E+11
         0.78200E+11
         0.78200E+11
         0.78200E+11
         0.78200E+11
         0.78200E+11
         0.78200E+11
         0.78200E+11
         0.78200E+11
         0.78200E+11
         0.78200E+11
         0.78200E+11
         0.78200E+11
         0.78200E+11
         0.78200E+11
         0.78200E+11
         0.78200E+11
         0.78200E+11
         0.78200E+11
         0.78200E+11
         0.78200E+11
         0.78200E+11
         0.78200E+11
         0.78200E+11
         0.78200E+11
         0.78200E+11
         0.78200E+11
         0.78200E+11
         0.78200E+11
         0.78200E+11
         0.78200E+11
         0.78200E+11
         0.78200E+11
         0.78200E+11
         0.78200E+11
         0.78200E+11
         0.78200E+11
         0.78200E+11
         0.78200E+11
         0.78200E+11
         0.78200E+11
         0.78200E+11
         0.78200E+11
         0.78200E+11
         0.78200E+11
         0.78200E+11
         0.78200E+11
         0.78200E+11
         0.78200E+11
         0.78200E+11
         0.78200E+11
         0.78200E+11
         0.78200E+11
         0.78200E+11
         0.78200E+11
         0.78200E+11
         0.78200E+11
         0.78200E+11
         0.78200E+11
         0.78200E+11
         0.78200E+11
         0.78200E+11
         0.78200E+11
         0.78200E+11
         0.78200E+11
         0.78200E+11
         0.78200E+11
         0.78200E+11
         0.78200E+11
         0.78200E+11
         0.78200E+11
         0.78200E+11
         0.78200E+11
         0.78200E+11
         0.78200E+11
         0.78200E+11
         0.78200E+11
         0.78200E+11
         0.78200E+11
         0.78200E+11
         0.78200E+11
         0.78200E+11
         0.78200E+11
         0.78200E+11
         0.78200E+11
         0.78200E+11
         0.78200E+11
         0.78200E+11
         0.78200E+11
         0.78200E+11
         0.78200E+11
         0.78200E+11
         0.78200E+11
         0.78200E+11
         0.78200E+11
         0.78200E+11
         0.78200E+11
         0.78200E+11
         0.78200E+11
         0.78200E+11
         0.78200E+11
         0.78200E+11
         0.78200E+11
         0.78200E+11
         0.78200E+11
         0.78200E+11
         0.78200E+11
         0.78200E+11
         0.78200E+11
         0.78200E+11
         0.78200E+11
         0.78200E+11
         0.78200E+11
         0.78200E+11
         0.78200E+11
         0.78200E+11
         0.78200E+11
         0.78200E+11
         0.78200E+11
         0.78200E+11
         0.78200E+11
         0.78200E+11
         0.78200E+11
         0.78200E+11
         0.78200E+11
         0.78200E+11
         0.78200E+11
         0.78200E+11
         0.78200E+11
         0.78200E+11
         0.78200E+11
         0.78200E+11
         0.78200E+11
         0.78200E+11
         0.78200E+11
         0.78200E+11
         0.78200E+11
         0.78200E+11
         0.78200E+11
         0.78200E+11
         0.78200E+11
         0.78200E+11
         0.78200E+11
         0.78200E+11
         0.78200E+11
         0.78200E+11
         0.78200E+11
         0.78200E+11
         0.78200E+11
         0.78200E+11
         0.78200E+11
         0.78200E+11
         0.78200E+11
         0.78200E+11
         0.78200E+11
         0.78200E+11
         0.78200E+11
         0.78200E+11
         0.78200E+11
         0.78200E+11
         0.78200E+11
         0.78200E+11
         0.78200E+11
         0.78200E+11
         0.78200E+11
         0.78200E+11
         0.78200E+11
         0.78200E+11
         0.78200E+11
         0.78200E+11
         0.78200E+11
         0.78200E+11
         0.78200E+11
         0.78200E+11
         0.78200E+11
         0.78200E+11
         0.78200E+11
         0.78200E+11
         0.78200E+11
         0.78200E+11
         0.78200E+11
         0.78200E+11
         0.78200E+11
         0.78200E+11
         0.78200E+11
         0.78200E+11
         0.78200E+11
         0.78200E+11
         0.78200E+11
         0.78200E+11
         0.78200E+11
         0.78200E+11
         0.78200E+11
         0.78200E+11
         0.78200E+11
         0.78200E+11
         0.78200E+11
         0.78200E+11
         0.78200E+11
         0.78200E+11
         0.78200E+11
         0.78200E+11
         0.78200E+11
         0.78200E+11
         0.78200E+11
         0.78200E+11
         0.78200E+11
         0.78200E+11
         0.78200E+11
         0.78200E+11
         0.78200E+11
         0.78200E+11
         0.78200E+11
         0.78200E+11
         0.78200E+11
         0.78200E+11
         0.78200E+11
         0.78200E+11
         0.78200E+11
         0.78200E+11
         0.78200E+11
         0.78200E+11
         0.78200E+11
         0.78200E+11
         0.78200E+11
         0.78200E+11
         0.78200E+11
         0.78200E+11
         0.78200E+11
         0.78200E+11
         0.78200E+11
         0.78200E+11
         0.78200E+11
         0.78200E+11
         0.78200E+11
         0.78200E+11
         0.78200E+11
         0.78200E+11
         0.78200E+11
         0.78200E+11
         0.78200E+11
         0.78200E+11
         0.78200E+11
         0.78200E+11
         0.78200E+11
         0.78200E+11
         0.78200E+11
         0.78200E+11
         0.78200E+11
         0.78200E+11
         0.78200E+11
         0.78200E+11
         0.78200E+11
         0.78200E+11
         0.78200E+11
         0.78200E+11
         0.78200E+11
         0.78200E+11
         0.78200E+11
         0.78200E+11
         0.78200E+11
         0.78200E+11
         0.78200E+11
         0.78200E+11
         0.78200E+11
         0.78200E+11
         0.78200E+11
         0.78200E+11
         0.78200E+11
         0.78200E+11
         0.78200E+11
         0.78200E+11
         0.78200E+11
         0.78200E+11
         0.78200E+11
         0.78200E+11
         0.78200E+11
         0.78200E+11
         0.78200E+11
         0.78200E+11
         0.78200E+11
         0.78200E+11
         0.78200E+11
         0.78200E+11
         0.78200E+11
         0.78200E+11
         0.78200E+11
         0.78200E+11
         0.78200E+11
         0.78200E+11
         0.78200E+11
         0.78200E+11
         0.78200E+11
         0.78200E+11
         0.78200E+11
         0.78200E+11
         0.78200E+11
         0.78200E+11
         0.78200E+11
         0.78200E+11
         0.78200E+11
         0.78200E+11
         0.78200E+11
         0.78200E+11
         0.78200E+11
         0.78200E+11
         0.78200E+11
         0.78200E+11
         0.78200E+11
         0.78200E+11
         0.78200E+11
         0.78200E+11
         0.78200E+11
         0.78200E+11
         0.78200E+11
         0.78200E+11
         0.78200E+11
         0.78200E+11
         0.78200E+11
         0.78200E+11
         0.78200E+11
         0.78200E+11
         0.78200E+11
         0.78200E+11
         0.78200E+11
         0.78200E+11
         0.78200E+11
         0.78200E+11
         0.78200E+11
         0.78200E+11
         0.78200E+11
         0.78200E+11
         0.78200E+11
         0.78200E+11
         0.78200E+11
         0.78200E+11
         0.78200E+11
         0.78200E+11
         0.78200E+11
         0.78200E+11
         0.78200E+11
         0.78200E+11
         0.78200E+11
         0.78200E+11
         0.78200E+11
         0.78200E+11
         0.78200E+11
         0.78200E+11
         0.78200E+11
         0.78200E+11
         0.78200E+11
         0.78200E+11
         0.78200E+11
         0.78200E+11
         0.78200E+11
         0.78200E+11
         0.78200E+11
         0.78200E+11
         0.78200E+11
         0.78200E+11
         0.78200E+11
         0.78200E+11
         0.78200E+11
         0.78200E+11
         0.78200E+11
         0.78200E+11
         0.78200E+11
         0.78200E+11
         0.78200E+11
         0.78200E+11
         0.78200E+11
         0.78200E+11
         0.78200E+11
         0.78200E+11
         0.78200E+11
         0.78200E+11
         0.78200E+11
         0.78200E+11
         0.78200E+11
         0.78200E+11
         0.78200E+11
         0.78200E+11
         0.78200E+11
         0.78200E+11
         0.78200E+11
         0.78200E+11
         0.78200E+11
         0.78200E+11
         0.78200E+11
         0.78200E+11
         0.78200E+11
         0.78200E+11
         0.78200E+11
         0.78200E+11
         0.78200E+11
         0.78200E+11
         0.78200E+11
         0.78200E+11
         0.78200E+11
         0.78200E+11
         0.78200E+11
         0.78200E+11
         0.78200E+11
         0.78200E+11
         0.78200E+11
         0.78200E+11
         0.78200E+11
         0.78200E+11
         0.78200E+11
         0.78200E+11
         0.78200E+11
         0.78200E+11
         0.78200E+11
         0.78200E+11
         0.78200E+11
         0.78200E+11
         0.78200E+11
         0.78200E+11
         0.78200E+11
         0.78200E+11
         0.78200E+11
         0.78200E+11
         0.78200E+11
         0.78200E+11
         0.78200E+11
         0.78200E+11
         0.78200E+11
         0.78200E+11
         0.78200E+11
         0.78200E+11
         0.78200E+11
         0.78200E+11
         0.78200E+11
         0.78200E+11
         0.78200E+11
         0.78200E+11
         0.78200E+11
         0.78200E+11
         0.78200E+11
         0.78200E+11
         0.78200E+11
         0.78200E+11
         0.78200E+11
         0.78200E+11
         0.78200E+11
         0.78200E+11
         0.78200E+11
         0.78200E+11
         0.78200E+11
         0.78200E+11
         0.78200E+11
         0.78200E+11
         0.78200E+11
         0.78200E+11
         0.78200E+11
         0.78200E+11
         0.78200E+11
  
SCALARS                        density  double 1
LOOKUP_TABLE default
         0.27000E+04
         0.27000E+04
         0.27000E+04
         0.27000E+04
         0.27000E+04
         0.27000E+04
         0.27000E+04
         0.27000E+04
         0.27000E+04
         0.27000E+04
         0.27000E+04
         0.27000E+04
         0.27000E+04
         0.27000E+04
         0.27000E+04
         0.27000E+04
         0.27000E+04
         0.27000E+04
         0.27000E+04
         0.27000E+04
         0.27000E+04
         0.27000E+04
         0.27000E+04
         0.27000E+04
         0.27000E+04
         0.27000E+04
         0.27000E+04
         0.27000E+04
         0.27000E+04
         0.27000E+04
         0.27000E+04
         0.27000E+04
         0.27000E+04
         0.27000E+04
         0.27000E+04
         0.27000E+04
         0.27000E+04
         0.27000E+04
         0.27000E+04
         0.27000E+04
         0.27000E+04
         0.27000E+04
         0.27000E+04
         0.27000E+04
         0.27000E+04
         0.27000E+04
         0.27000E+04
         0.27000E+04
         0.27000E+04
         0.27000E+04
         0.27000E+04
         0.27000E+04
         0.27000E+04
         0.27000E+04
         0.27000E+04
         0.27000E+04
         0.27000E+04
         0.27000E+04
         0.27000E+04
         0.27000E+04
         0.27000E+04
         0.27000E+04
         0.27000E+04
         0.27000E+04
         0.27000E+04
         0.27000E+04
         0.27000E+04
         0.27000E+04
         0.27000E+04
         0.27000E+04
         0.27000E+04
         0.27000E+04
         0.27000E+04
         0.27000E+04
         0.27000E+04
         0.27000E+04
         0.27000E+04
         0.27000E+04
         0.27000E+04
         0.27000E+04
         0.27000E+04
         0.27000E+04
         0.27000E+04
         0.27000E+04
         0.27000E+04
         0.27000E+04
         0.27000E+04
         0.27000E+04
         0.27000E+04
         0.27000E+04
         0.27000E+04
         0.27000E+04
         0.27000E+04
         0.27000E+04
         0.27000E+04
         0.27000E+04
         0.27000E+04
         0.27000E+04
         0.27000E+04
         0.27000E+04
         0.27000E+04
         0.27000E+04
         0.27000E+04
         0.27000E+04
         0.27000E+04
         0.27000E+04
         0.27000E+04
         0.27000E+04
         0.27000E+04
         0.27000E+04
         0.27000E+04
         0.27000E+04
         0.27000E+04
         0.27000E+04
         0.27000E+04
         0.27000E+04
         0.27000E+04
         0.27000E+04
         0.27000E+04
         0.27000E+04
         0.27000E+04
         0.27000E+04
         0.27000E+04
         0.27000E+04
         0.27000E+04
         0.27000E+04
         0.27000E+04
         0.27000E+04
         0.27000E+04
         0.27000E+04
         0.27000E+04
         0.27000E+04
         0.27000E+04
         0.27000E+04
         0.27000E+04
         0.27000E+04
         0.27000E+04
         0.27000E+04
         0.27000E+04
         0.27000E+04
         0.27000E+04
         0.27000E+04
         0.27000E+04
         0.27000E+04
         0.27000E+04
         0.27000E+04
         0.27000E+04
         0.27000E+04
         0.27000E+04
         0.27000E+04
         0.27000E+04
         0.27000E+04
         0.27000E+04
         0.27000E+04
         0.27000E+04
         0.27000E+04
         0.27000E+04
         0.27000E+04
         0.27000E+04
         0.27000E+04
         0.27000E+04
         0.27000E+04
         0.27000E+04
         0.27000E+04
         0.27000E+04
         0.27000E+04
         0.27000E+04
         0.27000E+04
         0.27000E+04
         0.27000E+04
         0.27000E+04
         0.27000E+04
         0.27000E+04
         0.27000E+04
         0.27000E+04
         0.27000E+04
         0.27000E+04
         0.27000E+04
         0.27000E+04
         0.27000E+04
         0.27000E+04
         0.27000E+04
         0.27000E+04
         0.27000E+04
         0.27000E+04
         0.27000E+04
         0.27000E+04
         0.27000E+04
         0.27000E+04
         0.27000E+04
         0.27000E+04
         0.27000E+04
         0.27000E+04
         0.27000E+04
         0.27000E+04
         0.27000E+04
         0.27000E+04
         0.27000E+04
         0.27000E+04
         0.27000E+04
         0.27000E+04
         0.27000E+04
         0.27000E+04
         0.27000E+04
         0.27000E+04
         0.27000E+04
         0.27000E+04
         0.27000E+04
         0.27000E+04
         0.27000E+04
         0.27000E+04
         0.27000E+04
         0.27000E+04
         0.27000E+04
         0.27000E+04
         0.27000E+04
         0.27000E+04
         0.27000E+04
         0.27000E+04
         0.27000E+04
         0.27000E+04
         0.27000E+04
         0.27000E+04
         0.27000E+04
         0.27000E+04
         0.27000E+04
         0.27000E+04
         0.27000E+04
         0.27000E+04
         0.27000E+04
         0.27000E+04
         0.27000E+04
         0.27000E+04
         0.27000E+04
         0.27000E+04
         0.27000E+04
         0.27000E+04
         0.27000E+04
         0.27000E+04
         0.27000E+04
         0.27000E+04
         0.27000E+04
         0.27000E+04
         0.27000E+04
         0.27000E+04
         0.27000E+04
         0.27000E+04
         0.27000E+04
         0.27000E+04
         0.27000E+04
         0.27000E+04
         0.27000E+04
         0.27000E+04
         0.27000E+04
         0.27000E+04
         0.27000E+04
         0.27000E+04
         0.27000E+04
         0.27000E+04
         0.27000E+04
         0.27000E+04
         0.27000E+04
         0.27000E+04
         0.27000E+04
         0.27000E+04
         0.27000E+04
         0.27000E+04
         0.27000E+04
         0.27000E+04
         0.27000E+04
         0.27000E+04
         0.27000E+04
         0.27000E+04
         0.27000E+04
         0.27000E+04
         0.27000E+04
         0.27000E+04
         0.27000E+04
         0.27000E+04
         0.27000E+04
         0.27000E+04
         0.27000E+04
         0.27000E+04
         0.27000E+04
         0.27000E+04
         0.27000E+04
         0.27000E+04
         0.27000E+04
         0.27000E+04
         0.27000E+04
         0.27000E+04
         0.27000E+04
         0.27000E+04
         0.27000E+04
         0.27000E+04
         0.27000E+04
         0.27000E+04
         0.27000E+04
         0.27000E+04
         0.27000E+04
         0.27000E+04
         0.27000E+04
         0.27000E+04
         0.27000E+04
         0.27000E+04
         0.27000E+04
         0.27000E+04
         0.27000E+04
         0.27000E+04
         0.27000E+04
         0.27000E+04
         0.27000E+04
         0.27000E+04
         0.27000E+04
         0.27000E+04
         0.27000E+04
         0.27000E+04
         0.27000E+04
         0.27000E+04
         0.27000E+04
         0.27000E+04
         0.27000E+04
         0.27000E+04
         0.27000E+04
         0.27000E+04
         0.27000E+04
         0.27000E+04
         0.27000E+04
         0.27000E+04
         0.27000E+04
         0.27000E+04
         0.27000E+04
         0.27000E+04
         0.27000E+04
         0.27000E+04
         0.27000E+04
         0.27000E+04
         0.27000E+04
         0.27000E+04
         0.27000E+04
         0.27000E+04
         0.27000E+04
         0.27000E+04
         0.27000E+04
         0.27000E+04
         0.27000E+04
         0.27000E+04
         0.27000E+04
         0.27000E+04
         0.27000E+04
         0.27000E+04
         0.27000E+04
         0.27000E+04
         0.27000E+04
         0.27000E+04
         0.27000E+04
         0.27000E+04
         0.27000E+04
         0.27000E+04
         0.27000E+04
         0.27000E+04
         0.27000E+04
         0.27000E+04
         0.27000E+04
         0.27000E+04
         0.27000E+04
         0.27000E+04
         0.27000E+04
         0.27000E+04
         0.27000E+04
         0.27000E+04
         0.27000E+04
         0.27000E+04
         0.27000E+04
         0.27000E+04
         0.27000E+04
         0.27000E+04
         0.27000E+04
         0.27000E+04
         0.27000E+04
         0.27000E+04
         0.27000E+04
         0.27000E+04
         0.27000E+04
         0.27000E+04
         0.27000E+04
         0.27000E+04
         0.27000E+04
         0.27000E+04
         0.27000E+04
         0.27000E+04
         0.27000E+04
         0.27000E+04
         0.27000E+04
         0.27000E+04
         0.27000E+04
         0.27000E+04
         0.27000E+04
         0.27000E+04
         0.27000E+04
         0.27000E+04
         0.27000E+04
         0.27000E+04
         0.27000E+04
         0.27000E+04
         0.27000E+04
         0.27000E+04
         0.27000E+04
         0.27000E+04
         0.27000E+04
         0.27000E+04
         0.27000E+04
         0.27000E+04
         0.27000E+04
         0.27000E+04
         0.27000E+04
         0.27000E+04
         0.27000E+04
         0.27000E+04
         0.27000E+04
         0.27000E+04
         0.27000E+04
         0.27000E+04
         0.27000E+04
         0.27000E+04
         0.27000E+04
         0.27000E+04
         0.27000E+04
         0.27000E+04
         0.27000E+04
         0.27000E+04
         0.27000E+04
         0.27000E+04
         0.27000E+04
         0.27000E+04
         0.27000E+04
         0.27000E+04
         0.27000E+04
         0.27000E+04
         0.27000E+04
         0.27000E+04
         0.27000E+04
         0.27000E+04
         0.27000E+04
         0.27000E+04
         0.27000E+04
         0.27000E+04
         0.27000E+04
         0.27000E+04
         0.27000E+04
         0.27000E+04
         0.27000E+04
         0.27000E+04
         0.27000E+04
         0.27000E+04
         0.27000E+04
         0.27000E+04
         0.27000E+04
         0.27000E+04
         0.27000E+04
         0.27000E+04
         0.27000E+04
         0.27000E+04
         0.27000E+04
         0.27000E+04
         0.27000E+04
         0.27000E+04
         0.27000E+04
         0.27000E+04
         0.27000E+04
         0.27000E+04
         0.27000E+04
         0.27000E+04
         0.27000E+04
         0.27000E+04
         0.27000E+04
         0.27000E+04
         0.27000E+04
         0.27000E+04
         0.27000E+04
         0.27000E+04
         0.27000E+04
         0.27000E+04
         0.27000E+04
         0.27000E+04
         0.27000E+04
         0.27000E+04
         0.27000E+04
         0.27000E+04
         0.27000E+04
         0.27000E+04
         0.27000E+04
         0.27000E+04
         0.27000E+04
         0.27000E+04
         0.27000E+04
         0.27000E+04
         0.27000E+04
         0.27000E+04
         0.27000E+04
         0.27000E+04
         0.27000E+04
         0.27000E+04
         0.27000E+04
         0.27000E+04
         0.27000E+04
         0.27000E+04
         0.27000E+04
         0.27000E+04
         0.27000E+04
         0.27000E+04
         0.27000E+04
         0.27000E+04
         0.27000E+04
         0.27000E+04
         0.27000E+04
         0.27000E+04
         0.27000E+04
         0.27000E+04
         0.27000E+04
         0.27000E+04
         0.27000E+04
         0.27000E+04
         0.27000E+04
         0.27000E+04
         0.27000E+04
         0.27000E+04
         0.27000E+04
         0.27000E+04
         0.27000E+04
         0.27000E+04
         0.27000E+04
         0.27000E+04
         0.27000E+04
         0.27000E+04
         0.27000E+04
         0.27000E+04
         0.27000E+04
         0.27000E+04
         0.27000E+04
         0.27000E+04
         0.27000E+04
         0.27000E+04
         0.27000E+04
         0.27000E+04
         0.27000E+04
         0.27000E+04
         0.27000E+04
         0.27000E+04
         0.27000E+04
         0.27000E+04
         0.27000E+04
         0.27000E+04
         0.27000E+04
         0.27000E+04
         0.27000E+04
         0.27000E+04
         0.27000E+04
         0.27000E+04
         0.27000E+04
         0.27000E+04
         0.27000E+04
         0.27000E+04
         0.27000E+04
         0.27000E+04
         0.27000E+04
         0.27000E+04
         0.27000E+04
         0.27000E+04
         0.27000E+04
         0.27000E+04
         0.27000E+04
         0.27000E+04
         0.27000E+04
         0.27000E+04
         0.27000E+04
         0.27000E+04
         0.27000E+04
         0.27000E+04
         0.27000E+04
         0.27000E+04
         0.27000E+04
         0.27000E+04
         0.27000E+04
         0.27000E+04
         0.27000E+04
         0.27000E+04
         0.27000E+04
         0.27000E+04
         0.27000E+04
         0.27000E+04
         0.27000E+04
         0.27000E+04
         0.27000E+04
         0.27000E+04
         0.27000E+04
         0.27000E+04
         0.27000E+04
         0.27000E+04
         0.27000E+04
         0.27000E+04
         0.27000E+04
         0.27000E+04
         0.27000E+04
         0.27000E+04
         0.27000E+04
         0.27000E+04
         0.27000E+04
         0.27000E+04
         0.27000E+04
         0.27000E+04
         0.27000E+04
         0.27000E+04
         0.27000E+04
         0.27000E+04
         0.27000E+04
         0.27000E+04
         0.27000E+04
         0.27000E+04
         0.27000E+04
         0.27000E+04
         0.27000E+04
         0.27000E+04
         0.27000E+04
         0.27000E+04
         0.27000E+04
         0.27000E+04
         0.27000E+04
         0.27000E+04
         0.27000E+04
         0.27000E+04
         0.27000E+04
         0.27000E+04
         0.27000E+04
         0.27000E+04
         0.27000E+04
         0.27000E+04
         0.27000E+04
         0.27000E+04
         0.27000E+04
         0.27000E+04
         0.27000E+04
         0.27000E+04
         0.27000E+04
         0.27000E+04
         0.27000E+04
         0.27000E+04
         0.27000E+04
         0.27000E+04
         0.27000E+04
         0.27000E+04
         0.27000E+04
         0.27000E+04
         0.27000E+04
         0.27000E+04
         0.27000E+04
         0.27000E+04
         0.27000E+04
         0.27000E+04
         0.27000E+04
         0.27000E+04
         0.27000E+04
         0.27000E+04
         0.27000E+04
         0.27000E+04
         0.27000E+04
         0.27000E+04
         0.27000E+04
         0.27000E+04
         0.27000E+04
         0.27000E+04
         0.27000E+04
         0.27000E+04
         0.27000E+04
         0.27000E+04
         0.27000E+04
         0.27000E+04
         0.27000E+04
         0.27000E+04
         0.27000E+04
         0.27000E+04
         0.27000E+04
         0.27000E+04
         0.27000E+04
         0.27000E+04
         0.27000E+04
         0.27000E+04
         0.27000E+04
         0.27000E+04
         0.27000E+04
         0.27000E+04
         0.27000E+04
         0.27000E+04
         0.27000E+04
         0.27000E+04
         0.27000E+04
         0.27000E+04
         0.27000E+04
         0.27000E+04
         0.27000E+04
         0.27000E+04
         0.27000E+04
         0.27000E+04
         0.27000E+04
         0.27000E+04
         0.27000E+04
         0.27000E+04
         0.27000E+04
         0.27000E+04
         0.27000E+04
         0.27000E+04
         0.27000E+04
         0.27000E+04
         0.27000E+04
         0.27000E+04
         0.27000E+04
         0.27000E+04
         0.27000E+04
         0.27000E+04
         0.27000E+04
         0.27000E+04
         0.27000E+04
         0.27000E+04
         0.27000E+04
         0.27000E+04
         0.27000E+04
         0.27000E+04
         0.27000E+04
         0.27000E+04
         0.27000E+04
         0.27000E+04
         0.27000E+04
         0.27000E+04
         0.27000E+04
         0.27000E+04
         0.27000E+04
         0.27000E+04
         0.27000E+04
         0.27000E+04
         0.27000E+04
         0.27000E+04
         0.27000E+04
         0.27000E+04
         0.27000E+04
         0.27000E+04
         0.27000E+04
         0.27000E+04
         0.27000E+04
         0.27000E+04
         0.27000E+04
         0.27000E+04
         0.27000E+04
         0.27000E+04
         0.27000E+04
         0.27000E+04
         0.27000E+04
         0.27000E+04
         0.27000E+04
         0.27000E+04
         0.27000E+04
         0.27000E+04
         0.27000E+04
         0.27000E+04
         0.27000E+04
         0.27000E+04
         0.27000E+04
         0.27000E+04
         0.27000E+04
         0.27000E+04
         0.27000E+04
         0.27000E+04
         0.27000E+04
         0.27000E+04
         0.27000E+04
         0.27000E+04
         0.27000E+04
         0.27000E+04
         0.27000E+04
         0.27000E+04
         0.27000E+04
         0.27000E+04
         0.27000E+04
         0.27000E+04
         0.27000E+04
         0.27000E+04
         0.27000E+04
         0.27000E+04
         0.27000E+04
         0.27000E+04
         0.27000E+04
         0.27000E+04
         0.27000E+04
         0.27000E+04
         0.27000E+04
         0.27000E+04
         0.27000E+04
         0.27000E+04
         0.27000E+04
         0.27000E+04
         0.27000E+04
         0.27000E+04
         0.27000E+04
         0.27000E+04
         0.27000E+04
         0.27000E+04
         0.27000E+04
         0.27000E+04
         0.27000E+04
         0.27000E+04
         0.27000E+04
         0.27000E+04
         0.27000E+04
         0.27000E+04
         0.27000E+04
         0.27000E+04
         0.27000E+04
         0.27000E+04
         0.27000E+04
         0.27000E+04
         0.27000E+04
         0.27000E+04
         0.27000E+04
         0.27000E+04
         0.27000E+04
         0.27000E+04
         0.27000E+04
         0.27000E+04
         0.27000E+04
         0.27000E+04
         0.27000E+04
         0.27000E+04
         0.27000E+04
         0.27000E+04
         0.27000E+04
         0.27000E+04
         0.27000E+04
         0.27000E+04
         0.27000E+04
         0.27000E+04
         0.27000E+04
         0.27000E+04
         0.27000E+04
         0.27000E+04
         0.27000E+04
         0.27000E+04
         0.27000E+04
         0.27000E+04
         0.27000E+04
         0.27000E+04
         0.27000E+04
         0.27000E+04
         0.27000E+04
         0.27000E+04
         0.27000E+04
         0.27000E+04
         0.27000E+04
         0.27000E+04
         0.27000E+04
         0.27000E+04
         0.27000E+04
         0.27000E+04
         0.27000E+04
         0.27000E+04
         0.27000E+04
         0.27000E+04
         0.27000E+04
         0.27000E+04
         0.27000E+04
         0.27000E+04
         0.27000E+04
         0.27000E+04
         0.27000E+04
         0.27000E+04
         0.27000E+04
         0.27000E+04
         0.27000E+04
         0.27000E+04
         0.27000E+04
         0.27000E+04
         0.27000E+04
         0.27000E+04
         0.27000E+04
         0.27000E+04
         0.27000E+04
         0.27000E+04
         0.27000E+04
         0.27000E+04
         0.27000E+04
         0.27000E+04
         0.27000E+04
         0.27000E+04
         0.27000E+04
         0.27000E+04
         0.27000E+04
         0.27000E+04
         0.27000E+04
         0.27000E+04
         0.27000E+04
         0.27000E+04
         0.27000E+04
         0.27000E+04
         0.27000E+04
         0.27000E+04
         0.27000E+04
         0.27000E+04
         0.27000E+04
         0.27000E+04
         0.27000E+04
         0.27000E+04
         0.27000E+04
         0.27000E+04
         0.27000E+04
         0.27000E+04
         0.27000E+04
         0.27000E+04
         0.27000E+04
         0.27000E+04
         0.27000E+04
         0.27000E+04
         0.27000E+04
         0.27000E+04
         0.27000E+04
         0.27000E+04
         0.27000E+04
         0.27000E+04
         0.27000E+04
         0.27000E+04
         0.27000E+04
         0.27000E+04
         0.27000E+04
         0.27000E+04
         0.27000E+04
         0.27000E+04
         0.27000E+04
         0.27000E+04
         0.27000E+04
         0.27000E+04
         0.27000E+04
         0.27000E+04
         0.27000E+04
         0.27000E+04
         0.27000E+04
         0.27000E+04
         0.27000E+04
         0.27000E+04
         0.27000E+04
         0.27000E+04
         0.27000E+04
         0.27000E+04
         0.27000E+04
         0.27000E+04
         0.27000E+04
         0.27000E+04
         0.27000E+04
         0.27000E+04
         0.27000E+04
         0.27000E+04
         0.27000E+04
         0.27000E+04
         0.27000E+04
         0.27000E+04
         0.27000E+04
         0.27000E+04
         0.27000E+04
         0.27000E+04
         0.27000E+04
         0.27000E+04
         0.27000E+04
         0.27000E+04
         0.27000E+04
         0.27000E+04
         0.27000E+04
         0.27000E+04
         0.27000E+04
         0.27000E+04
         0.27000E+04
         0.27000E+04
         0.27000E+04
         0.27000E+04
         0.27000E+04
         0.27000E+04
         0.27000E+04
         0.27000E+04
         0.27000E+04
         0.27000E+04
         0.27000E+04
         0.27000E+04
         0.27000E+04
         0.27000E+04
         0.27000E+04
         0.27000E+04
         0.27000E+04
         0.27000E+04
         0.27000E+04
         0.27000E+04
         0.27000E+04
         0.27000E+04
         0.27000E+04
         0.27000E+04
         0.27000E+04
         0.27000E+04
         0.27000E+04
         0.27000E+04
         0.27000E+04
         0.27000E+04
         0.27000E+04
         0.27000E+04
         0.27000E+04
         0.27000E+04
         0.27000E+04
         0.27000E+04
         0.27000E+04
         0.27000E+04
         0.27000E+04
         0.27000E+04
         0.27000E+04
         0.27000E+04
         0.27000E+04
         0.27000E+04
         0.27000E+04
         0.27000E+04
         0.27000E+04
         0.27000E+04
         0.27000E+04
         0.27000E+04
         0.27000E+04
         0.27000E+04
         0.27000E+04
         0.27000E+04
         0.27000E+04
         0.27000E+04
         0.27000E+04
         0.27000E+04
         0.27000E+04
         0.27000E+04
         0.27000E+04
         0.27000E+04
         0.27000E+04
         0.27000E+04
         0.27000E+04
         0.27000E+04
         0.27000E+04
         0.27000E+04
         0.27000E+04
         0.27000E+04
         0.27000E+04
         0.27000E+04
         0.27000E+04
         0.27000E+04
         0.27000E+04
         0.27000E+04
         0.27000E+04
         0.27000E+04
         0.27000E+04
         0.27000E+04
         0.27000E+04
         0.27000E+04
         0.27000E+04
         0.27000E+04
         0.27000E+04
         0.27000E+04
         0.27000E+04
         0.27000E+04
         0.27000E+04
         0.27000E+04
         0.27000E+04
         0.27000E+04
         0.27000E+04
         0.27000E+04
         0.27000E+04
         0.27000E+04
         0.27000E+04
         0.27000E+04
         0.27000E+04
         0.27000E+04
         0.27000E+04
         0.27000E+04
         0.27000E+04
         0.27000E+04
         0.27000E+04
         0.27000E+04
         0.27000E+04
         0.27000E+04
         0.27000E+04
         0.27000E+04
         0.27000E+04
         0.27000E+04
         0.27000E+04
         0.27000E+04
         0.27000E+04
         0.27000E+04
         0.27000E+04
         0.27000E+04
         0.27000E+04
         0.27000E+04
         0.27000E+04
         0.27000E+04
         0.27000E+04
         0.27000E+04
         0.27000E+04
         0.27000E+04
         0.27000E+04
         0.27000E+04
         0.27000E+04
         0.27000E+04
         0.27000E+04
         0.27000E+04
         0.27000E+04
         0.27000E+04
         0.27000E+04
         0.27000E+04
         0.27000E+04
         0.27000E+04
         0.27000E+04
         0.27000E+04
         0.27000E+04
         0.27000E+04
         0.27000E+04
         0.27000E+04
         0.27000E+04
         0.27000E+04
         0.27000E+04
         0.27000E+04
         0.27000E+04
         0.27000E+04
         0.27000E+04
         0.27000E+04
         0.27000E+04
         0.27000E+04
         0.27000E+04
         0.27000E+04
         0.27000E+04
         0.27000E+04
         0.27000E+04
         0.27000E+04
         0.27000E+04
         0.27000E+04
         0.27000E+04
         0.27000E+04
         0.27000E+04
         0.27000E+04
         0.27000E+04
         0.27000E+04
         0.27000E+04
         0.27000E+04
         0.27000E+04
         0.27000E+04
         0.27000E+04
         0.27000E+04
         0.27000E+04
         0.27000E+04
         0.27000E+04
         0.27000E+04
         0.27000E+04
         0.27000E+04
         0.27000E+04
         0.27000E+04
         0.27000E+04
         0.27000E+04
         0.27000E+04
         0.27000E+04
         0.27000E+04
         0.27000E+04
         0.27000E+04
         0.27000E+04
         0.27000E+04
         0.27000E+04
         0.27000E+04
         0.27000E+04
         0.27000E+04
         0.27000E+04
         0.27000E+04
         0.27000E+04
         0.27000E+04
         0.27000E+04
         0.27000E+04
         0.27000E+04
         0.27000E+04
         0.27000E+04
         0.27000E+04
         0.27000E+04
         0.27000E+04
         0.27000E+04
         0.27000E+04
         0.27000E+04
         0.27000E+04
         0.27000E+04
         0.27000E+04
         0.27000E+04
         0.27000E+04
         0.27000E+04
         0.27000E+04
         0.27000E+04
         0.27000E+04
         0.27000E+04
         0.27000E+04
         0.27000E+04
         0.27000E+04
         0.27000E+04
         0.27000E+04
         0.27000E+04
         0.27000E+04
         0.27000E+04
         0.27000E+04
         0.27000E+04
         0.27000E+04
         0.27000E+04
         0.27000E+04
         0.27000E+04
         0.27000E+04
         0.27000E+04
         0.27000E+04
         0.27000E+04
         0.27000E+04
         0.27000E+04
         0.27000E+04
         0.27000E+04
         0.27000E+04
         0.27000E+04
         0.27000E+04
         0.27000E+04
         0.27000E+04
         0.27000E+04
         0.27000E+04
         0.27000E+04
         0.27000E+04
         0.27000E+04
         0.27000E+04
         0.27000E+04
         0.27000E+04
         0.27000E+04
         0.27000E+04
         0.27000E+04
         0.27000E+04
         0.27000E+04
         0.27000E+04
         0.27000E+04
         0.27000E+04
         0.27000E+04
         0.27000E+04
         0.27000E+04
         0.27000E+04
         0.27000E+04
         0.27000E+04
         0.27000E+04
         0.27000E+04
         0.27000E+04
         0.27000E+04
         0.27000E+04
         0.27000E+04
         0.27000E+04
         0.27000E+04
         0.27000E+04
         0.27000E+04
         0.27000E+04
         0.27000E+04
         0.27000E+04
         0.27000E+04
         0.27000E+04
         0.27000E+04
         0.27000E+04
         0.27000E+04
         0.27000E+04
         0.27000E+04
         0.27000E+04
         0.27000E+04
         0.27000E+04
         0.27000E+04
         0.27000E+04
         0.27000E+04
         0.27000E+04
         0.27000E+04
         0.27000E+04
         0.27000E+04
         0.27000E+04
         0.27000E+04
         0.27000E+04
         0.27000E+04
         0.27000E+04
         0.27000E+04
         0.27000E+04
         0.27000E+04
         0.27000E+04
         0.27000E+04
         0.27000E+04
         0.27000E+04
         0.27000E+04
         0.27000E+04
         0.27000E+04
         0.27000E+04
         0.27000E+04
         0.27000E+04
         0.27000E+04
         0.27000E+04
         0.27000E+04
         0.27000E+04
         0.27000E+04
         0.27000E+04
         0.27000E+04
         0.27000E+04
         0.27000E+04
         0.27000E+04
         0.27000E+04
         0.27000E+04
         0.27000E+04
         0.27000E+04
         0.27000E+04
         0.27000E+04
         0.27000E+04
         0.27000E+04
         0.27000E+04
         0.27000E+04
         0.27000E+04
         0.27000E+04
         0.27000E+04
         0.27000E+04
         0.27000E+04
         0.27000E+04
         0.27000E+04
         0.27000E+04
         0.27000E+04
         0.27000E+04
         0.27000E+04
         0.27000E+04
         0.27000E+04
         0.27000E+04
         0.27000E+04
         0.27000E+04
         0.27000E+04
         0.27000E+04
         0.27000E+04
         0.27000E+04
         0.27000E+04
         0.27000E+04
         0.27000E+04
         0.27000E+04
         0.27000E+04
         0.27000E+04
         0.27000E+04
         0.27000E+04
         0.27000E+04
         0.27000E+04
         0.27000E+04
         0.27000E+04
         0.27000E+04
         0.27000E+04
         0.27000E+04
         0.27000E+04
         0.27000E+04
         0.27000E+04
         0.27000E+04
         0.27000E+04
         0.27000E+04
         0.27000E+04
         0.27000E+04
         0.27000E+04
         0.27000E+04
         0.27000E+04
         0.27000E+04
         0.27000E+04
         0.27000E+04
         0.27000E+04
         0.27000E+04
         0.27000E+04
         0.27000E+04
         0.27000E+04
         0.27000E+04
         0.27000E+04
         0.27000E+04
         0.27000E+04
         0.27000E+04
         0.27000E+04
         0.27000E+04
         0.27000E+04
         0.27000E+04
         0.27000E+04
         0.27000E+04
         0.27000E+04
         0.27000E+04
         0.27000E+04
         0.27000E+04
         0.27000E+04
         0.27000E+04
         0.27000E+04
         0.27000E+04
         0.27000E+04
         0.27000E+04
         0.27000E+04
         0.27000E+04
         0.27000E+04
         0.27000E+04
         0.27000E+04
         0.27000E+04
         0.27000E+04
         0.27000E+04
         0.27000E+04
         0.27000E+04
         0.27000E+04
         0.27000E+04
         0.27000E+04
         0.27000E+04
         0.27000E+04
         0.27000E+04
         0.27000E+04
         0.27000E+04
         0.27000E+04
         0.27000E+04
         0.27000E+04
         0.27000E+04
         0.27000E+04
         0.27000E+04
         0.27000E+04
         0.27000E+04
         0.27000E+04
         0.27000E+04
         0.27000E+04
         0.27000E+04
         0.27000E+04
         0.27000E+04
         0.27000E+04
         0.27000E+04
         0.27000E+04
         0.27000E+04
         0.27000E+04
         0.27000E+04
         0.27000E+04
         0.27000E+04
         0.27000E+04
         0.27000E+04
         0.27000E+04
         0.27000E+04
         0.27000E+04
         0.27000E+04
         0.27000E+04
         0.27000E+04
         0.27000E+04
         0.27000E+04
         0.27000E+04
         0.27000E+04
         0.27000E+04
         0.27000E+04
         0.27000E+04
         0.27000E+04
         0.27000E+04
         0.27000E+04
         0.27000E+04
         0.27000E+04
         0.27000E+04
         0.27000E+04
         0.27000E+04
         0.27000E+04
         0.27000E+04
         0.27000E+04
         0.27000E+04
         0.27000E+04
         0.27000E+04
         0.27000E+04
         0.27000E+04
         0.27000E+04
         0.27000E+04
         0.27000E+04
         0.27000E+04
         0.27000E+04
         0.27000E+04
         0.27000E+04
         0.27000E+04
         0.27000E+04
         0.27000E+04
         0.27000E+04
         0.27000E+04
         0.27000E+04
         0.27000E+04
         0.27000E+04
         0.27000E+04
         0.27000E+04
         0.27000E+04
         0.27000E+04
         0.27000E+04
         0.27000E+04
         0.27000E+04
         0.27000E+04
         0.27000E+04
         0.27000E+04
         0.27000E+04
         0.27000E+04
         0.27000E+04
         0.27000E+04
         0.27000E+04
         0.27000E+04
         0.27000E+04
         0.27000E+04
         0.27000E+04
         0.27000E+04
         0.27000E+04
         0.27000E+04
         0.27000E+04
         0.27000E+04
         0.27000E+04
         0.27000E+04
         0.27000E+04
         0.27000E+04
         0.27000E+04
         0.27000E+04
         0.27000E+04
         0.27000E+04
         0.27000E+04
         0.27000E+04
         0.27000E+04
         0.27000E+04
         0.27000E+04
         0.27000E+04
         0.27000E+04
         0.27000E+04
         0.27000E+04
         0.27000E+04
         0.27000E+04
         0.27000E+04
         0.27000E+04
         0.27000E+04
         0.27000E+04
         0.27000E+04
         0.27000E+04
         0.27000E+04
         0.27000E+04
         0.27000E+04
         0.27000E+04
         0.27000E+04
         0.27000E+04
         0.27000E+04
         0.27000E+04
         0.27000E+04
         0.27000E+04
         0.27000E+04
         0.27000E+04
         0.27000E+04
         0.27000E+04
         0.27000E+04
         0.27000E+04
         0.27000E+04
         0.27000E+04
         0.27000E+04
         0.27000E+04
         0.27000E+04
         0.27000E+04
         0.27000E+04
         0.27000E+04
         0.27000E+04
         0.27000E+04
         0.27000E+04
         0.27000E+04
         0.27000E+04
         0.27000E+04
         0.27000E+04
         0.27000E+04
         0.27000E+04
         0.27000E+04
         0.27000E+04
         0.27000E+04
         0.27000E+04
         0.27000E+04
         0.27000E+04
         0.27000E+04
         0.27000E+04
         0.27000E+04
         0.27000E+04
         0.27000E+04
         0.27000E+04
         0.27000E+04
         0.27000E+04
         0.27000E+04
         0.27000E+04
         0.27000E+04
         0.27000E+04
         0.27000E+04
         0.27000E+04
         0.27000E+04
         0.27000E+04
         0.27000E+04
         0.27000E+04
         0.27000E+04
         0.27000E+04
         0.27000E+04
         0.27000E+04
         0.27000E+04
         0.27000E+04
         0.27000E+04
         0.27000E+04
         0.27000E+04
         0.27000E+04
         0.27000E+04
         0.27000E+04
         0.27000E+04
         0.27000E+04
         0.27000E+04
         0.27000E+04
         0.27000E+04
         0.27000E+04
         0.27000E+04
         0.27000E+04
         0.27000E+04
         0.27000E+04
         0.27000E+04
         0.27000E+04
         0.27000E+04
         0.27000E+04
         0.27000E+04
         0.27000E+04
         0.27000E+04
         0.27000E+04
         0.27000E+04
         0.27000E+04
         0.27000E+04
         0.27000E+04
         0.27000E+04
         0.27000E+04
         0.27000E+04
         0.27000E+04
         0.27000E+04
         0.27000E+04
         0.27000E+04
         0.27000E+04
         0.27000E+04
         0.27000E+04
         0.27000E+04
         0.27000E+04
         0.27000E+04
         0.27000E+04
         0.27000E+04
         0.27000E+04
         0.27000E+04
         0.27000E+04
         0.27000E+04
         0.27000E+04
         0.27000E+04
         0.27000E+04
         0.27000E+04
         0.27000E+04
         0.27000E+04
         0.27000E+04
         0.27000E+04
         0.27000E+04
         0.27000E+04
         0.27000E+04
         0.27000E+04
         0.27000E+04
         0.27000E+04
         0.27000E+04
         0.27000E+04
         0.27000E+04
         0.27000E+04
         0.27000E+04
         0.27000E+04
         0.27000E+04
         0.27000E+04
         0.27000E+04
         0.27000E+04
         0.27000E+04
         0.27000E+04
         0.27000E+04
         0.27000E+04
         0.27000E+04
         0.27000E+04
         0.27000E+04
         0.27000E+04
         0.27000E+04
         0.27000E+04
         0.27000E+04
         0.27000E+04
         0.27000E+04
         0.27000E+04
         0.27000E+04
         0.27000E+04
         0.27000E+04
         0.27000E+04
         0.27000E+04
         0.27000E+04
         0.27000E+04
         0.27000E+04
         0.27000E+04
         0.27000E+04
         0.27000E+04
         0.27000E+04
         0.27000E+04
         0.27000E+04
         0.27000E+04
         0.27000E+04
         0.27000E+04
         0.27000E+04
         0.27000E+04
         0.27000E+04
         0.27000E+04
         0.27000E+04
         0.27000E+04
         0.27000E+04
         0.27000E+04
         0.27000E+04
         0.27000E+04
         0.27000E+04
         0.27000E+04
         0.27000E+04
         0.27000E+04
         0.27000E+04
         0.27000E+04
         0.27000E+04
         0.27000E+04
         0.27000E+04
         0.27000E+04
         0.27000E+04
         0.27000E+04
         0.27000E+04
         0.27000E+04
         0.27000E+04
         0.27000E+04
         0.27000E+04
         0.27000E+04
         0.27000E+04
         0.27000E+04
         0.27000E+04
         0.27000E+04
         0.27000E+04
         0.27000E+04
         0.27000E+04
         0.27000E+04
         0.27000E+04
         0.27000E+04
         0.27000E+04
         0.27000E+04
         0.27000E+04
         0.27000E+04
         0.27000E+04
         0.27000E+04
         0.27000E+04
         0.27000E+04
         0.27000E+04
         0.27000E+04
         0.27000E+04
         0.27000E+04
         0.27000E+04
         0.27000E+04
         0.27000E+04
         0.27000E+04
         0.27000E+04
         0.27000E+04
         0.27000E+04
         0.27000E+04
         0.27000E+04
         0.27000E+04
         0.27000E+04
         0.27000E+04
         0.27000E+04
         0.27000E+04
         0.27000E+04
         0.27000E+04
         0.27000E+04
         0.27000E+04
         0.27000E+04
         0.27000E+04
         0.27000E+04
         0.27000E+04
         0.27000E+04
         0.27000E+04
         0.27000E+04
         0.27000E+04
         0.27000E+04
         0.27000E+04
         0.27000E+04
         0.27000E+04
         0.27000E+04
         0.27000E+04
         0.27000E+04
         0.27000E+04
         0.27000E+04
         0.27000E+04
         0.27000E+04
         0.27000E+04
         0.27000E+04
         0.27000E+04
         0.27000E+04
         0.27000E+04
         0.27000E+04
         0.27000E+04
         0.27000E+04
         0.27000E+04
         0.27000E+04
         0.27000E+04
         0.27000E+04
         0.27000E+04
         0.27000E+04
         0.27000E+04
         0.27000E+04
         0.27000E+04
         0.27000E+04
         0.27000E+04
         0.27000E+04
         0.27000E+04
         0.27000E+04
         0.27000E+04
         0.27000E+04
         0.27000E+04
         0.27000E+04
         0.27000E+04
         0.27000E+04
         0.27000E+04
         0.27000E+04
         0.27000E+04
         0.27000E+04
         0.27000E+04
         0.27000E+04
         0.27000E+04
         0.27000E+04
         0.27000E+04
         0.27000E+04
         0.27000E+04
         0.27000E+04
         0.27000E+04
         0.27000E+04
         0.27000E+04
         0.27000E+04
         0.27000E+04
         0.27000E+04
         0.27000E+04
         0.27000E+04
         0.27000E+04
         0.27000E+04
         0.27000E+04
         0.27000E+04
         0.27000E+04
         0.27000E+04
         0.27000E+04
         0.27000E+04
         0.27000E+04
         0.27000E+04
         0.27000E+04
         0.27000E+04
         0.27000E+04
         0.27000E+04
         0.27000E+04
         0.27000E+04
         0.27000E+04
         0.27000E+04
         0.27000E+04
         0.27000E+04
         0.27000E+04
         0.27000E+04
         0.27000E+04
         0.27000E+04
         0.27000E+04
         0.27000E+04
         0.27000E+04
         0.27000E+04
         0.27000E+04
         0.27000E+04
         0.27000E+04
         0.27000E+04
         0.27000E+04
         0.27000E+04
         0.27000E+04
         0.27000E+04
         0.27000E+04
         0.27000E+04
         0.27000E+04
         0.27000E+04
         0.27000E+04
         0.27000E+04
         0.27000E+04
         0.27000E+04
         0.27000E+04
         0.27000E+04
         0.27000E+04
         0.27000E+04
         0.27000E+04
         0.27000E+04
         0.27000E+04
         0.27000E+04
         0.27000E+04
         0.27000E+04
         0.27000E+04
         0.27000E+04
         0.27000E+04
         0.27000E+04
         0.27000E+04
         0.27000E+04
         0.27000E+04
         0.27000E+04
         0.27000E+04
         0.27000E+04
         0.27000E+04
         0.27000E+04
         0.27000E+04
         0.27000E+04
         0.27000E+04
         0.27000E+04
         0.27000E+04
         0.27000E+04
         0.27000E+04
         0.27000E+04
         0.27000E+04
         0.27000E+04
         0.27000E+04
         0.27000E+04
         0.27000E+04
         0.27000E+04
         0.27000E+04
         0.27000E+04
         0.27000E+04
         0.27000E+04
         0.27000E+04
         0.27000E+04
         0.27000E+04
         0.27000E+04
         0.27000E+04
         0.27000E+04
         0.27000E+04
         0.27000E+04
         0.27000E+04
         0.27000E+04
         0.27000E+04
         0.27000E+04
         0.27000E+04
         0.27000E+04
         0.27000E+04
         0.27000E+04
         0.27000E+04
         0.27000E+04
         0.27000E+04
         0.27000E+04
         0.27000E+04
         0.27000E+04
         0.27000E+04
         0.27000E+04
         0.27000E+04
         0.27000E+04
         0.27000E+04
         0.27000E+04
         0.27000E+04
         0.27000E+04
         0.27000E+04
         0.27000E+04
         0.27000E+04
         0.27000E+04
         0.27000E+04
         0.27000E+04
         0.27000E+04
         0.27000E+04
         0.27000E+04
         0.27000E+04
         0.27000E+04
         0.27000E+04
         0.27000E+04
         0.27000E+04
