# vtk DataFile Version 2.0
               (MEGA VTK FILE)
ASCII
DATASET UNSTRUCTURED_GRID
POINTS       1950    double
  0.10378E-02  0.67292E-03 -0.19866E-01
  0.17452E-02  0.12308E-02 -0.19851E-01
  0.23177E-02  0.59151E-03 -0.19849E-01
  0.16698E-02 -0.33775E-03 -0.19876E-01
  0.10379E-02  0.67237E-03 -0.11750E-01
  0.17453E-02  0.12301E-02 -0.11750E-01
  0.23178E-02  0.59098E-03 -0.11750E-01
  0.16700E-02 -0.33851E-03 -0.11750E-01
  0.30377E-02  0.14882E-03 -0.19822E-01
  0.27791E-02 -0.67643E-03 -0.19854E-01
  0.30377E-02  0.14846E-03 -0.11750E-01
  0.27788E-02 -0.67692E-03 -0.11750E-01
  0.12850E-02  0.18412E-02 -0.19835E-01
  0.65139E-03  0.14576E-02 -0.19856E-01
  0.12851E-02  0.18410E-02 -0.11750E-01
  0.65164E-03  0.14566E-02 -0.11750E-01
  0.12757E-03  0.29933E-03 -0.19867E-01
 -0.12822E-03  0.11672E-02 -0.19871E-01
  0.12783E-03  0.29819E-03 -0.11750E-01
 -0.12804E-03  0.11655E-02 -0.11750E-01
  0.94500E-03  0.22748E-02 -0.19824E-01
  0.11327E-02  0.28286E-02 -0.19812E-01
  0.17490E-02  0.24238E-02 -0.19818E-01
  0.94533E-03  0.22746E-02 -0.11750E-01
  0.11330E-02  0.28291E-02 -0.11750E-01
  0.17494E-02  0.24236E-02 -0.11750E-01
  0.40588E-03  0.21685E-02 -0.19850E-01
  0.39779E-03  0.29366E-02 -0.19842E-01
  0.40594E-03  0.21684E-02 -0.11750E-01
  0.39781E-03  0.29369E-02 -0.11750E-01
 -0.76303E-03 -0.10033E-02 -0.19878E-01
 -0.86604E-03  0.78969E-04 -0.19885E-01
  0.46119E-03 -0.70318E-03 -0.19873E-01
 -0.76268E-03 -0.10032E-02 -0.11750E-01
 -0.86593E-03  0.78160E-04 -0.11750E-01
  0.46164E-03 -0.70391E-03 -0.11750E-01
 -0.18300E-02 -0.71196E-03 -0.19849E-01
 -0.18440E-02  0.82749E-04 -0.19879E-01
 -0.18297E-02 -0.71210E-03 -0.11750E-01
 -0.18441E-02  0.82626E-04 -0.11750E-01
 -0.27238E-02 -0.77865E-03 -0.19841E-01
 -0.28028E-02  0.40713E-04 -0.19866E-01
 -0.27238E-02 -0.77882E-03 -0.11750E-01
 -0.28031E-02  0.40439E-04 -0.11750E-01
 -0.25365E-02 -0.15195E-02 -0.19818E-01
 -0.19287E-02 -0.13230E-02 -0.19830E-01
 -0.25363E-02 -0.15195E-02 -0.11750E-01
 -0.19283E-02 -0.13231E-02 -0.11750E-01
 -0.99363E-03  0.98847E-03 -0.19887E-01
 -0.99377E-03  0.98712E-03 -0.11750E-01
 -0.14380E-02 -0.17325E-02 -0.19846E-01
 -0.14377E-02 -0.17325E-02 -0.11750E-01
 -0.31574E-03  0.20220E-02 -0.19877E-01
 -0.31594E-03  0.20217E-02 -0.11750E-01
 -0.11068E-02  0.18615E-02 -0.19886E-01
 -0.11071E-02  0.18616E-02 -0.11750E-01
 -0.18845E-02  0.17175E-02 -0.19861E-01
 -0.18713E-02  0.90940E-03 -0.19880E-01
 -0.18846E-02  0.17175E-02 -0.11750E-01
 -0.18714E-02  0.90916E-03 -0.11750E-01
 -0.15871E-03 -0.19800E-02 -0.19872E-01
 -0.94089E-03 -0.23489E-02 -0.19846E-01
 -0.15844E-03 -0.19800E-02 -0.11750E-01
 -0.94029E-03 -0.23489E-02 -0.11750E-01
  0.78856E-03 -0.17074E-02 -0.19870E-01
  0.78922E-03 -0.17074E-02 -0.11750E-01
  0.17211E-02 -0.14894E-02 -0.19859E-01
  0.17211E-02 -0.14892E-02 -0.11750E-01
  0.32050E-02  0.76036E-03 -0.19781E-01
  0.28046E-02  0.12477E-02 -0.19813E-01
  0.32047E-02  0.75936E-03 -0.11750E-01
  0.28047E-02  0.12473E-02 -0.11750E-01
  0.23059E-02  0.18665E-02 -0.19825E-01
  0.23060E-02  0.18664E-02 -0.11750E-01
 -0.40614E-03  0.29038E-02 -0.19858E-01
 -0.40627E-03  0.29049E-02 -0.11750E-01
 -0.12092E-02  0.27207E-02 -0.19855E-01
 -0.12092E-02  0.27212E-02 -0.11750E-01
 -0.19448E-02  0.24642E-02 -0.19826E-01
 -0.19448E-02  0.24645E-02 -0.11750E-01
 -0.25029E-02  0.22359E-02 -0.19792E-01
 -0.26371E-02  0.16503E-02 -0.19834E-01
 -0.25029E-02  0.22359E-02 -0.11750E-01
 -0.26372E-02  0.16503E-02 -0.11750E-01
 -0.27671E-02  0.87493E-03 -0.19869E-01
 -0.27674E-02  0.87466E-03 -0.11750E-01
 -0.21123E-02 -0.21373E-02 -0.19821E-01
 -0.21122E-02 -0.21373E-02 -0.11750E-01
 -0.16087E-02 -0.26931E-02 -0.19809E-01
 -0.16087E-02 -0.26931E-02 -0.11750E-01
 -0.11939E-02 -0.31291E-02 -0.19778E-01
 -0.58641E-03 -0.30382E-02 -0.19820E-01
 -0.11937E-02 -0.31291E-02 -0.11750E-01
 -0.58606E-03 -0.30382E-02 -0.11750E-01
  0.20912E-03 -0.28748E-02 -0.19848E-01
  0.20952E-03 -0.28748E-02 -0.11750E-01
  0.10586E-02 -0.26423E-02 -0.19844E-01
  0.10589E-02 -0.26420E-02 -0.11750E-01
  0.18413E-02 -0.23707E-02 -0.19821E-01
  0.18413E-02 -0.23705E-02 -0.11750E-01
  0.24544E-02 -0.21445E-02 -0.19789E-01
  0.26022E-02 -0.15105E-02 -0.19827E-01
  0.24543E-02 -0.21439E-02 -0.11750E-01
  0.26021E-02 -0.15106E-02 -0.11750E-01
  0.37964E-02  0.93572E-03 -0.19695E-01
  0.39100E-02  0.00000E+00 -0.19710E-01
  0.37964E-02  0.93572E-03 -0.11750E-01
  0.39100E-02  0.00000E+00 -0.11750E-01
  0.34621E-02  0.18171E-02 -0.19708E-01
  0.34621E-02  0.18171E-02 -0.11750E-01
  0.29267E-02  0.25928E-02 -0.19697E-01
  0.29267E-02  0.25928E-02 -0.11750E-01
  0.22211E-02  0.32179E-02 -0.19698E-01
  0.22211E-02  0.32179E-02 -0.11750E-01
  0.13865E-02  0.36559E-02 -0.19697E-01
  0.13865E-02  0.36559E-02 -0.11750E-01
  0.47130E-03  0.38815E-02 -0.19705E-01
  0.47130E-03  0.38815E-02 -0.11750E-01
 -0.47130E-03  0.38815E-02 -0.19709E-01
 -0.47130E-03  0.38815E-02 -0.11750E-01
 -0.13865E-02  0.36559E-02 -0.19707E-01
 -0.13865E-02  0.36559E-02 -0.11750E-01
 -0.22211E-02  0.32179E-02 -0.19705E-01
 -0.22211E-02  0.32179E-02 -0.11750E-01
 -0.29267E-02  0.25928E-02 -0.19692E-01
 -0.29267E-02  0.25928E-02 -0.11750E-01
 -0.34621E-02  0.18171E-02 -0.19709E-01
 -0.34621E-02  0.18171E-02 -0.11750E-01
 -0.37964E-02  0.93572E-03 -0.19715E-01
 -0.37964E-02  0.93572E-03 -0.11750E-01
 -0.39100E-02  0.22152E-17 -0.19713E-01
 -0.39100E-02 -0.47884E-18 -0.11750E-01
 -0.37964E-02 -0.93572E-03 -0.19706E-01
 -0.37964E-02 -0.93572E-03 -0.11750E-01
 -0.34621E-02 -0.18171E-02 -0.19700E-01
 -0.34621E-02 -0.18171E-02 -0.11750E-01
 -0.29267E-02 -0.25928E-02 -0.19696E-01
 -0.29267E-02 -0.25928E-02 -0.11750E-01
 -0.22211E-02 -0.32179E-02 -0.19707E-01
 -0.22211E-02 -0.32179E-02 -0.11750E-01
 -0.13865E-02 -0.36559E-02 -0.19696E-01
 -0.13865E-02 -0.36559E-02 -0.11750E-01
 -0.47130E-03 -0.38815E-02 -0.19712E-01
 -0.47130E-03 -0.38815E-02 -0.11750E-01
  0.47130E-03 -0.38815E-02 -0.19707E-01
  0.47130E-03 -0.38815E-02 -0.11750E-01
  0.13865E-02 -0.36559E-02 -0.19702E-01
  0.13865E-02 -0.36559E-02 -0.11750E-01
  0.22211E-02 -0.32179E-02 -0.19710E-01
  0.22211E-02 -0.32179E-02 -0.11750E-01
  0.29267E-02 -0.25928E-02 -0.19698E-01
  0.29267E-02 -0.25928E-02 -0.11750E-01
  0.34621E-02 -0.18171E-02 -0.19710E-01
  0.34621E-02 -0.18171E-02 -0.11750E-01
  0.37964E-02 -0.93572E-03 -0.19710E-01
  0.37964E-02 -0.93572E-03 -0.11750E-01
  0.10376E-02  0.67348E-03 -0.22611E-01
  0.17450E-02  0.12314E-02 -0.22608E-01
  0.23175E-02  0.59203E-03 -0.22608E-01
  0.16696E-02 -0.33700E-03 -0.22612E-01
  0.30377E-02  0.14918E-03 -0.22604E-01
  0.27795E-02 -0.67594E-03 -0.22608E-01
  0.12849E-02  0.18414E-02 -0.22605E-01
  0.65115E-03  0.14586E-02 -0.22609E-01
  0.12731E-03  0.30048E-03 -0.22611E-01
 -0.12841E-03  0.11690E-02 -0.22612E-01
  0.94467E-03  0.22749E-02 -0.22604E-01
  0.11323E-02  0.28282E-02 -0.22603E-01
  0.17487E-02  0.24239E-02 -0.22603E-01
  0.40583E-03  0.21685E-02 -0.22608E-01
  0.39777E-03  0.29364E-02 -0.22607E-01
 -0.76338E-03 -0.10035E-02 -0.22612E-01
 -0.86615E-03  0.79778E-04 -0.22614E-01
  0.46074E-03 -0.70245E-03 -0.22612E-01
 -0.18303E-02 -0.71182E-03 -0.22608E-01
 -0.18439E-02  0.82873E-04 -0.22613E-01
 -0.27238E-02 -0.77848E-03 -0.22607E-01
 -0.28025E-02  0.40986E-04 -0.22611E-01
 -0.25366E-02 -0.15194E-02 -0.22603E-01
 -0.19292E-02 -0.13228E-02 -0.22605E-01
 -0.99349E-03  0.98983E-03 -0.22614E-01
 -0.14384E-02 -0.17324E-02 -0.22607E-01
 -0.31554E-03  0.20223E-02 -0.22612E-01
 -0.11064E-02  0.18614E-02 -0.22613E-01
 -0.18845E-02  0.17175E-02 -0.22609E-01
 -0.18712E-02  0.90964E-03 -0.22613E-01
 -0.15899E-03 -0.19800E-02 -0.22611E-01
 -0.94149E-03 -0.23489E-02 -0.22607E-01
  0.78790E-03 -0.17074E-02 -0.22611E-01
  0.17210E-02 -0.14896E-02 -0.22609E-01
  0.32053E-02  0.76137E-03 -0.22598E-01
  0.28046E-02  0.12481E-02 -0.22602E-01
  0.23058E-02  0.18665E-02 -0.22604E-01
 -0.40600E-03  0.29027E-02 -0.22610E-01
 -0.12092E-02  0.27202E-02 -0.22609E-01
 -0.19447E-02  0.24640E-02 -0.22604E-01
 -0.25028E-02  0.22359E-02 -0.22599E-01
 -0.26370E-02  0.16503E-02 -0.22605E-01
 -0.27668E-02  0.87519E-03 -0.22611E-01
 -0.21125E-02 -0.21373E-02 -0.22603E-01
 -0.16088E-02 -0.26932E-02 -0.22601E-01
 -0.11940E-02 -0.31291E-02 -0.22598E-01
 -0.58676E-03 -0.30382E-02 -0.22603E-01
  0.20871E-03 -0.28748E-02 -0.22608E-01
  0.10583E-02 -0.26426E-02 -0.22607E-01
  0.18413E-02 -0.23709E-02 -0.22603E-01
  0.24545E-02 -0.21450E-02 -0.22599E-01
  0.26022E-02 -0.15104E-02 -0.22604E-01
  0.37964E-02  0.93572E-03 -0.22589E-01
  0.39100E-02  0.00000E+00 -0.22591E-01
  0.34621E-02  0.18171E-02 -0.22591E-01
  0.29267E-02  0.25928E-02 -0.22590E-01
  0.22211E-02  0.32179E-02 -0.22590E-01
  0.13865E-02  0.36559E-02 -0.22590E-01
  0.47130E-03  0.38815E-02 -0.22591E-01
 -0.47130E-03  0.38815E-02 -0.22592E-01
 -0.13865E-02  0.36559E-02 -0.22591E-01
 -0.22211E-02  0.32179E-02 -0.22590E-01
 -0.29267E-02  0.25928E-02 -0.22588E-01
 -0.34621E-02  0.18171E-02 -0.22591E-01
 -0.37964E-02  0.93572E-03 -0.22592E-01
 -0.39100E-02 -0.47884E-18 -0.22592E-01
 -0.37964E-02 -0.93572E-03 -0.22591E-01
 -0.34621E-02 -0.18171E-02 -0.22590E-01
 -0.29267E-02 -0.25928E-02 -0.22590E-01
 -0.22211E-02 -0.32179E-02 -0.22591E-01
 -0.13865E-02 -0.36559E-02 -0.22589E-01
 -0.47130E-03 -0.38815E-02 -0.22592E-01
  0.47130E-03 -0.38815E-02 -0.22592E-01
  0.13865E-02 -0.36559E-02 -0.22591E-01
  0.22211E-02 -0.32179E-02 -0.22591E-01
  0.29267E-02 -0.25928E-02 -0.22589E-01
  0.34621E-02 -0.18171E-02 -0.22591E-01
  0.37964E-02 -0.93572E-03 -0.22592E-01
  0.10375E-02  0.67403E-03 -0.21937E-01
  0.17448E-02  0.12321E-02 -0.21937E-01
  0.23174E-02  0.59255E-03 -0.21937E-01
  0.16694E-02 -0.33624E-03 -0.21937E-01
  0.30377E-02  0.14955E-03 -0.21937E-01
  0.27798E-02 -0.67544E-03 -0.21937E-01
  0.12848E-02  0.18415E-02 -0.21937E-01
  0.65090E-03  0.14596E-02 -0.21937E-01
  0.12705E-03  0.30163E-03 -0.21937E-01
 -0.12859E-03  0.11707E-02 -0.21937E-01
  0.94434E-03  0.22750E-02 -0.21937E-01
  0.11320E-02  0.28277E-02 -0.21937E-01
  0.17483E-02  0.24241E-02 -0.21937E-01
  0.40577E-03  0.21685E-02 -0.21937E-01
  0.39776E-03  0.29361E-02 -0.21937E-01
 -0.76374E-03 -0.10036E-02 -0.21937E-01
 -0.86626E-03  0.80588E-04 -0.21937E-01
  0.46029E-03 -0.70173E-03 -0.21937E-01
 -0.18306E-02 -0.71168E-03 -0.21937E-01
 -0.18438E-02  0.82996E-04 -0.21937E-01
 -0.27238E-02 -0.77831E-03 -0.21937E-01
 -0.28022E-02  0.41259E-04 -0.21937E-01
 -0.25368E-02 -0.15194E-02 -0.21937E-01
 -0.19296E-02 -0.13227E-02 -0.21937E-01
 -0.99334E-03  0.99119E-03 -0.21937E-01
 -0.14387E-02 -0.17324E-02 -0.21937E-01
 -0.31534E-03  0.20226E-02 -0.21937E-01
 -0.11061E-02  0.18613E-02 -0.21937E-01
 -0.18844E-02  0.17175E-02 -0.21937E-01
 -0.18710E-02  0.90988E-03 -0.21937E-01
 -0.15926E-03 -0.19801E-02 -0.21937E-01
 -0.94209E-03 -0.23490E-02 -0.21937E-01
  0.78724E-03 -0.17074E-02 -0.21937E-01
  0.17210E-02 -0.14899E-02 -0.21937E-01
  0.32056E-02  0.76237E-03 -0.21937E-01
  0.28046E-02  0.12485E-02 -0.21937E-01
  0.23057E-02  0.18666E-02 -0.21937E-01
 -0.40586E-03  0.29017E-02 -0.21937E-01
 -0.12092E-02  0.27198E-02 -0.21937E-01
 -0.19447E-02  0.24638E-02 -0.21937E-01
 -0.25028E-02  0.22359E-02 -0.21937E-01
 -0.26369E-02  0.16503E-02 -0.21937E-01
 -0.27665E-02  0.87545E-03 -0.21937E-01
 -0.21126E-02 -0.21374E-02 -0.21937E-01
 -0.16088E-02 -0.26932E-02 -0.21937E-01
 -0.11941E-02 -0.31291E-02 -0.21937E-01
 -0.58711E-03 -0.30382E-02 -0.21937E-01
  0.20830E-03 -0.28748E-02 -0.21937E-01
  0.10580E-02 -0.26428E-02 -0.21937E-01
  0.18414E-02 -0.23711E-02 -0.21937E-01
  0.24546E-02 -0.21456E-02 -0.21937E-01
  0.26023E-02 -0.15103E-02 -0.21937E-01
  0.37964E-02  0.93572E-03 -0.21937E-01
  0.39100E-02  0.00000E+00 -0.21937E-01
  0.34621E-02  0.18171E-02 -0.21937E-01
  0.29267E-02  0.25928E-02 -0.21937E-01
  0.22211E-02  0.32179E-02 -0.21937E-01
  0.13865E-02  0.36559E-02 -0.21937E-01
  0.47130E-03  0.38815E-02 -0.21937E-01
 -0.47130E-03  0.38815E-02 -0.21937E-01
 -0.13865E-02  0.36559E-02 -0.21937E-01
 -0.22211E-02  0.32179E-02 -0.21937E-01
 -0.29267E-02  0.25928E-02 -0.21937E-01
 -0.34621E-02  0.18171E-02 -0.21937E-01
 -0.37964E-02  0.93572E-03 -0.21937E-01
 -0.39100E-02  0.39516E-17 -0.21937E-01
 -0.37964E-02 -0.93572E-03 -0.21937E-01
 -0.34621E-02 -0.18171E-02 -0.21937E-01
 -0.29267E-02 -0.25928E-02 -0.21937E-01
 -0.22211E-02 -0.32179E-02 -0.21937E-01
 -0.13865E-02 -0.36559E-02 -0.21937E-01
 -0.47130E-03 -0.38815E-02 -0.21937E-01
  0.47130E-03 -0.38815E-02 -0.21937E-01
  0.13865E-02 -0.36559E-02 -0.21937E-01
  0.22211E-02 -0.32179E-02 -0.21937E-01
  0.29267E-02 -0.25928E-02 -0.21937E-01
  0.34621E-02 -0.18171E-02 -0.21937E-01
  0.37964E-02 -0.93572E-03 -0.21937E-01
  0.10374E-02  0.67459E-03 -0.20957E-01
  0.17446E-02  0.12328E-02 -0.20957E-01
  0.23173E-02  0.59308E-03 -0.20957E-01
  0.16692E-02 -0.33549E-03 -0.20957E-01
  0.30376E-02  0.14991E-03 -0.20957E-01
  0.27801E-02 -0.67495E-03 -0.20957E-01
  0.12847E-02  0.18417E-02 -0.20957E-01
  0.65065E-03  0.14606E-02 -0.20957E-01
  0.12678E-03  0.30278E-03 -0.20957E-01
 -0.12878E-03  0.11725E-02 -0.20957E-01
  0.94401E-03  0.22752E-02 -0.20957E-01
  0.11316E-02  0.28273E-02 -0.20957E-01
  0.17479E-02  0.24242E-02 -0.20957E-01
  0.40572E-03  0.21686E-02 -0.20957E-01
  0.39774E-03  0.29359E-02 -0.20957E-01
 -0.76409E-03 -0.10038E-02 -0.20957E-01
 -0.86637E-03  0.81397E-04 -0.20957E-01
  0.45985E-03 -0.70100E-03 -0.20957E-01
 -0.18309E-02 -0.71154E-03 -0.20957E-01
 -0.18437E-02  0.83120E-04 -0.20957E-01
 -0.27237E-02 -0.77814E-03 -0.20957E-01
 -0.28020E-02  0.41533E-04 -0.20957E-01
 -0.25369E-02 -0.15193E-02 -0.20957E-01
 -0.19300E-02 -0.13227E-02 -0.20957E-01
 -0.99320E-03  0.99254E-03 -0.20957E-01
 -0.14391E-02 -0.17324E-02 -0.20957E-01
 -0.31514E-03  0.20228E-02 -0.20957E-01
 -0.11057E-02  0.18611E-02 -0.20957E-01
 -0.18844E-02  0.17175E-02 -0.20957E-01
 -0.18709E-02  0.91012E-03 -0.20957E-01
 -0.15954E-03 -0.19801E-02 -0.20957E-01
 -0.94269E-03 -0.23490E-02 -0.20957E-01
  0.78658E-03 -0.17074E-02 -0.20957E-01
  0.17209E-02 -0.14901E-02 -0.20957E-01
  0.32060E-02  0.76338E-03 -0.20957E-01
  0.28046E-02  0.12490E-02 -0.20957E-01
  0.23056E-02  0.18666E-02 -0.20957E-01
 -0.40572E-03  0.29006E-02 -0.20957E-01
 -0.12092E-02  0.27193E-02 -0.20957E-01
 -0.19446E-02  0.24636E-02 -0.20957E-01
 -0.25028E-02  0.22359E-02 -0.20957E-01
 -0.26368E-02  0.16503E-02 -0.20957E-01
 -0.27662E-02  0.87571E-03 -0.20957E-01
 -0.21128E-02 -0.21374E-02 -0.20957E-01
 -0.16088E-02 -0.26932E-02 -0.20957E-01
 -0.11942E-02 -0.31291E-02 -0.20957E-01
 -0.58746E-03 -0.30382E-02 -0.20957E-01
  0.20790E-03 -0.28748E-02 -0.20957E-01
  0.10577E-02 -0.26431E-02 -0.20957E-01
  0.18414E-02 -0.23713E-02 -0.20957E-01
  0.24548E-02 -0.21461E-02 -0.20957E-01
  0.26024E-02 -0.15102E-02 -0.20957E-01
  0.37964E-02  0.93572E-03 -0.20957E-01
  0.39100E-02  0.00000E+00 -0.20957E-01
  0.34621E-02  0.18171E-02 -0.20957E-01
  0.29267E-02  0.25928E-02 -0.20957E-01
  0.22211E-02  0.32179E-02 -0.20957E-01
  0.13865E-02  0.36559E-02 -0.20957E-01
  0.47130E-03  0.38815E-02 -0.20957E-01
 -0.47130E-03  0.38815E-02 -0.20957E-01
 -0.13865E-02  0.36559E-02 -0.20957E-01
 -0.22211E-02  0.32179E-02 -0.20957E-01
 -0.29267E-02  0.25928E-02 -0.20957E-01
 -0.34621E-02  0.18171E-02 -0.20957E-01
 -0.37964E-02  0.93572E-03 -0.20957E-01
 -0.39100E-02 -0.47884E-18 -0.20957E-01
 -0.37964E-02 -0.93572E-03 -0.20957E-01
 -0.34621E-02 -0.18171E-02 -0.20957E-01
 -0.29267E-02 -0.25928E-02 -0.20957E-01
 -0.22211E-02 -0.32179E-02 -0.20957E-01
 -0.13865E-02 -0.36559E-02 -0.20957E-01
 -0.47130E-03 -0.38815E-02 -0.20957E-01
  0.47130E-03 -0.38815E-02 -0.20957E-01
  0.13865E-02 -0.36559E-02 -0.20957E-01
  0.22211E-02 -0.32179E-02 -0.20957E-01
  0.29267E-02 -0.25928E-02 -0.20957E-01
  0.34621E-02 -0.18171E-02 -0.20957E-01
  0.37964E-02 -0.93572E-03 -0.20957E-01
  0.10373E-02  0.67514E-03 -0.19978E-01
  0.17445E-02  0.12334E-02 -0.19978E-01
  0.23172E-02  0.59360E-03 -0.19978E-01
  0.16689E-02 -0.33474E-03 -0.19978E-01
  0.30376E-02  0.15027E-03 -0.19978E-01
  0.27805E-02 -0.67446E-03 -0.19978E-01
  0.12846E-02  0.18419E-02 -0.19978E-01
  0.65041E-03  0.14616E-02 -0.19978E-01
  0.12652E-03  0.30393E-03 -0.19978E-01
 -0.12896E-03  0.11742E-02 -0.19978E-01
  0.94367E-03  0.22753E-02 -0.19978E-01
  0.11313E-02  0.28269E-02 -0.19978E-01
  0.17475E-02  0.24244E-02 -0.19978E-01
  0.40566E-03  0.21686E-02 -0.19978E-01
  0.39772E-03  0.29356E-02 -0.19978E-01
 -0.76444E-03 -0.10039E-02 -0.19978E-01
 -0.86648E-03  0.82206E-04 -0.19978E-01
  0.45940E-03 -0.70028E-03 -0.19978E-01
 -0.18312E-02 -0.71140E-03 -0.19978E-01
 -0.18436E-02  0.83243E-04 -0.19978E-01
 -0.27237E-02 -0.77797E-03 -0.19978E-01
 -0.28017E-02  0.41806E-04 -0.19978E-01
 -0.25371E-02 -0.15193E-02 -0.19978E-01
 -0.19305E-02 -0.13226E-02 -0.19978E-01
 -0.99305E-03  0.99390E-03 -0.19978E-01
 -0.14394E-02 -0.17323E-02 -0.19978E-01
 -0.31494E-03  0.20231E-02 -0.19978E-01
 -0.11054E-02  0.18610E-02 -0.19978E-01
 -0.18843E-02  0.17175E-02 -0.19978E-01
 -0.18708E-02  0.91036E-03 -0.19978E-01
 -0.15981E-03 -0.19801E-02 -0.19978E-01
 -0.94328E-03 -0.23490E-02 -0.19978E-01
  0.78592E-03 -0.17074E-02 -0.19978E-01
  0.17209E-02 -0.14904E-02 -0.19978E-01
  0.32063E-02  0.76439E-03 -0.19978E-01
  0.28045E-02  0.12494E-02 -0.19978E-01
  0.23055E-02  0.18666E-02 -0.19978E-01
 -0.40558E-03  0.28995E-02 -0.19978E-01
 -0.12092E-02  0.27188E-02 -0.19978E-01
 -0.19446E-02  0.24633E-02 -0.19978E-01
 -0.25027E-02  0.22359E-02 -0.19978E-01
 -0.26367E-02  0.16503E-02 -0.19978E-01
 -0.27658E-02  0.87597E-03 -0.19978E-01
 -0.21129E-02 -0.21374E-02 -0.19978E-01
 -0.16089E-02 -0.26932E-02 -0.19978E-01
 -0.11943E-02 -0.31291E-02 -0.19978E-01
 -0.58781E-03 -0.30382E-02 -0.19978E-01
  0.20749E-03 -0.28748E-02 -0.19978E-01
  0.10574E-02 -0.26434E-02 -0.19978E-01
  0.18415E-02 -0.23715E-02 -0.19978E-01
  0.24549E-02 -0.21467E-02 -0.19978E-01
  0.26025E-02 -0.15101E-02 -0.19978E-01
  0.37964E-02  0.93572E-03 -0.19978E-01
  0.39100E-02  0.00000E+00 -0.19978E-01
  0.34621E-02  0.18171E-02 -0.19978E-01
  0.29267E-02  0.25928E-02 -0.19978E-01
  0.22211E-02  0.32179E-02 -0.19978E-01
  0.13865E-02  0.36559E-02 -0.19978E-01
  0.47130E-03  0.38815E-02 -0.19978E-01
 -0.47130E-03  0.38815E-02 -0.19978E-01
 -0.13865E-02  0.36559E-02 -0.19978E-01
 -0.22211E-02  0.32179E-02 -0.19978E-01
 -0.29267E-02  0.25928E-02 -0.19978E-01
 -0.34621E-02  0.18171E-02 -0.19978E-01
 -0.37964E-02  0.93572E-03 -0.19978E-01
 -0.39100E-02 -0.47884E-18 -0.19978E-01
 -0.37964E-02 -0.93572E-03 -0.19978E-01
 -0.34621E-02 -0.18171E-02 -0.19978E-01
 -0.29267E-02 -0.25928E-02 -0.19978E-01
 -0.22211E-02 -0.32179E-02 -0.19978E-01
 -0.13865E-02 -0.36559E-02 -0.19978E-01
 -0.47130E-03 -0.38815E-02 -0.19978E-01
  0.47130E-03 -0.38815E-02 -0.19978E-01
  0.13865E-02 -0.36559E-02 -0.19978E-01
  0.22211E-02 -0.32179E-02 -0.19978E-01
  0.29267E-02 -0.25928E-02 -0.19978E-01
  0.34621E-02 -0.18171E-02 -0.19978E-01
  0.37964E-02 -0.93572E-03 -0.19978E-01
  0.10372E-02  0.67570E-03 -0.18999E-01
  0.17443E-02  0.12341E-02 -0.18999E-01
  0.23171E-02  0.59412E-03 -0.18999E-01
  0.16687E-02 -0.33398E-03 -0.18999E-01
  0.30376E-02  0.15064E-03 -0.18999E-01
  0.27808E-02 -0.67396E-03 -0.18999E-01
  0.12845E-02  0.18421E-02 -0.18999E-01
  0.65016E-03  0.14626E-02 -0.18999E-01
  0.12626E-03  0.30507E-03 -0.18999E-01
 -0.12915E-03  0.11760E-02 -0.18999E-01
  0.94334E-03  0.22754E-02 -0.18999E-01
  0.11310E-02  0.28264E-02 -0.18999E-01
  0.17471E-02  0.24245E-02 -0.18999E-01
  0.40561E-03  0.21686E-02 -0.18999E-01
  0.39770E-03  0.29353E-02 -0.18999E-01
 -0.76480E-03 -0.10040E-02 -0.18999E-01
 -0.86659E-03  0.83015E-04 -0.18999E-01
  0.45895E-03 -0.69955E-03 -0.18999E-01
 -0.18315E-02 -0.71126E-03 -0.18999E-01
 -0.18435E-02  0.83367E-04 -0.18999E-01
 -0.27237E-02 -0.77780E-03 -0.18999E-01
 -0.28014E-02  0.42080E-04 -0.18999E-01
 -0.25372E-02 -0.15192E-02 -0.18999E-01
 -0.19309E-02 -0.13224E-02 -0.18999E-01
 -0.99291E-03  0.99526E-03 -0.18999E-01
 -0.14398E-02 -0.17323E-02 -0.18999E-01
 -0.31474E-03  0.20234E-02 -0.18999E-01
 -0.11051E-02  0.18609E-02 -0.18999E-01
 -0.18843E-02  0.17175E-02 -0.18999E-01
 -0.18706E-02  0.91060E-03 -0.18999E-01
 -0.16009E-03 -0.19801E-02 -0.18999E-01
 -0.94388E-03 -0.23490E-02 -0.18999E-01
  0.78526E-03 -0.17074E-02 -0.18999E-01
  0.17208E-02 -0.14906E-02 -0.18999E-01
  0.32066E-02  0.76539E-03 -0.18999E-01
  0.28045E-02  0.12498E-02 -0.18999E-01
  0.23053E-02  0.18667E-02 -0.18999E-01
 -0.40545E-03  0.28984E-02 -0.18999E-01
 -0.12092E-02  0.27184E-02 -0.18999E-01
 -0.19446E-02  0.24631E-02 -0.18999E-01
 -0.25027E-02  0.22359E-02 -0.18999E-01
 -0.26366E-02  0.16503E-02 -0.18999E-01
 -0.27655E-02  0.87623E-03 -0.18999E-01
 -0.21130E-02 -0.21374E-02 -0.18999E-01
 -0.16089E-02 -0.26932E-02 -0.18999E-01
 -0.11944E-02 -0.31291E-02 -0.18999E-01
 -0.58816E-03 -0.30382E-02 -0.18999E-01
  0.20709E-03 -0.28748E-02 -0.18999E-01
  0.10571E-02 -0.26436E-02 -0.18999E-01
  0.18415E-02 -0.23717E-02 -0.18999E-01
  0.24550E-02 -0.21472E-02 -0.18999E-01
  0.26025E-02 -0.15100E-02 -0.18999E-01
  0.37964E-02  0.93572E-03 -0.18999E-01
  0.39100E-02  0.00000E+00 -0.18999E-01
  0.34621E-02  0.18171E-02 -0.18999E-01
  0.29267E-02  0.25928E-02 -0.18999E-01
  0.22211E-02  0.32179E-02 -0.18999E-01
  0.13865E-02  0.36559E-02 -0.18999E-01
  0.47130E-03  0.38815E-02 -0.18999E-01
 -0.47130E-03  0.38815E-02 -0.18999E-01
 -0.13865E-02  0.36559E-02 -0.18999E-01
 -0.22211E-02  0.32179E-02 -0.18999E-01
 -0.29267E-02  0.25928E-02 -0.18999E-01
 -0.34621E-02  0.18171E-02 -0.18999E-01
 -0.37964E-02  0.93572E-03 -0.18999E-01
 -0.39100E-02 -0.47884E-18 -0.18999E-01
 -0.37964E-02 -0.93572E-03 -0.18999E-01
 -0.34621E-02 -0.18171E-02 -0.18999E-01
 -0.29267E-02 -0.25928E-02 -0.18999E-01
 -0.22211E-02 -0.32179E-02 -0.18999E-01
 -0.13865E-02 -0.36559E-02 -0.18999E-01
 -0.47130E-03 -0.38815E-02 -0.18999E-01
  0.47130E-03 -0.38815E-02 -0.18999E-01
  0.13865E-02 -0.36559E-02 -0.18999E-01
  0.22211E-02 -0.32179E-02 -0.18999E-01
  0.29267E-02 -0.25928E-02 -0.18999E-01
  0.34621E-02 -0.18171E-02 -0.18999E-01
  0.37964E-02 -0.93572E-03 -0.18999E-01
  0.10371E-02  0.67625E-03 -0.18020E-01
  0.17441E-02  0.12348E-02 -0.18020E-01
  0.23169E-02  0.59465E-03 -0.18020E-01
  0.16685E-02 -0.33323E-03 -0.18020E-01
  0.30376E-02  0.15100E-03 -0.18020E-01
  0.27812E-02 -0.67347E-03 -0.18020E-01
  0.12844E-02  0.18423E-02 -0.18020E-01
  0.64992E-03  0.14636E-02 -0.18020E-01
  0.12600E-03  0.30622E-03 -0.18020E-01
 -0.12933E-03  0.11777E-02 -0.18020E-01
  0.94301E-03  0.22755E-02 -0.18020E-01
  0.11306E-02  0.28260E-02 -0.18020E-01
  0.17467E-02  0.24247E-02 -0.18020E-01
  0.40556E-03  0.21687E-02 -0.18020E-01
  0.39769E-03  0.29351E-02 -0.18020E-01
 -0.76515E-03 -0.10042E-02 -0.18020E-01
 -0.86670E-03  0.83825E-04 -0.18020E-01
  0.45850E-03 -0.69882E-03 -0.18020E-01
 -0.18318E-02 -0.71112E-03 -0.18020E-01
 -0.18434E-02  0.83490E-04 -0.18020E-01
 -0.27236E-02 -0.77763E-03 -0.18020E-01
 -0.28011E-02  0.42353E-04 -0.18020E-01
 -0.25374E-02 -0.15192E-02 -0.18020E-01
 -0.19313E-02 -0.13223E-02 -0.18020E-01
 -0.99277E-03  0.99661E-03 -0.18020E-01
 -0.14401E-02 -0.17322E-02 -0.18020E-01
 -0.31454E-03  0.20237E-02 -0.18020E-01
 -0.11047E-02  0.18607E-02 -0.18020E-01
 -0.18842E-02  0.17175E-02 -0.18020E-01
 -0.18705E-02  0.91084E-03 -0.18020E-01
 -0.16036E-03 -0.19801E-02 -0.18020E-01
 -0.94448E-03 -0.23491E-02 -0.18020E-01
  0.78460E-03 -0.17074E-02 -0.18020E-01
  0.17208E-02 -0.14909E-02 -0.18020E-01
  0.32070E-02  0.76640E-03 -0.18020E-01
  0.28045E-02  0.12503E-02 -0.18020E-01
  0.23052E-02  0.18667E-02 -0.18020E-01
 -0.40531E-03  0.28974E-02 -0.18020E-01
 -0.12092E-02  0.27179E-02 -0.18020E-01
 -0.19445E-02  0.24629E-02 -0.18020E-01
 -0.25027E-02  0.22359E-02 -0.18020E-01
 -0.26366E-02  0.16503E-02 -0.18020E-01
 -0.27652E-02  0.87650E-03 -0.18020E-01
 -0.21132E-02 -0.21374E-02 -0.18020E-01
 -0.16090E-02 -0.26933E-02 -0.18020E-01
 -0.11946E-02 -0.31291E-02 -0.18020E-01
 -0.58851E-03 -0.30382E-02 -0.18020E-01
  0.20668E-03 -0.28749E-02 -0.18020E-01
  0.10567E-02 -0.26439E-02 -0.18020E-01
  0.18416E-02 -0.23719E-02 -0.18020E-01
  0.24551E-02 -0.21478E-02 -0.18020E-01
  0.26026E-02 -0.15099E-02 -0.18020E-01
  0.37964E-02  0.93572E-03 -0.18020E-01
  0.39100E-02  0.00000E+00 -0.18020E-01
  0.34621E-02  0.18171E-02 -0.18020E-01
  0.29267E-02  0.25928E-02 -0.18020E-01
  0.22211E-02  0.32179E-02 -0.18020E-01
  0.13865E-02  0.36559E-02 -0.18020E-01
  0.47130E-03  0.38815E-02 -0.18020E-01
 -0.47130E-03  0.38815E-02 -0.18020E-01
 -0.13865E-02  0.36559E-02 -0.18020E-01
 -0.22211E-02  0.32179E-02 -0.18020E-01
 -0.29267E-02  0.25928E-02 -0.18020E-01
 -0.34621E-02  0.18171E-02 -0.18020E-01
 -0.37964E-02  0.93572E-03 -0.18020E-01
 -0.39100E-02 -0.47884E-18 -0.18020E-01
 -0.37964E-02 -0.93572E-03 -0.18020E-01
 -0.34621E-02 -0.18171E-02 -0.18020E-01
 -0.29267E-02 -0.25928E-02 -0.18020E-01
 -0.22211E-02 -0.32179E-02 -0.18020E-01
 -0.13865E-02 -0.36559E-02 -0.18020E-01
 -0.47130E-03 -0.38815E-02 -0.18020E-01
  0.47130E-03 -0.38815E-02 -0.18020E-01
  0.13865E-02 -0.36559E-02 -0.18020E-01
  0.22211E-02 -0.32179E-02 -0.18020E-01
  0.29267E-02 -0.25928E-02 -0.18020E-01
  0.34621E-02 -0.18171E-02 -0.18020E-01
  0.37964E-02 -0.93572E-03 -0.18020E-01
  0.10370E-02  0.67680E-03 -0.17041E-01
  0.17439E-02  0.12354E-02 -0.17041E-01
  0.23168E-02  0.59517E-03 -0.17041E-01
  0.16683E-02 -0.33247E-03 -0.17041E-01
  0.30375E-02  0.15136E-03 -0.17041E-01
  0.27815E-02 -0.67298E-03 -0.17041E-01
  0.12843E-02  0.18425E-02 -0.17041E-01
  0.64967E-03  0.14646E-02 -0.17041E-01
  0.12573E-03  0.30737E-03 -0.17041E-01
 -0.12952E-03  0.11795E-02 -0.17041E-01
  0.94268E-03  0.22757E-02 -0.17041E-01
  0.11303E-02  0.28255E-02 -0.17041E-01
  0.17463E-02  0.24248E-02 -0.17041E-01
  0.40550E-03  0.21687E-02 -0.17041E-01
  0.39767E-03  0.29348E-02 -0.17041E-01
 -0.76551E-03 -0.10043E-02 -0.17041E-01
 -0.86680E-03  0.84634E-04 -0.17041E-01
  0.45806E-03 -0.69810E-03 -0.17041E-01
 -0.18321E-02 -0.71098E-03 -0.17041E-01
 -0.18433E-02  0.83614E-04 -0.17041E-01
 -0.27236E-02 -0.77746E-03 -0.17041E-01
 -0.28009E-02  0.42626E-04 -0.17041E-01
 -0.25375E-02 -0.15191E-02 -0.17041E-01
 -0.19317E-02 -0.13223E-02 -0.17041E-01
 -0.99262E-03  0.99797E-03 -0.17041E-01
 -0.14405E-02 -0.17322E-02 -0.17041E-01
 -0.31434E-03  0.20240E-02 -0.17041E-01
 -0.11044E-02  0.18606E-02 -0.17041E-01
 -0.18842E-02  0.17175E-02 -0.17041E-01
 -0.18704E-02  0.91108E-03 -0.17041E-01
 -0.16064E-03 -0.19802E-02 -0.17041E-01
 -0.94508E-03 -0.23491E-02 -0.17041E-01
  0.78394E-03 -0.17074E-02 -0.17041E-01
  0.17208E-02 -0.14911E-02 -0.17041E-01
  0.32073E-02  0.76740E-03 -0.17041E-01
  0.28045E-02  0.12507E-02 -0.17041E-01
  0.23051E-02  0.18668E-02 -0.17041E-01
 -0.40517E-03  0.28963E-02 -0.17041E-01
 -0.12092E-02  0.27174E-02 -0.17041E-01
 -0.19445E-02  0.24627E-02 -0.17041E-01
 -0.25026E-02  0.22358E-02 -0.17041E-01
 -0.26365E-02  0.16503E-02 -0.17041E-01
 -0.27649E-02  0.87676E-03 -0.17041E-01
 -0.21133E-02 -0.21374E-02 -0.17041E-01
 -0.16090E-02 -0.26933E-02 -0.17041E-01
 -0.11947E-02 -0.31291E-02 -0.17041E-01
 -0.58886E-03 -0.30382E-02 -0.17041E-01
  0.20627E-03 -0.28749E-02 -0.17041E-01
  0.10564E-02 -0.26442E-02 -0.17041E-01
  0.18416E-02 -0.23721E-02 -0.17041E-01
  0.24553E-02 -0.21483E-02 -0.17041E-01
  0.26027E-02 -0.15097E-02 -0.17041E-01
  0.37964E-02  0.93572E-03 -0.17041E-01
  0.39100E-02  0.00000E+00 -0.17041E-01
  0.34621E-02  0.18171E-02 -0.17041E-01
  0.29267E-02  0.25928E-02 -0.17041E-01
  0.22211E-02  0.32179E-02 -0.17041E-01
  0.13865E-02  0.36559E-02 -0.17041E-01
  0.47130E-03  0.38815E-02 -0.17041E-01
 -0.47130E-03  0.38815E-02 -0.17041E-01
 -0.13865E-02  0.36559E-02 -0.17041E-01
 -0.22211E-02  0.32179E-02 -0.17041E-01
 -0.29267E-02  0.25928E-02 -0.17041E-01
 -0.34621E-02  0.18171E-02 -0.17041E-01
 -0.37964E-02  0.93572E-03 -0.17041E-01
 -0.39100E-02 -0.47884E-18 -0.17041E-01
 -0.37964E-02 -0.93572E-03 -0.17041E-01
 -0.34621E-02 -0.18171E-02 -0.17041E-01
 -0.29267E-02 -0.25928E-02 -0.17041E-01
 -0.22211E-02 -0.32179E-02 -0.17041E-01
 -0.13865E-02 -0.36559E-02 -0.17041E-01
 -0.47130E-03 -0.38815E-02 -0.17041E-01
  0.47130E-03 -0.38815E-02 -0.17041E-01
  0.13865E-02 -0.36559E-02 -0.17041E-01
  0.22211E-02 -0.32179E-02 -0.17041E-01
  0.29267E-02 -0.25928E-02 -0.17041E-01
  0.34621E-02 -0.18171E-02 -0.17041E-01
  0.37964E-02 -0.93572E-03 -0.17041E-01
  0.10368E-02  0.67736E-03 -0.16062E-01
  0.17438E-02  0.12361E-02 -0.16062E-01
  0.23167E-02  0.59570E-03 -0.16062E-01
  0.16681E-02 -0.33172E-03 -0.16062E-01
  0.30375E-02  0.15173E-03 -0.16062E-01
  0.27819E-02 -0.67248E-03 -0.16062E-01
  0.12842E-02  0.18427E-02 -0.16062E-01
  0.64943E-03  0.14656E-02 -0.16062E-01
  0.12547E-03  0.30852E-03 -0.16062E-01
 -0.12970E-03  0.11812E-02 -0.16062E-01
  0.94235E-03  0.22758E-02 -0.16062E-01
  0.11300E-02  0.28251E-02 -0.16062E-01
  0.17459E-02  0.24249E-02 -0.16062E-01
  0.40545E-03  0.21688E-02 -0.16062E-01
  0.39766E-03  0.29345E-02 -0.16062E-01
 -0.76586E-03 -0.10044E-02 -0.16062E-01
 -0.86691E-03  0.85443E-04 -0.16062E-01
  0.45761E-03 -0.69737E-03 -0.16062E-01
 -0.18324E-02 -0.71084E-03 -0.16062E-01
 -0.18432E-02  0.83737E-04 -0.16062E-01
 -0.27236E-02 -0.77729E-03 -0.16062E-01
 -0.28006E-02  0.42899E-04 -0.16062E-01
 -0.25377E-02 -0.15191E-02 -0.16062E-01
 -0.19322E-02 -0.13222E-02 -0.16062E-01
 -0.99248E-03  0.99932E-03 -0.16062E-01
 -0.14408E-02 -0.17322E-02 -0.16062E-01
 -0.31414E-03  0.20243E-02 -0.16062E-01
 -0.11040E-02  0.18605E-02 -0.16062E-01
 -0.18841E-02  0.17175E-02 -0.16062E-01
 -0.18703E-02  0.91132E-03 -0.16062E-01
 -0.16091E-03 -0.19802E-02 -0.16062E-01
 -0.94568E-03 -0.23491E-02 -0.16062E-01
  0.78328E-03 -0.17074E-02 -0.16062E-01
  0.17207E-02 -0.14914E-02 -0.16062E-01
  0.32076E-02  0.76841E-03 -0.16062E-01
  0.28044E-02  0.12511E-02 -0.16062E-01
  0.23050E-02  0.18668E-02 -0.16062E-01
 -0.40503E-03  0.28952E-02 -0.16062E-01
 -0.12092E-02  0.27170E-02 -0.16062E-01
 -0.19445E-02  0.24624E-02 -0.16062E-01
 -0.25026E-02  0.22358E-02 -0.16062E-01
 -0.26364E-02  0.16503E-02 -0.16062E-01
 -0.27646E-02  0.87702E-03 -0.16062E-01
 -0.21134E-02 -0.21374E-02 -0.16062E-01
 -0.16091E-02 -0.26933E-02 -0.16062E-01
 -0.11948E-02 -0.31291E-02 -0.16062E-01
 -0.58921E-03 -0.30382E-02 -0.16062E-01
  0.20587E-03 -0.28749E-02 -0.16062E-01
  0.10561E-02 -0.26444E-02 -0.16062E-01
  0.18416E-02 -0.23723E-02 -0.16062E-01
  0.24554E-02 -0.21489E-02 -0.16062E-01
  0.26027E-02 -0.15096E-02 -0.16062E-01
  0.37964E-02  0.93572E-03 -0.16062E-01
  0.39100E-02  0.00000E+00 -0.16062E-01
  0.34621E-02  0.18171E-02 -0.16062E-01
  0.29267E-02  0.25928E-02 -0.16062E-01
  0.22211E-02  0.32179E-02 -0.16062E-01
  0.13865E-02  0.36559E-02 -0.16062E-01
  0.47130E-03  0.38815E-02 -0.16062E-01
 -0.47130E-03  0.38815E-02 -0.16062E-01
 -0.13865E-02  0.36559E-02 -0.16062E-01
 -0.22211E-02  0.32179E-02 -0.16062E-01
 -0.29267E-02  0.25928E-02 -0.16062E-01
 -0.34621E-02  0.18171E-02 -0.16062E-01
 -0.37964E-02  0.93572E-03 -0.16062E-01
 -0.39100E-02 -0.47884E-18 -0.16062E-01
 -0.37964E-02 -0.93572E-03 -0.16062E-01
 -0.34621E-02 -0.18171E-02 -0.16062E-01
 -0.29267E-02 -0.25928E-02 -0.16062E-01
 -0.22211E-02 -0.32179E-02 -0.16062E-01
 -0.13865E-02 -0.36559E-02 -0.16062E-01
 -0.47130E-03 -0.38815E-02 -0.16062E-01
  0.47130E-03 -0.38815E-02 -0.16062E-01
  0.13865E-02 -0.36559E-02 -0.16062E-01
  0.22211E-02 -0.32179E-02 -0.16062E-01
  0.29267E-02 -0.25928E-02 -0.16062E-01
  0.34621E-02 -0.18171E-02 -0.16062E-01
  0.37964E-02 -0.93572E-03 -0.16062E-01
  0.10367E-02  0.67791E-03 -0.15082E-01
  0.17436E-02  0.12368E-02 -0.15082E-01
  0.23166E-02  0.59622E-03 -0.15082E-01
  0.16679E-02 -0.33096E-03 -0.15082E-01
  0.30375E-02  0.15209E-03 -0.15082E-01
  0.27822E-02 -0.67199E-03 -0.15082E-01
  0.12841E-02  0.18429E-02 -0.15082E-01
  0.64918E-03  0.14666E-02 -0.15082E-01
  0.12521E-03  0.30967E-03 -0.15082E-01
 -0.12989E-03  0.11830E-02 -0.15082E-01
  0.94202E-03  0.22759E-02 -0.15082E-01
  0.11296E-02  0.28247E-02 -0.15082E-01
  0.17455E-02  0.24251E-02 -0.15082E-01
  0.40539E-03  0.21688E-02 -0.15082E-01
  0.39764E-03  0.29343E-02 -0.15082E-01
 -0.76621E-03 -0.10046E-02 -0.15082E-01
 -0.86702E-03  0.86253E-04 -0.15082E-01
  0.45716E-03 -0.69665E-03 -0.15082E-01
 -0.18326E-02 -0.71070E-03 -0.15082E-01
 -0.18431E-02  0.83861E-04 -0.15082E-01
 -0.27235E-02 -0.77712E-03 -0.15082E-01
 -0.28003E-02  0.43173E-04 -0.15082E-01
 -0.25379E-02 -0.15190E-02 -0.15082E-01
 -0.19326E-02 -0.13220E-02 -0.15082E-01
 -0.99233E-03  0.10007E-02 -0.15082E-01
 -0.14412E-02 -0.17321E-02 -0.15082E-01
 -0.31394E-03  0.20245E-02 -0.15082E-01
 -0.11037E-02  0.18603E-02 -0.15082E-01
 -0.18841E-02  0.17175E-02 -0.15082E-01
 -0.18701E-02  0.91156E-03 -0.15082E-01
 -0.16119E-03 -0.19802E-02 -0.15082E-01
 -0.94628E-03 -0.23491E-02 -0.15082E-01
  0.78262E-03 -0.17074E-02 -0.15082E-01
  0.17207E-02 -0.14916E-02 -0.15082E-01
  0.32079E-02  0.76941E-03 -0.15082E-01
  0.28044E-02  0.12515E-02 -0.15082E-01
  0.23049E-02  0.18668E-02 -0.15082E-01
 -0.40490E-03  0.28942E-02 -0.15082E-01
 -0.12093E-02  0.27165E-02 -0.15082E-01
 -0.19444E-02  0.24622E-02 -0.15082E-01
 -0.25026E-02  0.22358E-02 -0.15082E-01
 -0.26363E-02  0.16503E-02 -0.15082E-01
 -0.27643E-02  0.87728E-03 -0.15082E-01
 -0.21136E-02 -0.21374E-02 -0.15082E-01
 -0.16091E-02 -0.26933E-02 -0.15082E-01
 -0.11949E-02 -0.31291E-02 -0.15082E-01
 -0.58956E-03 -0.30382E-02 -0.15082E-01
  0.20546E-03 -0.28749E-02 -0.15082E-01
  0.10558E-02 -0.26447E-02 -0.15082E-01
  0.18417E-02 -0.23725E-02 -0.15082E-01
  0.24555E-02 -0.21494E-02 -0.15082E-01
  0.26028E-02 -0.15095E-02 -0.15082E-01
  0.37964E-02  0.93572E-03 -0.15082E-01
  0.39100E-02  0.00000E+00 -0.15082E-01
  0.34621E-02  0.18171E-02 -0.15082E-01
  0.29267E-02  0.25928E-02 -0.15082E-01
  0.22211E-02  0.32179E-02 -0.15082E-01
  0.13865E-02  0.36559E-02 -0.15082E-01
  0.47130E-03  0.38815E-02 -0.15082E-01
 -0.47130E-03  0.38815E-02 -0.15082E-01
 -0.13865E-02  0.36559E-02 -0.15082E-01
 -0.22211E-02  0.32179E-02 -0.15082E-01
 -0.29267E-02  0.25928E-02 -0.15082E-01
 -0.34621E-02  0.18171E-02 -0.15082E-01
 -0.37964E-02  0.93572E-03 -0.15082E-01
 -0.39100E-02 -0.47884E-18 -0.15082E-01
 -0.37964E-02 -0.93572E-03 -0.15082E-01
 -0.34621E-02 -0.18171E-02 -0.15082E-01
 -0.29267E-02 -0.25928E-02 -0.15082E-01
 -0.22211E-02 -0.32179E-02 -0.15082E-01
 -0.13865E-02 -0.36559E-02 -0.15082E-01
 -0.47130E-03 -0.38815E-02 -0.15082E-01
  0.47130E-03 -0.38815E-02 -0.15082E-01
  0.13865E-02 -0.36559E-02 -0.15082E-01
  0.22211E-02 -0.32179E-02 -0.15082E-01
  0.29267E-02 -0.25928E-02 -0.15082E-01
  0.34621E-02 -0.18171E-02 -0.15082E-01
  0.37964E-02 -0.93572E-03 -0.15082E-01
  0.10366E-02  0.67847E-03 -0.14103E-01
  0.17434E-02  0.12374E-02 -0.14103E-01
  0.23164E-02  0.59674E-03 -0.14103E-01
  0.16677E-02 -0.33021E-03 -0.14103E-01
  0.30375E-02  0.15245E-03 -0.14103E-01
  0.27825E-02 -0.67150E-03 -0.14103E-01
  0.12840E-02  0.18430E-02 -0.14103E-01
  0.64894E-03  0.14676E-02 -0.14103E-01
  0.12495E-03  0.31081E-03 -0.14103E-01
 -0.13007E-03  0.11847E-02 -0.14103E-01
  0.94169E-03  0.22761E-02 -0.14103E-01
  0.11293E-02  0.28242E-02 -0.14103E-01
  0.17451E-02  0.24252E-02 -0.14103E-01
  0.40534E-03  0.21688E-02 -0.14103E-01
  0.39762E-03  0.29340E-02 -0.14103E-01
 -0.76657E-03 -0.10047E-02 -0.14103E-01
 -0.86713E-03  0.87062E-04 -0.14103E-01
  0.45671E-03 -0.69592E-03 -0.14103E-01
 -0.18329E-02 -0.71056E-03 -0.14103E-01
 -0.18430E-02  0.83985E-04 -0.14103E-01
 -0.27235E-02 -0.77695E-03 -0.14103E-01
 -0.28001E-02  0.43446E-04 -0.14103E-01
 -0.25380E-02 -0.15190E-02 -0.14103E-01
 -0.19330E-02 -0.13219E-02 -0.14103E-01
 -0.99219E-03  0.10020E-02 -0.14103E-01
 -0.14415E-02 -0.17321E-02 -0.14103E-01
 -0.31374E-03  0.20248E-02 -0.14103E-01
 -0.11033E-02  0.18602E-02 -0.14103E-01
 -0.18840E-02  0.17175E-02 -0.14103E-01
 -0.18700E-02  0.91180E-03 -0.14103E-01
 -0.16146E-03 -0.19803E-02 -0.14103E-01
 -0.94687E-03 -0.23491E-02 -0.14103E-01
  0.78195E-03 -0.17073E-02 -0.14103E-01
  0.17207E-02 -0.14919E-02 -0.14103E-01
  0.32083E-02  0.77042E-03 -0.14103E-01
  0.28044E-02  0.12520E-02 -0.14103E-01
  0.23048E-02  0.18669E-02 -0.14103E-01
 -0.40476E-03  0.28931E-02 -0.14103E-01
 -0.12093E-02  0.27160E-02 -0.14103E-01
 -0.19444E-02  0.24620E-02 -0.14103E-01
 -0.25026E-02  0.22358E-02 -0.14103E-01
 -0.26362E-02  0.16503E-02 -0.14103E-01
 -0.27640E-02  0.87754E-03 -0.14103E-01
 -0.21137E-02 -0.21374E-02 -0.14103E-01
 -0.16091E-02 -0.26933E-02 -0.14103E-01
 -0.11950E-02 -0.31291E-02 -0.14103E-01
 -0.58991E-03 -0.30382E-02 -0.14103E-01
  0.20505E-03 -0.28749E-02 -0.14103E-01
  0.10555E-02 -0.26450E-02 -0.14103E-01
  0.18417E-02 -0.23727E-02 -0.14103E-01
  0.24556E-02 -0.21500E-02 -0.14103E-01
  0.26029E-02 -0.15094E-02 -0.14103E-01
  0.37964E-02  0.93572E-03 -0.14103E-01
  0.39100E-02  0.00000E+00 -0.14103E-01
  0.34621E-02  0.18171E-02 -0.14103E-01
  0.29267E-02  0.25928E-02 -0.14103E-01
  0.22211E-02  0.32179E-02 -0.14103E-01
  0.13865E-02  0.36559E-02 -0.14103E-01
  0.47130E-03  0.38815E-02 -0.14103E-01
 -0.47130E-03  0.38815E-02 -0.14103E-01
 -0.13865E-02  0.36559E-02 -0.14103E-01
 -0.22211E-02  0.32179E-02 -0.14103E-01
 -0.29267E-02  0.25928E-02 -0.14103E-01
 -0.34621E-02  0.18171E-02 -0.14103E-01
 -0.37964E-02  0.93572E-03 -0.14103E-01
 -0.39100E-02  0.39516E-17 -0.14103E-01
 -0.37964E-02 -0.93572E-03 -0.14103E-01
 -0.34621E-02 -0.18171E-02 -0.14103E-01
 -0.29267E-02 -0.25928E-02 -0.14103E-01
 -0.22211E-02 -0.32179E-02 -0.14103E-01
 -0.13865E-02 -0.36559E-02 -0.14103E-01
 -0.47130E-03 -0.38815E-02 -0.14103E-01
  0.47130E-03 -0.38815E-02 -0.14103E-01
  0.13865E-02 -0.36559E-02 -0.14103E-01
  0.22211E-02 -0.32179E-02 -0.14103E-01
  0.29267E-02 -0.25928E-02 -0.14103E-01
  0.34621E-02 -0.18171E-02 -0.14103E-01
  0.37964E-02 -0.93572E-03 -0.14103E-01
  0.10365E-02  0.67902E-03 -0.13124E-01
  0.17432E-02  0.12381E-02 -0.13124E-01
  0.23163E-02  0.59727E-03 -0.13124E-01
  0.16675E-02 -0.32945E-03 -0.13124E-01
  0.30374E-02  0.15282E-03 -0.13124E-01
  0.27829E-02 -0.67100E-03 -0.13124E-01
  0.12839E-02  0.18432E-02 -0.13124E-01
  0.64869E-03  0.14686E-02 -0.13124E-01
  0.12468E-03  0.31196E-03 -0.13124E-01
 -0.13026E-03  0.11865E-02 -0.13124E-01
  0.94135E-03  0.22762E-02 -0.13124E-01
  0.11289E-02  0.28238E-02 -0.13124E-01
  0.17447E-02  0.24254E-02 -0.13124E-01
  0.40528E-03  0.21688E-02 -0.13124E-01
  0.39760E-03  0.29337E-02 -0.13124E-01
 -0.76692E-03 -0.10049E-02 -0.13124E-01
 -0.86724E-03  0.87871E-04 -0.13124E-01
  0.45626E-03 -0.69519E-03 -0.13124E-01
 -0.18332E-02 -0.71042E-03 -0.13124E-01
 -0.18430E-02  0.84108E-04 -0.13124E-01
 -0.27235E-02 -0.77678E-03 -0.13124E-01
 -0.27998E-02  0.43720E-04 -0.13124E-01
 -0.25382E-02 -0.15189E-02 -0.13124E-01
 -0.19334E-02 -0.13219E-02 -0.13124E-01
 -0.99205E-03  0.10034E-02 -0.13124E-01
 -0.14419E-02 -0.17320E-02 -0.13124E-01
 -0.31354E-03  0.20251E-02 -0.13124E-01
 -0.11030E-02  0.18601E-02 -0.13124E-01
 -0.18840E-02  0.17175E-02 -0.13124E-01
 -0.18699E-02  0.91204E-03 -0.13124E-01
 -0.16174E-03 -0.19803E-02 -0.13124E-01
 -0.94747E-03 -0.23492E-02 -0.13124E-01
  0.78129E-03 -0.17073E-02 -0.13124E-01
  0.17206E-02 -0.14921E-02 -0.13124E-01
  0.32086E-02  0.77142E-03 -0.13124E-01
  0.28044E-02  0.12524E-02 -0.13124E-01
  0.23047E-02  0.18669E-02 -0.13124E-01
 -0.40462E-03  0.28920E-02 -0.13124E-01
 -0.12093E-02  0.27155E-02 -0.13124E-01
 -0.19444E-02  0.24618E-02 -0.13124E-01
 -0.25025E-02  0.22358E-02 -0.13124E-01
 -0.26361E-02  0.16503E-02 -0.13124E-01
 -0.27637E-02  0.87781E-03 -0.13124E-01
 -0.21139E-02 -0.21374E-02 -0.13124E-01
 -0.16092E-02 -0.26934E-02 -0.13124E-01
 -0.11951E-02 -0.31291E-02 -0.13124E-01
 -0.59025E-03 -0.30382E-02 -0.13124E-01
  0.20465E-03 -0.28749E-02 -0.13124E-01
  0.10552E-02 -0.26452E-02 -0.13124E-01
  0.18418E-02 -0.23729E-02 -0.13124E-01
  0.24558E-02 -0.21505E-02 -0.13124E-01
  0.26030E-02 -0.15093E-02 -0.13124E-01
  0.37964E-02  0.93572E-03 -0.13124E-01
  0.39100E-02  0.00000E+00 -0.13124E-01
  0.34621E-02  0.18171E-02 -0.13124E-01
  0.29267E-02  0.25928E-02 -0.13124E-01
  0.22211E-02  0.32179E-02 -0.13124E-01
  0.13865E-02  0.36559E-02 -0.13124E-01
  0.47130E-03  0.38815E-02 -0.13124E-01
 -0.47130E-03  0.38815E-02 -0.13124E-01
 -0.13865E-02  0.36559E-02 -0.13124E-01
 -0.22211E-02  0.32179E-02 -0.13124E-01
 -0.29267E-02  0.25928E-02 -0.13124E-01
 -0.34621E-02  0.18171E-02 -0.13124E-01
 -0.37964E-02  0.93572E-03 -0.13124E-01
 -0.39100E-02 -0.47884E-18 -0.13124E-01
 -0.37964E-02 -0.93572E-03 -0.13124E-01
 -0.34621E-02 -0.18171E-02 -0.13124E-01
 -0.29267E-02 -0.25928E-02 -0.13124E-01
 -0.22211E-02 -0.32179E-02 -0.13124E-01
 -0.13865E-02 -0.36559E-02 -0.13124E-01
 -0.47130E-03 -0.38815E-02 -0.13124E-01
  0.47130E-03 -0.38815E-02 -0.13124E-01
  0.13865E-02 -0.36559E-02 -0.13124E-01
  0.22211E-02 -0.32179E-02 -0.13124E-01
  0.29267E-02 -0.25928E-02 -0.13124E-01
  0.34621E-02 -0.18171E-02 -0.13124E-01
  0.37964E-02 -0.93572E-03 -0.13124E-01
  0.10364E-02  0.67958E-03 -0.12145E-01
  0.17430E-02  0.12387E-02 -0.12145E-01
  0.23162E-02  0.59779E-03 -0.12145E-01
  0.16672E-02 -0.32870E-03 -0.12145E-01
  0.30374E-02  0.15318E-03 -0.12145E-01
  0.27832E-02 -0.67051E-03 -0.12145E-01
  0.12838E-02  0.18434E-02 -0.12145E-01
  0.64845E-03  0.14696E-02 -0.12145E-01
  0.12442E-03  0.31311E-03 -0.12145E-01
 -0.13044E-03  0.11882E-02 -0.12145E-01
  0.94102E-03  0.22763E-02 -0.12145E-01
  0.11286E-02  0.28233E-02 -0.12145E-01
  0.17443E-02  0.24255E-02 -0.12145E-01
  0.40523E-03  0.21689E-02 -0.12145E-01
  0.39759E-03  0.29335E-02 -0.12145E-01
 -0.76727E-03 -0.10050E-02 -0.12145E-01
 -0.86735E-03  0.88681E-04 -0.12145E-01
  0.45582E-03 -0.69447E-03 -0.12145E-01
 -0.18335E-02 -0.71028E-03 -0.12145E-01
 -0.18429E-02  0.84232E-04 -0.12145E-01
 -0.27235E-02 -0.77661E-03 -0.12145E-01
 -0.27995E-02  0.43993E-04 -0.12145E-01
 -0.25383E-02 -0.15189E-02 -0.12145E-01
 -0.19339E-02 -0.13218E-02 -0.12145E-01
 -0.99190E-03  0.10048E-02 -0.12145E-01
 -0.14422E-02 -0.17320E-02 -0.12145E-01
 -0.31334E-03  0.20254E-02 -0.12145E-01
 -0.11026E-02  0.18599E-02 -0.12145E-01
 -0.18839E-02  0.17175E-02 -0.12145E-01
 -0.18697E-02  0.91228E-03 -0.12145E-01
 -0.16201E-03 -0.19803E-02 -0.12145E-01
 -0.94807E-03 -0.23492E-02 -0.12145E-01
  0.78063E-03 -0.17073E-02 -0.12145E-01
  0.17206E-02 -0.14923E-02 -0.12145E-01
  0.32089E-02  0.77243E-03 -0.12145E-01
  0.28043E-02  0.12528E-02 -0.12145E-01
  0.23046E-02  0.18670E-02 -0.12145E-01
 -0.40448E-03  0.28910E-02 -0.12145E-01
 -0.12093E-02  0.27151E-02 -0.12145E-01
 -0.19443E-02  0.24615E-02 -0.12145E-01
 -0.25025E-02  0.22358E-02 -0.12145E-01
 -0.26360E-02  0.16503E-02 -0.12145E-01
 -0.27633E-02  0.87807E-03 -0.12145E-01
 -0.21140E-02 -0.21374E-02 -0.12145E-01
 -0.16092E-02 -0.26934E-02 -0.12145E-01
 -0.11953E-02 -0.31291E-02 -0.12145E-01
 -0.59060E-03 -0.30382E-02 -0.12145E-01
  0.20424E-03 -0.28749E-02 -0.12145E-01
  0.10549E-02 -0.26455E-02 -0.12145E-01
  0.18418E-02 -0.23732E-02 -0.12145E-01
  0.24559E-02 -0.21511E-02 -0.12145E-01
  0.26030E-02 -0.15092E-02 -0.12145E-01
  0.37964E-02  0.93572E-03 -0.12145E-01
  0.39100E-02  0.00000E+00 -0.12145E-01
  0.34621E-02  0.18171E-02 -0.12145E-01
  0.29267E-02  0.25928E-02 -0.12145E-01
  0.22211E-02  0.32179E-02 -0.12145E-01
  0.13865E-02  0.36559E-02 -0.12145E-01
  0.47130E-03  0.38815E-02 -0.12145E-01
 -0.47130E-03  0.38815E-02 -0.12145E-01
 -0.13865E-02  0.36559E-02 -0.12145E-01
 -0.22211E-02  0.32179E-02 -0.12145E-01
 -0.29267E-02  0.25928E-02 -0.12145E-01
 -0.34621E-02  0.18171E-02 -0.12145E-01
 -0.37964E-02  0.93572E-03 -0.12145E-01
 -0.39100E-02  0.22152E-17 -0.12145E-01
 -0.37964E-02 -0.93572E-03 -0.12145E-01
 -0.34621E-02 -0.18171E-02 -0.12145E-01
 -0.29267E-02 -0.25928E-02 -0.12145E-01
 -0.22211E-02 -0.32179E-02 -0.12145E-01
 -0.13865E-02 -0.36559E-02 -0.12145E-01
 -0.47130E-03 -0.38815E-02 -0.12145E-01
  0.47130E-03 -0.38815E-02 -0.12145E-01
  0.13865E-02 -0.36559E-02 -0.12145E-01
  0.22211E-02 -0.32179E-02 -0.12145E-01
  0.29267E-02 -0.25928E-02 -0.12145E-01
  0.34621E-02 -0.18171E-02 -0.12145E-01
  0.37964E-02 -0.93572E-03 -0.12145E-01
  0.10363E-02  0.68013E-03 -0.11166E-01
  0.17429E-02  0.12394E-02 -0.11166E-01
  0.23161E-02  0.59831E-03 -0.11166E-01
  0.16670E-02 -0.32794E-03 -0.11166E-01
  0.30374E-02  0.15354E-03 -0.11166E-01
  0.27836E-02 -0.67002E-03 -0.11166E-01
  0.12837E-02  0.18436E-02 -0.11166E-01
  0.64820E-03  0.14706E-02 -0.11166E-01
  0.12416E-03  0.31426E-03 -0.11166E-01
 -0.13063E-03  0.11900E-02 -0.11166E-01
  0.94069E-03  0.22765E-02 -0.11166E-01
  0.11282E-02  0.28229E-02 -0.11166E-01
  0.17439E-02  0.24257E-02 -0.11166E-01
  0.40518E-03  0.21689E-02 -0.11166E-01
  0.39757E-03  0.29332E-02 -0.11166E-01
 -0.76763E-03 -0.10051E-02 -0.11166E-01
 -0.86746E-03  0.89490E-04 -0.11166E-01
  0.45537E-03 -0.69374E-03 -0.11166E-01
 -0.18338E-02 -0.71013E-03 -0.11166E-01
 -0.18428E-02  0.84355E-04 -0.11166E-01
 -0.27234E-02 -0.77644E-03 -0.11166E-01
 -0.27992E-02  0.44266E-04 -0.11166E-01
 -0.25385E-02 -0.15188E-02 -0.11166E-01
 -0.19343E-02 -0.13216E-02 -0.11166E-01
 -0.99176E-03  0.10061E-02 -0.11166E-01
 -0.14425E-02 -0.17320E-02 -0.11166E-01
 -0.31314E-03  0.20257E-02 -0.11166E-01
 -0.11023E-02  0.18598E-02 -0.11166E-01
 -0.18839E-02  0.17175E-02 -0.11166E-01
 -0.18696E-02  0.91252E-03 -0.11166E-01
 -0.16229E-03 -0.19803E-02 -0.11166E-01
 -0.94867E-03 -0.23492E-02 -0.11166E-01
  0.77997E-03 -0.17073E-02 -0.11166E-01
  0.17205E-02 -0.14926E-02 -0.11166E-01
  0.32092E-02  0.77343E-03 -0.11166E-01
  0.28043E-02  0.12533E-02 -0.11166E-01
  0.23044E-02  0.18670E-02 -0.11166E-01
 -0.40434E-03  0.28899E-02 -0.11166E-01
 -0.12093E-02  0.27146E-02 -0.11166E-01
 -0.19443E-02  0.24613E-02 -0.11166E-01
 -0.25025E-02  0.22358E-02 -0.11166E-01
 -0.26359E-02  0.16503E-02 -0.11166E-01
 -0.27630E-02  0.87833E-03 -0.11166E-01
 -0.21141E-02 -0.21374E-02 -0.11166E-01
 -0.16093E-02 -0.26934E-02 -0.11166E-01
 -0.11954E-02 -0.31291E-02 -0.11166E-01
 -0.59095E-03 -0.30382E-02 -0.11166E-01
  0.20384E-03 -0.28750E-02 -0.11166E-01
  0.10546E-02 -0.26458E-02 -0.11166E-01
  0.18419E-02 -0.23734E-02 -0.11166E-01
  0.24560E-02 -0.21516E-02 -0.11166E-01
  0.26031E-02 -0.15091E-02 -0.11166E-01
  0.37964E-02  0.93572E-03 -0.11166E-01
  0.39100E-02  0.00000E+00 -0.11166E-01
  0.34621E-02  0.18171E-02 -0.11166E-01
  0.29267E-02  0.25928E-02 -0.11166E-01
  0.22211E-02  0.32179E-02 -0.11166E-01
  0.13865E-02  0.36559E-02 -0.11166E-01
  0.47130E-03  0.38815E-02 -0.11166E-01
 -0.47130E-03  0.38815E-02 -0.11166E-01
 -0.13865E-02  0.36559E-02 -0.11166E-01
 -0.22211E-02  0.32179E-02 -0.11166E-01
 -0.29267E-02  0.25928E-02 -0.11166E-01
 -0.34621E-02  0.18171E-02 -0.11166E-01
 -0.37964E-02  0.93572E-03 -0.11166E-01
 -0.39100E-02 -0.47884E-18 -0.11166E-01
 -0.37964E-02 -0.93572E-03 -0.11166E-01
 -0.34621E-02 -0.18171E-02 -0.11166E-01
 -0.29267E-02 -0.25928E-02 -0.11166E-01
 -0.22211E-02 -0.32179E-02 -0.11166E-01
 -0.13865E-02 -0.36559E-02 -0.11166E-01
 -0.47130E-03 -0.38815E-02 -0.11166E-01
  0.47130E-03 -0.38815E-02 -0.11166E-01
  0.13865E-02 -0.36559E-02 -0.11166E-01
  0.22211E-02 -0.32179E-02 -0.11166E-01
  0.29267E-02 -0.25928E-02 -0.11166E-01
  0.34621E-02 -0.18171E-02 -0.11166E-01
  0.37964E-02 -0.93572E-03 -0.11166E-01
  0.10362E-02  0.68068E-03 -0.10187E-01
  0.17427E-02  0.12401E-02 -0.10187E-01
  0.23160E-02  0.59884E-03 -0.10187E-01
  0.16668E-02 -0.32719E-03 -0.10187E-01
  0.30373E-02  0.15391E-03 -0.10187E-01
  0.27839E-02 -0.66953E-03 -0.10187E-01
  0.12836E-02  0.18438E-02 -0.10187E-01
  0.64796E-03  0.14716E-02 -0.10187E-01
  0.12390E-03  0.31541E-03 -0.10187E-01
 -0.13082E-03  0.11917E-02 -0.10187E-01
  0.94036E-03  0.22766E-02 -0.10187E-01
  0.11279E-02  0.28225E-02 -0.10187E-01
  0.17435E-02  0.24258E-02 -0.10187E-01
  0.40512E-03  0.21690E-02 -0.10187E-01
  0.39755E-03  0.29330E-02 -0.10187E-01
 -0.76798E-03 -0.10053E-02 -0.10187E-01
 -0.86756E-03  0.90299E-04 -0.10187E-01
  0.45492E-03 -0.69302E-03 -0.10187E-01
 -0.18341E-02 -0.70999E-03 -0.10187E-01
 -0.18427E-02  0.84479E-04 -0.10187E-01
 -0.27234E-02 -0.77627E-03 -0.10187E-01
 -0.27990E-02  0.44540E-04 -0.10187E-01
 -0.25386E-02 -0.15188E-02 -0.10187E-01
 -0.19347E-02 -0.13215E-02 -0.10187E-01
 -0.99161E-03  0.10075E-02 -0.10187E-01
 -0.14429E-02 -0.17319E-02 -0.10187E-01
 -0.31294E-03  0.20260E-02 -0.10187E-01
 -0.11019E-02  0.18597E-02 -0.10187E-01
 -0.18838E-02  0.17175E-02 -0.10187E-01
 -0.18695E-02  0.91276E-03 -0.10187E-01
 -0.16256E-03 -0.19804E-02 -0.10187E-01
 -0.94927E-03 -0.23493E-02 -0.10187E-01
  0.77931E-03 -0.17073E-02 -0.10187E-01
  0.17205E-02 -0.14928E-02 -0.10187E-01
  0.32096E-02  0.77444E-03 -0.10187E-01
  0.28043E-02  0.12537E-02 -0.10187E-01
  0.23043E-02  0.18670E-02 -0.10187E-01
 -0.40420E-03  0.28888E-02 -0.10187E-01
 -0.12093E-02  0.27141E-02 -0.10187E-01
 -0.19443E-02  0.24611E-02 -0.10187E-01
 -0.25024E-02  0.22358E-02 -0.10187E-01
 -0.26358E-02  0.16503E-02 -0.10187E-01
 -0.27627E-02  0.87859E-03 -0.10187E-01
 -0.21143E-02 -0.21374E-02 -0.10187E-01
 -0.16093E-02 -0.26934E-02 -0.10187E-01
 -0.11955E-02 -0.31291E-02 -0.10187E-01
 -0.59130E-03 -0.30382E-02 -0.10187E-01
  0.20343E-03 -0.28750E-02 -0.10187E-01
  0.10543E-02 -0.26460E-02 -0.10187E-01
  0.18419E-02 -0.23736E-02 -0.10187E-01
  0.24561E-02 -0.21521E-02 -0.10187E-01
  0.26032E-02 -0.15090E-02 -0.10187E-01
  0.37964E-02  0.93572E-03 -0.10187E-01
  0.39100E-02  0.00000E+00 -0.10187E-01
  0.34621E-02  0.18171E-02 -0.10187E-01
  0.29267E-02  0.25928E-02 -0.10187E-01
  0.22211E-02  0.32179E-02 -0.10187E-01
  0.13865E-02  0.36559E-02 -0.10187E-01
  0.47130E-03  0.38815E-02 -0.10187E-01
 -0.47130E-03  0.38815E-02 -0.10187E-01
 -0.13865E-02  0.36559E-02 -0.10187E-01
 -0.22211E-02  0.32179E-02 -0.10187E-01
 -0.29267E-02  0.25928E-02 -0.10187E-01
 -0.34621E-02  0.18171E-02 -0.10187E-01
 -0.37964E-02  0.93572E-03 -0.10187E-01
 -0.39100E-02  0.22152E-17 -0.10187E-01
 -0.37964E-02 -0.93572E-03 -0.10187E-01
 -0.34621E-02 -0.18171E-02 -0.10187E-01
 -0.29267E-02 -0.25928E-02 -0.10187E-01
 -0.22211E-02 -0.32179E-02 -0.10187E-01
 -0.13865E-02 -0.36559E-02 -0.10187E-01
 -0.47130E-03 -0.38815E-02 -0.10187E-01
  0.47130E-03 -0.38815E-02 -0.10187E-01
  0.13865E-02 -0.36559E-02 -0.10187E-01
  0.22211E-02 -0.32179E-02 -0.10187E-01
  0.29267E-02 -0.25928E-02 -0.10187E-01
  0.34621E-02 -0.18171E-02 -0.10187E-01
  0.37964E-02 -0.93572E-03 -0.10187E-01
  0.10360E-02  0.68124E-03 -0.92073E-02
  0.17425E-02  0.12407E-02 -0.92073E-02
  0.23158E-02  0.59936E-03 -0.92073E-02
  0.16666E-02 -0.32643E-03 -0.92073E-02
  0.30373E-02  0.15427E-03 -0.92073E-02
  0.27842E-02 -0.66903E-03 -0.92073E-02
  0.12835E-02  0.18440E-02 -0.92073E-02
  0.64771E-03  0.14727E-02 -0.92073E-02
  0.12363E-03  0.31656E-03 -0.92073E-02
 -0.13100E-03  0.11935E-02 -0.92073E-02
  0.94003E-03  0.22767E-02 -0.92073E-02
  0.11276E-02  0.28220E-02 -0.92073E-02
  0.17432E-02  0.24260E-02 -0.92073E-02
  0.40507E-03  0.21690E-02 -0.92073E-02
  0.39754E-03  0.29327E-02 -0.92073E-02
 -0.76834E-03 -0.10054E-02 -0.92073E-02
 -0.86767E-03  0.91108E-04 -0.92073E-02
  0.45447E-03 -0.69229E-03 -0.92073E-02
 -0.18344E-02 -0.70985E-03 -0.92073E-02
 -0.18426E-02  0.84602E-04 -0.92073E-02
 -0.27234E-02 -0.77610E-03 -0.92073E-02
 -0.27987E-02  0.44813E-04 -0.92073E-02
 -0.25388E-02 -0.15187E-02 -0.92073E-02
 -0.19352E-02 -0.13215E-02 -0.92073E-02
 -0.99147E-03  0.10088E-02 -0.92073E-02
 -0.14433E-02 -0.17319E-02 -0.92073E-02
 -0.31274E-03  0.20262E-02 -0.92073E-02
 -0.11016E-02  0.18595E-02 -0.92073E-02
 -0.18838E-02  0.17175E-02 -0.92073E-02
 -0.18694E-02  0.91300E-03 -0.92073E-02
 -0.16284E-03 -0.19804E-02 -0.92073E-02
 -0.94986E-03 -0.23493E-02 -0.92073E-02
  0.77865E-03 -0.17073E-02 -0.92073E-02
  0.17205E-02 -0.14931E-02 -0.92073E-02
  0.32099E-02  0.77544E-03 -0.92073E-02
  0.28042E-02  0.12541E-02 -0.92073E-02
  0.23042E-02  0.18671E-02 -0.92073E-02
 -0.40407E-03  0.28877E-02 -0.92073E-02
 -0.12093E-02  0.27137E-02 -0.92073E-02
 -0.19442E-02  0.24609E-02 -0.92073E-02
 -0.25024E-02  0.22358E-02 -0.92073E-02
 -0.26358E-02  0.16503E-02 -0.92073E-02
 -0.27624E-02  0.87885E-03 -0.92073E-02
 -0.21144E-02 -0.21374E-02 -0.92073E-02
 -0.16094E-02 -0.26934E-02 -0.92073E-02
 -0.11956E-02 -0.31291E-02 -0.92073E-02
 -0.59165E-03 -0.30382E-02 -0.92073E-02
  0.20302E-03 -0.28750E-02 -0.92073E-02
  0.10540E-02 -0.26463E-02 -0.92073E-02
  0.18419E-02 -0.23738E-02 -0.92073E-02
  0.24563E-02 -0.21527E-02 -0.92073E-02
  0.26033E-02 -0.15088E-02 -0.92073E-02
  0.37964E-02  0.93572E-03 -0.92073E-02
  0.39100E-02  0.00000E+00 -0.92073E-02
  0.34621E-02  0.18171E-02 -0.92073E-02
  0.29267E-02  0.25928E-02 -0.92073E-02
  0.22211E-02  0.32179E-02 -0.92073E-02
  0.13865E-02  0.36559E-02 -0.92073E-02
  0.47130E-03  0.38815E-02 -0.92073E-02
 -0.47130E-03  0.38815E-02 -0.92073E-02
 -0.13865E-02  0.36559E-02 -0.92073E-02
 -0.22211E-02  0.32179E-02 -0.92073E-02
 -0.29267E-02  0.25928E-02 -0.92073E-02
 -0.34621E-02  0.18171E-02 -0.92073E-02
 -0.37964E-02  0.93572E-03 -0.92073E-02
 -0.39100E-02 -0.47884E-18 -0.92073E-02
 -0.37964E-02 -0.93572E-03 -0.92073E-02
 -0.34621E-02 -0.18171E-02 -0.92073E-02
 -0.29267E-02 -0.25928E-02 -0.92073E-02
 -0.22211E-02 -0.32179E-02 -0.92073E-02
 -0.13865E-02 -0.36559E-02 -0.92073E-02
 -0.47130E-03 -0.38815E-02 -0.92073E-02
  0.47130E-03 -0.38815E-02 -0.92073E-02
  0.13865E-02 -0.36559E-02 -0.92073E-02
  0.22211E-02 -0.32179E-02 -0.92073E-02
  0.29267E-02 -0.25928E-02 -0.92073E-02
  0.34621E-02 -0.18171E-02 -0.92073E-02
  0.37964E-02 -0.93572E-03 -0.92073E-02
  0.10359E-02  0.68179E-03 -0.82282E-02
  0.17423E-02  0.12414E-02 -0.82282E-02
  0.23157E-02  0.59988E-03 -0.82282E-02
  0.16664E-02 -0.32568E-03 -0.82282E-02
  0.30373E-02  0.15463E-03 -0.82282E-02
  0.27846E-02 -0.66854E-03 -0.82282E-02
  0.12834E-02  0.18442E-02 -0.82282E-02
  0.64747E-03  0.14736E-02 -0.82282E-02
  0.12337E-03  0.31770E-03 -0.82282E-02
 -0.13118E-03  0.11952E-02 -0.82282E-02
  0.93970E-03  0.22768E-02 -0.82282E-02
  0.11272E-02  0.28216E-02 -0.82282E-02
  0.17428E-02  0.24261E-02 -0.82282E-02
  0.40501E-03  0.21690E-02 -0.82282E-02
  0.39752E-03  0.29324E-02 -0.82282E-02
 -0.76869E-03 -0.10056E-02 -0.82282E-02
 -0.86778E-03  0.91918E-04 -0.82282E-02
  0.45402E-03 -0.69156E-03 -0.82282E-02
 -0.18347E-02 -0.70971E-03 -0.82282E-02
 -0.18425E-02  0.84726E-04 -0.82282E-02
 -0.27234E-02 -0.77593E-03 -0.82282E-02
 -0.27984E-02  0.45086E-04 -0.82282E-02
 -0.25389E-02 -0.15187E-02 -0.82282E-02
 -0.19356E-02 -0.13213E-02 -0.82282E-02
 -0.99133E-03  0.10102E-02 -0.82282E-02
 -0.14436E-02 -0.17318E-02 -0.82282E-02
 -0.31254E-03  0.20265E-02 -0.82282E-02
 -0.11013E-02  0.18594E-02 -0.82282E-02
 -0.18837E-02  0.17175E-02 -0.82282E-02
 -0.18692E-02  0.91324E-03 -0.82282E-02
 -0.16311E-03 -0.19804E-02 -0.82282E-02
 -0.95046E-03 -0.23493E-02 -0.82282E-02
  0.77799E-03 -0.17073E-02 -0.82282E-02
  0.17204E-02 -0.14933E-02 -0.82282E-02
  0.32102E-02  0.77645E-03 -0.82282E-02
  0.28042E-02  0.12545E-02 -0.82282E-02
  0.23041E-02  0.18671E-02 -0.82282E-02
 -0.40393E-03  0.28867E-02 -0.82282E-02
 -0.12093E-02  0.27132E-02 -0.82282E-02
 -0.19442E-02  0.24606E-02 -0.82282E-02
 -0.25024E-02  0.22358E-02 -0.82282E-02
 -0.26357E-02  0.16503E-02 -0.82282E-02
 -0.27621E-02  0.87912E-03 -0.82282E-02
 -0.21146E-02 -0.21374E-02 -0.82282E-02
 -0.16094E-02 -0.26935E-02 -0.82282E-02
 -0.11957E-02 -0.31291E-02 -0.82282E-02
 -0.59200E-03 -0.30381E-02 -0.82282E-02
  0.20262E-03 -0.28750E-02 -0.82282E-02
  0.10536E-02 -0.26466E-02 -0.82282E-02
  0.18420E-02 -0.23740E-02 -0.82282E-02
  0.24564E-02 -0.21533E-02 -0.82282E-02
  0.26033E-02 -0.15087E-02 -0.82282E-02
  0.37964E-02  0.93572E-03 -0.82282E-02
  0.39100E-02  0.00000E+00 -0.82282E-02
  0.34621E-02  0.18171E-02 -0.82282E-02
  0.29267E-02  0.25928E-02 -0.82282E-02
  0.22211E-02  0.32179E-02 -0.82282E-02
  0.13865E-02  0.36559E-02 -0.82282E-02
  0.47130E-03  0.38815E-02 -0.82282E-02
 -0.47130E-03  0.38815E-02 -0.82282E-02
 -0.13865E-02  0.36559E-02 -0.82282E-02
 -0.22211E-02  0.32179E-02 -0.82282E-02
 -0.29267E-02  0.25928E-02 -0.82282E-02
 -0.34621E-02  0.18171E-02 -0.82282E-02
 -0.37964E-02  0.93572E-03 -0.82282E-02
 -0.39100E-02 -0.47884E-18 -0.82282E-02
 -0.37964E-02 -0.93572E-03 -0.82282E-02
 -0.34621E-02 -0.18171E-02 -0.82282E-02
 -0.29267E-02 -0.25928E-02 -0.82282E-02
 -0.22211E-02 -0.32179E-02 -0.82282E-02
 -0.13865E-02 -0.36559E-02 -0.82282E-02
 -0.47130E-03 -0.38815E-02 -0.82282E-02
  0.47130E-03 -0.38815E-02 -0.82282E-02
  0.13865E-02 -0.36559E-02 -0.82282E-02
  0.22211E-02 -0.32179E-02 -0.82282E-02
  0.29267E-02 -0.25928E-02 -0.82282E-02
  0.34621E-02 -0.18171E-02 -0.82282E-02
  0.37964E-02 -0.93572E-03 -0.82282E-02
  0.10358E-02  0.68235E-03 -0.72490E-02
  0.17422E-02  0.12421E-02 -0.72490E-02
  0.23156E-02  0.60041E-03 -0.72490E-02
  0.16662E-02 -0.32493E-03 -0.72490E-02
  0.30373E-02  0.15500E-03 -0.72490E-02
  0.27849E-02 -0.66805E-03 -0.72490E-02
  0.12833E-02  0.18444E-02 -0.72490E-02
  0.64722E-03  0.14747E-02 -0.72490E-02
  0.12311E-03  0.31885E-03 -0.72490E-02
 -0.13137E-03  0.11970E-02 -0.72490E-02
  0.93937E-03  0.22770E-02 -0.72490E-02
  0.11269E-02  0.28211E-02 -0.72490E-02
  0.17424E-02  0.24262E-02 -0.72490E-02
  0.40496E-03  0.21691E-02 -0.72490E-02
  0.39750E-03  0.29322E-02 -0.72490E-02
 -0.76904E-03 -0.10057E-02 -0.72490E-02
 -0.86789E-03  0.92727E-04 -0.72490E-02
  0.45358E-03 -0.69084E-03 -0.72490E-02
 -0.18350E-02 -0.70957E-03 -0.72490E-02
 -0.18424E-02  0.84849E-04 -0.72490E-02
 -0.27233E-02 -0.77576E-03 -0.72490E-02
 -0.27981E-02  0.45359E-04 -0.72490E-02
 -0.25391E-02 -0.15186E-02 -0.72490E-02
 -0.19360E-02 -0.13212E-02 -0.72490E-02
 -0.99118E-03  0.10115E-02 -0.72490E-02
 -0.14440E-02 -0.17318E-02 -0.72490E-02
 -0.31234E-03  0.20268E-02 -0.72490E-02
 -0.11009E-02  0.18593E-02 -0.72490E-02
 -0.18836E-02  0.17175E-02 -0.72490E-02
 -0.18691E-02  0.91347E-03 -0.72490E-02
 -0.16339E-03 -0.19804E-02 -0.72490E-02
 -0.95106E-03 -0.23493E-02 -0.72490E-02
  0.77733E-03 -0.17073E-02 -0.72490E-02
  0.17204E-02 -0.14936E-02 -0.72490E-02
  0.32105E-02  0.77745E-03 -0.72490E-02
  0.28042E-02  0.12550E-02 -0.72490E-02
  0.23040E-02  0.18671E-02 -0.72490E-02
 -0.40379E-03  0.28856E-02 -0.72490E-02
 -0.12093E-02  0.27127E-02 -0.72490E-02
 -0.19441E-02  0.24604E-02 -0.72490E-02
 -0.25023E-02  0.22358E-02 -0.72490E-02
 -0.26356E-02  0.16503E-02 -0.72490E-02
 -0.27618E-02  0.87938E-03 -0.72490E-02
 -0.21147E-02 -0.21374E-02 -0.72490E-02
 -0.16094E-02 -0.26935E-02 -0.72490E-02
 -0.11958E-02 -0.31291E-02 -0.72490E-02
 -0.59235E-03 -0.30381E-02 -0.72490E-02
  0.20221E-03 -0.28750E-02 -0.72490E-02
  0.10533E-02 -0.26468E-02 -0.72490E-02
  0.18420E-02 -0.23742E-02 -0.72490E-02
  0.24565E-02 -0.21538E-02 -0.72490E-02
  0.26034E-02 -0.15086E-02 -0.72490E-02
  0.37964E-02  0.93572E-03 -0.72490E-02
  0.39100E-02  0.00000E+00 -0.72490E-02
  0.34621E-02  0.18171E-02 -0.72490E-02
  0.29267E-02  0.25928E-02 -0.72490E-02
  0.22211E-02  0.32179E-02 -0.72490E-02
  0.13865E-02  0.36559E-02 -0.72490E-02
  0.47130E-03  0.38815E-02 -0.72490E-02
 -0.47130E-03  0.38815E-02 -0.72490E-02
 -0.13865E-02  0.36559E-02 -0.72490E-02
 -0.22211E-02  0.32179E-02 -0.72490E-02
 -0.29267E-02  0.25928E-02 -0.72490E-02
 -0.34621E-02  0.18171E-02 -0.72490E-02
 -0.37964E-02  0.93572E-03 -0.72490E-02
 -0.39100E-02 -0.47884E-18 -0.72490E-02
 -0.37964E-02 -0.93572E-03 -0.72490E-02
 -0.34621E-02 -0.18171E-02 -0.72490E-02
 -0.29267E-02 -0.25928E-02 -0.72490E-02
 -0.22211E-02 -0.32179E-02 -0.72490E-02
 -0.13865E-02 -0.36559E-02 -0.72490E-02
 -0.47130E-03 -0.38815E-02 -0.72490E-02
  0.47130E-03 -0.38815E-02 -0.72490E-02
  0.13865E-02 -0.36559E-02 -0.72490E-02
  0.22211E-02 -0.32179E-02 -0.72490E-02
  0.29267E-02 -0.25928E-02 -0.72490E-02
  0.34621E-02 -0.18171E-02 -0.72490E-02
  0.37964E-02 -0.93572E-03 -0.72490E-02
  0.10357E-02  0.68290E-03 -0.62698E-02
  0.17420E-02  0.12427E-02 -0.62698E-02
  0.23155E-02  0.60093E-03 -0.62698E-02
  0.16660E-02 -0.32417E-03 -0.62698E-02
  0.30372E-02  0.15536E-03 -0.62698E-02
  0.27853E-02 -0.66755E-03 -0.62698E-02
  0.12832E-02  0.18445E-02 -0.62698E-02
  0.64698E-03  0.14757E-02 -0.62698E-02
  0.12285E-03  0.32000E-03 -0.62698E-02
 -0.13155E-03  0.11987E-02 -0.62698E-02
  0.93903E-03  0.22771E-02 -0.62698E-02
  0.11266E-02  0.28207E-02 -0.62698E-02
  0.17420E-02  0.24264E-02 -0.62698E-02
  0.40490E-03  0.21691E-02 -0.62698E-02
  0.39749E-03  0.29319E-02 -0.62698E-02
 -0.76940E-03 -0.10058E-02 -0.62698E-02
 -0.86800E-03  0.93536E-04 -0.62698E-02
  0.45313E-03 -0.69011E-03 -0.62698E-02
 -0.18353E-02 -0.70943E-03 -0.62698E-02
 -0.18423E-02  0.84973E-04 -0.62698E-02
 -0.27233E-02 -0.77559E-03 -0.62698E-02
 -0.27979E-02  0.45633E-04 -0.62698E-02
 -0.25393E-02 -0.15186E-02 -0.62698E-02
 -0.19365E-02 -0.13212E-02 -0.62698E-02
 -0.99104E-03  0.10129E-02 -0.62698E-02
 -0.14443E-02 -0.17318E-02 -0.62698E-02
 -0.31214E-03  0.20271E-02 -0.62698E-02
 -0.11006E-02  0.18592E-02 -0.62698E-02
 -0.18836E-02  0.17175E-02 -0.62698E-02
 -0.18690E-02  0.91371E-03 -0.62698E-02
 -0.16366E-03 -0.19805E-02 -0.62698E-02
 -0.95166E-03 -0.23493E-02 -0.62698E-02
  0.77667E-03 -0.17073E-02 -0.62698E-02
  0.17203E-02 -0.14938E-02 -0.62698E-02
  0.32109E-02  0.77846E-03 -0.62698E-02
  0.28042E-02  0.12554E-02 -0.62698E-02
  0.23039E-02  0.18672E-02 -0.62698E-02
 -0.40365E-03  0.28845E-02 -0.62698E-02
 -0.12093E-02  0.27122E-02 -0.62698E-02
 -0.19441E-02  0.24602E-02 -0.62698E-02
 -0.25023E-02  0.22358E-02 -0.62698E-02
 -0.26355E-02  0.16502E-02 -0.62698E-02
 -0.27615E-02  0.87964E-03 -0.62698E-02
 -0.21148E-02 -0.21374E-02 -0.62698E-02
 -0.16095E-02 -0.26935E-02 -0.62698E-02
 -0.11960E-02 -0.31291E-02 -0.62698E-02
 -0.59270E-03 -0.30381E-02 -0.62698E-02
  0.20180E-03 -0.28750E-02 -0.62698E-02
  0.10530E-02 -0.26471E-02 -0.62698E-02
  0.18421E-02 -0.23744E-02 -0.62698E-02
  0.24566E-02 -0.21543E-02 -0.62698E-02
  0.26035E-02 -0.15085E-02 -0.62698E-02
  0.37964E-02  0.93572E-03 -0.62698E-02
  0.39100E-02  0.00000E+00 -0.62698E-02
  0.34621E-02  0.18171E-02 -0.62698E-02
  0.29267E-02  0.25928E-02 -0.62698E-02
  0.22211E-02  0.32179E-02 -0.62698E-02
  0.13865E-02  0.36559E-02 -0.62698E-02
  0.47130E-03  0.38815E-02 -0.62698E-02
 -0.47130E-03  0.38815E-02 -0.62698E-02
 -0.13865E-02  0.36559E-02 -0.62698E-02
 -0.22211E-02  0.32179E-02 -0.62698E-02
 -0.29267E-02  0.25928E-02 -0.62698E-02
 -0.34621E-02  0.18171E-02 -0.62698E-02
 -0.37964E-02  0.93572E-03 -0.62698E-02
 -0.39100E-02 -0.47884E-18 -0.62698E-02
 -0.37964E-02 -0.93572E-03 -0.62698E-02
 -0.34621E-02 -0.18171E-02 -0.62698E-02
 -0.29267E-02 -0.25928E-02 -0.62698E-02
 -0.22211E-02 -0.32179E-02 -0.62698E-02
 -0.13865E-02 -0.36559E-02 -0.62698E-02
 -0.47130E-03 -0.38815E-02 -0.62698E-02
  0.47130E-03 -0.38815E-02 -0.62698E-02
  0.13865E-02 -0.36559E-02 -0.62698E-02
  0.22211E-02 -0.32179E-02 -0.62698E-02
  0.29267E-02 -0.25928E-02 -0.62698E-02
  0.34621E-02 -0.18171E-02 -0.62698E-02
  0.37964E-02 -0.93572E-03 -0.62698E-02
  0.10356E-02  0.68346E-03 -0.52907E-02
  0.17418E-02  0.12434E-02 -0.52907E-02
  0.23153E-02  0.60145E-03 -0.52907E-02
  0.16657E-02 -0.32342E-03 -0.52907E-02
  0.30372E-02  0.15572E-03 -0.52907E-02
  0.27856E-02 -0.66706E-03 -0.52907E-02
  0.12830E-02  0.18447E-02 -0.52907E-02
  0.64673E-03  0.14767E-02 -0.52907E-02
  0.12259E-03  0.32115E-03 -0.52907E-02
 -0.13174E-03  0.12005E-02 -0.52907E-02
  0.93870E-03  0.22772E-02 -0.52907E-02
  0.11262E-02  0.28203E-02 -0.52907E-02
  0.17416E-02  0.24265E-02 -0.52907E-02
  0.40485E-03  0.21691E-02 -0.52907E-02
  0.39747E-03  0.29316E-02 -0.52907E-02
 -0.76975E-03 -0.10060E-02 -0.52907E-02
 -0.86811E-03  0.94345E-04 -0.52907E-02
  0.45268E-03 -0.68939E-03 -0.52907E-02
 -0.18356E-02 -0.70929E-03 -0.52907E-02
 -0.18422E-02  0.85096E-04 -0.52907E-02
 -0.27233E-02 -0.77542E-03 -0.52907E-02
 -0.27976E-02  0.45906E-04 -0.52907E-02
 -0.25394E-02 -0.15185E-02 -0.52907E-02
 -0.19369E-02 -0.13211E-02 -0.52907E-02
 -0.99090E-03  0.10142E-02 -0.52907E-02
 -0.14446E-02 -0.17317E-02 -0.52907E-02
 -0.31194E-03  0.20274E-02 -0.52907E-02
 -0.11002E-02  0.18590E-02 -0.52907E-02
 -0.18835E-02  0.17175E-02 -0.52907E-02
 -0.18689E-02  0.91395E-03 -0.52907E-02
 -0.16394E-03 -0.19805E-02 -0.52907E-02
 -0.95226E-03 -0.23494E-02 -0.52907E-02
  0.77601E-03 -0.17073E-02 -0.52907E-02
  0.17203E-02 -0.14941E-02 -0.52907E-02
  0.32112E-02  0.77946E-03 -0.52907E-02
  0.28042E-02  0.12558E-02 -0.52907E-02
  0.23038E-02  0.18672E-02 -0.52907E-02
 -0.40352E-03  0.28835E-02 -0.52907E-02
 -0.12093E-02  0.27118E-02 -0.52907E-02
 -0.19441E-02  0.24600E-02 -0.52907E-02
 -0.25023E-02  0.22358E-02 -0.52907E-02
 -0.26354E-02  0.16502E-02 -0.52907E-02
 -0.27612E-02  0.87990E-03 -0.52907E-02
 -0.21150E-02 -0.21374E-02 -0.52907E-02
 -0.16095E-02 -0.26935E-02 -0.52907E-02
 -0.11961E-02 -0.31291E-02 -0.52907E-02
 -0.59305E-03 -0.30381E-02 -0.52907E-02
  0.20140E-03 -0.28750E-02 -0.52907E-02
  0.10527E-02 -0.26474E-02 -0.52907E-02
  0.18421E-02 -0.23746E-02 -0.52907E-02
  0.24568E-02 -0.21549E-02 -0.52907E-02
  0.26036E-02 -0.15084E-02 -0.52907E-02
  0.37964E-02  0.93572E-03 -0.52907E-02
  0.39100E-02  0.00000E+00 -0.52907E-02
  0.34621E-02  0.18171E-02 -0.52907E-02
  0.29267E-02  0.25928E-02 -0.52907E-02
  0.22211E-02  0.32179E-02 -0.52907E-02
  0.13865E-02  0.36559E-02 -0.52907E-02
  0.47130E-03  0.38815E-02 -0.52907E-02
 -0.47130E-03  0.38815E-02 -0.52907E-02
 -0.13865E-02  0.36559E-02 -0.52907E-02
 -0.22211E-02  0.32179E-02 -0.52907E-02
 -0.29267E-02  0.25928E-02 -0.52907E-02
 -0.34621E-02  0.18171E-02 -0.52907E-02
 -0.37964E-02  0.93572E-03 -0.52907E-02
 -0.39100E-02  0.22152E-17 -0.52907E-02
 -0.37964E-02 -0.93572E-03 -0.52907E-02
 -0.34621E-02 -0.18171E-02 -0.52907E-02
 -0.29267E-02 -0.25928E-02 -0.52907E-02
 -0.22211E-02 -0.32179E-02 -0.52907E-02
 -0.13865E-02 -0.36559E-02 -0.52907E-02
 -0.47130E-03 -0.38815E-02 -0.52907E-02
  0.47130E-03 -0.38815E-02 -0.52907E-02
  0.13865E-02 -0.36559E-02 -0.52907E-02
  0.22211E-02 -0.32179E-02 -0.52907E-02
  0.29267E-02 -0.25928E-02 -0.52907E-02
  0.34621E-02 -0.18171E-02 -0.52907E-02
  0.37964E-02 -0.93572E-03 -0.52907E-02
  0.10355E-02  0.68401E-03 -0.43115E-02
  0.17416E-02  0.12440E-02 -0.43115E-02
  0.23152E-02  0.60198E-03 -0.43115E-02
  0.16655E-02 -0.32266E-03 -0.43115E-02
  0.30372E-02  0.15609E-03 -0.43115E-02
  0.27860E-02 -0.66657E-03 -0.43115E-02
  0.12829E-02  0.18449E-02 -0.43115E-02
  0.64649E-03  0.14777E-02 -0.43115E-02
  0.12232E-03  0.32230E-03 -0.43115E-02
 -0.13193E-03  0.12022E-02 -0.43115E-02
  0.93837E-03  0.22774E-02 -0.43115E-02
  0.11259E-02  0.28198E-02 -0.43115E-02
  0.17412E-02  0.24267E-02 -0.43115E-02
  0.40480E-03  0.21692E-02 -0.43115E-02
  0.39745E-03  0.29314E-02 -0.43115E-02
 -0.77011E-03 -0.10061E-02 -0.43115E-02
 -0.86822E-03  0.95155E-04 -0.43115E-02
  0.45223E-03 -0.68866E-03 -0.43115E-02
 -0.18359E-02 -0.70915E-03 -0.43115E-02
 -0.18421E-02  0.85220E-04 -0.43115E-02
 -0.27232E-02 -0.77525E-03 -0.43115E-02
 -0.27973E-02  0.46180E-04 -0.43115E-02
 -0.25396E-02 -0.15185E-02 -0.43115E-02
 -0.19373E-02 -0.13210E-02 -0.43115E-02
 -0.99075E-03  0.10156E-02 -0.43115E-02
 -0.14450E-02 -0.17317E-02 -0.43115E-02
 -0.31173E-03  0.20277E-02 -0.43115E-02
 -0.10999E-02  0.18589E-02 -0.43115E-02
 -0.18835E-02  0.17175E-02 -0.43115E-02
 -0.18687E-02  0.91419E-03 -0.43115E-02
 -0.16421E-03 -0.19805E-02 -0.43115E-02
 -0.95285E-03 -0.23494E-02 -0.43115E-02
  0.77535E-03 -0.17073E-02 -0.43115E-02
  0.17202E-02 -0.14943E-02 -0.43115E-02
  0.32115E-02  0.78047E-03 -0.43115E-02
  0.28041E-02  0.12563E-02 -0.43115E-02
  0.23037E-02  0.18672E-02 -0.43115E-02
 -0.40338E-03  0.28824E-02 -0.43115E-02
 -0.12093E-02  0.27113E-02 -0.43115E-02
 -0.19440E-02  0.24597E-02 -0.43115E-02
 -0.25023E-02  0.22358E-02 -0.43115E-02
 -0.26353E-02  0.16502E-02 -0.43115E-02
 -0.27609E-02  0.88016E-03 -0.43115E-02
 -0.21151E-02 -0.21374E-02 -0.43115E-02
 -0.16096E-02 -0.26935E-02 -0.43115E-02
 -0.11962E-02 -0.31291E-02 -0.43115E-02
 -0.59340E-03 -0.30381E-02 -0.43115E-02
  0.20099E-03 -0.28751E-02 -0.43115E-02
  0.10524E-02 -0.26476E-02 -0.43115E-02
  0.18422E-02 -0.23748E-02 -0.43115E-02
  0.24569E-02 -0.21554E-02 -0.43115E-02
  0.26036E-02 -0.15083E-02 -0.43115E-02
  0.37964E-02  0.93572E-03 -0.43115E-02
  0.39100E-02  0.00000E+00 -0.43115E-02
  0.34621E-02  0.18171E-02 -0.43115E-02
  0.29267E-02  0.25928E-02 -0.43115E-02
  0.22211E-02  0.32179E-02 -0.43115E-02
  0.13865E-02  0.36559E-02 -0.43115E-02
  0.47130E-03  0.38815E-02 -0.43115E-02
 -0.47130E-03  0.38815E-02 -0.43115E-02
 -0.13865E-02  0.36559E-02 -0.43115E-02
 -0.22211E-02  0.32179E-02 -0.43115E-02
 -0.29267E-02  0.25928E-02 -0.43115E-02
 -0.34621E-02  0.18171E-02 -0.43115E-02
 -0.37964E-02  0.93572E-03 -0.43115E-02
 -0.39100E-02 -0.47884E-18 -0.43115E-02
 -0.37964E-02 -0.93572E-03 -0.43115E-02
 -0.34621E-02 -0.18171E-02 -0.43115E-02
 -0.29267E-02 -0.25928E-02 -0.43115E-02
 -0.22211E-02 -0.32179E-02 -0.43115E-02
 -0.13865E-02 -0.36559E-02 -0.43115E-02
 -0.47130E-03 -0.38815E-02 -0.43115E-02
  0.47130E-03 -0.38815E-02 -0.43115E-02
  0.13865E-02 -0.36559E-02 -0.43115E-02
  0.22211E-02 -0.32179E-02 -0.43115E-02
  0.29267E-02 -0.25928E-02 -0.43115E-02
  0.34621E-02 -0.18171E-02 -0.43115E-02
  0.37964E-02 -0.93572E-03 -0.43115E-02
  0.10354E-02  0.68457E-03 -0.33323E-02
  0.17414E-02  0.12447E-02 -0.33323E-02
  0.23151E-02  0.60250E-03 -0.33323E-02
  0.16653E-02 -0.32191E-03 -0.33323E-02
  0.30372E-02  0.15645E-03 -0.33323E-02
  0.27863E-02 -0.66607E-03 -0.33323E-02
  0.12829E-02  0.18451E-02 -0.33323E-02
  0.64624E-03  0.14787E-02 -0.33323E-02
  0.12206E-03  0.32345E-03 -0.33323E-02
 -0.13211E-03  0.12040E-02 -0.33323E-02
  0.93804E-03  0.22775E-02 -0.33323E-02
  0.11255E-02  0.28194E-02 -0.33323E-02
  0.17408E-02  0.24268E-02 -0.33323E-02
  0.40474E-03  0.21692E-02 -0.33323E-02
  0.39744E-03  0.29311E-02 -0.33323E-02
 -0.77046E-03 -0.10062E-02 -0.33323E-02
 -0.86832E-03  0.95964E-04 -0.33323E-02
  0.45179E-03 -0.68793E-03 -0.33323E-02
 -0.18362E-02 -0.70901E-03 -0.33323E-02
 -0.18420E-02  0.85343E-04 -0.33323E-02
 -0.27232E-02 -0.77507E-03 -0.33323E-02
 -0.27970E-02  0.46453E-04 -0.33323E-02
 -0.25397E-02 -0.15184E-02 -0.33323E-02
 -0.19377E-02 -0.13209E-02 -0.33323E-02
 -0.99061E-03  0.10169E-02 -0.33323E-02
 -0.14453E-02 -0.17316E-02 -0.33323E-02
 -0.31153E-03  0.20280E-02 -0.33323E-02
 -0.10995E-02  0.18588E-02 -0.33323E-02
 -0.18834E-02  0.17175E-02 -0.33323E-02
 -0.18686E-02  0.91443E-03 -0.33323E-02
 -0.16449E-03 -0.19806E-02 -0.33323E-02
 -0.95345E-03 -0.23494E-02 -0.33323E-02
  0.77469E-03 -0.17073E-02 -0.33323E-02
  0.17202E-02 -0.14945E-02 -0.33323E-02
  0.32119E-02  0.78148E-03 -0.33323E-02
  0.28041E-02  0.12567E-02 -0.33323E-02
  0.23036E-02  0.18673E-02 -0.33323E-02
 -0.40324E-03  0.28813E-02 -0.33323E-02
 -0.12093E-02  0.27108E-02 -0.33323E-02
 -0.19440E-02  0.24595E-02 -0.33323E-02
 -0.25022E-02  0.22358E-02 -0.33323E-02
 -0.26352E-02  0.16502E-02 -0.33323E-02
 -0.27606E-02  0.88043E-03 -0.33323E-02
 -0.21152E-02 -0.21374E-02 -0.33323E-02
 -0.16096E-02 -0.26936E-02 -0.33323E-02
 -0.11963E-02 -0.31291E-02 -0.33323E-02
 -0.59375E-03 -0.30381E-02 -0.33323E-02
  0.20059E-03 -0.28751E-02 -0.33323E-02
  0.10521E-02 -0.26479E-02 -0.33323E-02
  0.18422E-02 -0.23750E-02 -0.33323E-02
  0.24570E-02 -0.21560E-02 -0.33323E-02
  0.26037E-02 -0.15082E-02 -0.33323E-02
  0.37964E-02  0.93572E-03 -0.33323E-02
  0.39100E-02  0.00000E+00 -0.33323E-02
  0.34621E-02  0.18171E-02 -0.33323E-02
  0.29267E-02  0.25928E-02 -0.33323E-02
  0.22211E-02  0.32179E-02 -0.33323E-02
  0.13865E-02  0.36559E-02 -0.33323E-02
  0.47130E-03  0.38815E-02 -0.33323E-02
 -0.47130E-03  0.38815E-02 -0.33323E-02
 -0.13865E-02  0.36559E-02 -0.33323E-02
 -0.22211E-02  0.32179E-02 -0.33323E-02
 -0.29267E-02  0.25928E-02 -0.33323E-02
 -0.34621E-02  0.18171E-02 -0.33323E-02
 -0.37964E-02  0.93572E-03 -0.33323E-02
 -0.39100E-02 -0.47884E-18 -0.33323E-02
 -0.37964E-02 -0.93572E-03 -0.33323E-02
 -0.34621E-02 -0.18171E-02 -0.33323E-02
 -0.29267E-02 -0.25928E-02 -0.33323E-02
 -0.22211E-02 -0.32179E-02 -0.33323E-02
 -0.13865E-02 -0.36559E-02 -0.33323E-02
 -0.47130E-03 -0.38815E-02 -0.33323E-02
  0.47130E-03 -0.38815E-02 -0.33323E-02
  0.13865E-02 -0.36559E-02 -0.33323E-02
  0.22211E-02 -0.32179E-02 -0.33323E-02
  0.29267E-02 -0.25928E-02 -0.33323E-02
  0.34621E-02 -0.18171E-02 -0.33323E-02
  0.37964E-02 -0.93572E-03 -0.33323E-02
  0.10352E-02  0.68512E-03 -0.23532E-02
  0.17413E-02  0.12454E-02 -0.23532E-02
  0.23150E-02  0.60302E-03 -0.23532E-02
  0.16651E-02 -0.32115E-03 -0.23532E-02
  0.30371E-02  0.15681E-03 -0.23532E-02
  0.27866E-02 -0.66558E-03 -0.23532E-02
  0.12827E-02  0.18453E-02 -0.23532E-02
  0.64600E-03  0.14797E-02 -0.23532E-02
  0.12180E-03  0.32459E-03 -0.23532E-02
 -0.13230E-03  0.12058E-02 -0.23532E-02
  0.93771E-03  0.22776E-02 -0.23532E-02
  0.11252E-02  0.28189E-02 -0.23532E-02
  0.17404E-02  0.24270E-02 -0.23532E-02
  0.40469E-03  0.21693E-02 -0.23532E-02
  0.39742E-03  0.29308E-02 -0.23532E-02
 -0.77081E-03 -0.10064E-02 -0.23532E-02
 -0.86843E-03  0.96773E-04 -0.23532E-02
  0.45134E-03 -0.68721E-03 -0.23532E-02
 -0.18365E-02 -0.70887E-03 -0.23532E-02
 -0.18419E-02  0.85467E-04 -0.23532E-02
 -0.27232E-02 -0.77490E-03 -0.23532E-02
 -0.27968E-02  0.46726E-04 -0.23532E-02
 -0.25399E-02 -0.15184E-02 -0.23532E-02
 -0.19382E-02 -0.13208E-02 -0.23532E-02
 -0.99046E-03  0.10183E-02 -0.23532E-02
 -0.14457E-02 -0.17316E-02 -0.23532E-02
 -0.31133E-03  0.20283E-02 -0.23532E-02
 -0.10992E-02  0.18586E-02 -0.23532E-02
 -0.18834E-02  0.17175E-02 -0.23532E-02
 -0.18685E-02  0.91467E-03 -0.23532E-02
 -0.16476E-03 -0.19806E-02 -0.23532E-02
 -0.95405E-03 -0.23494E-02 -0.23532E-02
  0.77402E-03 -0.17073E-02 -0.23532E-02
  0.17202E-02 -0.14948E-02 -0.23532E-02
  0.32122E-02  0.78248E-03 -0.23532E-02
  0.28041E-02  0.12571E-02 -0.23532E-02
  0.23034E-02  0.18673E-02 -0.23532E-02
 -0.40310E-03  0.28802E-02 -0.23532E-02
 -0.12093E-02  0.27103E-02 -0.23532E-02
 -0.19440E-02  0.24593E-02 -0.23532E-02
 -0.25022E-02  0.22358E-02 -0.23532E-02
 -0.26351E-02  0.16502E-02 -0.23532E-02
 -0.27602E-02  0.88069E-03 -0.23532E-02
 -0.21154E-02 -0.21374E-02 -0.23532E-02
 -0.16097E-02 -0.26936E-02 -0.23532E-02
 -0.11964E-02 -0.31291E-02 -0.23532E-02
 -0.59409E-03 -0.30381E-02 -0.23532E-02
  0.20018E-03 -0.28751E-02 -0.23532E-02
  0.10518E-02 -0.26482E-02 -0.23532E-02
  0.18422E-02 -0.23752E-02 -0.23532E-02
  0.24571E-02 -0.21565E-02 -0.23532E-02
  0.26038E-02 -0.15081E-02 -0.23532E-02
  0.37964E-02  0.93572E-03 -0.23532E-02
  0.39100E-02  0.00000E+00 -0.23532E-02
  0.34621E-02  0.18171E-02 -0.23532E-02
  0.29267E-02  0.25928E-02 -0.23532E-02
  0.22211E-02  0.32179E-02 -0.23532E-02
  0.13865E-02  0.36559E-02 -0.23532E-02
  0.47130E-03  0.38815E-02 -0.23532E-02
 -0.47130E-03  0.38815E-02 -0.23532E-02
 -0.13865E-02  0.36559E-02 -0.23532E-02
 -0.22211E-02  0.32179E-02 -0.23532E-02
 -0.29267E-02  0.25928E-02 -0.23532E-02
 -0.34621E-02  0.18171E-02 -0.23532E-02
 -0.37964E-02  0.93572E-03 -0.23532E-02
 -0.39100E-02 -0.47884E-18 -0.23532E-02
 -0.37964E-02 -0.93572E-03 -0.23532E-02
 -0.34621E-02 -0.18171E-02 -0.23532E-02
 -0.29267E-02 -0.25928E-02 -0.23532E-02
 -0.22211E-02 -0.32179E-02 -0.23532E-02
 -0.13865E-02 -0.36559E-02 -0.23532E-02
 -0.47130E-03 -0.38815E-02 -0.23532E-02
  0.47130E-03 -0.38815E-02 -0.23532E-02
  0.13865E-02 -0.36559E-02 -0.23532E-02
  0.22211E-02 -0.32179E-02 -0.23532E-02
  0.29267E-02 -0.25928E-02 -0.23532E-02
  0.34621E-02 -0.18171E-02 -0.23532E-02
  0.37964E-02 -0.93572E-03 -0.23532E-02
  0.10351E-02  0.68567E-03 -0.13740E-02
  0.17411E-02  0.12460E-02 -0.13740E-02
  0.23149E-02  0.60355E-03 -0.13740E-02
  0.16649E-02 -0.32040E-03 -0.13740E-02
  0.30371E-02  0.15718E-03 -0.13740E-02
  0.27870E-02 -0.66509E-03 -0.13740E-02
  0.12826E-02  0.18455E-02 -0.13740E-02
  0.64575E-03  0.14807E-02 -0.13740E-02
  0.12154E-03  0.32574E-03 -0.13740E-02
 -0.13248E-03  0.12075E-02 -0.13740E-02
  0.93738E-03  0.22777E-02 -0.13740E-02
  0.11249E-02  0.28185E-02 -0.13740E-02
  0.17400E-02  0.24271E-02 -0.13740E-02
  0.40463E-03  0.21693E-02 -0.13740E-02
  0.39740E-03  0.29306E-02 -0.13740E-02
 -0.77117E-03 -0.10065E-02 -0.13740E-02
 -0.86854E-03  0.97583E-04 -0.13740E-02
  0.45089E-03 -0.68648E-03 -0.13740E-02
 -0.18368E-02 -0.70873E-03 -0.13740E-02
 -0.18418E-02  0.85591E-04 -0.13740E-02
 -0.27232E-02 -0.77474E-03 -0.13740E-02
 -0.27965E-02  0.47000E-04 -0.13740E-02
 -0.25400E-02 -0.15183E-02 -0.13740E-02
 -0.19386E-02 -0.13207E-02 -0.13740E-02
 -0.99032E-03  0.10197E-02 -0.13740E-02
 -0.14460E-02 -0.17316E-02 -0.13740E-02
 -0.31113E-03  0.20285E-02 -0.13740E-02
 -0.10988E-02  0.18585E-02 -0.13740E-02
 -0.18833E-02  0.17175E-02 -0.13740E-02
 -0.18683E-02  0.91491E-03 -0.13740E-02
 -0.16504E-03 -0.19806E-02 -0.13740E-02
 -0.95465E-03 -0.23495E-02 -0.13740E-02
  0.77336E-03 -0.17073E-02 -0.13740E-02
  0.17201E-02 -0.14950E-02 -0.13740E-02
  0.32125E-02  0.78348E-03 -0.13740E-02
  0.28041E-02  0.12576E-02 -0.13740E-02
  0.23033E-02  0.18674E-02 -0.13740E-02
 -0.40296E-03  0.28792E-02 -0.13740E-02
 -0.12093E-02  0.27099E-02 -0.13740E-02
 -0.19439E-02  0.24591E-02 -0.13740E-02
 -0.25022E-02  0.22358E-02 -0.13740E-02
 -0.26350E-02  0.16502E-02 -0.13740E-02
 -0.27599E-02  0.88095E-03 -0.13740E-02
 -0.21155E-02 -0.21374E-02 -0.13740E-02
 -0.16097E-02 -0.26936E-02 -0.13740E-02
 -0.11965E-02 -0.31290E-02 -0.13740E-02
 -0.59444E-03 -0.30381E-02 -0.13740E-02
  0.19977E-03 -0.28751E-02 -0.13740E-02
  0.10515E-02 -0.26484E-02 -0.13740E-02
  0.18423E-02 -0.23754E-02 -0.13740E-02
  0.24573E-02 -0.21571E-02 -0.13740E-02
  0.26039E-02 -0.15080E-02 -0.13740E-02
  0.37964E-02  0.93572E-03 -0.13740E-02
  0.39100E-02  0.00000E+00 -0.13740E-02
  0.34621E-02  0.18171E-02 -0.13740E-02
  0.29267E-02  0.25928E-02 -0.13740E-02
  0.22211E-02  0.32179E-02 -0.13740E-02
  0.13865E-02  0.36559E-02 -0.13740E-02
  0.47130E-03  0.38815E-02 -0.13740E-02
 -0.47130E-03  0.38815E-02 -0.13740E-02
 -0.13865E-02  0.36559E-02 -0.13740E-02
 -0.22211E-02  0.32179E-02 -0.13740E-02
 -0.29267E-02  0.25928E-02 -0.13740E-02
 -0.34621E-02  0.18171E-02 -0.13740E-02
 -0.37964E-02  0.93572E-03 -0.13740E-02
 -0.39100E-02  0.47884E-18 -0.13740E-02
 -0.37964E-02 -0.93572E-03 -0.13740E-02
 -0.34621E-02 -0.18171E-02 -0.13740E-02
 -0.29267E-02 -0.25928E-02 -0.13740E-02
 -0.22211E-02 -0.32179E-02 -0.13740E-02
 -0.13865E-02 -0.36559E-02 -0.13740E-02
 -0.47130E-03 -0.38815E-02 -0.13740E-02
  0.47130E-03 -0.38815E-02 -0.13740E-02
  0.13865E-02 -0.36559E-02 -0.13740E-02
  0.22211E-02 -0.32179E-02 -0.13740E-02
  0.29267E-02 -0.25928E-02 -0.13740E-02
  0.34621E-02 -0.18171E-02 -0.13740E-02
  0.37964E-02 -0.93572E-03 -0.13740E-02
  
CELLS       3486               17724
       1       0
       1       1
       1       2
       1       3
       1       4
       1       5
       1       6
       1       7
       1       8
       1       9
       1      10
       1      11
       1      12
       1      13
       1      14
       1      15
       1      16
       1      17
       1      18
       1      19
       1      20
       1      21
       1      22
       1      23
       1      24
       1      25
       1      26
       1      27
       1      28
       1      29
       1      30
       1      31
       1      32
       1      33
       1      34
       1      35
       1      36
       1      37
       1      38
       1      39
       1      40
       1      41
       1      42
       1      43
       1      44
       1      45
       1      46
       1      47
       1      48
       1      49
       1      50
       1      51
       1      52
       1      53
       1      54
       1      55
       1      56
       1      57
       1      58
       1      59
       1      60
       1      61
       1      62
       1      63
       1      64
       1      65
       1      66
       1      67
       1      68
       1      69
       1      70
       1      71
       1      72
       1      73
       1      74
       1      75
       1      76
       1      77
       1      78
       1      79
       1      80
       1      81
       1      82
       1      83
       1      84
       1      85
       1      86
       1      87
       1      88
       1      89
       1      90
       1      91
       1      92
       1      93
       1      94
       1      95
       1      96
       1      97
       1      98
       1      99
       1     100
       1     101
       1     102
       1     103
       1     104
       1     105
       1     106
       1     107
       1     108
       1     109
       1     110
       1     111
       1     112
       1     113
       1     114
       1     115
       1     116
       1     117
       1     118
       1     119
       1     120
       1     121
       1     122
       1     123
       1     124
       1     125
       1     126
       1     127
       1     128
       1     129
       1     130
       1     131
       1     132
       1     133
       1     134
       1     135
       1     136
       1     137
       1     138
       1     139
       1     140
       1     141
       1     142
       1     143
       1     144
       1     145
       1     146
       1     147
       1     148
       1     149
       1     150
       1     151
       1     152
       1     153
       1     154
       1     155
       1     156
       1     157
       1     158
       1     159
       1     160
       1     161
       1     162
       1     163
       1     164
       1     165
       1     166
       1     167
       1     168
       1     169
       1     170
       1     171
       1     172
       1     173
       1     174
       1     175
       1     176
       1     177
       1     178
       1     179
       1     180
       1     181
       1     182
       1     183
       1     184
       1     185
       1     186
       1     187
       1     188
       1     189
       1     190
       1     191
       1     192
       1     193
       1     194
       1     195
       1     196
       1     197
       1     198
       1     199
       1     200
       1     201
       1     202
       1     203
       1     204
       1     205
       1     206
       1     207
       1     208
       1     209
       1     210
       1     211
       1     212
       1     213
       1     214
       1     215
       1     216
       1     217
       1     218
       1     219
       1     220
       1     221
       1     222
       1     223
       1     224
       1     225
       1     226
       1     227
       1     228
       1     229
       1     230
       1     231
       1     232
       1     233
       1     234
       1     235
       1     236
       1     237
       1     238
       1     239
       1     240
       1     241
       1     242
       1     243
       1     244
       1     245
       1     246
       1     247
       1     248
       1     249
       1     250
       1     251
       1     252
       1     253
       1     254
       1     255
       1     256
       1     257
       1     258
       1     259
       1     260
       1     261
       1     262
       1     263
       1     264
       1     265
       1     266
       1     267
       1     268
       1     269
       1     270
       1     271
       1     272
       1     273
       1     274
       1     275
       1     276
       1     277
       1     278
       1     279
       1     280
       1     281
       1     282
       1     283
       1     284
       1     285
       1     286
       1     287
       1     288
       1     289
       1     290
       1     291
       1     292
       1     293
       1     294
       1     295
       1     296
       1     297
       1     298
       1     299
       1     300
       1     301
       1     302
       1     303
       1     304
       1     305
       1     306
       1     307
       1     308
       1     309
       1     310
       1     311
       1     312
       1     313
       1     314
       1     315
       1     316
       1     317
       1     318
       1     319
       1     320
       1     321
       1     322
       1     323
       1     324
       1     325
       1     326
       1     327
       1     328
       1     329
       1     330
       1     331
       1     332
       1     333
       1     334
       1     335
       1     336
       1     337
       1     338
       1     339
       1     340
       1     341
       1     342
       1     343
       1     344
       1     345
       1     346
       1     347
       1     348
       1     349
       1     350
       1     351
       1     352
       1     353
       1     354
       1     355
       1     356
       1     357
       1     358
       1     359
       1     360
       1     361
       1     362
       1     363
       1     364
       1     365
       1     366
       1     367
       1     368
       1     369
       1     370
       1     371
       1     372
       1     373
       1     374
       1     375
       1     376
       1     377
       1     378
       1     379
       1     380
       1     381
       1     382
       1     383
       1     384
       1     385
       1     386
       1     387
       1     388
       1     389
       1     390
       1     391
       1     392
       1     393
       1     394
       1     395
       1     396
       1     397
       1     398
       1     399
       1     400
       1     401
       1     402
       1     403
       1     404
       1     405
       1     406
       1     407
       1     408
       1     409
       1     410
       1     411
       1     412
       1     413
       1     414
       1     415
       1     416
       1     417
       1     418
       1     419
       1     420
       1     421
       1     422
       1     423
       1     424
       1     425
       1     426
       1     427
       1     428
       1     429
       1     430
       1     431
       1     432
       1     433
       1     434
       1     435
       1     436
       1     437
       1     438
       1     439
       1     440
       1     441
       1     442
       1     443
       1     444
       1     445
       1     446
       1     447
       1     448
       1     449
       1     450
       1     451
       1     452
       1     453
       1     454
       1     455
       1     456
       1     457
       1     458
       1     459
       1     460
       1     461
       1     462
       1     463
       1     464
       1     465
       1     466
       1     467
       1     468
       1     469
       1     470
       1     471
       1     472
       1     473
       1     474
       1     475
       1     476
       1     477
       1     478
       1     479
       1     480
       1     481
       1     482
       1     483
       1     484
       1     485
       1     486
       1     487
       1     488
       1     489
       1     490
       1     491
       1     492
       1     493
       1     494
       1     495
       1     496
       1     497
       1     498
       1     499
       1     500
       1     501
       1     502
       1     503
       1     504
       1     505
       1     506
       1     507
       1     508
       1     509
       1     510
       1     511
       1     512
       1     513
       1     514
       1     515
       1     516
       1     517
       1     518
       1     519
       1     520
       1     521
       1     522
       1     523
       1     524
       1     525
       1     526
       1     527
       1     528
       1     529
       1     530
       1     531
       1     532
       1     533
       1     534
       1     535
       1     536
       1     537
       1     538
       1     539
       1     540
       1     541
       1     542
       1     543
       1     544
       1     545
       1     546
       1     547
       1     548
       1     549
       1     550
       1     551
       1     552
       1     553
       1     554
       1     555
       1     556
       1     557
       1     558
       1     559
       1     560
       1     561
       1     562
       1     563
       1     564
       1     565
       1     566
       1     567
       1     568
       1     569
       1     570
       1     571
       1     572
       1     573
       1     574
       1     575
       1     576
       1     577
       1     578
       1     579
       1     580
       1     581
       1     582
       1     583
       1     584
       1     585
       1     586
       1     587
       1     588
       1     589
       1     590
       1     591
       1     592
       1     593
       1     594
       1     595
       1     596
       1     597
       1     598
       1     599
       1     600
       1     601
       1     602
       1     603
       1     604
       1     605
       1     606
       1     607
       1     608
       1     609
       1     610
       1     611
       1     612
       1     613
       1     614
       1     615
       1     616
       1     617
       1     618
       1     619
       1     620
       1     621
       1     622
       1     623
       1     624
       1     625
       1     626
       1     627
       1     628
       1     629
       1     630
       1     631
       1     632
       1     633
       1     634
       1     635
       1     636
       1     637
       1     638
       1     639
       1     640
       1     641
       1     642
       1     643
       1     644
       1     645
       1     646
       1     647
       1     648
       1     649
       1     650
       1     651
       1     652
       1     653
       1     654
       1     655
       1     656
       1     657
       1     658
       1     659
       1     660
       1     661
       1     662
       1     663
       1     664
       1     665
       1     666
       1     667
       1     668
       1     669
       1     670
       1     671
       1     672
       1     673
       1     674
       1     675
       1     676
       1     677
       1     678
       1     679
       1     680
       1     681
       1     682
       1     683
       1     684
       1     685
       1     686
       1     687
       1     688
       1     689
       1     690
       1     691
       1     692
       1     693
       1     694
       1     695
       1     696
       1     697
       1     698
       1     699
       1     700
       1     701
       1     702
       1     703
       1     704
       1     705
       1     706
       1     707
       1     708
       1     709
       1     710
       1     711
       1     712
       1     713
       1     714
       1     715
       1     716
       1     717
       1     718
       1     719
       1     720
       1     721
       1     722
       1     723
       1     724
       1     725
       1     726
       1     727
       1     728
       1     729
       1     730
       1     731
       1     732
       1     733
       1     734
       1     735
       1     736
       1     737
       1     738
       1     739
       1     740
       1     741
       1     742
       1     743
       1     744
       1     745
       1     746
       1     747
       1     748
       1     749
       1     750
       1     751
       1     752
       1     753
       1     754
       1     755
       1     756
       1     757
       1     758
       1     759
       1     760
       1     761
       1     762
       1     763
       1     764
       1     765
       1     766
       1     767
       1     768
       1     769
       1     770
       1     771
       1     772
       1     773
       1     774
       1     775
       1     776
       1     777
       1     778
       1     779
       1     780
       1     781
       1     782
       1     783
       1     784
       1     785
       1     786
       1     787
       1     788
       1     789
       1     790
       1     791
       1     792
       1     793
       1     794
       1     795
       1     796
       1     797
       1     798
       1     799
       1     800
       1     801
       1     802
       1     803
       1     804
       1     805
       1     806
       1     807
       1     808
       1     809
       1     810
       1     811
       1     812
       1     813
       1     814
       1     815
       1     816
       1     817
       1     818
       1     819
       1     820
       1     821
       1     822
       1     823
       1     824
       1     825
       1     826
       1     827
       1     828
       1     829
       1     830
       1     831
       1     832
       1     833
       1     834
       1     835
       1     836
       1     837
       1     838
       1     839
       1     840
       1     841
       1     842
       1     843
       1     844
       1     845
       1     846
       1     847
       1     848
       1     849
       1     850
       1     851
       1     852
       1     853
       1     854
       1     855
       1     856
       1     857
       1     858
       1     859
       1     860
       1     861
       1     862
       1     863
       1     864
       1     865
       1     866
       1     867
       1     868
       1     869
       1     870
       1     871
       1     872
       1     873
       1     874
       1     875
       1     876
       1     877
       1     878
       1     879
       1     880
       1     881
       1     882
       1     883
       1     884
       1     885
       1     886
       1     887
       1     888
       1     889
       1     890
       1     891
       1     892
       1     893
       1     894
       1     895
       1     896
       1     897
       1     898
       1     899
       1     900
       1     901
       1     902
       1     903
       1     904
       1     905
       1     906
       1     907
       1     908
       1     909
       1     910
       1     911
       1     912
       1     913
       1     914
       1     915
       1     916
       1     917
       1     918
       1     919
       1     920
       1     921
       1     922
       1     923
       1     924
       1     925
       1     926
       1     927
       1     928
       1     929
       1     930
       1     931
       1     932
       1     933
       1     934
       1     935
       1     936
       1     937
       1     938
       1     939
       1     940
       1     941
       1     942
       1     943
       1     944
       1     945
       1     946
       1     947
       1     948
       1     949
       1     950
       1     951
       1     952
       1     953
       1     954
       1     955
       1     956
       1     957
       1     958
       1     959
       1     960
       1     961
       1     962
       1     963
       1     964
       1     965
       1     966
       1     967
       1     968
       1     969
       1     970
       1     971
       1     972
       1     973
       1     974
       1     975
       1     976
       1     977
       1     978
       1     979
       1     980
       1     981
       1     982
       1     983
       1     984
       1     985
       1     986
       1     987
       1     988
       1     989
       1     990
       1     991
       1     992
       1     993
       1     994
       1     995
       1     996
       1     997
       1     998
       1     999
       1    1000
       1    1001
       1    1002
       1    1003
       1    1004
       1    1005
       1    1006
       1    1007
       1    1008
       1    1009
       1    1010
       1    1011
       1    1012
       1    1013
       1    1014
       1    1015
       1    1016
       1    1017
       1    1018
       1    1019
       1    1020
       1    1021
       1    1022
       1    1023
       1    1024
       1    1025
       1    1026
       1    1027
       1    1028
       1    1029
       1    1030
       1    1031
       1    1032
       1    1033
       1    1034
       1    1035
       1    1036
       1    1037
       1    1038
       1    1039
       1    1040
       1    1041
       1    1042
       1    1043
       1    1044
       1    1045
       1    1046
       1    1047
       1    1048
       1    1049
       1    1050
       1    1051
       1    1052
       1    1053
       1    1054
       1    1055
       1    1056
       1    1057
       1    1058
       1    1059
       1    1060
       1    1061
       1    1062
       1    1063
       1    1064
       1    1065
       1    1066
       1    1067
       1    1068
       1    1069
       1    1070
       1    1071
       1    1072
       1    1073
       1    1074
       1    1075
       1    1076
       1    1077
       1    1078
       1    1079
       1    1080
       1    1081
       1    1082
       1    1083
       1    1084
       1    1085
       1    1086
       1    1087
       1    1088
       1    1089
       1    1090
       1    1091
       1    1092
       1    1093
       1    1094
       1    1095
       1    1096
       1    1097
       1    1098
       1    1099
       1    1100
       1    1101
       1    1102
       1    1103
       1    1104
       1    1105
       1    1106
       1    1107
       1    1108
       1    1109
       1    1110
       1    1111
       1    1112
       1    1113
       1    1114
       1    1115
       1    1116
       1    1117
       1    1118
       1    1119
       1    1120
       1    1121
       1    1122
       1    1123
       1    1124
       1    1125
       1    1126
       1    1127
       1    1128
       1    1129
       1    1130
       1    1131
       1    1132
       1    1133
       1    1134
       1    1135
       1    1136
       1    1137
       1    1138
       1    1139
       1    1140
       1    1141
       1    1142
       1    1143
       1    1144
       1    1145
       1    1146
       1    1147
       1    1148
       1    1149
       1    1150
       1    1151
       1    1152
       1    1153
       1    1154
       1    1155
       1    1156
       1    1157
       1    1158
       1    1159
       1    1160
       1    1161
       1    1162
       1    1163
       1    1164
       1    1165
       1    1166
       1    1167
       1    1168
       1    1169
       1    1170
       1    1171
       1    1172
       1    1173
       1    1174
       1    1175
       1    1176
       1    1177
       1    1178
       1    1179
       1    1180
       1    1181
       1    1182
       1    1183
       1    1184
       1    1185
       1    1186
       1    1187
       1    1188
       1    1189
       1    1190
       1    1191
       1    1192
       1    1193
       1    1194
       1    1195
       1    1196
       1    1197
       1    1198
       1    1199
       1    1200
       1    1201
       1    1202
       1    1203
       1    1204
       1    1205
       1    1206
       1    1207
       1    1208
       1    1209
       1    1210
       1    1211
       1    1212
       1    1213
       1    1214
       1    1215
       1    1216
       1    1217
       1    1218
       1    1219
       1    1220
       1    1221
       1    1222
       1    1223
       1    1224
       1    1225
       1    1226
       1    1227
       1    1228
       1    1229
       1    1230
       1    1231
       1    1232
       1    1233
       1    1234
       1    1235
       1    1236
       1    1237
       1    1238
       1    1239
       1    1240
       1    1241
       1    1242
       1    1243
       1    1244
       1    1245
       1    1246
       1    1247
       1    1248
       1    1249
       1    1250
       1    1251
       1    1252
       1    1253
       1    1254
       1    1255
       1    1256
       1    1257
       1    1258
       1    1259
       1    1260
       1    1261
       1    1262
       1    1263
       1    1264
       1    1265
       1    1266
       1    1267
       1    1268
       1    1269
       1    1270
       1    1271
       1    1272
       1    1273
       1    1274
       1    1275
       1    1276
       1    1277
       1    1278
       1    1279
       1    1280
       1    1281
       1    1282
       1    1283
       1    1284
       1    1285
       1    1286
       1    1287
       1    1288
       1    1289
       1    1290
       1    1291
       1    1292
       1    1293
       1    1294
       1    1295
       1    1296
       1    1297
       1    1298
       1    1299
       1    1300
       1    1301
       1    1302
       1    1303
       1    1304
       1    1305
       1    1306
       1    1307
       1    1308
       1    1309
       1    1310
       1    1311
       1    1312
       1    1313
       1    1314
       1    1315
       1    1316
       1    1317
       1    1318
       1    1319
       1    1320
       1    1321
       1    1322
       1    1323
       1    1324
       1    1325
       1    1326
       1    1327
       1    1328
       1    1329
       1    1330
       1    1331
       1    1332
       1    1333
       1    1334
       1    1335
       1    1336
       1    1337
       1    1338
       1    1339
       1    1340
       1    1341
       1    1342
       1    1343
       1    1344
       1    1345
       1    1346
       1    1347
       1    1348
       1    1349
       1    1350
       1    1351
       1    1352
       1    1353
       1    1354
       1    1355
       1    1356
       1    1357
       1    1358
       1    1359
       1    1360
       1    1361
       1    1362
       1    1363
       1    1364
       1    1365
       1    1366
       1    1367
       1    1368
       1    1369
       1    1370
       1    1371
       1    1372
       1    1373
       1    1374
       1    1375
       1    1376
       1    1377
       1    1378
       1    1379
       1    1380
       1    1381
       1    1382
       1    1383
       1    1384
       1    1385
       1    1386
       1    1387
       1    1388
       1    1389
       1    1390
       1    1391
       1    1392
       1    1393
       1    1394
       1    1395
       1    1396
       1    1397
       1    1398
       1    1399
       1    1400
       1    1401
       1    1402
       1    1403
       1    1404
       1    1405
       1    1406
       1    1407
       1    1408
       1    1409
       1    1410
       1    1411
       1    1412
       1    1413
       1    1414
       1    1415
       1    1416
       1    1417
       1    1418
       1    1419
       1    1420
       1    1421
       1    1422
       1    1423
       1    1424
       1    1425
       1    1426
       1    1427
       1    1428
       1    1429
       1    1430
       1    1431
       1    1432
       1    1433
       1    1434
       1    1435
       1    1436
       1    1437
       1    1438
       1    1439
       1    1440
       1    1441
       1    1442
       1    1443
       1    1444
       1    1445
       1    1446
       1    1447
       1    1448
       1    1449
       1    1450
       1    1451
       1    1452
       1    1453
       1    1454
       1    1455
       1    1456
       1    1457
       1    1458
       1    1459
       1    1460
       1    1461
       1    1462
       1    1463
       1    1464
       1    1465
       1    1466
       1    1467
       1    1468
       1    1469
       1    1470
       1    1471
       1    1472
       1    1473
       1    1474
       1    1475
       1    1476
       1    1477
       1    1478
       1    1479
       1    1480
       1    1481
       1    1482
       1    1483
       1    1484
       1    1485
       1    1486
       1    1487
       1    1488
       1    1489
       1    1490
       1    1491
       1    1492
       1    1493
       1    1494
       1    1495
       1    1496
       1    1497
       1    1498
       1    1499
       1    1500
       1    1501
       1    1502
       1    1503
       1    1504
       1    1505
       1    1506
       1    1507
       1    1508
       1    1509
       1    1510
       1    1511
       1    1512
       1    1513
       1    1514
       1    1515
       1    1516
       1    1517
       1    1518
       1    1519
       1    1520
       1    1521
       1    1522
       1    1523
       1    1524
       1    1525
       1    1526
       1    1527
       1    1528
       1    1529
       1    1530
       1    1531
       1    1532
       1    1533
       1    1534
       1    1535
       1    1536
       1    1537
       1    1538
       1    1539
       1    1540
       1    1541
       1    1542
       1    1543
       1    1544
       1    1545
       1    1546
       1    1547
       1    1548
       1    1549
       1    1550
       1    1551
       1    1552
       1    1553
       1    1554
       1    1555
       1    1556
       1    1557
       1    1558
       1    1559
       1    1560
       1    1561
       1    1562
       1    1563
       1    1564
       1    1565
       1    1566
       1    1567
       1    1568
       1    1569
       1    1570
       1    1571
       1    1572
       1    1573
       1    1574
       1    1575
       1    1576
       1    1577
       1    1578
       1    1579
       1    1580
       1    1581
       1    1582
       1    1583
       1    1584
       1    1585
       1    1586
       1    1587
       1    1588
       1    1589
       1    1590
       1    1591
       1    1592
       1    1593
       1    1594
       1    1595
       1    1596
       1    1597
       1    1598
       1    1599
       1    1600
       1    1601
       1    1602
       1    1603
       1    1604
       1    1605
       1    1606
       1    1607
       1    1608
       1    1609
       1    1610
       1    1611
       1    1612
       1    1613
       1    1614
       1    1615
       1    1616
       1    1617
       1    1618
       1    1619
       1    1620
       1    1621
       1    1622
       1    1623
       1    1624
       1    1625
       1    1626
       1    1627
       1    1628
       1    1629
       1    1630
       1    1631
       1    1632
       1    1633
       1    1634
       1    1635
       1    1636
       1    1637
       1    1638
       1    1639
       1    1640
       1    1641
       1    1642
       1    1643
       1    1644
       1    1645
       1    1646
       1    1647
       1    1648
       1    1649
       1    1650
       1    1651
       1    1652
       1    1653
       1    1654
       1    1655
       1    1656
       1    1657
       1    1658
       1    1659
       1    1660
       1    1661
       1    1662
       1    1663
       1    1664
       1    1665
       1    1666
       1    1667
       1    1668
       1    1669
       1    1670
       1    1671
       1    1672
       1    1673
       1    1674
       1    1675
       1    1676
       1    1677
       1    1678
       1    1679
       1    1680
       1    1681
       1    1682
       1    1683
       1    1684
       1    1685
       1    1686
       1    1687
       1    1688
       1    1689
       1    1690
       1    1691
       1    1692
       1    1693
       1    1694
       1    1695
       1    1696
       1    1697
       1    1698
       1    1699
       1    1700
       1    1701
       1    1702
       1    1703
       1    1704
       1    1705
       1    1706
       1    1707
       1    1708
       1    1709
       1    1710
       1    1711
       1    1712
       1    1713
       1    1714
       1    1715
       1    1716
       1    1717
       1    1718
       1    1719
       1    1720
       1    1721
       1    1722
       1    1723
       1    1724
       1    1725
       1    1726
       1    1727
       1    1728
       1    1729
       1    1730
       1    1731
       1    1732
       1    1733
       1    1734
       1    1735
       1    1736
       1    1737
       1    1738
       1    1739
       1    1740
       1    1741
       1    1742
       1    1743
       1    1744
       1    1745
       1    1746
       1    1747
       1    1748
       1    1749
       1    1750
       1    1751
       1    1752
       1    1753
       1    1754
       1    1755
       1    1756
       1    1757
       1    1758
       1    1759
       1    1760
       1    1761
       1    1762
       1    1763
       1    1764
       1    1765
       1    1766
       1    1767
       1    1768
       1    1769
       1    1770
       1    1771
       1    1772
       1    1773
       1    1774
       1    1775
       1    1776
       1    1777
       1    1778
       1    1779
       1    1780
       1    1781
       1    1782
       1    1783
       1    1784
       1    1785
       1    1786
       1    1787
       1    1788
       1    1789
       1    1790
       1    1791
       1    1792
       1    1793
       1    1794
       1    1795
       1    1796
       1    1797
       1    1798
       1    1799
       1    1800
       1    1801
       1    1802
       1    1803
       1    1804
       1    1805
       1    1806
       1    1807
       1    1808
       1    1809
       1    1810
       1    1811
       1    1812
       1    1813
       1    1814
       1    1815
       1    1816
       1    1817
       1    1818
       1    1819
       1    1820
       1    1821
       1    1822
       1    1823
       1    1824
       1    1825
       1    1826
       1    1827
       1    1828
       1    1829
       1    1830
       1    1831
       1    1832
       1    1833
       1    1834
       1    1835
       1    1836
       1    1837
       1    1838
       1    1839
       1    1840
       1    1841
       1    1842
       1    1843
       1    1844
       1    1845
       1    1846
       1    1847
       1    1848
       1    1849
       1    1850
       1    1851
       1    1852
       1    1853
       1    1854
       1    1855
       1    1856
       1    1857
       1    1858
       1    1859
       1    1860
       1    1861
       1    1862
       1    1863
       1    1864
       1    1865
       1    1866
       1    1867
       1    1868
       1    1869
       1    1870
       1    1871
       1    1872
       1    1873
       1    1874
       1    1875
       1    1876
       1    1877
       1    1878
       1    1879
       1    1880
       1    1881
       1    1882
       1    1883
       1    1884
       1    1885
       1    1886
       1    1887
       1    1888
       1    1889
       1    1890
       1    1891
       1    1892
       1    1893
       1    1894
       1    1895
       1    1896
       1    1897
       1    1898
       1    1899
       1    1900
       1    1901
       1    1902
       1    1903
       1    1904
       1    1905
       1    1906
       1    1907
       1    1908
       1    1909
       1    1910
       1    1911
       1    1912
       1    1913
       1    1914
       1    1915
       1    1916
       1    1917
       1    1918
       1    1919
       1    1920
       1    1921
       1    1922
       1    1923
       1    1924
       1    1925
       1    1926
       1    1927
       1    1928
       1    1929
       1    1930
       1    1931
       1    1932
       1    1933
       1    1934
       1    1935
       1    1936
       1    1937
       1    1938
       1    1939
       1    1940
       1    1941
       1    1942
       1    1943
       1    1944
       1    1945
       1    1946
       1    1947
       1    1948
       1    1949
       8       0       1       2       3       4       5       6       7
       8       2       8       9       3       6      10      11       7
       8      12       1       0      13      14       5       4      15
       8       0      16      17      13       4      18      19      15
       8      20      21      22      12      23      24      25      14
       8      26      27      21      20      28      29      24      23
       8      13      26      20      12      15      28      23      14
       8      30      31      16      32      33      34      18      35
       8      36      37      31      30      38      39      34      33
       8      40      41      37      36      42      43      39      38
       8      44      40      36      45      46      42      38      47
       8      48      17      16      31      49      19      18      34
       8      30      50      45      36      33      51      47      38
       8       0       3      32      16       4       7      35      18
       8      52      26      13      17      53      28      15      19
       8      54      52      17      48      55      53      19      49
       8      56      54      48      57      58      55      49      59
       8      37      57      48      31      39      59      49      34
       8      60      61      50      30      62      63      51      33
       8      64      60      30      32      65      62      33      35
       8      66      64      32       3      67      65      35       7
       8      68       8       2      69      70      10       6      71
       8      72      69       2       1      73      71       6       5
       8      22      72       1      12      25      73       5      14
       8      74      27      26      52      75      29      28      53
       8      76      74      52      54      77      75      53      55
       8      78      76      54      56      79      77      55      58
       8      80      78      56      81      82      79      58      83
       8      84      81      56      57      85      83      58      59
       8      41      84      57      37      43      85      59      39
       8      86      44      45      50      87      46      47      51
       8      88      86      50      61      89      87      51      63
       8      90      88      61      91      92      89      63      93
       8      94      91      61      60      95      93      63      62
       8      96      94      60      64      97      95      62      65
       8      98      96      64      66      99      97      65      67
       8     100      98      66     101     102      99      67     103
       8       9     101      66       3      11     103      67       7
       8     104     105       8      68     106     107      10      70
       8     108     104      68      69     109     106      70      71
       8     110     108      69      72     111     109      71      73
       8     112     110      72      22     113     111      73      25
       8     114     112      22      21     115     113      25      24
       8     116     114      21      27     117     115      24      29
       8     118     116      27      74     119     117      29      75
       8     120     118      74      76     121     119      75      77
       8     122     120      76      78     123     121      77      79
       8     124     122      78      80     125     123      79      82
       8     126     124      80      81     127     125      82      83
       8     128     126      81      84     129     127      83      85
       8     130     128      84      41     131     129      85      43
       8     132     130      41      40     133     131      43      42
       8     134     132      40      44     135     133      42      46
       8     136     134      44      86     137     135      46      87
       8     138     136      86      88     139     137      87      89
       8     140     138      88      90     141     139      89      92
       8     142     140      90      91     143     141      92      93
       8     144     142      91      94     145     143      93      95
       8     146     144      94      96     147     145      95      97
       8     148     146      96      98     149     147      97      99
       8     150     148      98     100     151     149      99     102
       8     152     150     100     101     153     151     102     103
       8     154     152     101       9     155     153     103      11
       8     105     154       9       8     107     155      11      10
       8     156     157     158     159       0       1       2       3
       8     158     160     161     159       2       8       9       3
       8     162     157     156     163      12       1       0      13
       8     156     164     165     163       0      16      17      13
       8     166     167     168     162      20      21      22      12
       8     169     170     167     166      26      27      21      20
       8     163     169     166     162      13      26      20      12
       8     171     172     164     173      30      31      16      32
       8     174     175     172     171      36      37      31      30
       8     176     177     175     174      40      41      37      36
       8     178     176     174     179      44      40      36      45
       8     180     165     164     172      48      17      16      31
       8     171     181     179     174      30      50      45      36
       8     156     159     173     164       0       3      32      16
       8     182     169     163     165      52      26      13      17
       8     183     182     165     180      54      52      17      48
       8     184     183     180     185      56      54      48      57
       8     175     185     180     172      37      57      48      31
       8     186     187     181     171      60      61      50      30
       8     188     186     171     173      64      60      30      32
       8     189     188     173     159      66      64      32       3
       8     190     160     158     191      68       8       2      69
       8     192     191     158     157      72      69       2       1
       8     168     192     157     162      22      72       1      12
       8     193     170     169     182      74      27      26      52
       8     194     193     182     183      76      74      52      54
       8     195     194     183     184      78      76      54      56
       8     196     195     184     197      80      78      56      81
       8     198     197     184     185      84      81      56      57
       8     177     198     185     175      41      84      57      37
       8     199     178     179     181      86      44      45      50
       8     200     199     181     187      88      86      50      61
       8     201     200     187     202      90      88      61      91
       8     203     202     187     186      94      91      61      60
       8     204     203     186     188      96      94      60      64
       8     205     204     188     189      98      96      64      66
       8     206     205     189     207     100      98      66     101
       8     161     207     189     159       9     101      66       3
       8     208     209     160     190     104     105       8      68
       8     210     208     190     191     108     104      68      69
       8     211     210     191     192     110     108      69      72
       8     212     211     192     168     112     110      72      22
       8     213     212     168     167     114     112      22      21
       8     214     213     167     170     116     114      21      27
       8     215     214     170     193     118     116      27      74
       8     216     215     193     194     120     118      74      76
       8     217     216     194     195     122     120      76      78
       8     218     217     195     196     124     122      78      80
       8     219     218     196     197     126     124      80      81
       8     220     219     197     198     128     126      81      84
       8     221     220     198     177     130     128      84      41
       8     222     221     177     176     132     130      41      40
       8     223     222     176     178     134     132      40      44
       8     224     223     178     199     136     134      44      86
       8     225     224     199     200     138     136      86      88
       8     226     225     200     201     140     138      88      90
       8     227     226     201     202     142     140      90      91
       8     228     227     202     203     144     142      91      94
       8     229     228     203     204     146     144      94      96
       8     230     229     204     205     148     146      96      98
       8     231     230     205     206     150     148      98     100
       8     232     231     206     207     152     150     100     101
       8     233     232     207     161     154     152     101       9
       8     209     233     161     160     105     154       9       8
       8     234     235     236     237     156     157     158     159
       8     236     238     239     237     158     160     161     159
       8     240     235     234     241     162     157     156     163
       8     234     242     243     241     156     164     165     163
       8     244     245     246     240     166     167     168     162
       8     247     248     245     244     169     170     167     166
       8     241     247     244     240     163     169     166     162
       8     249     250     242     251     171     172     164     173
       8     252     253     250     249     174     175     172     171
       8     254     255     253     252     176     177     175     174
       8     256     254     252     257     178     176     174     179
       8     258     243     242     250     180     165     164     172
       8     249     259     257     252     171     181     179     174
       8     234     237     251     242     156     159     173     164
       8     260     247     241     243     182     169     163     165
       8     261     260     243     258     183     182     165     180
       8     262     261     258     263     184     183     180     185
       8     253     263     258     250     175     185     180     172
       8     264     265     259     249     186     187     181     171
       8     266     264     249     251     188     186     171     173
       8     267     266     251     237     189     188     173     159
       8     268     238     236     269     190     160     158     191
       8     270     269     236     235     192     191     158     157
       8     246     270     235     240     168     192     157     162
       8     271     248     247     260     193     170     169     182
       8     272     271     260     261     194     193     182     183
       8     273     272     261     262     195     194     183     184
       8     274     273     262     275     196     195     184     197
       8     276     275     262     263     198     197     184     185
       8     255     276     263     253     177     198     185     175
       8     277     256     257     259     199     178     179     181
       8     278     277     259     265     200     199     181     187
       8     279     278     265     280     201     200     187     202
       8     281     280     265     264     203     202     187     186
       8     282     281     264     266     204     203     186     188
       8     283     282     266     267     205     204     188     189
       8     284     283     267     285     206     205     189     207
       8     239     285     267     237     161     207     189     159
       8     286     287     238     268     208     209     160     190
       8     288     286     268     269     210     208     190     191
       8     289     288     269     270     211     210     191     192
       8     290     289     270     246     212     211     192     168
       8     291     290     246     245     213     212     168     167
       8     292     291     245     248     214     213     167     170
       8     293     292     248     271     215     214     170     193
       8     294     293     271     272     216     215     193     194
       8     295     294     272     273     217     216     194     195
       8     296     295     273     274     218     217     195     196
       8     297     296     274     275     219     218     196     197
       8     298     297     275     276     220     219     197     198
       8     299     298     276     255     221     220     198     177
       8     300     299     255     254     222     221     177     176
       8     301     300     254     256     223     222     176     178
       8     302     301     256     277     224     223     178     199
       8     303     302     277     278     225     224     199     200
       8     304     303     278     279     226     225     200     201
       8     305     304     279     280     227     226     201     202
       8     306     305     280     281     228     227     202     203
       8     307     306     281     282     229     228     203     204
       8     308     307     282     283     230     229     204     205
       8     309     308     283     284     231     230     205     206
       8     310     309     284     285     232     231     206     207
       8     311     310     285     239     233     232     207     161
       8     287     311     239     238     209     233     161     160
       8     312     313     314     315     234     235     236     237
       8     314     316     317     315     236     238     239     237
       8     318     313     312     319     240     235     234     241
       8     312     320     321     319     234     242     243     241
       8     322     323     324     318     244     245     246     240
       8     325     326     323     322     247     248     245     244
       8     319     325     322     318     241     247     244     240
       8     327     328     320     329     249     250     242     251
       8     330     331     328     327     252     253     250     249
       8     332     333     331     330     254     255     253     252
       8     334     332     330     335     256     254     252     257
       8     336     321     320     328     258     243     242     250
       8     327     337     335     330     249     259     257     252
       8     312     315     329     320     234     237     251     242
       8     338     325     319     321     260     247     241     243
       8     339     338     321     336     261     260     243     258
       8     340     339     336     341     262     261     258     263
       8     331     341     336     328     253     263     258     250
       8     342     343     337     327     264     265     259     249
       8     344     342     327     329     266     264     249     251
       8     345     344     329     315     267     266     251     237
       8     346     316     314     347     268     238     236     269
       8     348     347     314     313     270     269     236     235
       8     324     348     313     318     246     270     235     240
       8     349     326     325     338     271     248     247     260
       8     350     349     338     339     272     271     260     261
       8     351     350     339     340     273     272     261     262
       8     352     351     340     353     274     273     262     275
       8     354     353     340     341     276     275     262     263
       8     333     354     341     331     255     276     263     253
       8     355     334     335     337     277     256     257     259
       8     356     355     337     343     278     277     259     265
       8     357     356     343     358     279     278     265     280
       8     359     358     343     342     281     280     265     264
       8     360     359     342     344     282     281     264     266
       8     361     360     344     345     283     282     266     267
       8     362     361     345     363     284     283     267     285
       8     317     363     345     315     239     285     267     237
       8     364     365     316     346     286     287     238     268
       8     366     364     346     347     288     286     268     269
       8     367     366     347     348     289     288     269     270
       8     368     367     348     324     290     289     270     246
       8     369     368     324     323     291     290     246     245
       8     370     369     323     326     292     291     245     248
       8     371     370     326     349     293     292     248     271
       8     372     371     349     350     294     293     271     272
       8     373     372     350     351     295     294     272     273
       8     374     373     351     352     296     295     273     274
       8     375     374     352     353     297     296     274     275
       8     376     375     353     354     298     297     275     276
       8     377     376     354     333     299     298     276     255
       8     378     377     333     332     300     299     255     254
       8     379     378     332     334     301     300     254     256
       8     380     379     334     355     302     301     256     277
       8     381     380     355     356     303     302     277     278
       8     382     381     356     357     304     303     278     279
       8     383     382     357     358     305     304     279     280
       8     384     383     358     359     306     305     280     281
       8     385     384     359     360     307     306     281     282
       8     386     385     360     361     308     307     282     283
       8     387     386     361     362     309     308     283     284
       8     388     387     362     363     310     309     284     285
       8     389     388     363     317     311     310     285     239
       8     365     389     317     316     287     311     239     238
       8     390     391     392     393     312     313     314     315
       8     392     394     395     393     314     316     317     315
       8     396     391     390     397     318     313     312     319
       8     390     398     399     397     312     320     321     319
       8     400     401     402     396     322     323     324     318
       8     403     404     401     400     325     326     323     322
       8     397     403     400     396     319     325     322     318
       8     405     406     398     407     327     328     320     329
       8     408     409     406     405     330     331     328     327
       8     410     411     409     408     332     333     331     330
       8     412     410     408     413     334     332     330     335
       8     414     399     398     406     336     321     320     328
       8     405     415     413     408     327     337     335     330
       8     390     393     407     398     312     315     329     320
       8     416     403     397     399     338     325     319     321
       8     417     416     399     414     339     338     321     336
       8     418     417     414     419     340     339     336     341
       8     409     419     414     406     331     341     336     328
       8     420     421     415     405     342     343     337     327
       8     422     420     405     407     344     342     327     329
       8     423     422     407     393     345     344     329     315
       8     424     394     392     425     346     316     314     347
       8     426     425     392     391     348     347     314     313
       8     402     426     391     396     324     348     313     318
       8     427     404     403     416     349     326     325     338
       8     428     427     416     417     350     349     338     339
       8     429     428     417     418     351     350     339     340
       8     430     429     418     431     352     351     340     353
       8     432     431     418     419     354     353     340     341
       8     411     432     419     409     333     354     341     331
       8     433     412     413     415     355     334     335     337
       8     434     433     415     421     356     355     337     343
       8     435     434     421     436     357     356     343     358
       8     437     436     421     420     359     358     343     342
       8     438     437     420     422     360     359     342     344
       8     439     438     422     423     361     360     344     345
       8     440     439     423     441     362     361     345     363
       8     395     441     423     393     317     363     345     315
       8     442     443     394     424     364     365     316     346
       8     444     442     424     425     366     364     346     347
       8     445     444     425     426     367     366     347     348
       8     446     445     426     402     368     367     348     324
       8     447     446     402     401     369     368     324     323
       8     448     447     401     404     370     369     323     326
       8     449     448     404     427     371     370     326     349
       8     450     449     427     428     372     371     349     350
       8     451     450     428     429     373     372     350     351
       8     452     451     429     430     374     373     351     352
       8     453     452     430     431     375     374     352     353
       8     454     453     431     432     376     375     353     354
       8     455     454     432     411     377     376     354     333
       8     456     455     411     410     378     377     333     332
       8     457     456     410     412     379     378     332     334
       8     458     457     412     433     380     379     334     355
       8     459     458     433     434     381     380     355     356
       8     460     459     434     435     382     381     356     357
       8     461     460     435     436     383     382     357     358
       8     462     461     436     437     384     383     358     359
       8     463     462     437     438     385     384     359     360
       8     464     463     438     439     386     385     360     361
       8     465     464     439     440     387     386     361     362
       8     466     465     440     441     388     387     362     363
       8     467     466     441     395     389     388     363     317
       8     443     467     395     394     365     389     317     316
       8     468     469     470     471     390     391     392     393
       8     470     472     473     471     392     394     395     393
       8     474     469     468     475     396     391     390     397
       8     468     476     477     475     390     398     399     397
       8     478     479     480     474     400     401     402     396
       8     481     482     479     478     403     404     401     400
       8     475     481     478     474     397     403     400     396
       8     483     484     476     485     405     406     398     407
       8     486     487     484     483     408     409     406     405
       8     488     489     487     486     410     411     409     408
       8     490     488     486     491     412     410     408     413
       8     492     477     476     484     414     399     398     406
       8     483     493     491     486     405     415     413     408
       8     468     471     485     476     390     393     407     398
       8     494     481     475     477     416     403     397     399
       8     495     494     477     492     417     416     399     414
       8     496     495     492     497     418     417     414     419
       8     487     497     492     484     409     419     414     406
       8     498     499     493     483     420     421     415     405
       8     500     498     483     485     422     420     405     407
       8     501     500     485     471     423     422     407     393
       8     502     472     470     503     424     394     392     425
       8     504     503     470     469     426     425     392     391
       8     480     504     469     474     402     426     391     396
       8     505     482     481     494     427     404     403     416
       8     506     505     494     495     428     427     416     417
       8     507     506     495     496     429     428     417     418
       8     508     507     496     509     430     429     418     431
       8     510     509     496     497     432     431     418     419
       8     489     510     497     487     411     432     419     409
       8     511     490     491     493     433     412     413     415
       8     512     511     493     499     434     433     415     421
       8     513     512     499     514     435     434     421     436
       8     515     514     499     498     437     436     421     420
       8     516     515     498     500     438     437     420     422
       8     517     516     500     501     439     438     422     423
       8     518     517     501     519     440     439     423     441
       8     473     519     501     471     395     441     423     393
       8     520     521     472     502     442     443     394     424
       8     522     520     502     503     444     442     424     425
       8     523     522     503     504     445     444     425     426
       8     524     523     504     480     446     445     426     402
       8     525     524     480     479     447     446     402     401
       8     526     525     479     482     448     447     401     404
       8     527     526     482     505     449     448     404     427
       8     528     527     505     506     450     449     427     428
       8     529     528     506     507     451     450     428     429
       8     530     529     507     508     452     451     429     430
       8     531     530     508     509     453     452     430     431
       8     532     531     509     510     454     453     431     432
       8     533     532     510     489     455     454     432     411
       8     534     533     489     488     456     455     411     410
       8     535     534     488     490     457     456     410     412
       8     536     535     490     511     458     457     412     433
       8     537     536     511     512     459     458     433     434
       8     538     537     512     513     460     459     434     435
       8     539     538     513     514     461     460     435     436
       8     540     539     514     515     462     461     436     437
       8     541     540     515     516     463     462     437     438
       8     542     541     516     517     464     463     438     439
       8     543     542     517     518     465     464     439     440
       8     544     543     518     519     466     465     440     441
       8     545     544     519     473     467     466     441     395
       8     521     545     473     472     443     467     395     394
       8     546     547     548     549     468     469     470     471
       8     548     550     551     549     470     472     473     471
       8     552     547     546     553     474     469     468     475
       8     546     554     555     553     468     476     477     475
       8     556     557     558     552     478     479     480     474
       8     559     560     557     556     481     482     479     478
       8     553     559     556     552     475     481     478     474
       8     561     562     554     563     483     484     476     485
       8     564     565     562     561     486     487     484     483
       8     566     567     565     564     488     489     487     486
       8     568     566     564     569     490     488     486     491
       8     570     555     554     562     492     477     476     484
       8     561     571     569     564     483     493     491     486
       8     546     549     563     554     468     471     485     476
       8     572     559     553     555     494     481     475     477
       8     573     572     555     570     495     494     477     492
       8     574     573     570     575     496     495     492     497
       8     565     575     570     562     487     497     492     484
       8     576     577     571     561     498     499     493     483
       8     578     576     561     563     500     498     483     485
       8     579     578     563     549     501     500     485     471
       8     580     550     548     581     502     472     470     503
       8     582     581     548     547     504     503     470     469
       8     558     582     547     552     480     504     469     474
       8     583     560     559     572     505     482     481     494
       8     584     583     572     573     506     505     494     495
       8     585     584     573     574     507     506     495     496
       8     586     585     574     587     508     507     496     509
       8     588     587     574     575     510     509     496     497
       8     567     588     575     565     489     510     497     487
       8     589     568     569     571     511     490     491     493
       8     590     589     571     577     512     511     493     499
       8     591     590     577     592     513     512     499     514
       8     593     592     577     576     515     514     499     498
       8     594     593     576     578     516     515     498     500
       8     595     594     578     579     517     516     500     501
       8     596     595     579     597     518     517     501     519
       8     551     597     579     549     473     519     501     471
       8     598     599     550     580     520     521     472     502
       8     600     598     580     581     522     520     502     503
       8     601     600     581     582     523     522     503     504
       8     602     601     582     558     524     523     504     480
       8     603     602     558     557     525     524     480     479
       8     604     603     557     560     526     525     479     482
       8     605     604     560     583     527     526     482     505
       8     606     605     583     584     528     527     505     506
       8     607     606     584     585     529     528     506     507
       8     608     607     585     586     530     529     507     508
       8     609     608     586     587     531     530     508     509
       8     610     609     587     588     532     531     509     510
       8     611     610     588     567     533     532     510     489
       8     612     611     567     566     534     533     489     488
       8     613     612     566     568     535     534     488     490
       8     614     613     568     589     536     535     490     511
       8     615     614     589     590     537     536     511     512
       8     616     615     590     591     538     537     512     513
       8     617     616     591     592     539     538     513     514
       8     618     617     592     593     540     539     514     515
       8     619     618     593     594     541     540     515     516
       8     620     619     594     595     542     541     516     517
       8     621     620     595     596     543     542     517     518
       8     622     621     596     597     544     543     518     519
       8     623     622     597     551     545     544     519     473
       8     599     623     551     550     521     545     473     472
       8     624     625     626     627     546     547     548     549
       8     626     628     629     627     548     550     551     549
       8     630     625     624     631     552     547     546     553
       8     624     632     633     631     546     554     555     553
       8     634     635     636     630     556     557     558     552
       8     637     638     635     634     559     560     557     556
       8     631     637     634     630     553     559     556     552
       8     639     640     632     641     561     562     554     563
       8     642     643     640     639     564     565     562     561
       8     644     645     643     642     566     567     565     564
       8     646     644     642     647     568     566     564     569
       8     648     633     632     640     570     555     554     562
       8     639     649     647     642     561     571     569     564
       8     624     627     641     632     546     549     563     554
       8     650     637     631     633     572     559     553     555
       8     651     650     633     648     573     572     555     570
       8     652     651     648     653     574     573     570     575
       8     643     653     648     640     565     575     570     562
       8     654     655     649     639     576     577     571     561
       8     656     654     639     641     578     576     561     563
       8     657     656     641     627     579     578     563     549
       8     658     628     626     659     580     550     548     581
       8     660     659     626     625     582     581     548     547
       8     636     660     625     630     558     582     547     552
       8     661     638     637     650     583     560     559     572
       8     662     661     650     651     584     583     572     573
       8     663     662     651     652     585     584     573     574
       8     664     663     652     665     586     585     574     587
       8     666     665     652     653     588     587     574     575
       8     645     666     653     643     567     588     575     565
       8     667     646     647     649     589     568     569     571
       8     668     667     649     655     590     589     571     577
       8     669     668     655     670     591     590     577     592
       8     671     670     655     654     593     592     577     576
       8     672     671     654     656     594     593     576     578
       8     673     672     656     657     595     594     578     579
       8     674     673     657     675     596     595     579     597
       8     629     675     657     627     551     597     579     549
       8     676     677     628     658     598     599     550     580
       8     678     676     658     659     600     598     580     581
       8     679     678     659     660     601     600     581     582
       8     680     679     660     636     602     601     582     558
       8     681     680     636     635     603     602     558     557
       8     682     681     635     638     604     603     557     560
       8     683     682     638     661     605     604     560     583
       8     684     683     661     662     606     605     583     584
       8     685     684     662     663     607     606     584     585
       8     686     685     663     664     608     607     585     586
       8     687     686     664     665     609     608     586     587
       8     688     687     665     666     610     609     587     588
       8     689     688     666     645     611     610     588     567
       8     690     689     645     644     612     611     567     566
       8     691     690     644     646     613     612     566     568
       8     692     691     646     667     614     613     568     589
       8     693     692     667     668     615     614     589     590
       8     694     693     668     669     616     615     590     591
       8     695     694     669     670     617     616     591     592
       8     696     695     670     671     618     617     592     593
       8     697     696     671     672     619     618     593     594
       8     698     697     672     673     620     619     594     595
       8     699     698     673     674     621     620     595     596
       8     700     699     674     675     622     621     596     597
       8     701     700     675     629     623     622     597     551
       8     677     701     629     628     599     623     551     550
       8     702     703     704     705     624     625     626     627
       8     704     706     707     705     626     628     629     627
       8     708     703     702     709     630     625     624     631
       8     702     710     711     709     624     632     633     631
       8     712     713     714     708     634     635     636     630
       8     715     716     713     712     637     638     635     634
       8     709     715     712     708     631     637     634     630
       8     717     718     710     719     639     640     632     641
       8     720     721     718     717     642     643     640     639
       8     722     723     721     720     644     645     643     642
       8     724     722     720     725     646     644     642     647
       8     726     711     710     718     648     633     632     640
       8     717     727     725     720     639     649     647     642
       8     702     705     719     710     624     627     641     632
       8     728     715     709     711     650     637     631     633
       8     729     728     711     726     651     650     633     648
       8     730     729     726     731     652     651     648     653
       8     721     731     726     718     643     653     648     640
       8     732     733     727     717     654     655     649     639
       8     734     732     717     719     656     654     639     641
       8     735     734     719     705     657     656     641     627
       8     736     706     704     737     658     628     626     659
       8     738     737     704     703     660     659     626     625
       8     714     738     703     708     636     660     625     630
       8     739     716     715     728     661     638     637     650
       8     740     739     728     729     662     661     650     651
       8     741     740     729     730     663     662     651     652
       8     742     741     730     743     664     663     652     665
       8     744     743     730     731     666     665     652     653
       8     723     744     731     721     645     666     653     643
       8     745     724     725     727     667     646     647     649
       8     746     745     727     733     668     667     649     655
       8     747     746     733     748     669     668     655     670
       8     749     748     733     732     671     670     655     654
       8     750     749     732     734     672     671     654     656
       8     751     750     734     735     673     672     656     657
       8     752     751     735     753     674     673     657     675
       8     707     753     735     705     629     675     657     627
       8     754     755     706     736     676     677     628     658
       8     756     754     736     737     678     676     658     659
       8     757     756     737     738     679     678     659     660
       8     758     757     738     714     680     679     660     636
       8     759     758     714     713     681     680     636     635
       8     760     759     713     716     682     681     635     638
       8     761     760     716     739     683     682     638     661
       8     762     761     739     740     684     683     661     662
       8     763     762     740     741     685     684     662     663
       8     764     763     741     742     686     685     663     664
       8     765     764     742     743     687     686     664     665
       8     766     765     743     744     688     687     665     666
       8     767     766     744     723     689     688     666     645
       8     768     767     723     722     690     689     645     644
       8     769     768     722     724     691     690     644     646
       8     770     769     724     745     692     691     646     667
       8     771     770     745     746     693     692     667     668
       8     772     771     746     747     694     693     668     669
       8     773     772     747     748     695     694     669     670
       8     774     773     748     749     696     695     670     671
       8     775     774     749     750     697     696     671     672
       8     776     775     750     751     698     697     672     673
       8     777     776     751     752     699     698     673     674
       8     778     777     752     753     700     699     674     675
       8     779     778     753     707     701     700     675     629
       8     755     779     707     706     677     701     629     628
       8     780     781     782     783     702     703     704     705
       8     782     784     785     783     704     706     707     705
       8     786     781     780     787     708     703     702     709
       8     780     788     789     787     702     710     711     709
       8     790     791     792     786     712     713     714     708
       8     793     794     791     790     715     716     713     712
       8     787     793     790     786     709     715     712     708
       8     795     796     788     797     717     718     710     719
       8     798     799     796     795     720     721     718     717
       8     800     801     799     798     722     723     721     720
       8     802     800     798     803     724     722     720     725
       8     804     789     788     796     726     711     710     718
       8     795     805     803     798     717     727     725     720
       8     780     783     797     788     702     705     719     710
       8     806     793     787     789     728     715     709     711
       8     807     806     789     804     729     728     711     726
       8     808     807     804     809     730     729     726     731
       8     799     809     804     796     721     731     726     718
       8     810     811     805     795     732     733     727     717
       8     812     810     795     797     734     732     717     719
       8     813     812     797     783     735     734     719     705
       8     814     784     782     815     736     706     704     737
       8     816     815     782     781     738     737     704     703
       8     792     816     781     786     714     738     703     708
       8     817     794     793     806     739     716     715     728
       8     818     817     806     807     740     739     728     729
       8     819     818     807     808     741     740     729     730
       8     820     819     808     821     742     741     730     743
       8     822     821     808     809     744     743     730     731
       8     801     822     809     799     723     744     731     721
       8     823     802     803     805     745     724     725     727
       8     824     823     805     811     746     745     727     733
       8     825     824     811     826     747     746     733     748
       8     827     826     811     810     749     748     733     732
       8     828     827     810     812     750     749     732     734
       8     829     828     812     813     751     750     734     735
       8     830     829     813     831     752     751     735     753
       8     785     831     813     783     707     753     735     705
       8     832     833     784     814     754     755     706     736
       8     834     832     814     815     756     754     736     737
       8     835     834     815     816     757     756     737     738
       8     836     835     816     792     758     757     738     714
       8     837     836     792     791     759     758     714     713
       8     838     837     791     794     760     759     713     716
       8     839     838     794     817     761     760     716     739
       8     840     839     817     818     762     761     739     740
       8     841     840     818     819     763     762     740     741
       8     842     841     819     820     764     763     741     742
       8     843     842     820     821     765     764     742     743
       8     844     843     821     822     766     765     743     744
       8     845     844     822     801     767     766     744     723
       8     846     845     801     800     768     767     723     722
       8     847     846     800     802     769     768     722     724
       8     848     847     802     823     770     769     724     745
       8     849     848     823     824     771     770     745     746
       8     850     849     824     825     772     771     746     747
       8     851     850     825     826     773     772     747     748
       8     852     851     826     827     774     773     748     749
       8     853     852     827     828     775     774     749     750
       8     854     853     828     829     776     775     750     751
       8     855     854     829     830     777     776     751     752
       8     856     855     830     831     778     777     752     753
       8     857     856     831     785     779     778     753     707
       8     833     857     785     784     755     779     707     706
       8     858     859     860     861     780     781     782     783
       8     860     862     863     861     782     784     785     783
       8     864     859     858     865     786     781     780     787
       8     858     866     867     865     780     788     789     787
       8     868     869     870     864     790     791     792     786
       8     871     872     869     868     793     794     791     790
       8     865     871     868     864     787     793     790     786
       8     873     874     866     875     795     796     788     797
       8     876     877     874     873     798     799     796     795
       8     878     879     877     876     800     801     799     798
       8     880     878     876     881     802     800     798     803
       8     882     867     866     874     804     789     788     796
       8     873     883     881     876     795     805     803     798
       8     858     861     875     866     780     783     797     788
       8     884     871     865     867     806     793     787     789
       8     885     884     867     882     807     806     789     804
       8     886     885     882     887     808     807     804     809
       8     877     887     882     874     799     809     804     796
       8     888     889     883     873     810     811     805     795
       8     890     888     873     875     812     810     795     797
       8     891     890     875     861     813     812     797     783
       8     892     862     860     893     814     784     782     815
       8     894     893     860     859     816     815     782     781
       8     870     894     859     864     792     816     781     786
       8     895     872     871     884     817     794     793     806
       8     896     895     884     885     818     817     806     807
       8     897     896     885     886     819     818     807     808
       8     898     897     886     899     820     819     808     821
       8     900     899     886     887     822     821     808     809
       8     879     900     887     877     801     822     809     799
       8     901     880     881     883     823     802     803     805
       8     902     901     883     889     824     823     805     811
       8     903     902     889     904     825     824     811     826
       8     905     904     889     888     827     826     811     810
       8     906     905     888     890     828     827     810     812
       8     907     906     890     891     829     828     812     813
       8     908     907     891     909     830     829     813     831
       8     863     909     891     861     785     831     813     783
       8     910     911     862     892     832     833     784     814
       8     912     910     892     893     834     832     814     815
       8     913     912     893     894     835     834     815     816
       8     914     913     894     870     836     835     816     792
       8     915     914     870     869     837     836     792     791
       8     916     915     869     872     838     837     791     794
       8     917     916     872     895     839     838     794     817
       8     918     917     895     896     840     839     817     818
       8     919     918     896     897     841     840     818     819
       8     920     919     897     898     842     841     819     820
       8     921     920     898     899     843     842     820     821
       8     922     921     899     900     844     843     821     822
       8     923     922     900     879     845     844     822     801
       8     924     923     879     878     846     845     801     800
       8     925     924     878     880     847     846     800     802
       8     926     925     880     901     848     847     802     823
       8     927     926     901     902     849     848     823     824
       8     928     927     902     903     850     849     824     825
       8     929     928     903     904     851     850     825     826
       8     930     929     904     905     852     851     826     827
       8     931     930     905     906     853     852     827     828
       8     932     931     906     907     854     853     828     829
       8     933     932     907     908     855     854     829     830
       8     934     933     908     909     856     855     830     831
       8     935     934     909     863     857     856     831     785
       8     911     935     863     862     833     857     785     784
       8     936     937     938     939     858     859     860     861
       8     938     940     941     939     860     862     863     861
       8     942     937     936     943     864     859     858     865
       8     936     944     945     943     858     866     867     865
       8     946     947     948     942     868     869     870     864
       8     949     950     947     946     871     872     869     868
       8     943     949     946     942     865     871     868     864
       8     951     952     944     953     873     874     866     875
       8     954     955     952     951     876     877     874     873
       8     956     957     955     954     878     879     877     876
       8     958     956     954     959     880     878     876     881
       8     960     945     944     952     882     867     866     874
       8     951     961     959     954     873     883     881     876
       8     936     939     953     944     858     861     875     866
       8     962     949     943     945     884     871     865     867
       8     963     962     945     960     885     884     867     882
       8     964     963     960     965     886     885     882     887
       8     955     965     960     952     877     887     882     874
       8     966     967     961     951     888     889     883     873
       8     968     966     951     953     890     888     873     875
       8     969     968     953     939     891     890     875     861
       8     970     940     938     971     892     862     860     893
       8     972     971     938     937     894     893     860     859
       8     948     972     937     942     870     894     859     864
       8     973     950     949     962     895     872     871     884
       8     974     973     962     963     896     895     884     885
       8     975     974     963     964     897     896     885     886
       8     976     975     964     977     898     897     886     899
       8     978     977     964     965     900     899     886     887
       8     957     978     965     955     879     900     887     877
       8     979     958     959     961     901     880     881     883
       8     980     979     961     967     902     901     883     889
       8     981     980     967     982     903     902     889     904
       8     983     982     967     966     905     904     889     888
       8     984     983     966     968     906     905     888     890
       8     985     984     968     969     907     906     890     891
       8     986     985     969     987     908     907     891     909
       8     941     987     969     939     863     909     891     861
       8     988     989     940     970     910     911     862     892
       8     990     988     970     971     912     910     892     893
       8     991     990     971     972     913     912     893     894
       8     992     991     972     948     914     913     894     870
       8     993     992     948     947     915     914     870     869
       8     994     993     947     950     916     915     869     872
       8     995     994     950     973     917     916     872     895
       8     996     995     973     974     918     917     895     896
       8     997     996     974     975     919     918     896     897
       8     998     997     975     976     920     919     897     898
       8     999     998     976     977     921     920     898     899
       8    1000     999     977     978     922     921     899     900
       8    1001    1000     978     957     923     922     900     879
       8    1002    1001     957     956     924     923     879     878
       8    1003    1002     956     958     925     924     878     880
       8    1004    1003     958     979     926     925     880     901
       8    1005    1004     979     980     927     926     901     902
       8    1006    1005     980     981     928     927     902     903
       8    1007    1006     981     982     929     928     903     904
       8    1008    1007     982     983     930     929     904     905
       8    1009    1008     983     984     931     930     905     906
       8    1010    1009     984     985     932     931     906     907
       8    1011    1010     985     986     933     932     907     908
       8    1012    1011     986     987     934     933     908     909
       8    1013    1012     987     941     935     934     909     863
       8     989    1013     941     940     911     935     863     862
       8    1014    1015    1016    1017     936     937     938     939
       8    1016    1018    1019    1017     938     940     941     939
       8    1020    1015    1014    1021     942     937     936     943
       8    1014    1022    1023    1021     936     944     945     943
       8    1024    1025    1026    1020     946     947     948     942
       8    1027    1028    1025    1024     949     950     947     946
       8    1021    1027    1024    1020     943     949     946     942
       8    1029    1030    1022    1031     951     952     944     953
       8    1032    1033    1030    1029     954     955     952     951
       8    1034    1035    1033    1032     956     957     955     954
       8    1036    1034    1032    1037     958     956     954     959
       8    1038    1023    1022    1030     960     945     944     952
       8    1029    1039    1037    1032     951     961     959     954
       8    1014    1017    1031    1022     936     939     953     944
       8    1040    1027    1021    1023     962     949     943     945
       8    1041    1040    1023    1038     963     962     945     960
       8    1042    1041    1038    1043     964     963     960     965
       8    1033    1043    1038    1030     955     965     960     952
       8    1044    1045    1039    1029     966     967     961     951
       8    1046    1044    1029    1031     968     966     951     953
       8    1047    1046    1031    1017     969     968     953     939
       8    1048    1018    1016    1049     970     940     938     971
       8    1050    1049    1016    1015     972     971     938     937
       8    1026    1050    1015    1020     948     972     937     942
       8    1051    1028    1027    1040     973     950     949     962
       8    1052    1051    1040    1041     974     973     962     963
       8    1053    1052    1041    1042     975     974     963     964
       8    1054    1053    1042    1055     976     975     964     977
       8    1056    1055    1042    1043     978     977     964     965
       8    1035    1056    1043    1033     957     978     965     955
       8    1057    1036    1037    1039     979     958     959     961
       8    1058    1057    1039    1045     980     979     961     967
       8    1059    1058    1045    1060     981     980     967     982
       8    1061    1060    1045    1044     983     982     967     966
       8    1062    1061    1044    1046     984     983     966     968
       8    1063    1062    1046    1047     985     984     968     969
       8    1064    1063    1047    1065     986     985     969     987
       8    1019    1065    1047    1017     941     987     969     939
       8    1066    1067    1018    1048     988     989     940     970
       8    1068    1066    1048    1049     990     988     970     971
       8    1069    1068    1049    1050     991     990     971     972
       8    1070    1069    1050    1026     992     991     972     948
       8    1071    1070    1026    1025     993     992     948     947
       8    1072    1071    1025    1028     994     993     947     950
       8    1073    1072    1028    1051     995     994     950     973
       8    1074    1073    1051    1052     996     995     973     974
       8    1075    1074    1052    1053     997     996     974     975
       8    1076    1075    1053    1054     998     997     975     976
       8    1077    1076    1054    1055     999     998     976     977
       8    1078    1077    1055    1056    1000     999     977     978
       8    1079    1078    1056    1035    1001    1000     978     957
       8    1080    1079    1035    1034    1002    1001     957     956
       8    1081    1080    1034    1036    1003    1002     956     958
       8    1082    1081    1036    1057    1004    1003     958     979
       8    1083    1082    1057    1058    1005    1004     979     980
       8    1084    1083    1058    1059    1006    1005     980     981
       8    1085    1084    1059    1060    1007    1006     981     982
       8    1086    1085    1060    1061    1008    1007     982     983
       8    1087    1086    1061    1062    1009    1008     983     984
       8    1088    1087    1062    1063    1010    1009     984     985
       8    1089    1088    1063    1064    1011    1010     985     986
       8    1090    1089    1064    1065    1012    1011     986     987
       8    1091    1090    1065    1019    1013    1012     987     941
       8    1067    1091    1019    1018     989    1013     941     940
       8    1092    1093    1094    1095    1014    1015    1016    1017
       8    1094    1096    1097    1095    1016    1018    1019    1017
       8    1098    1093    1092    1099    1020    1015    1014    1021
       8    1092    1100    1101    1099    1014    1022    1023    1021
       8    1102    1103    1104    1098    1024    1025    1026    1020
       8    1105    1106    1103    1102    1027    1028    1025    1024
       8    1099    1105    1102    1098    1021    1027    1024    1020
       8    1107    1108    1100    1109    1029    1030    1022    1031
       8    1110    1111    1108    1107    1032    1033    1030    1029
       8    1112    1113    1111    1110    1034    1035    1033    1032
       8    1114    1112    1110    1115    1036    1034    1032    1037
       8    1116    1101    1100    1108    1038    1023    1022    1030
       8    1107    1117    1115    1110    1029    1039    1037    1032
       8    1092    1095    1109    1100    1014    1017    1031    1022
       8    1118    1105    1099    1101    1040    1027    1021    1023
       8    1119    1118    1101    1116    1041    1040    1023    1038
       8    1120    1119    1116    1121    1042    1041    1038    1043
       8    1111    1121    1116    1108    1033    1043    1038    1030
       8    1122    1123    1117    1107    1044    1045    1039    1029
       8    1124    1122    1107    1109    1046    1044    1029    1031
       8    1125    1124    1109    1095    1047    1046    1031    1017
       8    1126    1096    1094    1127    1048    1018    1016    1049
       8    1128    1127    1094    1093    1050    1049    1016    1015
       8    1104    1128    1093    1098    1026    1050    1015    1020
       8    1129    1106    1105    1118    1051    1028    1027    1040
       8    1130    1129    1118    1119    1052    1051    1040    1041
       8    1131    1130    1119    1120    1053    1052    1041    1042
       8    1132    1131    1120    1133    1054    1053    1042    1055
       8    1134    1133    1120    1121    1056    1055    1042    1043
       8    1113    1134    1121    1111    1035    1056    1043    1033
       8    1135    1114    1115    1117    1057    1036    1037    1039
       8    1136    1135    1117    1123    1058    1057    1039    1045
       8    1137    1136    1123    1138    1059    1058    1045    1060
       8    1139    1138    1123    1122    1061    1060    1045    1044
       8    1140    1139    1122    1124    1062    1061    1044    1046
       8    1141    1140    1124    1125    1063    1062    1046    1047
       8    1142    1141    1125    1143    1064    1063    1047    1065
       8    1097    1143    1125    1095    1019    1065    1047    1017
       8    1144    1145    1096    1126    1066    1067    1018    1048
       8    1146    1144    1126    1127    1068    1066    1048    1049
       8    1147    1146    1127    1128    1069    1068    1049    1050
       8    1148    1147    1128    1104    1070    1069    1050    1026
       8    1149    1148    1104    1103    1071    1070    1026    1025
       8    1150    1149    1103    1106    1072    1071    1025    1028
       8    1151    1150    1106    1129    1073    1072    1028    1051
       8    1152    1151    1129    1130    1074    1073    1051    1052
       8    1153    1152    1130    1131    1075    1074    1052    1053
       8    1154    1153    1131    1132    1076    1075    1053    1054
       8    1155    1154    1132    1133    1077    1076    1054    1055
       8    1156    1155    1133    1134    1078    1077    1055    1056
       8    1157    1156    1134    1113    1079    1078    1056    1035
       8    1158    1157    1113    1112    1080    1079    1035    1034
       8    1159    1158    1112    1114    1081    1080    1034    1036
       8    1160    1159    1114    1135    1082    1081    1036    1057
       8    1161    1160    1135    1136    1083    1082    1057    1058
       8    1162    1161    1136    1137    1084    1083    1058    1059
       8    1163    1162    1137    1138    1085    1084    1059    1060
       8    1164    1163    1138    1139    1086    1085    1060    1061
       8    1165    1164    1139    1140    1087    1086    1061    1062
       8    1166    1165    1140    1141    1088    1087    1062    1063
       8    1167    1166    1141    1142    1089    1088    1063    1064
       8    1168    1167    1142    1143    1090    1089    1064    1065
       8    1169    1168    1143    1097    1091    1090    1065    1019
       8    1145    1169    1097    1096    1067    1091    1019    1018
       8    1170    1171    1172    1173    1092    1093    1094    1095
       8    1172    1174    1175    1173    1094    1096    1097    1095
       8    1176    1171    1170    1177    1098    1093    1092    1099
       8    1170    1178    1179    1177    1092    1100    1101    1099
       8    1180    1181    1182    1176    1102    1103    1104    1098
       8    1183    1184    1181    1180    1105    1106    1103    1102
       8    1177    1183    1180    1176    1099    1105    1102    1098
       8    1185    1186    1178    1187    1107    1108    1100    1109
       8    1188    1189    1186    1185    1110    1111    1108    1107
       8    1190    1191    1189    1188    1112    1113    1111    1110
       8    1192    1190    1188    1193    1114    1112    1110    1115
       8    1194    1179    1178    1186    1116    1101    1100    1108
       8    1185    1195    1193    1188    1107    1117    1115    1110
       8    1170    1173    1187    1178    1092    1095    1109    1100
       8    1196    1183    1177    1179    1118    1105    1099    1101
       8    1197    1196    1179    1194    1119    1118    1101    1116
       8    1198    1197    1194    1199    1120    1119    1116    1121
       8    1189    1199    1194    1186    1111    1121    1116    1108
       8    1200    1201    1195    1185    1122    1123    1117    1107
       8    1202    1200    1185    1187    1124    1122    1107    1109
       8    1203    1202    1187    1173    1125    1124    1109    1095
       8    1204    1174    1172    1205    1126    1096    1094    1127
       8    1206    1205    1172    1171    1128    1127    1094    1093
       8    1182    1206    1171    1176    1104    1128    1093    1098
       8    1207    1184    1183    1196    1129    1106    1105    1118
       8    1208    1207    1196    1197    1130    1129    1118    1119
       8    1209    1208    1197    1198    1131    1130    1119    1120
       8    1210    1209    1198    1211    1132    1131    1120    1133
       8    1212    1211    1198    1199    1134    1133    1120    1121
       8    1191    1212    1199    1189    1113    1134    1121    1111
       8    1213    1192    1193    1195    1135    1114    1115    1117
       8    1214    1213    1195    1201    1136    1135    1117    1123
       8    1215    1214    1201    1216    1137    1136    1123    1138
       8    1217    1216    1201    1200    1139    1138    1123    1122
       8    1218    1217    1200    1202    1140    1139    1122    1124
       8    1219    1218    1202    1203    1141    1140    1124    1125
       8    1220    1219    1203    1221    1142    1141    1125    1143
       8    1175    1221    1203    1173    1097    1143    1125    1095
       8    1222    1223    1174    1204    1144    1145    1096    1126
       8    1224    1222    1204    1205    1146    1144    1126    1127
       8    1225    1224    1205    1206    1147    1146    1127    1128
       8    1226    1225    1206    1182    1148    1147    1128    1104
       8    1227    1226    1182    1181    1149    1148    1104    1103
       8    1228    1227    1181    1184    1150    1149    1103    1106
       8    1229    1228    1184    1207    1151    1150    1106    1129
       8    1230    1229    1207    1208    1152    1151    1129    1130
       8    1231    1230    1208    1209    1153    1152    1130    1131
       8    1232    1231    1209    1210    1154    1153    1131    1132
       8    1233    1232    1210    1211    1155    1154    1132    1133
       8    1234    1233    1211    1212    1156    1155    1133    1134
       8    1235    1234    1212    1191    1157    1156    1134    1113
       8    1236    1235    1191    1190    1158    1157    1113    1112
       8    1237    1236    1190    1192    1159    1158    1112    1114
       8    1238    1237    1192    1213    1160    1159    1114    1135
       8    1239    1238    1213    1214    1161    1160    1135    1136
       8    1240    1239    1214    1215    1162    1161    1136    1137
       8    1241    1240    1215    1216    1163    1162    1137    1138
       8    1242    1241    1216    1217    1164    1163    1138    1139
       8    1243    1242    1217    1218    1165    1164    1139    1140
       8    1244    1243    1218    1219    1166    1165    1140    1141
       8    1245    1244    1219    1220    1167    1166    1141    1142
       8    1246    1245    1220    1221    1168    1167    1142    1143
       8    1247    1246    1221    1175    1169    1168    1143    1097
       8    1223    1247    1175    1174    1145    1169    1097    1096
       8    1248    1249    1250    1251    1170    1171    1172    1173
       8    1250    1252    1253    1251    1172    1174    1175    1173
       8    1254    1249    1248    1255    1176    1171    1170    1177
       8    1248    1256    1257    1255    1170    1178    1179    1177
       8    1258    1259    1260    1254    1180    1181    1182    1176
       8    1261    1262    1259    1258    1183    1184    1181    1180
       8    1255    1261    1258    1254    1177    1183    1180    1176
       8    1263    1264    1256    1265    1185    1186    1178    1187
       8    1266    1267    1264    1263    1188    1189    1186    1185
       8    1268    1269    1267    1266    1190    1191    1189    1188
       8    1270    1268    1266    1271    1192    1190    1188    1193
       8    1272    1257    1256    1264    1194    1179    1178    1186
       8    1263    1273    1271    1266    1185    1195    1193    1188
       8    1248    1251    1265    1256    1170    1173    1187    1178
       8    1274    1261    1255    1257    1196    1183    1177    1179
       8    1275    1274    1257    1272    1197    1196    1179    1194
       8    1276    1275    1272    1277    1198    1197    1194    1199
       8    1267    1277    1272    1264    1189    1199    1194    1186
       8    1278    1279    1273    1263    1200    1201    1195    1185
       8    1280    1278    1263    1265    1202    1200    1185    1187
       8    1281    1280    1265    1251    1203    1202    1187    1173
       8    1282    1252    1250    1283    1204    1174    1172    1205
       8    1284    1283    1250    1249    1206    1205    1172    1171
       8    1260    1284    1249    1254    1182    1206    1171    1176
       8    1285    1262    1261    1274    1207    1184    1183    1196
       8    1286    1285    1274    1275    1208    1207    1196    1197
       8    1287    1286    1275    1276    1209    1208    1197    1198
       8    1288    1287    1276    1289    1210    1209    1198    1211
       8    1290    1289    1276    1277    1212    1211    1198    1199
       8    1269    1290    1277    1267    1191    1212    1199    1189
       8    1291    1270    1271    1273    1213    1192    1193    1195
       8    1292    1291    1273    1279    1214    1213    1195    1201
       8    1293    1292    1279    1294    1215    1214    1201    1216
       8    1295    1294    1279    1278    1217    1216    1201    1200
       8    1296    1295    1278    1280    1218    1217    1200    1202
       8    1297    1296    1280    1281    1219    1218    1202    1203
       8    1298    1297    1281    1299    1220    1219    1203    1221
       8    1253    1299    1281    1251    1175    1221    1203    1173
       8    1300    1301    1252    1282    1222    1223    1174    1204
       8    1302    1300    1282    1283    1224    1222    1204    1205
       8    1303    1302    1283    1284    1225    1224    1205    1206
       8    1304    1303    1284    1260    1226    1225    1206    1182
       8    1305    1304    1260    1259    1227    1226    1182    1181
       8    1306    1305    1259    1262    1228    1227    1181    1184
       8    1307    1306    1262    1285    1229    1228    1184    1207
       8    1308    1307    1285    1286    1230    1229    1207    1208
       8    1309    1308    1286    1287    1231    1230    1208    1209
       8    1310    1309    1287    1288    1232    1231    1209    1210
       8    1311    1310    1288    1289    1233    1232    1210    1211
       8    1312    1311    1289    1290    1234    1233    1211    1212
       8    1313    1312    1290    1269    1235    1234    1212    1191
       8    1314    1313    1269    1268    1236    1235    1191    1190
       8    1315    1314    1268    1270    1237    1236    1190    1192
       8    1316    1315    1270    1291    1238    1237    1192    1213
       8    1317    1316    1291    1292    1239    1238    1213    1214
       8    1318    1317    1292    1293    1240    1239    1214    1215
       8    1319    1318    1293    1294    1241    1240    1215    1216
       8    1320    1319    1294    1295    1242    1241    1216    1217
       8    1321    1320    1295    1296    1243    1242    1217    1218
       8    1322    1321    1296    1297    1244    1243    1218    1219
       8    1323    1322    1297    1298    1245    1244    1219    1220
       8    1324    1323    1298    1299    1246    1245    1220    1221
       8    1325    1324    1299    1253    1247    1246    1221    1175
       8    1301    1325    1253    1252    1223    1247    1175    1174
       8    1326    1327    1328    1329    1248    1249    1250    1251
       8    1328    1330    1331    1329    1250    1252    1253    1251
       8    1332    1327    1326    1333    1254    1249    1248    1255
       8    1326    1334    1335    1333    1248    1256    1257    1255
       8    1336    1337    1338    1332    1258    1259    1260    1254
       8    1339    1340    1337    1336    1261    1262    1259    1258
       8    1333    1339    1336    1332    1255    1261    1258    1254
       8    1341    1342    1334    1343    1263    1264    1256    1265
       8    1344    1345    1342    1341    1266    1267    1264    1263
       8    1346    1347    1345    1344    1268    1269    1267    1266
       8    1348    1346    1344    1349    1270    1268    1266    1271
       8    1350    1335    1334    1342    1272    1257    1256    1264
       8    1341    1351    1349    1344    1263    1273    1271    1266
       8    1326    1329    1343    1334    1248    1251    1265    1256
       8    1352    1339    1333    1335    1274    1261    1255    1257
       8    1353    1352    1335    1350    1275    1274    1257    1272
       8    1354    1353    1350    1355    1276    1275    1272    1277
       8    1345    1355    1350    1342    1267    1277    1272    1264
       8    1356    1357    1351    1341    1278    1279    1273    1263
       8    1358    1356    1341    1343    1280    1278    1263    1265
       8    1359    1358    1343    1329    1281    1280    1265    1251
       8    1360    1330    1328    1361    1282    1252    1250    1283
       8    1362    1361    1328    1327    1284    1283    1250    1249
       8    1338    1362    1327    1332    1260    1284    1249    1254
       8    1363    1340    1339    1352    1285    1262    1261    1274
       8    1364    1363    1352    1353    1286    1285    1274    1275
       8    1365    1364    1353    1354    1287    1286    1275    1276
       8    1366    1365    1354    1367    1288    1287    1276    1289
       8    1368    1367    1354    1355    1290    1289    1276    1277
       8    1347    1368    1355    1345    1269    1290    1277    1267
       8    1369    1348    1349    1351    1291    1270    1271    1273
       8    1370    1369    1351    1357    1292    1291    1273    1279
       8    1371    1370    1357    1372    1293    1292    1279    1294
       8    1373    1372    1357    1356    1295    1294    1279    1278
       8    1374    1373    1356    1358    1296    1295    1278    1280
       8    1375    1374    1358    1359    1297    1296    1280    1281
       8    1376    1375    1359    1377    1298    1297    1281    1299
       8    1331    1377    1359    1329    1253    1299    1281    1251
       8    1378    1379    1330    1360    1300    1301    1252    1282
       8    1380    1378    1360    1361    1302    1300    1282    1283
       8    1381    1380    1361    1362    1303    1302    1283    1284
       8    1382    1381    1362    1338    1304    1303    1284    1260
       8    1383    1382    1338    1337    1305    1304    1260    1259
       8    1384    1383    1337    1340    1306    1305    1259    1262
       8    1385    1384    1340    1363    1307    1306    1262    1285
       8    1386    1385    1363    1364    1308    1307    1285    1286
       8    1387    1386    1364    1365    1309    1308    1286    1287
       8    1388    1387    1365    1366    1310    1309    1287    1288
       8    1389    1388    1366    1367    1311    1310    1288    1289
       8    1390    1389    1367    1368    1312    1311    1289    1290
       8    1391    1390    1368    1347    1313    1312    1290    1269
       8    1392    1391    1347    1346    1314    1313    1269    1268
       8    1393    1392    1346    1348    1315    1314    1268    1270
       8    1394    1393    1348    1369    1316    1315    1270    1291
       8    1395    1394    1369    1370    1317    1316    1291    1292
       8    1396    1395    1370    1371    1318    1317    1292    1293
       8    1397    1396    1371    1372    1319    1318    1293    1294
       8    1398    1397    1372    1373    1320    1319    1294    1295
       8    1399    1398    1373    1374    1321    1320    1295    1296
       8    1400    1399    1374    1375    1322    1321    1296    1297
       8    1401    1400    1375    1376    1323    1322    1297    1298
       8    1402    1401    1376    1377    1324    1323    1298    1299
       8    1403    1402    1377    1331    1325    1324    1299    1253
       8    1379    1403    1331    1330    1301    1325    1253    1252
       8    1404    1405    1406    1407    1326    1327    1328    1329
       8    1406    1408    1409    1407    1328    1330    1331    1329
       8    1410    1405    1404    1411    1332    1327    1326    1333
       8    1404    1412    1413    1411    1326    1334    1335    1333
       8    1414    1415    1416    1410    1336    1337    1338    1332
       8    1417    1418    1415    1414    1339    1340    1337    1336
       8    1411    1417    1414    1410    1333    1339    1336    1332
       8    1419    1420    1412    1421    1341    1342    1334    1343
       8    1422    1423    1420    1419    1344    1345    1342    1341
       8    1424    1425    1423    1422    1346    1347    1345    1344
       8    1426    1424    1422    1427    1348    1346    1344    1349
       8    1428    1413    1412    1420    1350    1335    1334    1342
       8    1419    1429    1427    1422    1341    1351    1349    1344
       8    1404    1407    1421    1412    1326    1329    1343    1334
       8    1430    1417    1411    1413    1352    1339    1333    1335
       8    1431    1430    1413    1428    1353    1352    1335    1350
       8    1432    1431    1428    1433    1354    1353    1350    1355
       8    1423    1433    1428    1420    1345    1355    1350    1342
       8    1434    1435    1429    1419    1356    1357    1351    1341
       8    1436    1434    1419    1421    1358    1356    1341    1343
       8    1437    1436    1421    1407    1359    1358    1343    1329
       8    1438    1408    1406    1439    1360    1330    1328    1361
       8    1440    1439    1406    1405    1362    1361    1328    1327
       8    1416    1440    1405    1410    1338    1362    1327    1332
       8    1441    1418    1417    1430    1363    1340    1339    1352
       8    1442    1441    1430    1431    1364    1363    1352    1353
       8    1443    1442    1431    1432    1365    1364    1353    1354
       8    1444    1443    1432    1445    1366    1365    1354    1367
       8    1446    1445    1432    1433    1368    1367    1354    1355
       8    1425    1446    1433    1423    1347    1368    1355    1345
       8    1447    1426    1427    1429    1369    1348    1349    1351
       8    1448    1447    1429    1435    1370    1369    1351    1357
       8    1449    1448    1435    1450    1371    1370    1357    1372
       8    1451    1450    1435    1434    1373    1372    1357    1356
       8    1452    1451    1434    1436    1374    1373    1356    1358
       8    1453    1452    1436    1437    1375    1374    1358    1359
       8    1454    1453    1437    1455    1376    1375    1359    1377
       8    1409    1455    1437    1407    1331    1377    1359    1329
       8    1456    1457    1408    1438    1378    1379    1330    1360
       8    1458    1456    1438    1439    1380    1378    1360    1361
       8    1459    1458    1439    1440    1381    1380    1361    1362
       8    1460    1459    1440    1416    1382    1381    1362    1338
       8    1461    1460    1416    1415    1383    1382    1338    1337
       8    1462    1461    1415    1418    1384    1383    1337    1340
       8    1463    1462    1418    1441    1385    1384    1340    1363
       8    1464    1463    1441    1442    1386    1385    1363    1364
       8    1465    1464    1442    1443    1387    1386    1364    1365
       8    1466    1465    1443    1444    1388    1387    1365    1366
       8    1467    1466    1444    1445    1389    1388    1366    1367
       8    1468    1467    1445    1446    1390    1389    1367    1368
       8    1469    1468    1446    1425    1391    1390    1368    1347
       8    1470    1469    1425    1424    1392    1391    1347    1346
       8    1471    1470    1424    1426    1393    1392    1346    1348
       8    1472    1471    1426    1447    1394    1393    1348    1369
       8    1473    1472    1447    1448    1395    1394    1369    1370
       8    1474    1473    1448    1449    1396    1395    1370    1371
       8    1475    1474    1449    1450    1397    1396    1371    1372
       8    1476    1475    1450    1451    1398    1397    1372    1373
       8    1477    1476    1451    1452    1399    1398    1373    1374
       8    1478    1477    1452    1453    1400    1399    1374    1375
       8    1479    1478    1453    1454    1401    1400    1375    1376
       8    1480    1479    1454    1455    1402    1401    1376    1377
       8    1481    1480    1455    1409    1403    1402    1377    1331
       8    1457    1481    1409    1408    1379    1403    1331    1330
       8    1482    1483    1484    1485    1404    1405    1406    1407
       8    1484    1486    1487    1485    1406    1408    1409    1407
       8    1488    1483    1482    1489    1410    1405    1404    1411
       8    1482    1490    1491    1489    1404    1412    1413    1411
       8    1492    1493    1494    1488    1414    1415    1416    1410
       8    1495    1496    1493    1492    1417    1418    1415    1414
       8    1489    1495    1492    1488    1411    1417    1414    1410
       8    1497    1498    1490    1499    1419    1420    1412    1421
       8    1500    1501    1498    1497    1422    1423    1420    1419
       8    1502    1503    1501    1500    1424    1425    1423    1422
       8    1504    1502    1500    1505    1426    1424    1422    1427
       8    1506    1491    1490    1498    1428    1413    1412    1420
       8    1497    1507    1505    1500    1419    1429    1427    1422
       8    1482    1485    1499    1490    1404    1407    1421    1412
       8    1508    1495    1489    1491    1430    1417    1411    1413
       8    1509    1508    1491    1506    1431    1430    1413    1428
       8    1510    1509    1506    1511    1432    1431    1428    1433
       8    1501    1511    1506    1498    1423    1433    1428    1420
       8    1512    1513    1507    1497    1434    1435    1429    1419
       8    1514    1512    1497    1499    1436    1434    1419    1421
       8    1515    1514    1499    1485    1437    1436    1421    1407
       8    1516    1486    1484    1517    1438    1408    1406    1439
       8    1518    1517    1484    1483    1440    1439    1406    1405
       8    1494    1518    1483    1488    1416    1440    1405    1410
       8    1519    1496    1495    1508    1441    1418    1417    1430
       8    1520    1519    1508    1509    1442    1441    1430    1431
       8    1521    1520    1509    1510    1443    1442    1431    1432
       8    1522    1521    1510    1523    1444    1443    1432    1445
       8    1524    1523    1510    1511    1446    1445    1432    1433
       8    1503    1524    1511    1501    1425    1446    1433    1423
       8    1525    1504    1505    1507    1447    1426    1427    1429
       8    1526    1525    1507    1513    1448    1447    1429    1435
       8    1527    1526    1513    1528    1449    1448    1435    1450
       8    1529    1528    1513    1512    1451    1450    1435    1434
       8    1530    1529    1512    1514    1452    1451    1434    1436
       8    1531    1530    1514    1515    1453    1452    1436    1437
       8    1532    1531    1515    1533    1454    1453    1437    1455
       8    1487    1533    1515    1485    1409    1455    1437    1407
       8    1534    1535    1486    1516    1456    1457    1408    1438
       8    1536    1534    1516    1517    1458    1456    1438    1439
       8    1537    1536    1517    1518    1459    1458    1439    1440
       8    1538    1537    1518    1494    1460    1459    1440    1416
       8    1539    1538    1494    1493    1461    1460    1416    1415
       8    1540    1539    1493    1496    1462    1461    1415    1418
       8    1541    1540    1496    1519    1463    1462    1418    1441
       8    1542    1541    1519    1520    1464    1463    1441    1442
       8    1543    1542    1520    1521    1465    1464    1442    1443
       8    1544    1543    1521    1522    1466    1465    1443    1444
       8    1545    1544    1522    1523    1467    1466    1444    1445
       8    1546    1545    1523    1524    1468    1467    1445    1446
       8    1547    1546    1524    1503    1469    1468    1446    1425
       8    1548    1547    1503    1502    1470    1469    1425    1424
       8    1549    1548    1502    1504    1471    1470    1424    1426
       8    1550    1549    1504    1525    1472    1471    1426    1447
       8    1551    1550    1525    1526    1473    1472    1447    1448
       8    1552    1551    1526    1527    1474    1473    1448    1449
       8    1553    1552    1527    1528    1475    1474    1449    1450
       8    1554    1553    1528    1529    1476    1475    1450    1451
       8    1555    1554    1529    1530    1477    1476    1451    1452
       8    1556    1555    1530    1531    1478    1477    1452    1453
       8    1557    1556    1531    1532    1479    1478    1453    1454
       8    1558    1557    1532    1533    1480    1479    1454    1455
       8    1559    1558    1533    1487    1481    1480    1455    1409
       8    1535    1559    1487    1486    1457    1481    1409    1408
       8    1560    1561    1562    1563    1482    1483    1484    1485
       8    1562    1564    1565    1563    1484    1486    1487    1485
       8    1566    1561    1560    1567    1488    1483    1482    1489
       8    1560    1568    1569    1567    1482    1490    1491    1489
       8    1570    1571    1572    1566    1492    1493    1494    1488
       8    1573    1574    1571    1570    1495    1496    1493    1492
       8    1567    1573    1570    1566    1489    1495    1492    1488
       8    1575    1576    1568    1577    1497    1498    1490    1499
       8    1578    1579    1576    1575    1500    1501    1498    1497
       8    1580    1581    1579    1578    1502    1503    1501    1500
       8    1582    1580    1578    1583    1504    1502    1500    1505
       8    1584    1569    1568    1576    1506    1491    1490    1498
       8    1575    1585    1583    1578    1497    1507    1505    1500
       8    1560    1563    1577    1568    1482    1485    1499    1490
       8    1586    1573    1567    1569    1508    1495    1489    1491
       8    1587    1586    1569    1584    1509    1508    1491    1506
       8    1588    1587    1584    1589    1510    1509    1506    1511
       8    1579    1589    1584    1576    1501    1511    1506    1498
       8    1590    1591    1585    1575    1512    1513    1507    1497
       8    1592    1590    1575    1577    1514    1512    1497    1499
       8    1593    1592    1577    1563    1515    1514    1499    1485
       8    1594    1564    1562    1595    1516    1486    1484    1517
       8    1596    1595    1562    1561    1518    1517    1484    1483
       8    1572    1596    1561    1566    1494    1518    1483    1488
       8    1597    1574    1573    1586    1519    1496    1495    1508
       8    1598    1597    1586    1587    1520    1519    1508    1509
       8    1599    1598    1587    1588    1521    1520    1509    1510
       8    1600    1599    1588    1601    1522    1521    1510    1523
       8    1602    1601    1588    1589    1524    1523    1510    1511
       8    1581    1602    1589    1579    1503    1524    1511    1501
       8    1603    1582    1583    1585    1525    1504    1505    1507
       8    1604    1603    1585    1591    1526    1525    1507    1513
       8    1605    1604    1591    1606    1527    1526    1513    1528
       8    1607    1606    1591    1590    1529    1528    1513    1512
       8    1608    1607    1590    1592    1530    1529    1512    1514
       8    1609    1608    1592    1593    1531    1530    1514    1515
       8    1610    1609    1593    1611    1532    1531    1515    1533
       8    1565    1611    1593    1563    1487    1533    1515    1485
       8    1612    1613    1564    1594    1534    1535    1486    1516
       8    1614    1612    1594    1595    1536    1534    1516    1517
       8    1615    1614    1595    1596    1537    1536    1517    1518
       8    1616    1615    1596    1572    1538    1537    1518    1494
       8    1617    1616    1572    1571    1539    1538    1494    1493
       8    1618    1617    1571    1574    1540    1539    1493    1496
       8    1619    1618    1574    1597    1541    1540    1496    1519
       8    1620    1619    1597    1598    1542    1541    1519    1520
       8    1621    1620    1598    1599    1543    1542    1520    1521
       8    1622    1621    1599    1600    1544    1543    1521    1522
       8    1623    1622    1600    1601    1545    1544    1522    1523
       8    1624    1623    1601    1602    1546    1545    1523    1524
       8    1625    1624    1602    1581    1547    1546    1524    1503
       8    1626    1625    1581    1580    1548    1547    1503    1502
       8    1627    1626    1580    1582    1549    1548    1502    1504
       8    1628    1627    1582    1603    1550    1549    1504    1525
       8    1629    1628    1603    1604    1551    1550    1525    1526
       8    1630    1629    1604    1605    1552    1551    1526    1527
       8    1631    1630    1605    1606    1553    1552    1527    1528
       8    1632    1631    1606    1607    1554    1553    1528    1529
       8    1633    1632    1607    1608    1555    1554    1529    1530
       8    1634    1633    1608    1609    1556    1555    1530    1531
       8    1635    1634    1609    1610    1557    1556    1531    1532
       8    1636    1635    1610    1611    1558    1557    1532    1533
       8    1637    1636    1611    1565    1559    1558    1533    1487
       8    1613    1637    1565    1564    1535    1559    1487    1486
       8    1638    1639    1640    1641    1560    1561    1562    1563
       8    1640    1642    1643    1641    1562    1564    1565    1563
       8    1644    1639    1638    1645    1566    1561    1560    1567
       8    1638    1646    1647    1645    1560    1568    1569    1567
       8    1648    1649    1650    1644    1570    1571    1572    1566
       8    1651    1652    1649    1648    1573    1574    1571    1570
       8    1645    1651    1648    1644    1567    1573    1570    1566
       8    1653    1654    1646    1655    1575    1576    1568    1577
       8    1656    1657    1654    1653    1578    1579    1576    1575
       8    1658    1659    1657    1656    1580    1581    1579    1578
       8    1660    1658    1656    1661    1582    1580    1578    1583
       8    1662    1647    1646    1654    1584    1569    1568    1576
       8    1653    1663    1661    1656    1575    1585    1583    1578
       8    1638    1641    1655    1646    1560    1563    1577    1568
       8    1664    1651    1645    1647    1586    1573    1567    1569
       8    1665    1664    1647    1662    1587    1586    1569    1584
       8    1666    1665    1662    1667    1588    1587    1584    1589
       8    1657    1667    1662    1654    1579    1589    1584    1576
       8    1668    1669    1663    1653    1590    1591    1585    1575
       8    1670    1668    1653    1655    1592    1590    1575    1577
       8    1671    1670    1655    1641    1593    1592    1577    1563
       8    1672    1642    1640    1673    1594    1564    1562    1595
       8    1674    1673    1640    1639    1596    1595    1562    1561
       8    1650    1674    1639    1644    1572    1596    1561    1566
       8    1675    1652    1651    1664    1597    1574    1573    1586
       8    1676    1675    1664    1665    1598    1597    1586    1587
       8    1677    1676    1665    1666    1599    1598    1587    1588
       8    1678    1677    1666    1679    1600    1599    1588    1601
       8    1680    1679    1666    1667    1602    1601    1588    1589
       8    1659    1680    1667    1657    1581    1602    1589    1579
       8    1681    1660    1661    1663    1603    1582    1583    1585
       8    1682    1681    1663    1669    1604    1603    1585    1591
       8    1683    1682    1669    1684    1605    1604    1591    1606
       8    1685    1684    1669    1668    1607    1606    1591    1590
       8    1686    1685    1668    1670    1608    1607    1590    1592
       8    1687    1686    1670    1671    1609    1608    1592    1593
       8    1688    1687    1671    1689    1610    1609    1593    1611
       8    1643    1689    1671    1641    1565    1611    1593    1563
       8    1690    1691    1642    1672    1612    1613    1564    1594
       8    1692    1690    1672    1673    1614    1612    1594    1595
       8    1693    1692    1673    1674    1615    1614    1595    1596
       8    1694    1693    1674    1650    1616    1615    1596    1572
       8    1695    1694    1650    1649    1617    1616    1572    1571
       8    1696    1695    1649    1652    1618    1617    1571    1574
       8    1697    1696    1652    1675    1619    1618    1574    1597
       8    1698    1697    1675    1676    1620    1619    1597    1598
       8    1699    1698    1676    1677    1621    1620    1598    1599
       8    1700    1699    1677    1678    1622    1621    1599    1600
       8    1701    1700    1678    1679    1623    1622    1600    1601
       8    1702    1701    1679    1680    1624    1623    1601    1602
       8    1703    1702    1680    1659    1625    1624    1602    1581
       8    1704    1703    1659    1658    1626    1625    1581    1580
       8    1705    1704    1658    1660    1627    1626    1580    1582
       8    1706    1705    1660    1681    1628    1627    1582    1603
       8    1707    1706    1681    1682    1629    1628    1603    1604
       8    1708    1707    1682    1683    1630    1629    1604    1605
       8    1709    1708    1683    1684    1631    1630    1605    1606
       8    1710    1709    1684    1685    1632    1631    1606    1607
       8    1711    1710    1685    1686    1633    1632    1607    1608
       8    1712    1711    1686    1687    1634    1633    1608    1609
       8    1713    1712    1687    1688    1635    1634    1609    1610
       8    1714    1713    1688    1689    1636    1635    1610    1611
       8    1715    1714    1689    1643    1637    1636    1611    1565
       8    1691    1715    1643    1642    1613    1637    1565    1564
       8    1716    1717    1718    1719    1638    1639    1640    1641
       8    1718    1720    1721    1719    1640    1642    1643    1641
       8    1722    1717    1716    1723    1644    1639    1638    1645
       8    1716    1724    1725    1723    1638    1646    1647    1645
       8    1726    1727    1728    1722    1648    1649    1650    1644
       8    1729    1730    1727    1726    1651    1652    1649    1648
       8    1723    1729    1726    1722    1645    1651    1648    1644
       8    1731    1732    1724    1733    1653    1654    1646    1655
       8    1734    1735    1732    1731    1656    1657    1654    1653
       8    1736    1737    1735    1734    1658    1659    1657    1656
       8    1738    1736    1734    1739    1660    1658    1656    1661
       8    1740    1725    1724    1732    1662    1647    1646    1654
       8    1731    1741    1739    1734    1653    1663    1661    1656
       8    1716    1719    1733    1724    1638    1641    1655    1646
       8    1742    1729    1723    1725    1664    1651    1645    1647
       8    1743    1742    1725    1740    1665    1664    1647    1662
       8    1744    1743    1740    1745    1666    1665    1662    1667
       8    1735    1745    1740    1732    1657    1667    1662    1654
       8    1746    1747    1741    1731    1668    1669    1663    1653
       8    1748    1746    1731    1733    1670    1668    1653    1655
       8    1749    1748    1733    1719    1671    1670    1655    1641
       8    1750    1720    1718    1751    1672    1642    1640    1673
       8    1752    1751    1718    1717    1674    1673    1640    1639
       8    1728    1752    1717    1722    1650    1674    1639    1644
       8    1753    1730    1729    1742    1675    1652    1651    1664
       8    1754    1753    1742    1743    1676    1675    1664    1665
       8    1755    1754    1743    1744    1677    1676    1665    1666
       8    1756    1755    1744    1757    1678    1677    1666    1679
       8    1758    1757    1744    1745    1680    1679    1666    1667
       8    1737    1758    1745    1735    1659    1680    1667    1657
       8    1759    1738    1739    1741    1681    1660    1661    1663
       8    1760    1759    1741    1747    1682    1681    1663    1669
       8    1761    1760    1747    1762    1683    1682    1669    1684
       8    1763    1762    1747    1746    1685    1684    1669    1668
       8    1764    1763    1746    1748    1686    1685    1668    1670
       8    1765    1764    1748    1749    1687    1686    1670    1671
       8    1766    1765    1749    1767    1688    1687    1671    1689
       8    1721    1767    1749    1719    1643    1689    1671    1641
       8    1768    1769    1720    1750    1690    1691    1642    1672
       8    1770    1768    1750    1751    1692    1690    1672    1673
       8    1771    1770    1751    1752    1693    1692    1673    1674
       8    1772    1771    1752    1728    1694    1693    1674    1650
       8    1773    1772    1728    1727    1695    1694    1650    1649
       8    1774    1773    1727    1730    1696    1695    1649    1652
       8    1775    1774    1730    1753    1697    1696    1652    1675
       8    1776    1775    1753    1754    1698    1697    1675    1676
       8    1777    1776    1754    1755    1699    1698    1676    1677
       8    1778    1777    1755    1756    1700    1699    1677    1678
       8    1779    1778    1756    1757    1701    1700    1678    1679
       8    1780    1779    1757    1758    1702    1701    1679    1680
       8    1781    1780    1758    1737    1703    1702    1680    1659
       8    1782    1781    1737    1736    1704    1703    1659    1658
       8    1783    1782    1736    1738    1705    1704    1658    1660
       8    1784    1783    1738    1759    1706    1705    1660    1681
       8    1785    1784    1759    1760    1707    1706    1681    1682
       8    1786    1785    1760    1761    1708    1707    1682    1683
       8    1787    1786    1761    1762    1709    1708    1683    1684
       8    1788    1787    1762    1763    1710    1709    1684    1685
       8    1789    1788    1763    1764    1711    1710    1685    1686
       8    1790    1789    1764    1765    1712    1711    1686    1687
       8    1791    1790    1765    1766    1713    1712    1687    1688
       8    1792    1791    1766    1767    1714    1713    1688    1689
       8    1793    1792    1767    1721    1715    1714    1689    1643
       8    1769    1793    1721    1720    1691    1715    1643    1642
       8    1794    1795    1796    1797    1716    1717    1718    1719
       8    1796    1798    1799    1797    1718    1720    1721    1719
       8    1800    1795    1794    1801    1722    1717    1716    1723
       8    1794    1802    1803    1801    1716    1724    1725    1723
       8    1804    1805    1806    1800    1726    1727    1728    1722
       8    1807    1808    1805    1804    1729    1730    1727    1726
       8    1801    1807    1804    1800    1723    1729    1726    1722
       8    1809    1810    1802    1811    1731    1732    1724    1733
       8    1812    1813    1810    1809    1734    1735    1732    1731
       8    1814    1815    1813    1812    1736    1737    1735    1734
       8    1816    1814    1812    1817    1738    1736    1734    1739
       8    1818    1803    1802    1810    1740    1725    1724    1732
       8    1809    1819    1817    1812    1731    1741    1739    1734
       8    1794    1797    1811    1802    1716    1719    1733    1724
       8    1820    1807    1801    1803    1742    1729    1723    1725
       8    1821    1820    1803    1818    1743    1742    1725    1740
       8    1822    1821    1818    1823    1744    1743    1740    1745
       8    1813    1823    1818    1810    1735    1745    1740    1732
       8    1824    1825    1819    1809    1746    1747    1741    1731
       8    1826    1824    1809    1811    1748    1746    1731    1733
       8    1827    1826    1811    1797    1749    1748    1733    1719
       8    1828    1798    1796    1829    1750    1720    1718    1751
       8    1830    1829    1796    1795    1752    1751    1718    1717
       8    1806    1830    1795    1800    1728    1752    1717    1722
       8    1831    1808    1807    1820    1753    1730    1729    1742
       8    1832    1831    1820    1821    1754    1753    1742    1743
       8    1833    1832    1821    1822    1755    1754    1743    1744
       8    1834    1833    1822    1835    1756    1755    1744    1757
       8    1836    1835    1822    1823    1758    1757    1744    1745
       8    1815    1836    1823    1813    1737    1758    1745    1735
       8    1837    1816    1817    1819    1759    1738    1739    1741
       8    1838    1837    1819    1825    1760    1759    1741    1747
       8    1839    1838    1825    1840    1761    1760    1747    1762
       8    1841    1840    1825    1824    1763    1762    1747    1746
       8    1842    1841    1824    1826    1764    1763    1746    1748
       8    1843    1842    1826    1827    1765    1764    1748    1749
       8    1844    1843    1827    1845    1766    1765    1749    1767
       8    1799    1845    1827    1797    1721    1767    1749    1719
       8    1846    1847    1798    1828    1768    1769    1720    1750
       8    1848    1846    1828    1829    1770    1768    1750    1751
       8    1849    1848    1829    1830    1771    1770    1751    1752
       8    1850    1849    1830    1806    1772    1771    1752    1728
       8    1851    1850    1806    1805    1773    1772    1728    1727
       8    1852    1851    1805    1808    1774    1773    1727    1730
       8    1853    1852    1808    1831    1775    1774    1730    1753
       8    1854    1853    1831    1832    1776    1775    1753    1754
       8    1855    1854    1832    1833    1777    1776    1754    1755
       8    1856    1855    1833    1834    1778    1777    1755    1756
       8    1857    1856    1834    1835    1779    1778    1756    1757
       8    1858    1857    1835    1836    1780    1779    1757    1758
       8    1859    1858    1836    1815    1781    1780    1758    1737
       8    1860    1859    1815    1814    1782    1781    1737    1736
       8    1861    1860    1814    1816    1783    1782    1736    1738
       8    1862    1861    1816    1837    1784    1783    1738    1759
       8    1863    1862    1837    1838    1785    1784    1759    1760
       8    1864    1863    1838    1839    1786    1785    1760    1761
       8    1865    1864    1839    1840    1787    1786    1761    1762
       8    1866    1865    1840    1841    1788    1787    1762    1763
       8    1867    1866    1841    1842    1789    1788    1763    1764
       8    1868    1867    1842    1843    1790    1789    1764    1765
       8    1869    1868    1843    1844    1791    1790    1765    1766
       8    1870    1869    1844    1845    1792    1791    1766    1767
       8    1871    1870    1845    1799    1793    1792    1767    1721
       8    1847    1871    1799    1798    1769    1793    1721    1720
       8    1872    1873    1874    1875    1794    1795    1796    1797
       8    1874    1876    1877    1875    1796    1798    1799    1797
       8    1878    1873    1872    1879    1800    1795    1794    1801
       8    1872    1880    1881    1879    1794    1802    1803    1801
       8    1882    1883    1884    1878    1804    1805    1806    1800
       8    1885    1886    1883    1882    1807    1808    1805    1804
       8    1879    1885    1882    1878    1801    1807    1804    1800
       8    1887    1888    1880    1889    1809    1810    1802    1811
       8    1890    1891    1888    1887    1812    1813    1810    1809
       8    1892    1893    1891    1890    1814    1815    1813    1812
       8    1894    1892    1890    1895    1816    1814    1812    1817
       8    1896    1881    1880    1888    1818    1803    1802    1810
       8    1887    1897    1895    1890    1809    1819    1817    1812
       8    1872    1875    1889    1880    1794    1797    1811    1802
       8    1898    1885    1879    1881    1820    1807    1801    1803
       8    1899    1898    1881    1896    1821    1820    1803    1818
       8    1900    1899    1896    1901    1822    1821    1818    1823
       8    1891    1901    1896    1888    1813    1823    1818    1810
       8    1902    1903    1897    1887    1824    1825    1819    1809
       8    1904    1902    1887    1889    1826    1824    1809    1811
       8    1905    1904    1889    1875    1827    1826    1811    1797
       8    1906    1876    1874    1907    1828    1798    1796    1829
       8    1908    1907    1874    1873    1830    1829    1796    1795
       8    1884    1908    1873    1878    1806    1830    1795    1800
       8    1909    1886    1885    1898    1831    1808    1807    1820
       8    1910    1909    1898    1899    1832    1831    1820    1821
       8    1911    1910    1899    1900    1833    1832    1821    1822
       8    1912    1911    1900    1913    1834    1833    1822    1835
       8    1914    1913    1900    1901    1836    1835    1822    1823
       8    1893    1914    1901    1891    1815    1836    1823    1813
       8    1915    1894    1895    1897    1837    1816    1817    1819
       8    1916    1915    1897    1903    1838    1837    1819    1825
       8    1917    1916    1903    1918    1839    1838    1825    1840
       8    1919    1918    1903    1902    1841    1840    1825    1824
       8    1920    1919    1902    1904    1842    1841    1824    1826
       8    1921    1920    1904    1905    1843    1842    1826    1827
       8    1922    1921    1905    1923    1844    1843    1827    1845
       8    1877    1923    1905    1875    1799    1845    1827    1797
       8    1924    1925    1876    1906    1846    1847    1798    1828
       8    1926    1924    1906    1907    1848    1846    1828    1829
       8    1927    1926    1907    1908    1849    1848    1829    1830
       8    1928    1927    1908    1884    1850    1849    1830    1806
       8    1929    1928    1884    1883    1851    1850    1806    1805
       8    1930    1929    1883    1886    1852    1851    1805    1808
       8    1931    1930    1886    1909    1853    1852    1808    1831
       8    1932    1931    1909    1910    1854    1853    1831    1832
       8    1933    1932    1910    1911    1855    1854    1832    1833
       8    1934    1933    1911    1912    1856    1855    1833    1834
       8    1935    1934    1912    1913    1857    1856    1834    1835
       8    1936    1935    1913    1914    1858    1857    1835    1836
       8    1937    1936    1914    1893    1859    1858    1836    1815
       8    1938    1937    1893    1892    1860    1859    1815    1814
       8    1939    1938    1892    1894    1861    1860    1814    1816
       8    1940    1939    1894    1915    1862    1861    1816    1837
       8    1941    1940    1915    1916    1863    1862    1837    1838
       8    1942    1941    1916    1917    1864    1863    1838    1839
       8    1943    1942    1917    1918    1865    1864    1839    1840
       8    1944    1943    1918    1919    1866    1865    1840    1841
       8    1945    1944    1919    1920    1867    1866    1841    1842
       8    1946    1945    1920    1921    1868    1867    1842    1843
       8    1947    1946    1921    1922    1869    1868    1843    1844
       8    1948    1947    1922    1923    1870    1869    1844    1845
       8    1949    1948    1923    1877    1871    1870    1845    1799
       8    1925    1949    1877    1876    1847    1871    1799    1798
  
CELL_TYPES    3486
       1
       1
       1
       1
       1
       1
       1
       1
       1
       1
       1
       1
       1
       1
       1
       1
       1
       1
       1
       1
       1
       1
       1
       1
       1
       1
       1
       1
       1
       1
       1
       1
       1
       1
       1
       1
       1
       1
       1
       1
       1
       1
       1
       1
       1
       1
       1
       1
       1
       1
       1
       1
       1
       1
       1
       1
       1
       1
       1
       1
       1
       1
       1
       1
       1
       1
       1
       1
       1
       1
       1
       1
       1
       1
       1
       1
       1
       1
       1
       1
       1
       1
       1
       1
       1
       1
       1
       1
       1
       1
       1
       1
       1
       1
       1
       1
       1
       1
       1
       1
       1
       1
       1
       1
       1
       1
       1
       1
       1
       1
       1
       1
       1
       1
       1
       1
       1
       1
       1
       1
       1
       1
       1
       1
       1
       1
       1
       1
       1
       1
       1
       1
       1
       1
       1
       1
       1
       1
       1
       1
       1
       1
       1
       1
       1
       1
       1
       1
       1
       1
       1
       1
       1
       1
       1
       1
       1
       1
       1
       1
       1
       1
       1
       1
       1
       1
       1
       1
       1
       1
       1
       1
       1
       1
       1
       1
       1
       1
       1
       1
       1
       1
       1
       1
       1
       1
       1
       1
       1
       1
       1
       1
       1
       1
       1
       1
       1
       1
       1
       1
       1
       1
       1
       1
       1
       1
       1
       1
       1
       1
       1
       1
       1
       1
       1
       1
       1
       1
       1
       1
       1
       1
       1
       1
       1
       1
       1
       1
       1
       1
       1
       1
       1
       1
       1
       1
       1
       1
       1
       1
       1
       1
       1
       1
       1
       1
       1
       1
       1
       1
       1
       1
       1
       1
       1
       1
       1
       1
       1
       1
       1
       1
       1
       1
       1
       1
       1
       1
       1
       1
       1
       1
       1
       1
       1
       1
       1
       1
       1
       1
       1
       1
       1
       1
       1
       1
       1
       1
       1
       1
       1
       1
       1
       1
       1
       1
       1
       1
       1
       1
       1
       1
       1
       1
       1
       1
       1
       1
       1
       1
       1
       1
       1
       1
       1
       1
       1
       1
       1
       1
       1
       1
       1
       1
       1
       1
       1
       1
       1
       1
       1
       1
       1
       1
       1
       1
       1
       1
       1
       1
       1
       1
       1
       1
       1
       1
       1
       1
       1
       1
       1
       1
       1
       1
       1
       1
       1
       1
       1
       1
       1
       1
       1
       1
       1
       1
       1
       1
       1
       1
       1
       1
       1
       1
       1
       1
       1
       1
       1
       1
       1
       1
       1
       1
       1
       1
       1
       1
       1
       1
       1
       1
       1
       1
       1
       1
       1
       1
       1
       1
       1
       1
       1
       1
       1
       1
       1
       1
       1
       1
       1
       1
       1
       1
       1
       1
       1
       1
       1
       1
       1
       1
       1
       1
       1
       1
       1
       1
       1
       1
       1
       1
       1
       1
       1
       1
       1
       1
       1
       1
       1
       1
       1
       1
       1
       1
       1
       1
       1
       1
       1
       1
       1
       1
       1
       1
       1
       1
       1
       1
       1
       1
       1
       1
       1
       1
       1
       1
       1
       1
       1
       1
       1
       1
       1
       1
       1
       1
       1
       1
       1
       1
       1
       1
       1
       1
       1
       1
       1
       1
       1
       1
       1
       1
       1
       1
       1
       1
       1
       1
       1
       1
       1
       1
       1
       1
       1
       1
       1
       1
       1
       1
       1
       1
       1
       1
       1
       1
       1
       1
       1
       1
       1
       1
       1
       1
       1
       1
       1
       1
       1
       1
       1
       1
       1
       1
       1
       1
       1
       1
       1
       1
       1
       1
       1
       1
       1
       1
       1
       1
       1
       1
       1
       1
       1
       1
       1
       1
       1
       1
       1
       1
       1
       1
       1
       1
       1
       1
       1
       1
       1
       1
       1
       1
       1
       1
       1
       1
       1
       1
       1
       1
       1
       1
       1
       1
       1
       1
       1
       1
       1
       1
       1
       1
       1
       1
       1
       1
       1
       1
       1
       1
       1
       1
       1
       1
       1
       1
       1
       1
       1
       1
       1
       1
       1
       1
       1
       1
       1
       1
       1
       1
       1
       1
       1
       1
       1
       1
       1
       1
       1
       1
       1
       1
       1
       1
       1
       1
       1
       1
       1
       1
       1
       1
       1
       1
       1
       1
       1
       1
       1
       1
       1
       1
       1
       1
       1
       1
       1
       1
       1
       1
       1
       1
       1
       1
       1
       1
       1
       1
       1
       1
       1
       1
       1
       1
       1
       1
       1
       1
       1
       1
       1
       1
       1
       1
       1
       1
       1
       1
       1
       1
       1
       1
       1
       1
       1
       1
       1
       1
       1
       1
       1
       1
       1
       1
       1
       1
       1
       1
       1
       1
       1
       1
       1
       1
       1
       1
       1
       1
       1
       1
       1
       1
       1
       1
       1
       1
       1
       1
       1
       1
       1
       1
       1
       1
       1
       1
       1
       1
       1
       1
       1
       1
       1
       1
       1
       1
       1
       1
       1
       1
       1
       1
       1
       1
       1
       1
       1
       1
       1
       1
       1
       1
       1
       1
       1
       1
       1
       1
       1
       1
       1
       1
       1
       1
       1
       1
       1
       1
       1
       1
       1
       1
       1
       1
       1
       1
       1
       1
       1
       1
       1
       1
       1
       1
       1
       1
       1
       1
       1
       1
       1
       1
       1
       1
       1
       1
       1
       1
       1
       1
       1
       1
       1
       1
       1
       1
       1
       1
       1
       1
       1
       1
       1
       1
       1
       1
       1
       1
       1
       1
       1
       1
       1
       1
       1
       1
       1
       1
       1
       1
       1
       1
       1
       1
       1
       1
       1
       1
       1
       1
       1
       1
       1
       1
       1
       1
       1
       1
       1
       1
       1
       1
       1
       1
       1
       1
       1
       1
       1
       1
       1
       1
       1
       1
       1
       1
       1
       1
       1
       1
       1
       1
       1
       1
       1
       1
       1
       1
       1
       1
       1
       1
       1
       1
       1
       1
       1
       1
       1
       1
       1
       1
       1
       1
       1
       1
       1
       1
       1
       1
       1
       1
       1
       1
       1
       1
       1
       1
       1
       1
       1
       1
       1
       1
       1
       1
       1
       1
       1
       1
       1
       1
       1
       1
       1
       1
       1
       1
       1
       1
       1
       1
       1
       1
       1
       1
       1
       1
       1
       1
       1
       1
       1
       1
       1
       1
       1
       1
       1
       1
       1
       1
       1
       1
       1
       1
       1
       1
       1
       1
       1
       1
       1
       1
       1
       1
       1
       1
       1
       1
       1
       1
       1
       1
       1
       1
       1
       1
       1
       1
       1
       1
       1
       1
       1
       1
       1
       1
       1
       1
       1
       1
       1
       1
       1
       1
       1
       1
       1
       1
       1
       1
       1
       1
       1
       1
       1
       1
       1
       1
       1
       1
       1
       1
       1
       1
       1
       1
       1
       1
       1
       1
       1
       1
       1
       1
       1
       1
       1
       1
       1
       1
       1
       1
       1
       1
       1
       1
       1
       1
       1
       1
       1
       1
       1
       1
       1
       1
       1
       1
       1
       1
       1
       1
       1
       1
       1
       1
       1
       1
       1
       1
       1
       1
       1
       1
       1
       1
       1
       1
       1
       1
       1
       1
       1
       1
       1
       1
       1
       1
       1
       1
       1
       1
       1
       1
       1
       1
       1
       1
       1
       1
       1
       1
       1
       1
       1
       1
       1
       1
       1
       1
       1
       1
       1
       1
       1
       1
       1
       1
       1
       1
       1
       1
       1
       1
       1
       1
       1
       1
       1
       1
       1
       1
       1
       1
       1
       1
       1
       1
       1
       1
       1
       1
       1
       1
       1
       1
       1
       1
       1
       1
       1
       1
       1
       1
       1
       1
       1
       1
       1
       1
       1
       1
       1
       1
       1
       1
       1
       1
       1
       1
       1
       1
       1
       1
       1
       1
       1
       1
       1
       1
       1
       1
       1
       1
       1
       1
       1
       1
       1
       1
       1
       1
       1
       1
       1
       1
       1
       1
       1
       1
       1
       1
       1
       1
       1
       1
       1
       1
       1
       1
       1
       1
       1
       1
       1
       1
       1
       1
       1
       1
       1
       1
       1
       1
       1
       1
       1
       1
       1
       1
       1
       1
       1
       1
       1
       1
       1
       1
       1
       1
       1
       1
       1
       1
       1
       1
       1
       1
       1
       1
       1
       1
       1
       1
       1
       1
       1
       1
       1
       1
       1
       1
       1
       1
       1
       1
       1
       1
       1
       1
       1
       1
       1
       1
       1
       1
       1
       1
       1
       1
       1
       1
       1
       1
       1
       1
       1
       1
       1
       1
       1
       1
       1
       1
       1
       1
       1
       1
       1
       1
       1
       1
       1
       1
       1
       1
       1
       1
       1
       1
       1
       1
       1
       1
       1
       1
       1
       1
       1
       1
       1
       1
       1
       1
       1
       1
       1
       1
       1
       1
       1
       1
       1
       1
       1
       1
       1
       1
       1
       1
       1
       1
       1
       1
       1
       1
       1
       1
       1
       1
       1
       1
       1
       1
       1
       1
       1
       1
       1
       1
       1
       1
       1
       1
       1
       1
       1
       1
       1
       1
       1
       1
       1
       1
       1
       1
       1
       1
       1
       1
       1
       1
       1
       1
       1
       1
       1
       1
       1
       1
       1
       1
       1
       1
       1
       1
       1
       1
       1
       1
       1
       1
       1
       1
       1
       1
       1
       1
       1
       1
       1
       1
       1
       1
       1
       1
       1
       1
       1
       1
       1
       1
       1
       1
       1
       1
       1
       1
       1
       1
       1
       1
       1
       1
       1
       1
       1
       1
       1
       1
       1
       1
       1
       1
       1
       1
       1
       1
       1
       1
       1
       1
       1
       1
       1
       1
       1
       1
       1
       1
       1
       1
       1
       1
       1
       1
       1
       1
       1
       1
       1
       1
       1
       1
       1
       1
       1
       1
       1
       1
       1
       1
       1
       1
       1
       1
       1
       1
       1
       1
       1
       1
       1
       1
       1
       1
       1
       1
       1
       1
       1
       1
       1
       1
       1
       1
       1
       1
       1
       1
       1
       1
       1
       1
       1
       1
       1
       1
       1
       1
       1
       1
       1
       1
       1
       1
       1
       1
       1
       1
       1
       1
       1
       1
       1
       1
       1
       1
       1
       1
       1
       1
       1
       1
       1
       1
       1
       1
       1
       1
       1
       1
       1
       1
       1
       1
       1
       1
       1
       1
       1
       1
       1
       1
       1
       1
       1
       1
       1
       1
       1
       1
       1
       1
       1
       1
       1
       1
       1
       1
       1
       1
       1
       1
       1
       1
       1
       1
       1
       1
       1
       1
       1
       1
       1
       1
       1
       1
       1
       1
       1
       1
       1
       1
       1
       1
       1
       1
       1
       1
       1
       1
       1
       1
       1
       1
       1
       1
       1
       1
       1
       1
       1
       1
       1
       1
       1
       1
       1
       1
       1
       1
       1
       1
       1
       1
       1
       1
       1
       1
       1
       1
       1
       1
       1
       1
       1
       1
       1
       1
       1
       1
       1
       1
       1
       1
       1
       1
       1
       1
       1
       1
       1
       1
       1
       1
       1
       1
       1
       1
       1
       1
       1
       1
       1
       1
       1
       1
       1
       1
       1
       1
       1
       1
       1
       1
       1
       1
       1
       1
       1
       1
       1
       1
       1
       1
       1
       1
       1
       1
       1
       1
       1
       1
       1
       1
       1
       1
       1
       1
       1
       1
       1
       1
       1
       1
       1
       1
       1
       1
       1
       1
       1
       1
       1
       1
       1
       1
       1
       1
       1
       1
       1
       1
       1
       1
       1
       1
       1
       1
       1
       1
       1
       1
       1
       1
       1
       1
       1
       1
       1
       1
       1
       1
       1
       1
       1
       1
       1
       1
       1
       1
       1
       1
       1
       1
       1
       1
       1
       1
       1
       1
       1
       1
       1
       1
       1
       1
       1
       1
       1
       1
       1
       1
       1
       1
       1
       1
       1
       1
       1
       1
       1
       1
       1
       1
       1
       1
       1
       1
       1
       1
       1
       1
       1
       1
       1
       1
       1
       1
       1
       1
       1
       1
       1
       1
       1
       1
       1
       1
       1
       1
       1
       1
       1
       1
       1
       1
       1
       1
       1
       1
       1
       1
       1
       1
       1
       1
       1
       1
       1
       1
       1
       1
       1
       1
       1
       1
       1
       1
       1
       1
       1
       1
       1
       1
       1
       1
       1
       1
       1
       1
       1
       1
       1
       1
       1
       1
       1
       1
       1
       1
       1
       1
       1
       1
       1
       1
       1
       1
       1
       1
       1
       1
       1
       1
       1
       1
       1
       1
       1
       1
       1
       1
       1
       1
       1
       1
       1
       1
       1
       1
       1
       1
       1
       1
       1
       1
       1
       1
       1
       1
       1
       1
       1
       1
       1
       1
       1
       1
       1
       1
       1
       1
       1
       1
       1
       1
       1
       1
       1
       1
       1
       1
       1
       1
       1
       1
       1
       1
       1
       1
       1
       1
       1
       1
      12
      12
      12
      12
      12
      12
      12
      12
      12
      12
      12
      12
      12
      12
      12
      12
      12
      12
      12
      12
      12
      12
      12
      12
      12
      12
      12
      12
      12
      12
      12
      12
      12
      12
      12
      12
      12
      12
      12
      12
      12
      12
      12
      12
      12
      12
      12
      12
      12
      12
      12
      12
      12
      12
      12
      12
      12
      12
      12
      12
      12
      12
      12
      12
      12
      12
      12
      12
      12
      12
      12
      12
      12
      12
      12
      12
      12
      12
      12
      12
      12
      12
      12
      12
      12
      12
      12
      12
      12
      12
      12
      12
      12
      12
      12
      12
      12
      12
      12
      12
      12
      12
      12
      12
      12
      12
      12
      12
      12
      12
      12
      12
      12
      12
      12
      12
      12
      12
      12
      12
      12
      12
      12
      12
      12
      12
      12
      12
      12
      12
      12
      12
      12
      12
      12
      12
      12
      12
      12
      12
      12
      12
      12
      12
      12
      12
      12
      12
      12
      12
      12
      12
      12
      12
      12
      12
      12
      12
      12
      12
      12
      12
      12
      12
      12
      12
      12
      12
      12
      12
      12
      12
      12
      12
      12
      12
      12
      12
      12
      12
      12
      12
      12
      12
      12
      12
      12
      12
      12
      12
      12
      12
      12
      12
      12
      12
      12
      12
      12
      12
      12
      12
      12
      12
      12
      12
      12
      12
      12
      12
      12
      12
      12
      12
      12
      12
      12
      12
      12
      12
      12
      12
      12
      12
      12
      12
      12
      12
      12
      12
      12
      12
      12
      12
      12
      12
      12
      12
      12
      12
      12
      12
      12
      12
      12
      12
      12
      12
      12
      12
      12
      12
      12
      12
      12
      12
      12
      12
      12
      12
      12
      12
      12
      12
      12
      12
      12
      12
      12
      12
      12
      12
      12
      12
      12
      12
      12
      12
      12
      12
      12
      12
      12
      12
      12
      12
      12
      12
      12
      12
      12
      12
      12
      12
      12
      12
      12
      12
      12
      12
      12
      12
      12
      12
      12
      12
      12
      12
      12
      12
      12
      12
      12
      12
      12
      12
      12
      12
      12
      12
      12
      12
      12
      12
      12
      12
      12
      12
      12
      12
      12
      12
      12
      12
      12
      12
      12
      12
      12
      12
      12
      12
      12
      12
      12
      12
      12
      12
      12
      12
      12
      12
      12
      12
      12
      12
      12
      12
      12
      12
      12
      12
      12
      12
      12
      12
      12
      12
      12
      12
      12
      12
      12
      12
      12
      12
      12
      12
      12
      12
      12
      12
      12
      12
      12
      12
      12
      12
      12
      12
      12
      12
      12
      12
      12
      12
      12
      12
      12
      12
      12
      12
      12
      12
      12
      12
      12
      12
      12
      12
      12
      12
      12
      12
      12
      12
      12
      12
      12
      12
      12
      12
      12
      12
      12
      12
      12
      12
      12
      12
      12
      12
      12
      12
      12
      12
      12
      12
      12
      12
      12
      12
      12
      12
      12
      12
      12
      12
      12
      12
      12
      12
      12
      12
      12
      12
      12
      12
      12
      12
      12
      12
      12
      12
      12
      12
      12
      12
      12
      12
      12
      12
      12
      12
      12
      12
      12
      12
      12
      12
      12
      12
      12
      12
      12
      12
      12
      12
      12
      12
      12
      12
      12
      12
      12
      12
      12
      12
      12
      12
      12
      12
      12
      12
      12
      12
      12
      12
      12
      12
      12
      12
      12
      12
      12
      12
      12
      12
      12
      12
      12
      12
      12
      12
      12
      12
      12
      12
      12
      12
      12
      12
      12
      12
      12
      12
      12
      12
      12
      12
      12
      12
      12
      12
      12
      12
      12
      12
      12
      12
      12
      12
      12
      12
      12
      12
      12
      12
      12
      12
      12
      12
      12
      12
      12
      12
      12
      12
      12
      12
      12
      12
      12
      12
      12
      12
      12
      12
      12
      12
      12
      12
      12
      12
      12
      12
      12
      12
      12
      12
      12
      12
      12
      12
      12
      12
      12
      12
      12
      12
      12
      12
      12
      12
      12
      12
      12
      12
      12
      12
      12
      12
      12
      12
      12
      12
      12
      12
      12
      12
      12
      12
      12
      12
      12
      12
      12
      12
      12
      12
      12
      12
      12
      12
      12
      12
      12
      12
      12
      12
      12
      12
      12
      12
      12
      12
      12
      12
      12
      12
      12
      12
      12
      12
      12
      12
      12
      12
      12
      12
      12
      12
      12
      12
      12
      12
      12
      12
      12
      12
      12
      12
      12
      12
      12
      12
      12
      12
      12
      12
      12
      12
      12
      12
      12
      12
      12
      12
      12
      12
      12
      12
      12
      12
      12
      12
      12
      12
      12
      12
      12
      12
      12
      12
      12
      12
      12
      12
      12
      12
      12
      12
      12
      12
      12
      12
      12
      12
      12
      12
      12
      12
      12
      12
      12
      12
      12
      12
      12
      12
      12
      12
      12
      12
      12
      12
      12
      12
      12
      12
      12
      12
      12
      12
      12
      12
      12
      12
      12
      12
      12
      12
      12
      12
      12
      12
      12
      12
      12
      12
      12
      12
      12
      12
      12
      12
      12
      12
      12
      12
      12
      12
      12
      12
      12
      12
      12
      12
      12
      12
      12
      12
      12
      12
      12
      12
      12
      12
      12
      12
      12
      12
      12
      12
      12
      12
      12
      12
      12
      12
      12
      12
      12
      12
      12
      12
      12
      12
      12
      12
      12
      12
      12
      12
      12
      12
      12
      12
      12
      12
      12
      12
      12
      12
      12
      12
      12
      12
      12
      12
      12
      12
      12
      12
      12
      12
      12
      12
      12
      12
      12
      12
      12
      12
      12
      12
      12
      12
      12
      12
      12
      12
      12
      12
      12
      12
      12
      12
      12
      12
      12
      12
      12
      12
      12
      12
      12
      12
      12
      12
      12
      12
      12
      12
      12
      12
      12
      12
      12
      12
      12
      12
      12
      12
      12
      12
      12
      12
      12
      12
      12
      12
      12
      12
      12
      12
      12
      12
      12
      12
      12
      12
      12
      12
      12
      12
      12
      12
      12
      12
      12
      12
      12
      12
      12
      12
      12
      12
      12
      12
      12
      12
      12
      12
      12
      12
      12
      12
      12
      12
      12
      12
      12
      12
      12
      12
      12
      12
      12
      12
      12
      12
      12
      12
      12
      12
      12
      12
      12
      12
      12
      12
      12
      12
      12
      12
      12
      12
      12
      12
      12
      12
      12
      12
      12
      12
      12
      12
      12
      12
      12
      12
      12
      12
      12
      12
      12
      12
      12
      12
      12
      12
      12
      12
      12
      12
      12
      12
      12
      12
      12
      12
      12
      12
      12
      12
      12
      12
      12
      12
      12
      12
      12
      12
      12
      12
      12
      12
      12
      12
      12
      12
      12
      12
      12
      12
      12
      12
      12
      12
      12
      12
      12
      12
      12
      12
      12
      12
      12
      12
      12
      12
      12
      12
      12
      12
      12
      12
      12
      12
      12
      12
      12
      12
      12
      12
      12
      12
      12
      12
      12
      12
      12
      12
      12
      12
      12
      12
      12
      12
      12
      12
      12
      12
      12
      12
      12
      12
      12
      12
      12
      12
      12
      12
      12
      12
      12
      12
      12
      12
      12
      12
      12
      12
      12
      12
      12
      12
      12
      12
      12
      12
      12
      12
      12
      12
      12
      12
      12
      12
      12
      12
      12
      12
      12
      12
      12
      12
      12
      12
      12
      12
      12
      12
      12
      12
      12
      12
      12
      12
      12
      12
      12
      12
      12
      12
      12
      12
      12
      12
      12
      12
      12
      12
      12
      12
      12
      12
      12
      12
      12
      12
      12
      12
      12
      12
      12
      12
      12
      12
      12
      12
      12
      12
      12
      12
      12
      12
      12
      12
      12
      12
      12
      12
      12
      12
      12
      12
      12
      12
      12
      12
      12
      12
      12
      12
      12
      12
      12
      12
      12
      12
      12
      12
      12
      12
      12
      12
      12
      12
      12
      12
      12
      12
      12
      12
      12
      12
      12
      12
      12
      12
      12
      12
      12
      12
      12
      12
      12
      12
      12
      12
      12
      12
      12
      12
      12
      12
      12
      12
      12
      12
      12
      12
      12
      12
      12
      12
      12
      12
      12
      12
      12
      12
      12
      12
      12
      12
      12
      12
      12
      12
      12
      12
      12
      12
      12
      12
      12
      12
      12
      12
      12
      12
      12
      12
      12
      12
      12
      12
      12
      12
      12
      12
      12
      12
      12
      12
      12
      12
      12
      12
      12
      12
      12
      12
      12
      12
      12
      12
      12
      12
      12
      12
      12
      12
      12
      12
      12
      12
      12
      12
      12
      12
      12
      12
      12
      12
      12
      12
      12
      12
      12
      12
      12
      12
      12
      12
      12
      12
      12
      12
      12
      12
      12
      12
      12
      12
      12
      12
      12
      12
      12
      12
      12
      12
      12
      12
      12
      12
      12
      12
      12
      12
      12
      12
      12
      12
      12
      12
      12
      12
      12
      12
      12
      12
      12
      12
      12
      12
      12
      12
      12
      12
      12
      12
      12
      12
      12
      12
      12
      12
      12
      12
      12
      12
      12
      12
      12
      12
      12
      12
      12
      12
      12
      12
      12
      12
      12
      12
      12
      12
      12
      12
      12
      12
      12
      12
      12
      12
      12
      12
      12
      12
      12
      12
      12
      12
      12
      12
      12
      12
      12
      12
      12
      12
      12
      12
      12
      12
      12
      12
      12
      12
      12
      12
      12
      12
      12
      12
      12
      12
      12
      12
      12
      12
      12
      12
      12
      12
      12
      12
      12
      12
      12
      12
      12
      12
      12
      12
      12
      12
      12
      12
      12
      12
      12
      12
      12
      12
      12
      12
      12
      12
      12
      12
      12
      12
      12
      12
      12
      12
      12
      12
      12
      12
      12
      12
      12
      12
      12
      12
      12
      12
      12
      12
      12
      12
      12
      12
      12
      12
      12
      12
      12
      12
      12
      12
      12
      12
      12
      12
      12
      12
      12
      12
      12
      12
      12
      12
      12
      12
      12
      12
      12
      12
      12
      12
      12
      12
      12
      12
      12
      12
      12
      12
      12
      12
      12
      12
      12
      12
      12
      12
      12
      12
      12
      12
      12
      12
      12
      12
      12
      12
      12
      12
  
  
POINT_DATA       1950
  
SCALARS                  material_type  double 1
LOOKUP_TABLE default
                   2
                   2
                   2
                   2
                   2
                   2
                   2
                   2
                   2
                   2
                   2
                   2
                   2
                   2
                   2
                   2
                   2
                   2
                   2
                   2
                   2
                   2
                   2
                   2
                   2
                   2
                   2
                   2
                   2
                   2
                   2
                   2
                   2
                   2
                   2
                   2
                   2
                   2
                   2
                   2
                   2
                   2
                   2
                   2
                   2
                   2
                   2
                   2
                   2
                   2
                   2
                   2
                   2
                   2
                   2
                   2
                   2
                   2
                   2
                   2
                   2
                   2
                   2
                   2
                   2
                   2
                   2
                   2
                   2
                   2
                   2
                   2
                   2
                   2
                   2
                   2
                   2
                   2
                   2
                   2
                   2
                   2
                   2
                   2
                   2
                   2
                   2
                   2
                   2
                   2
                   2
                   2
                   2
                   2
                   2
                   2
                   2
                   2
                   2
                   2
                   2
                   2
                   2
                   2
                   2
                   2
                   2
                   2
                   2
                   2
                   2
                   2
                   2
                   2
                   2
                   2
                   2
                   2
                   2
                   2
                   2
                   2
                   2
                   2
                   2
                   2
                   2
                   2
                   2
                   2
                   2
                   2
                   2
                   2
                   2
                   2
                   2
                   2
                   2
                   2
                   2
                   2
                   2
                   2
                   2
                   2
                   2
                   2
                   2
                   2
                   2
                   2
                   2
                   2
                   2
                   2
                   2
                   2
                   2
                   2
                   2
                   2
                   2
                   2
                   2
                   2
                   2
                   2
                   2
                   2
                   2
                   2
                   2
                   2
                   2
                   2
                   2
                   2
                   2
                   2
                   2
                   2
                   2
                   2
                   2
                   2
                   2
                   2
                   2
                   2
                   2
                   2
                   2
                   2
                   2
                   2
                   2
                   2
                   2
                   2
                   2
                   2
                   2
                   2
                   2
                   2
                   2
                   2
                   2
                   2
                   2
                   2
                   2
                   2
                   2
                   2
                   2
                   2
                   2
                   2
                   2
                   2
                   2
                   2
                   2
                   2
                   2
                   2
                   2
                   2
                   2
                   2
                   2
                   2
                   2
                   2
                   2
                   2
                   2
                   2
                   2
                   2
                   2
                   2
                   2
                   2
                   2
                   2
                   2
                   2
                   2
                   2
                   2
                   2
                   2
                   2
                   2
                   2
                   2
                   2
                   2
                   2
                   2
                   2
                   2
                   2
                   2
                   2
                   2
                   2
                   2
                   2
                   2
                   2
                   2
                   2
                   2
                   2
                   2
                   2
                   2
                   2
                   2
                   2
                   2
                   2
                   2
                   2
                   2
                   2
                   2
                   2
                   2
                   2
                   2
                   2
                   2
                   2
                   2
                   2
                   2
                   2
                   2
                   2
                   2
                   2
                   2
                   2
                   2
                   2
                   2
                   2
                   2
                   2
                   2
                   2
                   2
                   2
                   2
                   2
                   2
                   2
                   2
                   2
                   2
                   2
                   2
                   2
                   2
                   2
                   2
                   2
                   2
                   2
                   2
                   2
                   2
                   2
                   2
                   2
                   2
                   2
                   2
                   2
                   2
                   2
                   2
                   2
                   2
                   2
                   2
                   2
                   2
                   2
                   2
                   2
                   2
                   2
                   2
                   2
                   2
                   2
                   2
                   2
                   2
                   2
                   2
                   2
                   2
                   2
                   2
                   2
                   2
                   2
                   2
                   2
                   2
                   2
                   2
                   2
                   2
                   2
                   2
                   2
                   2
                   2
                   2
                   2
                   2
                   2
                   2
                   2
                   2
                   2
                   2
                   2
                   2
                   2
                   2
                   2
                   2
                   2
                   2
                   2
                   2
                   2
                   2
                   2
                   2
                   2
                   2
                   2
                   2
                   2
                   2
                   2
                   2
                   2
                   2
                   2
                   2
                   2
                   2
                   2
                   2
                   2
                   2
                   2
                   2
                   2
                   2
                   2
                   2
                   2
                   2
                   2
                   2
                   2
                   2
                   2
                   2
                   2
                   2
                   2
                   2
                   2
                   2
                   2
                   2
                   2
                   2
                   2
                   2
                   2
                   2
                   2
                   2
                   2
                   2
                   2
                   2
                   2
                   2
                   2
                   2
                   2
                   2
                   2
                   2
                   2
                   2
                   2
                   2
                   2
                   2
                   2
                   2
                   2
                   2
                   2
                   2
                   2
                   2
                   2
                   2
                   2
                   2
                   2
                   2
                   2
                   2
                   2
                   2
                   2
                   2
                   2
                   2
                   2
                   2
                   2
                   2
                   2
                   2
                   2
                   2
                   2
                   2
                   2
                   2
                   2
                   2
                   2
                   2
                   2
                   2
                   2
                   2
                   2
                   2
                   2
                   2
                   2
                   2
                   2
                   2
                   2
                   2
                   2
                   2
                   2
                   2
                   2
                   2
                   2
                   2
                   2
                   2
                   2
                   2
                   2
                   2
                   2
                   2
                   2
                   2
                   2
                   2
                   2
                   2
                   2
                   2
                   2
                   2
                   2
                   2
                   2
                   2
                   2
                   2
                   2
                   2
                   2
                   2
                   2
                   2
                   2
                   2
                   2
                   2
                   2
                   2
                   2
                   2
                   2
                   2
                   2
                   2
                   2
                   2
                   2
                   2
                   2
                   2
                   2
                   2
                   2
                   2
                   2
                   2
                   2
                   2
                   2
                   2
                   2
                   2
                   2
                   2
                   2
                   2
                   2
                   2
                   2
                   2
                   2
                   2
                   2
                   2
                   2
                   2
                   2
                   2
                   2
                   2
                   2
                   2
                   2
                   2
                   2
                   2
                   2
                   2
                   2
                   2
                   2
                   2
                   2
                   2
                   2
                   2
                   2
                   2
                   2
                   2
                   2
                   2
                   2
                   2
                   2
                   2
                   2
                   2
                   2
                   2
                   2
                   2
                   2
                   2
                   2
                   2
                   2
                   2
                   2
                   2
                   2
                   2
                   2
                   2
                   2
                   2
                   2
                   2
                   2
                   2
                   2
                   2
                   2
                   2
                   2
                   2
                   2
                   2
                   2
                   2
                   2
                   2
                   2
                   2
                   2
                   2
                   2
                   2
                   2
                   2
                   2
                   2
                   2
                   2
                   2
                   2
                   2
                   2
                   2
                   2
                   2
                   2
                   2
                   2
                   2
                   2
                   2
                   2
                   2
                   2
                   2
                   2
                   2
                   2
                   2
                   2
                   2
                   2
                   2
                   2
                   2
                   2
                   2
                   2
                   2
                   2
                   2
                   2
                   2
                   2
                   2
                   2
                   2
                   2
                   2
                   2
                   2
                   2
                   2
                   2
                   2
                   2
                   2
                   2
                   2
                   2
                   2
                   2
                   2
                   2
                   2
                   2
                   2
                   2
                   2
                   2
                   2
                   2
                   2
                   2
                   2
                   2
                   2
                   2
                   2
                   2
                   2
                   2
                   2
                   2
                   2
                   2
                   2
                   2
                   2
                   2
                   2
                   2
                   2
                   2
                   2
                   2
                   2
                   2
                   2
                   2
                   2
                   2
                   2
                   2
                   2
                   2
                   2
                   2
                   2
                   2
                   2
                   2
                   2
                   2
                   2
                   2
                   2
                   2
                   2
                   2
                   2
                   2
                   2
                   2
                   2
                   2
                   2
                   2
                   2
                   2
                   2
                   2
                   2
                   2
                   2
                   2
                   2
                   2
                   2
                   2
                   2
                   2
                   2
                   2
                   2
                   2
                   2
                   2
                   2
                   2
                   2
                   2
                   2
                   2
                   2
                   2
                   2
                   2
                   2
                   2
                   2
                   2
                   2
                   2
                   2
                   2
                   2
                   2
                   2
                   2
                   2
                   2
                   2
                   2
                   2
                   2
                   2
                   2
                   2
                   2
                   2
                   2
                   2
                   2
                   2
                   2
                   2
                   2
                   2
                   2
                   2
                   2
                   2
                   2
                   2
                   2
                   2
                   2
                   2
                   2
                   2
                   2
                   2
                   2
                   2
                   2
                   2
                   2
                   2
                   2
                   2
                   2
                   2
                   2
                   2
                   2
                   2
                   2
                   2
                   2
                   2
                   2
                   2
                   2
                   2
                   2
                   2
                   2
                   2
                   2
                   2
                   2
                   2
                   2
                   2
                   2
                   2
                   2
                   2
                   2
                   2
                   2
                   2
                   2
                   2
                   2
                   2
                   2
                   2
                   2
                   2
                   2
                   2
                   2
                   2
                   2
                   2
                   2
                   2
                   2
                   2
                   2
                   2
                   2
                   2
                   2
                   2
                   2
                   2
                   2
                   2
                   2
                   2
                   2
                   2
                   2
                   2
                   2
                   2
                   2
                   2
                   2
                   2
                   2
                   2
                   2
                   2
                   2
                   2
                   2
                   2
                   2
                   2
                   2
                   2
                   2
                   2
                   2
                   2
                   2
                   2
                   2
                   2
                   2
                   2
                   2
                   2
                   2
                   2
                   2
                   2
                   2
                   2
                   2
                   2
                   2
                   2
                   2
                   2
                   2
                   2
                   2
                   2
                   2
                   2
                   2
                   2
                   2
                   2
                   2
                   2
                   2
                   2
                   2
                   2
                   2
                   2
                   2
                   2
                   2
                   2
                   2
                   2
                   2
                   2
                   2
                   2
                   2
                   2
                   2
                   2
                   2
                   2
                   2
                   2
                   2
                   2
                   2
                   2
                   2
                   2
                   2
                   2
                   2
                   2
                   2
                   2
                   2
                   2
                   2
                   2
                   2
                   2
                   2
                   2
                   2
                   2
                   2
                   2
                   2
                   2
                   2
                   2
                   2
                   2
                   2
                   2
                   2
                   2
                   2
                   2
                   2
                   2
                   2
                   2
                   2
                   2
                   2
                   2
                   2
                   2
                   2
                   2
                   2
                   2
                   2
                   2
                   2
                   2
                   2
                   2
                   2
                   2
                   2
                   2
                   2
                   2
                   2
                   2
                   2
                   2
                   2
                   2
                   2
                   2
                   2
                   2
                   2
                   2
                   2
                   2
                   2
                   2
                   2
                   2
                   2
                   2
                   2
                   2
                   2
                   2
                   2
                   2
                   2
                   2
                   2
                   2
                   2
                   2
                   2
                   2
                   2
                   2
                   2
                   2
                   2
                   2
                   2
                   2
                   2
                   2
                   2
                   2
                   2
                   2
                   2
                   2
                   2
                   2
                   2
                   2
                   2
                   2
                   2
                   2
                   2
                   2
                   2
                   2
                   2
                   2
                   2
                   2
                   2
                   2
                   2
                   2
                   2
                   2
                   2
                   2
                   2
                   2
                   2
                   2
                   2
                   2
                   2
                   2
                   2
                   2
                   2
                   2
                   2
                   2
                   2
                   2
                   2
                   2
                   2
                   2
                   2
                   2
                   2
                   2
                   2
                   2
                   2
                   2
                   2
                   2
                   2
                   2
                   2
                   2
                   2
                   2
                   2
                   2
                   2
                   2
                   2
                   2
                   2
                   2
                   2
                   2
                   2
                   2
                   2
                   2
                   2
                   2
                   2
                   2
                   2
                   2
                   2
                   2
                   2
                   2
                   2
                   2
                   2
                   2
                   2
                   2
                   2
                   2
                   2
                   2
                   2
                   2
                   2
                   2
                   2
                   2
                   2
                   2
                   2
                   2
                   2
                   2
                   2
                   2
                   2
                   2
                   2
                   2
                   2
                   2
                   2
                   2
                   2
                   2
                   2
                   2
                   2
                   2
                   2
                   2
                   2
                   2
                   2
                   2
                   2
                   2
                   2
                   2
                   2
                   2
                   2
                   2
                   2
                   2
                   2
                   2
                   2
                   2
                   2
                   2
                   2
                   2
                   2
                   2
                   2
                   2
                   2
                   2
                   2
                   2
                   2
                   2
                   2
                   2
                   2
                   2
                   2
                   2
                   2
                   2
                   2
                   2
                   2
                   2
                   2
                   2
                   2
                   2
                   2
                   2
                   2
                   2
                   2
                   2
                   2
                   2
                   2
                   2
                   2
                   2
                   2
                   2
                   2
                   2
                   2
                   2
                   2
                   2
                   2
                   2
                   2
                   2
                   2
                   2
                   2
                   2
                   2
                   2
                   2
                   2
                   2
                   2
                   2
                   2
                   2
                   2
                   2
                   2
                   2
                   2
                   2
                   2
                   2
                   2
                   2
                   2
                   2
                   2
                   2
                   2
                   2
                   2
                   2
                   2
                   2
                   2
                   2
                   2
                   2
                   2
                   2
                   2
                   2
                   2
                   2
                   2
                   2
                   2
                   2
                   2
                   2
                   2
                   2
                   2
                   2
                   2
                   2
                   2
                   2
                   2
                   2
                   2
                   2
                   2
                   2
                   2
                   2
                   2
                   2
                   2
                   2
                   2
                   2
                   2
                   2
                   2
                   2
                   2
                   2
                   2
                   2
                   2
                   2
                   2
                   2
                   2
                   2
                   2
                   2
                   2
                   2
                   2
                   2
                   2
                   2
                   2
                   2
                   2
                   2
                   2
                   2
                   2
                   2
                   2
                   2
                   2
                   2
                   2
                   2
                   2
                   2
                   2
                   2
                   2
                   2
                   2
                   2
                   2
                   2
                   2
                   2
                   2
                   2
                   2
                   2
                   2
                   2
                   2
                   2
                   2
                   2
                   2
                   2
                   2
                   2
                   2
                   2
                   2
                   2
                   2
                   2
                   2
                   2
                   2
                   2
                   2
                   2
                   2
                   2
                   2
                   2
                   2
                   2
                   2
                   2
                   2
                   2
                   2
                   2
                   2
                   2
                   2
                   2
                   2
                   2
                   2
                   2
                   2
                   2
                   2
                   2
                   2
                   2
                   2
                   2
                   2
                   2
                   2
                   2
                   2
                   2
                   2
                   2
                   2
                   2
                   2
                   2
                   2
                   2
                   2
                   2
                   2
                   2
                   2
                   2
                   2
                   2
                   2
                   2
                   2
                   2
                   2
                   2
                   2
                   2
                   2
                   2
                   2
                   2
                   2
                   2
                   2
                   2
                   2
                   2
                   2
                   2
                   2
                   2
                   2
                   2
                   2
                   2
                   2
                   2
                   2
                   2
                   2
                   2
                   2
                   2
                   2
                   2
                   2
                   2
                   2
                   2
                   2
                   2
                   2
                   2
                   2
                   2
                   2
                   2
                   2
                   2
                   2
                   2
                   2
                   2
                   2
                   2
                   2
                   2
                   2
                   2
                   2
                   2
                   2
                   2
                   2
                   2
                   2
                   2
                   2
                   2
                   2
                   2
                   2
                   2
                   2
                   2
                   2
                   2
                   2
                   2
                   2
                   2
                   2
                   2
                   2
                   2
                   2
                   2
                   2
                   2
                   2
                   2
                   2
                   2
                   2
                   2
                   2
                   2
                   2
                   2
                   2
                   2
                   2
                   2
                   2
                   2
                   2
                   2
                   2
                   2
                   2
                   2
                   2
                   2
                   2
                   2
                   2
                   2
                   2
                   2
                   2
                   2
                   2
                   2
                   2
                   2
                   2
                   2
                   2
                   2
                   2
                   2
                   2
                   2
                   2
                   2
                   2
                   2
                   2
                   2
                   2
                   2
                   2
                   2
                   2
                   2
                   2
                   2
                   2
                   2
                   2
                   2
                   2
                   2
                   2
                   2
                   2
                   2
                   2
                   2
                   2
                   2
                   2
                   2
                   2
                   2
                   2
                   2
                   2
                   2
                   2
                   2
                   2
                   2
                   2
                   2
                   2
                   2
                   2
                   2
                   2
                   2
                   2
                   2
                   2
                   2
                   2
                   2
                   2
                   2
                   2
                   2
                   2
                   2
                   2
                   2
                   2
                   2
                   2
                   2
                   2
                   2
                   2
                   2
                   2
                   2
                   2
                   2
                   2
                   2
                   2
                   2
                   2
                   2
                   2
                   2
                   2
                   2
                   2
                   2
                   2
                   2
                   2
                   2
                   2
                   2
                   2
                   2
                   2
                   2
                   2
                   2
                   2
                   2
                   2
                   2
                   2
                   2
                   2
                   2
                   2
                   2
                   2
                   2
                   2
                   2
                   2
                   2
                   2
                   2
                   2
                   2
                   2
                   2
                   2
                   2
                   2
                   2
                   2
                   2
                   2
                   2
                   2
                   2
                   2
                   2
                   2
                   2
                   2
                   2
                   2
                   2
                   2
                   2
                   2
                   2
                   2
                   2
                   2
                   2
                   2
                   2
                   2
                   2
                   2
                   2
                   2
                   2
                   2
                   2
                   2
                   2
                   2
                   2
                   2
                   2
                   2
                   2
                   2
                   2
                   2
                   2
                   2
                   2
                   2
                   2
                   2
                   2
                   2
                   2
                   2
                   2
                   2
                   2
                   2
                   2
                   2
                   2
                   2
                   2
                   2
                   2
                   2
                   2
                   2
                   2
                   2
                   2
                   2
                   2
                   2
                   2
                   2
                   2
                   2
                   2
                   2
                   2
                   2
                   2
                   2
                   2
                   2
                   2
                   2
                   2
                   2
                   2
                   2
                   2
                   2
                   2
                   2
                   2
                   2
                   2
                   2
                   2
                   2
                   2
                   2
                   2
                   2
                   2
                   2
                   2
                   2
                   2
                   2
                   2
                   2
                   2
                   2
                   2
                   2
                   2
                   2
                   2
                   2
                   2
                   2
                   2
                   2
                   2
                   2
                   2
                   2
                   2
                   2
                   2
                   2
                   2
                   2
                   2
                   2
                   2
                   2
                   2
                   2
                   2
                   2
                   2
                   2
                   2
                   2
                   2
                   2
                   2
                   2
                   2
                   2
                   2
                   2
  
SCALARS                        node_id  double 1
LOOKUP_TABLE default
                   1
                   2
                   3
                   4
                   5
                   6
                   7
                   8
                   9
                  10
                  11
                  12
                  13
                  14
                  15
                  16
                  17
                  18
                  19
                  20
                  21
                  22
                  23
                  24
                  25
                  26
                  27
                  28
                  29
                  30
                  31
                  32
                  33
                  34
                  35
                  36
                  37
                  38
                  39
                  40
                  41
                  42
                  43
                  44
                  45
                  46
                  47
                  48
                  49
                  50
                  51
                  52
                  53
                  54
                  55
                  56
                  57
                  58
                  59
                  60
                  61
                  62
                  63
                  64
                  65
                  66
                  67
                  68
                  69
                  70
                  71
                  72
                  73
                  74
                  75
                  76
                  77
                  78
                  79
                  80
                  81
                  82
                  83
                  84
                  85
                  86
                  87
                  88
                  89
                  90
                  91
                  92
                  93
                  94
                  95
                  96
                  97
                  98
                  99
                 100
                 101
                 102
                 103
                 104
                 105
                 106
                 107
                 108
                 109
                 110
                 111
                 112
                 113
                 114
                 115
                 116
                 117
                 118
                 119
                 120
                 121
                 122
                 123
                 124
                 125
                 126
                 127
                 128
                 129
                 130
                 131
                 132
                 133
                 134
                 135
                 136
                 137
                 138
                 139
                 140
                 141
                 142
                 143
                 144
                 145
                 146
                 147
                 148
                 149
                 150
                 151
                 152
                 153
                 154
                 155
                 156
                 157
                 158
                 159
                 160
                 161
                 162
                 163
                 164
                 165
                 166
                 167
                 168
                 169
                 170
                 171
                 172
                 173
                 174
                 175
                 176
                 177
                 178
                 179
                 180
                 181
                 182
                 183
                 184
                 185
                 186
                 187
                 188
                 189
                 190
                 191
                 192
                 193
                 194
                 195
                 196
                 197
                 198
                 199
                 200
                 201
                 202
                 203
                 204
                 205
                 206
                 207
                 208
                 209
                 210
                 211
                 212
                 213
                 214
                 215
                 216
                 217
                 218
                 219
                 220
                 221
                 222
                 223
                 224
                 225
                 226
                 227
                 228
                 229
                 230
                 231
                 232
                 233
                 234
                 235
                 236
                 237
                 238
                 239
                 240
                 241
                 242
                 243
                 244
                 245
                 246
                 247
                 248
                 249
                 250
                 251
                 252
                 253
                 254
                 255
                 256
                 257
                 258
                 259
                 260
                 261
                 262
                 263
                 264
                 265
                 266
                 267
                 268
                 269
                 270
                 271
                 272
                 273
                 274
                 275
                 276
                 277
                 278
                 279
                 280
                 281
                 282
                 283
                 284
                 285
                 286
                 287
                 288
                 289
                 290
                 291
                 292
                 293
                 294
                 295
                 296
                 297
                 298
                 299
                 300
                 301
                 302
                 303
                 304
                 305
                 306
                 307
                 308
                 309
                 310
                 311
                 312
                 313
                 314
                 315
                 316
                 317
                 318
                 319
                 320
                 321
                 322
                 323
                 324
                 325
                 326
                 327
                 328
                 329
                 330
                 331
                 332
                 333
                 334
                 335
                 336
                 337
                 338
                 339
                 340
                 341
                 342
                 343
                 344
                 345
                 346
                 347
                 348
                 349
                 350
                 351
                 352
                 353
                 354
                 355
                 356
                 357
                 358
                 359
                 360
                 361
                 362
                 363
                 364
                 365
                 366
                 367
                 368
                 369
                 370
                 371
                 372
                 373
                 374
                 375
                 376
                 377
                 378
                 379
                 380
                 381
                 382
                 383
                 384
                 385
                 386
                 387
                 388
                 389
                 390
                 391
                 392
                 393
                 394
                 395
                 396
                 397
                 398
                 399
                 400
                 401
                 402
                 403
                 404
                 405
                 406
                 407
                 408
                 409
                 410
                 411
                 412
                 413
                 414
                 415
                 416
                 417
                 418
                 419
                 420
                 421
                 422
                 423
                 424
                 425
                 426
                 427
                 428
                 429
                 430
                 431
                 432
                 433
                 434
                 435
                 436
                 437
                 438
                 439
                 440
                 441
                 442
                 443
                 444
                 445
                 446
                 447
                 448
                 449
                 450
                 451
                 452
                 453
                 454
                 455
                 456
                 457
                 458
                 459
                 460
                 461
                 462
                 463
                 464
                 465
                 466
                 467
                 468
                 469
                 470
                 471
                 472
                 473
                 474
                 475
                 476
                 477
                 478
                 479
                 480
                 481
                 482
                 483
                 484
                 485
                 486
                 487
                 488
                 489
                 490
                 491
                 492
                 493
                 494
                 495
                 496
                 497
                 498
                 499
                 500
                 501
                 502
                 503
                 504
                 505
                 506
                 507
                 508
                 509
                 510
                 511
                 512
                 513
                 514
                 515
                 516
                 517
                 518
                 519
                 520
                 521
                 522
                 523
                 524
                 525
                 526
                 527
                 528
                 529
                 530
                 531
                 532
                 533
                 534
                 535
                 536
                 537
                 538
                 539
                 540
                 541
                 542
                 543
                 544
                 545
                 546
                 547
                 548
                 549
                 550
                 551
                 552
                 553
                 554
                 555
                 556
                 557
                 558
                 559
                 560
                 561
                 562
                 563
                 564
                 565
                 566
                 567
                 568
                 569
                 570
                 571
                 572
                 573
                 574
                 575
                 576
                 577
                 578
                 579
                 580
                 581
                 582
                 583
                 584
                 585
                 586
                 587
                 588
                 589
                 590
                 591
                 592
                 593
                 594
                 595
                 596
                 597
                 598
                 599
                 600
                 601
                 602
                 603
                 604
                 605
                 606
                 607
                 608
                 609
                 610
                 611
                 612
                 613
                 614
                 615
                 616
                 617
                 618
                 619
                 620
                 621
                 622
                 623
                 624
                 625
                 626
                 627
                 628
                 629
                 630
                 631
                 632
                 633
                 634
                 635
                 636
                 637
                 638
                 639
                 640
                 641
                 642
                 643
                 644
                 645
                 646
                 647
                 648
                 649
                 650
                 651
                 652
                 653
                 654
                 655
                 656
                 657
                 658
                 659
                 660
                 661
                 662
                 663
                 664
                 665
                 666
                 667
                 668
                 669
                 670
                 671
                 672
                 673
                 674
                 675
                 676
                 677
                 678
                 679
                 680
                 681
                 682
                 683
                 684
                 685
                 686
                 687
                 688
                 689
                 690
                 691
                 692
                 693
                 694
                 695
                 696
                 697
                 698
                 699
                 700
                 701
                 702
                 703
                 704
                 705
                 706
                 707
                 708
                 709
                 710
                 711
                 712
                 713
                 714
                 715
                 716
                 717
                 718
                 719
                 720
                 721
                 722
                 723
                 724
                 725
                 726
                 727
                 728
                 729
                 730
                 731
                 732
                 733
                 734
                 735
                 736
                 737
                 738
                 739
                 740
                 741
                 742
                 743
                 744
                 745
                 746
                 747
                 748
                 749
                 750
                 751
                 752
                 753
                 754
                 755
                 756
                 757
                 758
                 759
                 760
                 761
                 762
                 763
                 764
                 765
                 766
                 767
                 768
                 769
                 770
                 771
                 772
                 773
                 774
                 775
                 776
                 777
                 778
                 779
                 780
                 781
                 782
                 783
                 784
                 785
                 786
                 787
                 788
                 789
                 790
                 791
                 792
                 793
                 794
                 795
                 796
                 797
                 798
                 799
                 800
                 801
                 802
                 803
                 804
                 805
                 806
                 807
                 808
                 809
                 810
                 811
                 812
                 813
                 814
                 815
                 816
                 817
                 818
                 819
                 820
                 821
                 822
                 823
                 824
                 825
                 826
                 827
                 828
                 829
                 830
                 831
                 832
                 833
                 834
                 835
                 836
                 837
                 838
                 839
                 840
                 841
                 842
                 843
                 844
                 845
                 846
                 847
                 848
                 849
                 850
                 851
                 852
                 853
                 854
                 855
                 856
                 857
                 858
                 859
                 860
                 861
                 862
                 863
                 864
                 865
                 866
                 867
                 868
                 869
                 870
                 871
                 872
                 873
                 874
                 875
                 876
                 877
                 878
                 879
                 880
                 881
                 882
                 883
                 884
                 885
                 886
                 887
                 888
                 889
                 890
                 891
                 892
                 893
                 894
                 895
                 896
                 897
                 898
                 899
                 900
                 901
                 902
                 903
                 904
                 905
                 906
                 907
                 908
                 909
                 910
                 911
                 912
                 913
                 914
                 915
                 916
                 917
                 918
                 919
                 920
                 921
                 922
                 923
                 924
                 925
                 926
                 927
                 928
                 929
                 930
                 931
                 932
                 933
                 934
                 935
                 936
                 937
                 938
                 939
                 940
                 941
                 942
                 943
                 944
                 945
                 946
                 947
                 948
                 949
                 950
                 951
                 952
                 953
                 954
                 955
                 956
                 957
                 958
                 959
                 960
                 961
                 962
                 963
                 964
                 965
                 966
                 967
                 968
                 969
                 970
                 971
                 972
                 973
                 974
                 975
                 976
                 977
                 978
                 979
                 980
                 981
                 982
                 983
                 984
                 985
                 986
                 987
                 988
                 989
                 990
                 991
                 992
                 993
                 994
                 995
                 996
                 997
                 998
                 999
                1000
                1001
                1002
                1003
                1004
                1005
                1006
                1007
                1008
                1009
                1010
                1011
                1012
                1013
                1014
                1015
                1016
                1017
                1018
                1019
                1020
                1021
                1022
                1023
                1024
                1025
                1026
                1027
                1028
                1029
                1030
                1031
                1032
                1033
                1034
                1035
                1036
                1037
                1038
                1039
                1040
                1041
                1042
                1043
                1044
                1045
                1046
                1047
                1048
                1049
                1050
                1051
                1052
                1053
                1054
                1055
                1056
                1057
                1058
                1059
                1060
                1061
                1062
                1063
                1064
                1065
                1066
                1067
                1068
                1069
                1070
                1071
                1072
                1073
                1074
                1075
                1076
                1077
                1078
                1079
                1080
                1081
                1082
                1083
                1084
                1085
                1086
                1087
                1088
                1089
                1090
                1091
                1092
                1093
                1094
                1095
                1096
                1097
                1098
                1099
                1100
                1101
                1102
                1103
                1104
                1105
                1106
                1107
                1108
                1109
                1110
                1111
                1112
                1113
                1114
                1115
                1116
                1117
                1118
                1119
                1120
                1121
                1122
                1123
                1124
                1125
                1126
                1127
                1128
                1129
                1130
                1131
                1132
                1133
                1134
                1135
                1136
                1137
                1138
                1139
                1140
                1141
                1142
                1143
                1144
                1145
                1146
                1147
                1148
                1149
                1150
                1151
                1152
                1153
                1154
                1155
                1156
                1157
                1158
                1159
                1160
                1161
                1162
                1163
                1164
                1165
                1166
                1167
                1168
                1169
                1170
                1171
                1172
                1173
                1174
                1175
                1176
                1177
                1178
                1179
                1180
                1181
                1182
                1183
                1184
                1185
                1186
                1187
                1188
                1189
                1190
                1191
                1192
                1193
                1194
                1195
                1196
                1197
                1198
                1199
                1200
                1201
                1202
                1203
                1204
                1205
                1206
                1207
                1208
                1209
                1210
                1211
                1212
                1213
                1214
                1215
                1216
                1217
                1218
                1219
                1220
                1221
                1222
                1223
                1224
                1225
                1226
                1227
                1228
                1229
                1230
                1231
                1232
                1233
                1234
                1235
                1236
                1237
                1238
                1239
                1240
                1241
                1242
                1243
                1244
                1245
                1246
                1247
                1248
                1249
                1250
                1251
                1252
                1253
                1254
                1255
                1256
                1257
                1258
                1259
                1260
                1261
                1262
                1263
                1264
                1265
                1266
                1267
                1268
                1269
                1270
                1271
                1272
                1273
                1274
                1275
                1276
                1277
                1278
                1279
                1280
                1281
                1282
                1283
                1284
                1285
                1286
                1287
                1288
                1289
                1290
                1291
                1292
                1293
                1294
                1295
                1296
                1297
                1298
                1299
                1300
                1301
                1302
                1303
                1304
                1305
                1306
                1307
                1308
                1309
                1310
                1311
                1312
                1313
                1314
                1315
                1316
                1317
                1318
                1319
                1320
                1321
                1322
                1323
                1324
                1325
                1326
                1327
                1328
                1329
                1330
                1331
                1332
                1333
                1334
                1335
                1336
                1337
                1338
                1339
                1340
                1341
                1342
                1343
                1344
                1345
                1346
                1347
                1348
                1349
                1350
                1351
                1352
                1353
                1354
                1355
                1356
                1357
                1358
                1359
                1360
                1361
                1362
                1363
                1364
                1365
                1366
                1367
                1368
                1369
                1370
                1371
                1372
                1373
                1374
                1375
                1376
                1377
                1378
                1379
                1380
                1381
                1382
                1383
                1384
                1385
                1386
                1387
                1388
                1389
                1390
                1391
                1392
                1393
                1394
                1395
                1396
                1397
                1398
                1399
                1400
                1401
                1402
                1403
                1404
                1405
                1406
                1407
                1408
                1409
                1410
                1411
                1412
                1413
                1414
                1415
                1416
                1417
                1418
                1419
                1420
                1421
                1422
                1423
                1424
                1425
                1426
                1427
                1428
                1429
                1430
                1431
                1432
                1433
                1434
                1435
                1436
                1437
                1438
                1439
                1440
                1441
                1442
                1443
                1444
                1445
                1446
                1447
                1448
                1449
                1450
                1451
                1452
                1453
                1454
                1455
                1456
                1457
                1458
                1459
                1460
                1461
                1462
                1463
                1464
                1465
                1466
                1467
                1468
                1469
                1470
                1471
                1472
                1473
                1474
                1475
                1476
                1477
                1478
                1479
                1480
                1481
                1482
                1483
                1484
                1485
                1486
                1487
                1488
                1489
                1490
                1491
                1492
                1493
                1494
                1495
                1496
                1497
                1498
                1499
                1500
                1501
                1502
                1503
                1504
                1505
                1506
                1507
                1508
                1509
                1510
                1511
                1512
                1513
                1514
                1515
                1516
                1517
                1518
                1519
                1520
                1521
                1522
                1523
                1524
                1525
                1526
                1527
                1528
                1529
                1530
                1531
                1532
                1533
                1534
                1535
                1536
                1537
                1538
                1539
                1540
                1541
                1542
                1543
                1544
                1545
                1546
                1547
                1548
                1549
                1550
                1551
                1552
                1553
                1554
                1555
                1556
                1557
                1558
                1559
                1560
                1561
                1562
                1563
                1564
                1565
                1566
                1567
                1568
                1569
                1570
                1571
                1572
                1573
                1574
                1575
                1576
                1577
                1578
                1579
                1580
                1581
                1582
                1583
                1584
                1585
                1586
                1587
                1588
                1589
                1590
                1591
                1592
                1593
                1594
                1595
                1596
                1597
                1598
                1599
                1600
                1601
                1602
                1603
                1604
                1605
                1606
                1607
                1608
                1609
                1610
                1611
                1612
                1613
                1614
                1615
                1616
                1617
                1618
                1619
                1620
                1621
                1622
                1623
                1624
                1625
                1626
                1627
                1628
                1629
                1630
                1631
                1632
                1633
                1634
                1635
                1636
                1637
                1638
                1639
                1640
                1641
                1642
                1643
                1644
                1645
                1646
                1647
                1648
                1649
                1650
                1651
                1652
                1653
                1654
                1655
                1656
                1657
                1658
                1659
                1660
                1661
                1662
                1663
                1664
                1665
                1666
                1667
                1668
                1669
                1670
                1671
                1672
                1673
                1674
                1675
                1676
                1677
                1678
                1679
                1680
                1681
                1682
                1683
                1684
                1685
                1686
                1687
                1688
                1689
                1690
                1691
                1692
                1693
                1694
                1695
                1696
                1697
                1698
                1699
                1700
                1701
                1702
                1703
                1704
                1705
                1706
                1707
                1708
                1709
                1710
                1711
                1712
                1713
                1714
                1715
                1716
                1717
                1718
                1719
                1720
                1721
                1722
                1723
                1724
                1725
                1726
                1727
                1728
                1729
                1730
                1731
                1732
                1733
                1734
                1735
                1736
                1737
                1738
                1739
                1740
                1741
                1742
                1743
                1744
                1745
                1746
                1747
                1748
                1749
                1750
                1751
                1752
                1753
                1754
                1755
                1756
                1757
                1758
                1759
                1760
                1761
                1762
                1763
                1764
                1765
                1766
                1767
                1768
                1769
                1770
                1771
                1772
                1773
                1774
                1775
                1776
                1777
                1778
                1779
                1780
                1781
                1782
                1783
                1784
                1785
                1786
                1787
                1788
                1789
                1790
                1791
                1792
                1793
                1794
                1795
                1796
                1797
                1798
                1799
                1800
                1801
                1802
                1803
                1804
                1805
                1806
                1807
                1808
                1809
                1810
                1811
                1812
                1813
                1814
                1815
                1816
                1817
                1818
                1819
                1820
                1821
                1822
                1823
                1824
                1825
                1826
                1827
                1828
                1829
                1830
                1831
                1832
                1833
                1834
                1835
                1836
                1837
                1838
                1839
                1840
                1841
                1842
                1843
                1844
                1845
                1846
                1847
                1848
                1849
                1850
                1851
                1852
                1853
                1854
                1855
                1856
                1857
                1858
                1859
                1860
                1861
                1862
                1863
                1864
                1865
                1866
                1867
                1868
                1869
                1870
                1871
                1872
                1873
                1874
                1875
                1876
                1877
                1878
                1879
                1880
                1881
                1882
                1883
                1884
                1885
                1886
                1887
                1888
                1889
                1890
                1891
                1892
                1893
                1894
                1895
                1896
                1897
                1898
                1899
                1900
                1901
                1902
                1903
                1904
                1905
                1906
                1907
                1908
                1909
                1910
                1911
                1912
                1913
                1914
                1915
                1916
                1917
                1918
                1919
                1920
                1921
                1922
                1923
                1924
                1925
                1926
                1927
                1928
                1929
                1930
                1931
                1932
                1933
                1934
                1935
                1936
                1937
                1938
                1939
                1940
                1941
                1942
                1943
                1944
                1945
                1946
                1947
                1948
                1949
                1950
  
SCALARS                         bodyid  double 1
LOOKUP_TABLE default
                   1
                   1
                   1
                   1
                   1
                   1
                   1
                   1
                   1
                   1
                   1
                   1
                   1
                   1
                   1
                   1
                   1
                   1
                   1
                   1
                   1
                   1
                   1
                   1
                   1
                   1
                   1
                   1
                   1
                   1
                   1
                   1
                   1
                   1
                   1
                   1
                   1
                   1
                   1
                   1
                   1
                   1
                   1
                   1
                   1
                   1
                   1
                   1
                   1
                   1
                   1
                   1
                   1
                   1
                   1
                   1
                   1
                   1
                   1
                   1
                   1
                   1
                   1
                   1
                   1
                   1
                   1
                   1
                   1
                   1
                   1
                   1
                   1
                   1
                   1
                   1
                   1
                   1
                   1
                   1
                   1
                   1
                   1
                   1
                   1
                   1
                   1
                   1
                   1
                   1
                   1
                   1
                   1
                   1
                   1
                   1
                   1
                   1
                   1
                   1
                   1
                   1
                   1
                   1
                   1
                   1
                   1
                   1
                   1
                   1
                   1
                   1
                   1
                   1
                   1
                   1
                   1
                   1
                   1
                   1
                   1
                   1
                   1
                   1
                   1
                   1
                   1
                   1
                   1
                   1
                   1
                   1
                   1
                   1
                   1
                   1
                   1
                   1
                   1
                   1
                   1
                   1
                   1
                   1
                   1
                   1
                   1
                   1
                   1
                   1
                   1
                   1
                   1
                   1
                   1
                   1
                   1
                   1
                   1
                   1
                   1
                   1
                   1
                   1
                   1
                   1
                   1
                   1
                   1
                   1
                   1
                   1
                   1
                   1
                   1
                   1
                   1
                   1
                   1
                   1
                   1
                   1
                   1
                   1
                   1
                   1
                   1
                   1
                   1
                   1
                   1
                   1
                   1
                   1
                   1
                   1
                   1
                   1
                   1
                   1
                   1
                   1
                   1
                   1
                   1
                   1
                   1
                   1
                   1
                   1
                   1
                   1
                   1
                   1
                   1
                   1
                   1
                   1
                   1
                   1
                   1
                   1
                   1
                   1
                   1
                   1
                   1
                   1
                   1
                   1
                   1
                   1
                   1
                   1
                   1
                   1
                   1
                   1
                   1
                   1
                   1
                   1
                   1
                   1
                   1
                   1
                   1
                   1
                   1
                   1
                   1
                   1
                   1
                   1
                   1
                   1
                   1
                   1
                   1
                   1
                   1
                   1
                   1
                   1
                   1
                   1
                   1
                   1
                   1
                   1
                   1
                   1
                   1
                   1
                   1
                   1
                   1
                   1
                   1
                   1
                   1
                   1
                   1
                   1
                   1
                   1
                   1
                   1
                   1
                   1
                   1
                   1
                   1
                   1
                   1
                   1
                   1
                   1
                   1
                   1
                   1
                   1
                   1
                   1
                   1
                   1
                   1
                   1
                   1
                   1
                   1
                   1
                   1
                   1
                   1
                   1
                   1
                   1
                   1
                   1
                   1
                   1
                   1
                   1
                   1
                   1
                   1
                   1
                   1
                   1
                   1
                   1
                   1
                   1
                   1
                   1
                   1
                   1
                   1
                   1
                   1
                   1
                   1
                   1
                   1
                   1
                   1
                   1
                   1
                   1
                   1
                   1
                   1
                   1
                   1
                   1
                   1
                   1
                   1
                   1
                   1
                   1
                   1
                   1
                   1
                   1
                   1
                   1
                   1
                   1
                   1
                   1
                   1
                   1
                   1
                   1
                   1
                   1
                   1
                   1
                   1
                   1
                   1
                   1
                   1
                   1
                   1
                   1
                   1
                   1
                   1
                   1
                   1
                   1
                   1
                   1
                   1
                   1
                   1
                   1
                   1
                   1
                   1
                   1
                   1
                   1
                   1
                   1
                   1
                   1
                   1
                   1
                   1
                   1
                   1
                   1
                   1
                   1
                   1
                   1
                   1
                   1
                   1
                   1
                   1
                   1
                   1
                   1
                   1
                   1
                   1
                   1
                   1
                   1
                   1
                   1
                   1
                   1
                   1
                   1
                   1
                   1
                   1
                   1
                   1
                   1
                   1
                   1
                   1
                   1
                   1
                   1
                   1
                   1
                   1
                   1
                   1
                   1
                   1
                   1
                   1
                   1
                   1
                   1
                   1
                   1
                   1
                   1
                   1
                   1
                   1
                   1
                   1
                   1
                   1
                   1
                   1
                   1
                   1
                   1
                   1
                   1
                   1
                   1
                   1
                   1
                   1
                   1
                   1
                   1
                   1
                   1
                   1
                   1
                   1
                   1
                   1
                   1
                   1
                   1
                   1
                   1
                   1
                   1
                   1
                   1
                   1
                   1
                   1
                   1
                   1
                   1
                   1
                   1
                   1
                   1
                   1
                   1
                   1
                   1
                   1
                   1
                   1
                   1
                   1
                   1
                   1
                   1
                   1
                   1
                   1
                   1
                   1
                   1
                   1
                   1
                   1
                   1
                   1
                   1
                   1
                   1
                   1
                   1
                   1
                   1
                   1
                   1
                   1
                   1
                   1
                   1
                   1
                   1
                   1
                   1
                   1
                   1
                   1
                   1
                   1
                   1
                   1
                   1
                   1
                   1
                   1
                   1
                   1
                   1
                   1
                   1
                   1
                   1
                   1
                   1
                   1
                   1
                   1
                   1
                   1
                   1
                   1
                   1
                   1
                   1
                   1
                   1
                   1
                   1
                   1
                   1
                   1
                   1
                   1
                   1
                   1
                   1
                   1
                   1
                   1
                   1
                   1
                   1
                   1
                   1
                   1
                   1
                   1
                   1
                   1
                   1
                   1
                   1
                   1
                   1
                   1
                   1
                   1
                   1
                   1
                   1
                   1
                   1
                   1
                   1
                   1
                   1
                   1
                   1
                   1
                   1
                   1
                   1
                   1
                   1
                   1
                   1
                   1
                   1
                   1
                   1
                   1
                   1
                   1
                   1
                   1
                   1
                   1
                   1
                   1
                   1
                   1
                   1
                   1
                   1
                   1
                   1
                   1
                   1
                   1
                   1
                   1
                   1
                   1
                   1
                   1
                   1
                   1
                   1
                   1
                   1
                   1
                   1
                   1
                   1
                   1
                   1
                   1
                   1
                   1
                   1
                   1
                   1
                   1
                   1
                   1
                   1
                   1
                   1
                   1
                   1
                   1
                   1
                   1
                   1
                   1
                   1
                   1
                   1
                   1
                   1
                   1
                   1
                   1
                   1
                   1
                   1
                   1
                   1
                   1
                   1
                   1
                   1
                   1
                   1
                   1
                   1
                   1
                   1
                   1
                   1
                   1
                   1
                   1
                   1
                   1
                   1
                   1
                   1
                   1
                   1
                   1
                   1
                   1
                   1
                   1
                   1
                   1
                   1
                   1
                   1
                   1
                   1
                   1
                   1
                   1
                   1
                   1
                   1
                   1
                   1
                   1
                   1
                   1
                   1
                   1
                   1
                   1
                   1
                   1
                   1
                   1
                   1
                   1
                   1
                   1
                   1
                   1
                   1
                   1
                   1
                   1
                   1
                   1
                   1
                   1
                   1
                   1
                   1
                   1
                   1
                   1
                   1
                   1
                   1
                   1
                   1
                   1
                   1
                   1
                   1
                   1
                   1
                   1
                   1
                   1
                   1
                   1
                   1
                   1
                   1
                   1
                   1
                   1
                   1
                   1
                   1
                   1
                   1
                   1
                   1
                   1
                   1
                   1
                   1
                   1
                   1
                   1
                   1
                   1
                   1
                   1
                   1
                   1
                   1
                   1
                   1
                   1
                   1
                   1
                   1
                   1
                   1
                   1
                   1
                   1
                   1
                   1
                   1
                   1
                   1
                   1
                   1
                   1
                   1
                   1
                   1
                   1
                   1
                   1
                   1
                   1
                   1
                   1
                   1
                   1
                   1
                   1
                   1
                   1
                   1
                   1
                   1
                   1
                   1
                   1
                   1
                   1
                   1
                   1
                   1
                   1
                   1
                   1
                   1
                   1
                   1
                   1
                   1
                   1
                   1
                   1
                   1
                   1
                   1
                   1
                   1
                   1
                   1
                   1
                   1
                   1
                   1
                   1
                   1
                   1
                   1
                   1
                   1
                   1
                   1
                   1
                   1
                   1
                   1
                   1
                   1
                   1
                   1
                   1
                   1
                   1
                   1
                   1
                   1
                   1
                   1
                   1
                   1
                   1
                   1
                   1
                   1
                   1
                   1
                   1
                   1
                   1
                   1
                   1
                   1
                   1
                   1
                   1
                   1
                   1
                   1
                   1
                   1
                   1
                   1
                   1
                   1
                   1
                   1
                   1
                   1
                   1
                   1
                   1
                   1
                   1
                   1
                   1
                   1
                   1
                   1
                   1
                   1
                   1
                   1
                   1
                   1
                   1
                   1
                   1
                   1
                   1
                   1
                   1
                   1
                   1
                   1
                   1
                   1
                   1
                   1
                   1
                   1
                   1
                   1
                   1
                   1
                   1
                   1
                   1
                   1
                   1
                   1
                   1
                   1
                   1
                   1
                   1
                   1
                   1
                   1
                   1
                   1
                   1
                   1
                   1
                   1
                   1
                   1
                   1
                   1
                   1
                   1
                   1
                   1
                   1
                   1
                   1
                   1
                   1
                   1
                   1
                   1
                   1
                   1
                   1
                   1
                   1
                   1
                   1
                   1
                   1
                   1
                   1
                   1
                   1
                   1
                   1
                   1
                   1
                   1
                   1
                   1
                   1
                   1
                   1
                   1
                   1
                   1
                   1
                   1
                   1
                   1
                   1
                   1
                   1
                   1
                   1
                   1
                   1
                   1
                   1
                   1
                   1
                   1
                   1
                   1
                   1
                   1
                   1
                   1
                   1
                   1
                   1
                   1
                   1
                   1
                   1
                   1
                   1
                   1
                   1
                   1
                   1
                   1
                   1
                   1
                   1
                   1
                   1
                   1
                   1
                   1
                   1
                   1
                   1
                   1
                   1
                   1
                   1
                   1
                   1
                   1
                   1
                   1
                   1
                   1
                   1
                   1
                   1
                   1
                   1
                   1
                   1
                   1
                   1
                   1
                   1
                   1
                   1
                   1
                   1
                   1
                   1
                   1
                   1
                   1
                   1
                   1
                   1
                   1
                   1
                   1
                   1
                   1
                   1
                   1
                   1
                   1
                   1
                   1
                   1
                   1
                   1
                   1
                   1
                   1
                   1
                   1
                   1
                   1
                   1
                   1
                   1
                   1
                   1
                   1
                   1
                   1
                   1
                   1
                   1
                   1
                   1
                   1
                   1
                   1
                   1
                   1
                   1
                   1
                   1
                   1
                   1
                   1
                   1
                   1
                   1
                   1
                   1
                   1
                   1
                   1
                   1
                   1
                   1
                   1
                   1
                   1
                   1
                   1
                   1
                   1
                   1
                   1
                   1
                   1
                   1
                   1
                   1
                   1
                   1
                   1
                   1
                   1
                   1
                   1
                   1
                   1
                   1
                   1
                   1
                   1
                   1
                   1
                   1
                   1
                   1
                   1
                   1
                   1
                   1
                   1
                   1
                   1
                   1
                   1
                   1
                   1
                   1
                   1
                   1
                   1
                   1
                   1
                   1
                   1
                   1
                   1
                   1
                   1
                   1
                   1
                   1
                   1
                   1
                   1
                   1
                   1
                   1
                   1
                   1
                   1
                   1
                   1
                   1
                   1
                   1
                   1
                   1
                   1
                   1
                   1
                   1
                   1
                   1
                   1
                   1
                   1
                   1
                   1
                   1
                   1
                   1
                   1
                   1
                   1
                   1
                   1
                   1
                   1
                   1
                   1
                   1
                   1
                   1
                   1
                   1
                   1
                   1
                   1
                   1
                   1
                   1
                   1
                   1
                   1
                   1
                   1
                   1
                   1
                   1
                   1
                   1
                   1
                   1
                   1
                   1
                   1
                   1
                   1
                   1
                   1
                   1
                   1
                   1
                   1
                   1
                   1
                   1
                   1
                   1
                   1
                   1
                   1
                   1
                   1
                   1
                   1
                   1
                   1
                   1
                   1
                   1
                   1
                   1
                   1
                   1
                   1
                   1
                   1
                   1
                   1
                   1
                   1
                   1
                   1
                   1
                   1
                   1
                   1
                   1
                   1
                   1
                   1
                   1
                   1
                   1
                   1
                   1
                   1
                   1
                   1
                   1
                   1
                   1
                   1
                   1
                   1
                   1
                   1
                   1
                   1
                   1
                   1
                   1
                   1
                   1
                   1
                   1
                   1
                   1
                   1
                   1
                   1
                   1
                   1
                   1
                   1
                   1
                   1
                   1
                   1
                   1
                   1
                   1
                   1
                   1
                   1
                   1
                   1
                   1
                   1
                   1
                   1
                   1
                   1
                   1
                   1
                   1
                   1
                   1
                   1
                   1
                   1
                   1
                   1
                   1
                   1
                   1
                   1
                   1
                   1
                   1
                   1
                   1
                   1
                   1
                   1
                   1
                   1
                   1
                   1
                   1
                   1
                   1
                   1
                   1
                   1
                   1
                   1
                   1
                   1
                   1
                   1
                   1
                   1
                   1
                   1
                   1
                   1
                   1
                   1
                   1
                   1
                   1
                   1
                   1
                   1
                   1
                   1
                   1
                   1
                   1
                   1
                   1
                   1
                   1
                   1
                   1
                   1
                   1
                   1
                   1
                   1
                   1
                   1
                   1
                   1
                   1
                   1
                   1
                   1
                   1
                   1
                   1
                   1
                   1
                   1
                   1
                   1
                   1
                   1
                   1
                   1
                   1
                   1
                   1
                   1
                   1
                   1
                   1
                   1
                   1
                   1
                   1
                   1
                   1
                   1
                   1
                   1
                   1
                   1
                   1
                   1
                   1
                   1
                   1
                   1
                   1
                   1
                   1
                   1
                   1
                   1
                   1
                   1
                   1
                   1
                   1
                   1
                   1
                   1
                   1
                   1
                   1
                   1
                   1
                   1
                   1
                   1
                   1
                   1
                   1
                   1
                   1
                   1
                   1
                   1
                   1
                   1
                   1
                   1
                   1
                   1
                   1
                   1
                   1
                   1
                   1
                   1
                   1
                   1
                   1
                   1
                   1
                   1
                   1
                   1
                   1
                   1
                   1
                   1
                   1
                   1
                   1
                   1
                   1
                   1
                   1
                   1
                   1
                   1
                   1
                   1
                   1
                   1
                   1
                   1
                   1
                   1
                   1
                   1
                   1
                   1
                   1
                   1
                   1
                   1
                   1
                   1
                   1
                   1
                   1
                   1
                   1
                   1
                   1
                   1
                   1
                   1
                   1
                   1
                   1
                   1
                   1
                   1
                   1
                   1
                   1
                   1
                   1
                   1
                   1
                   1
                   1
                   1
                   1
                   1
                   1
                   1
                   1
                   1
                   1
                   1
                   1
                   1
                   1
                   1
                   1
                   1
                   1
                   1
                   1
                   1
                   1
                   1
                   1
                   1
                   1
                   1
                   1
                   1
                   1
                   1
                   1
                   1
                   1
                   1
                   1
                   1
                   1
                   1
                   1
                   1
                   1
                   1
                   1
                   1
                   1
                   1
                   1
                   1
                   1
                   1
                   1
                   1
                   1
                   1
                   1
                   1
                   1
                   1
                   1
                   1
                   1
                   1
                   1
                   1
                   1
                   1
                   1
                   1
                   1
                   1
                   1
                   1
                   1
                   1
                   1
                   1
                   1
                   1
                   1
                   1
                   1
                   1
                   1
                   1
                   1
                   1
                   1
                   1
                   1
                   1
                   1
                   1
                   1
                   1
                   1
                   1
                   1
                   1
                   1
                   1
                   1
                   1
                   1
                   1
                   1
                   1
                   1
                   1
                   1
                   1
                   1
                   1
                   1
                   1
                   1
                   1
                   1
                   1
                   1
                   1
                   1
                   1
                   1
                   1
                   1
                   1
                   1
                   1
                   1
                   1
                   1
                   1
                   1
                   1
                   1
                   1
                   1
                   1
                   1
                   1
                   1
                   1
                   1
                   1
                   1
                   1
                   1
                   1
                   1
                   1
                   1
                   1
                   1
                   1
                   1
                   1
                   1
                   1
                   1
                   1
                   1
                   1
                   1
                   1
                   1
                   1
                   1
                   1
                   1
                   1
                   1
                   1
                   1
                   1
                   1
                   1
                   1
                   1
                   1
                   1
                   1
                   1
                   1
                   1
                   1
                   1
                   1
                   1
                   1
                   1
                   1
                   1
                   1
                   1
                   1
                   1
                   1
                   1
                   1
                   1
                   1
                   1
                   1
                   1
                   1
                   1
                   1
                   1
                   1
                   1
                   1
                   1
                   1
                   1
                   1
                   1
                   1
                   1
                   1
                   1
                   1
                   1
                   1
                   1
                   1
                   1
                   1
                   1
                   1
                   1
                   1
                   1
                   1
                   1
                   1
                   1
                   1
                   1
                   1
                   1
                   1
                   1
                   1
                   1
                   1
                   1
                   1
                   1
                   1
                   1
                   1
                   1
                   1
                   1
                   1
                   1
                   1
                   1
                   1
                   1
                   1
                   1
                   1
                   1
                   1
                   1
                   1
                   1
                   1
                   1
                   1
                   1
                   1
                   1
                   1
                   1
                   1
                   1
                   1
                   1
                   1
                   1
                   1
                   1
                   1
                   1
                   1
                   1
                   1
                   1
                   1
                   1
                   1
                   1
                   1
                   1
                   1
                   1
                   1
                   1
                   1
                   1
                   1
                   1
                   1
                   1
                   1
                   1
                   1
                   1
                   1
                   1
                   1
                   1
                   1
                   1
                   1
                   1
                   1
                   1
                   1
                   1
                   1
                   1
                   1
                   1
                   1
                   1
  
SCALARS                  material_type  double 1
LOOKUP_TABLE default
                   2
                   2
                   2
                   2
                   2
                   2
                   2
                   2
                   2
                   2
                   2
                   2
                   2
                   2
                   2
                   2
                   2
                   2
                   2
                   2
                   2
                   2
                   2
                   2
                   2
                   2
                   2
                   2
                   2
                   2
                   2
                   2
                   2
                   2
                   2
                   2
                   2
                   2
                   2
                   2
                   2
                   2
                   2
                   2
                   2
                   2
                   2
                   2
                   2
                   2
                   2
                   2
                   2
                   2
                   2
                   2
                   2
                   2
                   2
                   2
                   2
                   2
                   2
                   2
                   2
                   2
                   2
                   2
                   2
                   2
                   2
                   2
                   2
                   2
                   2
                   2
                   2
                   2
                   2
                   2
                   2
                   2
                   2
                   2
                   2
                   2
                   2
                   2
                   2
                   2
                   2
                   2
                   2
                   2
                   2
                   2
                   2
                   2
                   2
                   2
                   2
                   2
                   2
                   2
                   2
                   2
                   2
                   2
                   2
                   2
                   2
                   2
                   2
                   2
                   2
                   2
                   2
                   2
                   2
                   2
                   2
                   2
                   2
                   2
                   2
                   2
                   2
                   2
                   2
                   2
                   2
                   2
                   2
                   2
                   2
                   2
                   2
                   2
                   2
                   2
                   2
                   2
                   2
                   2
                   2
                   2
                   2
                   2
                   2
                   2
                   2
                   2
                   2
                   2
                   2
                   2
                   2
                   2
                   2
                   2
                   2
                   2
                   2
                   2
                   2
                   2
                   2
                   2
                   2
                   2
                   2
                   2
                   2
                   2
                   2
                   2
                   2
                   2
                   2
                   2
                   2
                   2
                   2
                   2
                   2
                   2
                   2
                   2
                   2
                   2
                   2
                   2
                   2
                   2
                   2
                   2
                   2
                   2
                   2
                   2
                   2
                   2
                   2
                   2
                   2
                   2
                   2
                   2
                   2
                   2
                   2
                   2
                   2
                   2
                   2
                   2
                   2
                   2
                   2
                   2
                   2
                   2
                   2
                   2
                   2
                   2
                   2
                   2
                   2
                   2
                   2
                   2
                   2
                   2
                   2
                   2
                   2
                   2
                   2
                   2
                   2
                   2
                   2
                   2
                   2
                   2
                   2
                   2
                   2
                   2
                   2
                   2
                   2
                   2
                   2
                   2
                   2
                   2
                   2
                   2
                   2
                   2
                   2
                   2
                   2
                   2
                   2
                   2
                   2
                   2
                   2
                   2
                   2
                   2
                   2
                   2
                   2
                   2
                   2
                   2
                   2
                   2
                   2
                   2
                   2
                   2
                   2
                   2
                   2
                   2
                   2
                   2
                   2
                   2
                   2
                   2
                   2
                   2
                   2
                   2
                   2
                   2
                   2
                   2
                   2
                   2
                   2
                   2
                   2
                   2
                   2
                   2
                   2
                   2
                   2
                   2
                   2
                   2
                   2
                   2
                   2
                   2
                   2
                   2
                   2
                   2
                   2
                   2
                   2
                   2
                   2
                   2
                   2
                   2
                   2
                   2
                   2
                   2
                   2
                   2
                   2
                   2
                   2
                   2
                   2
                   2
                   2
                   2
                   2
                   2
                   2
                   2
                   2
                   2
                   2
                   2
                   2
                   2
                   2
                   2
                   2
                   2
                   2
                   2
                   2
                   2
                   2
                   2
                   2
                   2
                   2
                   2
                   2
                   2
                   2
                   2
                   2
                   2
                   2
                   2
                   2
                   2
                   2
                   2
                   2
                   2
                   2
                   2
                   2
                   2
                   2
                   2
                   2
                   2
                   2
                   2
                   2
                   2
                   2
                   2
                   2
                   2
                   2
                   2
                   2
                   2
                   2
                   2
                   2
                   2
                   2
                   2
                   2
                   2
                   2
                   2
                   2
                   2
                   2
                   2
                   2
                   2
                   2
                   2
                   2
                   2
                   2
                   2
                   2
                   2
                   2
                   2
                   2
                   2
                   2
                   2
                   2
                   2
                   2
                   2
                   2
                   2
                   2
                   2
                   2
                   2
                   2
                   2
                   2
                   2
                   2
                   2
                   2
                   2
                   2
                   2
                   2
                   2
                   2
                   2
                   2
                   2
                   2
                   2
                   2
                   2
                   2
                   2
                   2
                   2
                   2
                   2
                   2
                   2
                   2
                   2
                   2
                   2
                   2
                   2
                   2
                   2
                   2
                   2
                   2
                   2
                   2
                   2
                   2
                   2
                   2
                   2
                   2
                   2
                   2
                   2
                   2
                   2
                   2
                   2
                   2
                   2
                   2
                   2
                   2
                   2
                   2
                   2
                   2
                   2
                   2
                   2
                   2
                   2
                   2
                   2
                   2
                   2
                   2
                   2
                   2
                   2
                   2
                   2
                   2
                   2
                   2
                   2
                   2
                   2
                   2
                   2
                   2
                   2
                   2
                   2
                   2
                   2
                   2
                   2
                   2
                   2
                   2
                   2
                   2
                   2
                   2
                   2
                   2
                   2
                   2
                   2
                   2
                   2
                   2
                   2
                   2
                   2
                   2
                   2
                   2
                   2
                   2
                   2
                   2
                   2
                   2
                   2
                   2
                   2
                   2
                   2
                   2
                   2
                   2
                   2
                   2
                   2
                   2
                   2
                   2
                   2
                   2
                   2
                   2
                   2
                   2
                   2
                   2
                   2
                   2
                   2
                   2
                   2
                   2
                   2
                   2
                   2
                   2
                   2
                   2
                   2
                   2
                   2
                   2
                   2
                   2
                   2
                   2
                   2
                   2
                   2
                   2
                   2
                   2
                   2
                   2
                   2
                   2
                   2
                   2
                   2
                   2
                   2
                   2
                   2
                   2
                   2
                   2
                   2
                   2
                   2
                   2
                   2
                   2
                   2
                   2
                   2
                   2
                   2
                   2
                   2
                   2
                   2
                   2
                   2
                   2
                   2
                   2
                   2
                   2
                   2
                   2
                   2
                   2
                   2
                   2
                   2
                   2
                   2
                   2
                   2
                   2
                   2
                   2
                   2
                   2
                   2
                   2
                   2
                   2
                   2
                   2
                   2
                   2
                   2
                   2
                   2
                   2
                   2
                   2
                   2
                   2
                   2
                   2
                   2
                   2
                   2
                   2
                   2
                   2
                   2
                   2
                   2
                   2
                   2
                   2
                   2
                   2
                   2
                   2
                   2
                   2
                   2
                   2
                   2
                   2
                   2
                   2
                   2
                   2
                   2
                   2
                   2
                   2
                   2
                   2
                   2
                   2
                   2
                   2
                   2
                   2
                   2
                   2
                   2
                   2
                   2
                   2
                   2
                   2
                   2
                   2
                   2
                   2
                   2
                   2
                   2
                   2
                   2
                   2
                   2
                   2
                   2
                   2
                   2
                   2
                   2
                   2
                   2
                   2
                   2
                   2
                   2
                   2
                   2
                   2
                   2
                   2
                   2
                   2
                   2
                   2
                   2
                   2
                   2
                   2
                   2
                   2
                   2
                   2
                   2
                   2
                   2
                   2
                   2
                   2
                   2
                   2
                   2
                   2
                   2
                   2
                   2
                   2
                   2
                   2
                   2
                   2
                   2
                   2
                   2
                   2
                   2
                   2
                   2
                   2
                   2
                   2
                   2
                   2
                   2
                   2
                   2
                   2
                   2
                   2
                   2
                   2
                   2
                   2
                   2
                   2
                   2
                   2
                   2
                   2
                   2
                   2
                   2
                   2
                   2
                   2
                   2
                   2
                   2
                   2
                   2
                   2
                   2
                   2
                   2
                   2
                   2
                   2
                   2
                   2
                   2
                   2
                   2
                   2
                   2
                   2
                   2
                   2
                   2
                   2
                   2
                   2
                   2
                   2
                   2
                   2
                   2
                   2
                   2
                   2
                   2
                   2
                   2
                   2
                   2
                   2
                   2
                   2
                   2
                   2
                   2
                   2
                   2
                   2
                   2
                   2
                   2
                   2
                   2
                   2
                   2
                   2
                   2
                   2
                   2
                   2
                   2
                   2
                   2
                   2
                   2
                   2
                   2
                   2
                   2
                   2
                   2
                   2
                   2
                   2
                   2
                   2
                   2
                   2
                   2
                   2
                   2
                   2
                   2
                   2
                   2
                   2
                   2
                   2
                   2
                   2
                   2
                   2
                   2
                   2
                   2
                   2
                   2
                   2
                   2
                   2
                   2
                   2
                   2
                   2
                   2
                   2
                   2
                   2
                   2
                   2
                   2
                   2
                   2
                   2
                   2
                   2
                   2
                   2
                   2
                   2
                   2
                   2
                   2
                   2
                   2
                   2
                   2
                   2
                   2
                   2
                   2
                   2
                   2
                   2
                   2
                   2
                   2
                   2
                   2
                   2
                   2
                   2
                   2
                   2
                   2
                   2
                   2
                   2
                   2
                   2
                   2
                   2
                   2
                   2
                   2
                   2
                   2
                   2
                   2
                   2
                   2
                   2
                   2
                   2
                   2
                   2
                   2
                   2
                   2
                   2
                   2
                   2
                   2
                   2
                   2
                   2
                   2
                   2
                   2
                   2
                   2
                   2
                   2
                   2
                   2
                   2
                   2
                   2
                   2
                   2
                   2
                   2
                   2
                   2
                   2
                   2
                   2
                   2
                   2
                   2
                   2
                   2
                   2
                   2
                   2
                   2
                   2
                   2
                   2
                   2
                   2
                   2
                   2
                   2
                   2
                   2
                   2
                   2
                   2
                   2
                   2
                   2
                   2
                   2
                   2
                   2
                   2
                   2
                   2
                   2
                   2
                   2
                   2
                   2
                   2
                   2
                   2
                   2
                   2
                   2
                   2
                   2
                   2
                   2
                   2
                   2
                   2
                   2
                   2
                   2
                   2
                   2
                   2
                   2
                   2
                   2
                   2
                   2
                   2
                   2
                   2
                   2
                   2
                   2
                   2
                   2
                   2
                   2
                   2
                   2
                   2
                   2
                   2
                   2
                   2
                   2
                   2
                   2
                   2
                   2
                   2
                   2
                   2
                   2
                   2
                   2
                   2
                   2
                   2
                   2
                   2
                   2
                   2
                   2
                   2
                   2
                   2
                   2
                   2
                   2
                   2
                   2
                   2
                   2
                   2
                   2
                   2
                   2
                   2
                   2
                   2
                   2
                   2
                   2
                   2
                   2
                   2
                   2
                   2
                   2
                   2
                   2
                   2
                   2
                   2
                   2
                   2
                   2
                   2
                   2
                   2
                   2
                   2
                   2
                   2
                   2
                   2
                   2
                   2
                   2
                   2
                   2
                   2
                   2
                   2
                   2
                   2
                   2
                   2
                   2
                   2
                   2
                   2
                   2
                   2
                   2
                   2
                   2
                   2
                   2
                   2
                   2
                   2
                   2
                   2
                   2
                   2
                   2
                   2
                   2
                   2
                   2
                   2
                   2
                   2
                   2
                   2
                   2
                   2
                   2
                   2
                   2
                   2
                   2
                   2
                   2
                   2
                   2
                   2
                   2
                   2
                   2
                   2
                   2
                   2
                   2
                   2
                   2
                   2
                   2
                   2
                   2
                   2
                   2
                   2
                   2
                   2
                   2
                   2
                   2
                   2
                   2
                   2
                   2
                   2
                   2
                   2
                   2
                   2
                   2
                   2
                   2
                   2
                   2
                   2
                   2
                   2
                   2
                   2
                   2
                   2
                   2
                   2
                   2
                   2
                   2
                   2
                   2
                   2
                   2
                   2
                   2
                   2
                   2
                   2
                   2
                   2
                   2
                   2
                   2
                   2
                   2
                   2
                   2
                   2
                   2
                   2
                   2
                   2
                   2
                   2
                   2
                   2
                   2
                   2
                   2
                   2
                   2
                   2
                   2
                   2
                   2
                   2
                   2
                   2
                   2
                   2
                   2
                   2
                   2
                   2
                   2
                   2
                   2
                   2
                   2
                   2
                   2
                   2
                   2
                   2
                   2
                   2
                   2
                   2
                   2
                   2
                   2
                   2
                   2
                   2
                   2
                   2
                   2
                   2
                   2
                   2
                   2
                   2
                   2
                   2
                   2
                   2
                   2
                   2
                   2
                   2
                   2
                   2
                   2
                   2
                   2
                   2
                   2
                   2
                   2
                   2
                   2
                   2
                   2
                   2
                   2
                   2
                   2
                   2
                   2
                   2
                   2
                   2
                   2
                   2
                   2
                   2
                   2
                   2
                   2
                   2
                   2
                   2
                   2
                   2
                   2
                   2
                   2
                   2
                   2
                   2
                   2
                   2
                   2
                   2
                   2
                   2
                   2
                   2
                   2
                   2
                   2
                   2
                   2
                   2
                   2
                   2
                   2
                   2
                   2
                   2
                   2
                   2
                   2
                   2
                   2
                   2
                   2
                   2
                   2
                   2
                   2
                   2
                   2
                   2
                   2
                   2
                   2
                   2
                   2
                   2
                   2
                   2
                   2
                   2
                   2
                   2
                   2
                   2
                   2
                   2
                   2
                   2
                   2
                   2
                   2
                   2
                   2
                   2
                   2
                   2
                   2
                   2
                   2
                   2
                   2
                   2
                   2
                   2
                   2
                   2
                   2
                   2
                   2
                   2
                   2
                   2
                   2
                   2
                   2
                   2
                   2
                   2
                   2
                   2
                   2
                   2
                   2
                   2
                   2
                   2
                   2
                   2
                   2
                   2
                   2
                   2
                   2
                   2
                   2
                   2
                   2
                   2
                   2
                   2
                   2
                   2
                   2
                   2
                   2
                   2
                   2
                   2
                   2
                   2
                   2
                   2
                   2
                   2
                   2
                   2
                   2
                   2
                   2
                   2
                   2
                   2
                   2
                   2
                   2
                   2
                   2
                   2
                   2
                   2
                   2
                   2
                   2
                   2
                   2
                   2
                   2
                   2
                   2
                   2
                   2
                   2
                   2
                   2
                   2
                   2
                   2
                   2
                   2
                   2
                   2
                   2
                   2
                   2
                   2
                   2
                   2
                   2
                   2
                   2
                   2
                   2
                   2
                   2
                   2
                   2
                   2
                   2
                   2
                   2
                   2
                   2
                   2
                   2
                   2
                   2
                   2
                   2
                   2
                   2
                   2
                   2
                   2
                   2
                   2
                   2
                   2
                   2
                   2
                   2
                   2
                   2
                   2
                   2
                   2
                   2
                   2
                   2
                   2
                   2
                   2
                   2
                   2
                   2
                   2
                   2
                   2
                   2
                   2
                   2
                   2
                   2
                   2
                   2
                   2
                   2
                   2
                   2
                   2
                   2
                   2
                   2
                   2
                   2
                   2
                   2
                   2
                   2
                   2
                   2
                   2
                   2
                   2
                   2
                   2
                   2
                   2
                   2
                   2
                   2
                   2
                   2
                   2
                   2
                   2
                   2
                   2
                   2
                   2
                   2
                   2
                   2
                   2
                   2
                   2
                   2
                   2
                   2
                   2
                   2
                   2
                   2
                   2
                   2
                   2
                   2
                   2
                   2
                   2
                   2
                   2
                   2
                   2
                   2
                   2
                   2
                   2
                   2
                   2
                   2
                   2
                   2
                   2
                   2
                   2
                   2
                   2
                   2
                   2
                   2
                   2
                   2
                   2
                   2
                   2
                   2
                   2
                   2
                   2
                   2
                   2
                   2
                   2
                   2
                   2
                   2
                   2
                   2
                   2
                   2
                   2
                   2
                   2
                   2
                   2
                   2
                   2
                   2
                   2
                   2
                   2
                   2
                   2
                   2
                   2
                   2
                   2
                   2
                   2
                   2
                   2
                   2
                   2
                   2
                   2
                   2
                   2
                   2
                   2
                   2
                   2
                   2
                   2
                   2
                   2
                   2
                   2
                   2
                   2
                   2
                   2
                   2
                   2
                   2
                   2
                   2
                   2
                   2
                   2
                   2
                   2
                   2
                   2
                   2
                   2
                   2
                   2
                   2
                   2
                   2
                   2
                   2
                   2
                   2
                   2
                   2
                   2
                   2
                   2
                   2
                   2
                   2
                   2
                   2
                   2
                   2
                   2
                   2
                   2
                   2
                   2
                   2
                   2
                   2
                   2
                   2
                   2
                   2
                   2
                   2
                   2
                   2
                   2
                   2
                   2
                   2
                   2
                   2
                   2
                   2
                   2
                   2
                   2
                   2
                   2
                   2
                   2
                   2
                   2
                   2
                   2
                   2
                   2
                   2
                   2
                   2
                   2
                   2
                   2
                   2
                   2
                   2
                   2
                   2
                   2
                   2
                   2
                   2
                   2
                   2
                   2
                   2
                   2
                   2
                   2
                   2
                   2
                   2
                   2
                   2
                   2
                   2
                   2
                   2
                   2
                   2
                   2
                   2
                   2
                   2
                   2
                   2
                   2
                   2
                   2
                   2
                   2
                   2
                   2
                   2
                   2
                   2
                   2
                   2
                   2
                   2
                   2
                   2
                   2
                   2
                   2
                   2
                   2
                   2
                   2
                   2
                   2
                   2
                   2
                   2
                   2
                   2
                   2
                   2
                   2
                   2
                   2
                   2
                   2
                   2
                   2
                   2
                   2
                   2
                   2
                   2
                   2
                   2
                   2
                   2
                   2
                   2
                   2
                   2
                   2
                   2
                   2
                   2
                   2
                   2
                   2
                   2
                   2
                   2
                   2
                   2
                   2
                   2
                   2
                   2
                   2
                   2
                   2
                   2
                   2
                   2
                   2
                   2
                   2
                   2
                   2
                   2
                   2
                   2
                   2
                   2
                   2
                   2
                   2
                   2
                   2
                   2
                   2
                   2
                   2
                   2
                   2
                   2
                   2
                   2
                   2
                   2
                   2
                   2
                   2
                   2
  
SCALARS                       fixity_x  double 1
LOOKUP_TABLE default
                   0
                   0
                   0
                   0
                   0
                   0
                   0
                   0
                   0
                   0
                   0
                   0
                   0
                   0
                   0
                   0
                   0
                   0
                   0
                   0
                   0
                   0
                   0
                   0
                   0
                   0
                   0
                   0
                   0
                   0
                   0
                   0
                   0
                   0
                   0
                   0
                   0
                   0
                   0
                   0
                   0
                   0
                   0
                   0
                   0
                   0
                   0
                   0
                   0
                   0
                   0
                   0
                   0
                   0
                   0
                   0
                   0
                   0
                   0
                   0
                   0
                   0
                   0
                   0
                   0
                   0
                   0
                   0
                   0
                   0
                   0
                   0
                   0
                   0
                   0
                   0
                   0
                   0
                   0
                   0
                   0
                   0
                   0
                   0
                   0
                   0
                   0
                   0
                   0
                   0
                   0
                   0
                   0
                   0
                   0
                   0
                   0
                   0
                   0
                   0
                   0
                   0
                   0
                   0
                   0
                   0
                   0
                   0
                   0
                   0
                   0
                   0
                   0
                   0
                   0
                   0
                   0
                   0
                   0
                   0
                   0
                   0
                   0
                   0
                   0
                   0
                   0
                   0
                   0
                   0
                   0
                   0
                   0
                   0
                   0
                   0
                   0
                   0
                   0
                   0
                   0
                   0
                   0
                   0
                   0
                   0
                   0
                   0
                   0
                   0
                   0
                   0
                   0
                   0
                   0
                   0
                   0
                   0
                   0
                   0
                   0
                   0
                   0
                   0
                   0
                   0
                   0
                   0
                   0
                   0
                   0
                   0
                   0
                   0
                   0
                   0
                   0
                   0
                   0
                   0
                   0
                   0
                   0
                   0
                   0
                   0
                   0
                   0
                   0
                   0
                   0
                   0
                   0
                   0
                   0
                   0
                   0
                   0
                   0
                   0
                   0
                   0
                   0
                   0
                   0
                   0
                   0
                   0
                   0
                   0
                   0
                   0
                   0
                   0
                   0
                   0
                   0
                   0
                   0
                   0
                   0
                   0
                   0
                   0
                   0
                   0
                   0
                   0
                   0
                   0
                   0
                   0
                   0
                   0
                   0
                   0
                   0
                   0
                   0
                   0
                   0
                   0
                   0
                   0
                   0
                   0
                   0
                   0
                   0
                   0
                   0
                   0
                   0
                   0
                   0
                   0
                   0
                   0
                   0
                   0
                   0
                   0
                   0
                   0
                   0
                   0
                   0
                   0
                   0
                   0
                   0
                   0
                   0
                   0
                   0
                   0
                   0
                   0
                   0
                   0
                   0
                   0
                   0
                   0
                   0
                   0
                   0
                   0
                   0
                   0
                   0
                   0
                   0
                   0
                   0
                   0
                   0
                   0
                   0
                   0
                   0
                   0
                   0
                   0
                   0
                   0
                   0
                   0
                   0
                   0
                   0
                   0
                   0
                   0
                   0
                   0
                   0
                   0
                   0
                   0
                   0
                   0
                   0
                   0
                   0
                   0
                   0
                   0
                   0
                   0
                   0
                   0
                   0
                   0
                   0
                   0
                   0
                   0
                   0
                   0
                   0
                   0
                   0
                   0
                   0
                   0
                   0
                   0
                   0
                   0
                   0
                   0
                   0
                   0
                   0
                   0
                   0
                   0
                   0
                   0
                   0
                   0
                   0
                   0
                   0
                   0
                   0
                   0
                   0
                   0
                   0
                   0
                   0
                   0
                   0
                   0
                   0
                   0
                   0
                   0
                   0
                   0
                   0
                   0
                   0
                   0
                   0
                   0
                   0
                   0
                   0
                   0
                   0
                   0
                   0
                   0
                   0
                   0
                   0
                   0
                   0
                   0
                   0
                   0
                   0
                   0
                   0
                   0
                   0
                   0
                   0
                   0
                   0
                   0
                   0
                   0
                   0
                   0
                   0
                   0
                   0
                   0
                   0
                   0
                   0
                   0
                   0
                   0
                   0
                   0
                   0
                   0
                   0
                   0
                   0
                   0
                   0
                   0
                   0
                   0
                   0
                   0
                   0
                   0
                   0
                   0
                   0
                   0
                   0
                   0
                   0
                   0
                   0
                   0
                   0
                   0
                   0
                   0
                   0
                   0
                   0
                   0
                   0
                   0
                   0
                   0
                   0
                   0
                   0
                   0
                   0
                   0
                   0
                   0
                   0
                   0
                   0
                   0
                   0
                   0
                   0
                   0
                   0
                   0
                   0
                   0
                   0
                   0
                   0
                   0
                   0
                   0
                   0
                   0
                   0
                   0
                   0
                   0
                   0
                   0
                   0
                   0
                   0
                   0
                   0
                   0
                   0
                   0
                   0
                   0
                   0
                   0
                   0
                   0
                   0
                   0
                   0
                   0
                   0
                   0
                   0
                   0
                   0
                   0
                   0
                   0
                   0
                   0
                   0
                   0
                   0
                   0
                   0
                   0
                   0
                   0
                   0
                   0
                   0
                   0
                   0
                   0
                   0
                   0
                   0
                   0
                   0
                   0
                   0
                   0
                   0
                   0
                   0
                   0
                   0
                   0
                   0
                   0
                   0
                   0
                   0
                   0
                   0
                   0
                   0
                   0
                   0
                   0
                   0
                   0
                   0
                   0
                   0
                   0
                   0
                   0
                   0
                   0
                   0
                   0
                   0
                   0
                   0
                   0
                   0
                   0
                   0
                   0
                   0
                   0
                   0
                   0
                   0
                   0
                   0
                   0
                   0
                   0
                   0
                   0
                   0
                   0
                   0
                   0
                   0
                   0
                   0
                   0
                   0
                   0
                   0
                   0
                   0
                   0
                   0
                   0
                   0
                   0
                   0
                   0
                   0
                   0
                   0
                   0
                   0
                   0
                   0
                   0
                   0
                   0
                   0
                   0
                   0
                   0
                   0
                   0
                   0
                   0
                   0
                   0
                   0
                   0
                   0
                   0
                   0
                   0
                   0
                   0
                   0
                   0
                   0
                   0
                   0
                   0
                   0
                   0
                   0
                   0
                   0
                   0
                   0
                   0
                   0
                   0
                   0
                   0
                   0
                   0
                   0
                   0
                   0
                   0
                   0
                   0
                   0
                   0
                   0
                   0
                   0
                   0
                   0
                   0
                   0
                   0
                   0
                   0
                   0
                   0
                   0
                   0
                   0
                   0
                   0
                   0
                   0
                   0
                   0
                   0
                   0
                   0
                   0
                   0
                   0
                   0
                   0
                   0
                   0
                   0
                   0
                   0
                   0
                   0
                   0
                   0
                   0
                   0
                   0
                   0
                   0
                   0
                   0
                   0
                   0
                   0
                   0
                   0
                   0
                   0
                   0
                   0
                   0
                   0
                   0
                   0
                   0
                   0
                   0
                   0
                   0
                   0
                   0
                   0
                   0
                   0
                   0
                   0
                   0
                   0
                   0
                   0
                   0
                   0
                   0
                   0
                   0
                   0
                   0
                   0
                   0
                   0
                   0
                   0
                   0
                   0
                   0
                   0
                   0
                   0
                   0
                   0
                   0
                   0
                   0
                   0
                   0
                   0
                   0
                   0
                   0
                   0
                   0
                   0
                   0
                   0
                   0
                   0
                   0
                   0
                   0
                   0
                   0
                   0
                   0
                   0
                   0
                   0
                   0
                   0
                   0
                   0
                   0
                   0
                   0
                   0
                   0
                   0
                   0
                   0
                   0
                   0
                   0
                   0
                   0
                   0
                   0
                   0
                   0
                   0
                   0
                   0
                   0
                   0
                   0
                   0
                   0
                   0
                   0
                   0
                   0
                   0
                   0
                   0
                   0
                   0
                   0
                   0
                   0
                   0
                   0
                   0
                   0
                   0
                   0
                   0
                   0
                   0
                   0
                   0
                   0
                   0
                   0
                   0
                   0
                   0
                   0
                   0
                   0
                   0
                   0
                   0
                   0
                   0
                   0
                   0
                   0
                   0
                   0
                   0
                   0
                   0
                   0
                   0
                   0
                   0
                   0
                   0
                   0
                   0
                   0
                   0
                   0
                   0
                   0
                   0
                   0
                   0
                   0
                   0
                   0
                   0
                   0
                   0
                   0
                   0
                   0
                   0
                   0
                   0
                   0
                   0
                   0
                   0
                   0
                   0
                   0
                   0
                   0
                   0
                   0
                   0
                   0
                   0
                   0
                   0
                   0
                   0
                   0
                   0
                   0
                   0
                   0
                   0
                   0
                   0
                   0
                   0
                   0
                   0
                   0
                   0
                   0
                   0
                   0
                   0
                   0
                   0
                   0
                   0
                   0
                   0
                   0
                   0
                   0
                   0
                   0
                   0
                   0
                   0
                   0
                   0
                   0
                   0
                   0
                   0
                   0
                   0
                   0
                   0
                   0
                   0
                   0
                   0
                   0
                   0
                   0
                   0
                   0
                   0
                   0
                   0
                   0
                   0
                   0
                   0
                   0
                   0
                   0
                   0
                   0
                   0
                   0
                   0
                   0
                   0
                   0
                   0
                   0
                   0
                   0
                   0
                   0
                   0
                   0
                   0
                   0
                   0
                   0
                   0
                   0
                   0
                   0
                   0
                   0
                   0
                   0
                   0
                   0
                   0
                   0
                   0
                   0
                   0
                   0
                   0
                   0
                   0
                   0
                   0
                   0
                   0
                   0
                   0
                   0
                   0
                   0
                   0
                   0
                   0
                   0
                   0
                   0
                   0
                   0
                   0
                   0
                   0
                   0
                   0
                   0
                   0
                   0
                   0
                   0
                   0
                   0
                   0
                   0
                   0
                   0
                   0
                   0
                   0
                   0
                   0
                   0
                   0
                   0
                   0
                   0
                   0
                   0
                   0
                   0
                   0
                   0
                   0
                   0
                   0
                   0
                   0
                   0
                   0
                   0
                   0
                   0
                   0
                   0
                   0
                   0
                   0
                   0
                   0
                   0
                   0
                   0
                   0
                   0
                   0
                   0
                   0
                   0
                   0
                   0
                   0
                   0
                   0
                   0
                   0
                   0
                   0
                   0
                   0
                   0
                   0
                   0
                   0
                   0
                   0
                   0
                   0
                   0
                   0
                   0
                   0
                   0
                   0
                   0
                   0
                   0
                   0
                   0
                   0
                   0
                   0
                   0
                   0
                   0
                   0
                   0
                   0
                   0
                   0
                   0
                   0
                   0
                   0
                   0
                   0
                   0
                   0
                   0
                   0
                   0
                   0
                   0
                   0
                   0
                   0
                   0
                   0
                   0
                   0
                   0
                   0
                   0
                   0
                   0
                   0
                   0
                   0
                   0
                   0
                   0
                   0
                   0
                   0
                   0
                   0
                   0
                   0
                   0
                   0
                   0
                   0
                   0
                   0
                   0
                   0
                   0
                   0
                   0
                   0
                   0
                   0
                   0
                   0
                   0
                   0
                   0
                   0
                   0
                   0
                   0
                   0
                   0
                   0
                   0
                   0
                   0
                   0
                   0
                   0
                   0
                   0
                   0
                   0
                   0
                   0
                   0
                   0
                   0
                   0
                   0
                   0
                   0
                   0
                   0
                   0
                   0
                   0
                   0
                   0
                   0
                   0
                   0
                   0
                   0
                   0
                   0
                   0
                   0
                   0
                   0
                   0
                   0
                   0
                   0
                   0
                   0
                   0
                   0
                   0
                   0
                   0
                   0
                   0
                   0
                   0
                   0
                   0
                   0
                   0
                   0
                   0
                   0
                   0
                   0
                   0
                   0
                   0
                   0
                   0
                   0
                   0
                   0
                   0
                   0
                   0
                   0
                   0
                   0
                   0
                   0
                   0
                   0
                   0
                   0
                   0
                   0
                   0
                   0
                   0
                   0
                   0
                   0
                   0
                   0
                   0
                   0
                   0
                   0
                   0
                   0
                   0
                   0
                   0
                   0
                   0
                   0
                   0
                   0
                   0
                   0
                   0
                   0
                   0
                   0
                   0
                   0
                   0
                   0
                   0
                   0
                   0
                   0
                   0
                   0
                   0
                   0
                   0
                   0
                   0
                   0
                   0
                   0
                   0
                   0
                   0
                   0
                   0
                   0
                   0
                   0
                   0
                   0
                   0
                   0
                   0
                   0
                   0
                   0
                   0
                   0
                   0
                   0
                   0
                   0
                   0
                   0
                   0
                   0
                   0
                   0
                   0
                   0
                   0
                   0
                   0
                   0
                   0
                   0
                   0
                   0
                   0
                   0
                   0
                   0
                   0
                   0
                   0
                   0
                   0
                   0
                   0
                   0
                   0
                   0
                   0
                   0
                   0
                   0
                   0
                   0
                   0
                   0
                   0
                   0
                   0
                   0
                   0
                   0
                   0
                   0
                   0
                   0
                   0
                   0
                   0
                   0
                   0
                   0
                   0
                   0
                   0
                   0
                   0
                   0
                   0
                   0
                   0
                   0
                   0
                   0
                   0
                   0
                   0
                   0
                   0
                   0
                   0
                   0
                   0
                   0
                   0
                   0
                   0
                   0
                   0
                   0
                   0
                   0
                   0
                   0
                   0
                   0
                   0
                   0
                   0
                   0
                   0
                   0
                   0
                   0
                   0
                   0
                   0
                   0
                   0
                   0
                   0
                   0
                   0
                   0
                   0
                   0
                   0
                   0
                   0
                   0
                   0
                   0
                   0
                   0
                   0
                   0
                   0
                   0
                   0
                   0
                   0
                   0
                   0
                   0
                   0
                   0
                   0
                   0
                   0
                   0
                   0
                   0
                   0
                   0
                   0
                   0
                   0
                   0
                   0
                   0
                   0
                   0
                   0
                   0
                   0
                   0
                   0
                   0
                   0
                   0
                   0
                   0
                   0
                   0
                   0
                   0
                   0
                   0
                   0
                   0
                   0
                   0
                   0
                   0
                   0
                   0
                   0
                   0
                   0
                   0
                   0
                   0
                   0
                   0
                   0
                   0
                   0
                   0
                   0
                   0
                   0
                   0
                   0
                   0
                   0
                   0
                   0
                   0
                   0
                   0
                   0
                   0
                   0
                   0
                   0
                   0
                   0
                   0
                   0
                   0
                   0
                   0
                   0
                   0
                   0
                   0
                   0
                   0
                   0
                   0
                   0
                   0
                   0
                   0
                   0
                   0
                   0
                   0
                   0
                   0
                   0
                   0
                   0
                   0
                   0
                   0
                   0
                   0
                   0
                   0
                   0
                   0
                   0
                   0
                   0
                   0
                   0
                   0
                   0
                   0
                   0
                   0
                   0
                   0
                   0
                   0
                   0
                   0
                   0
                   0
                   0
                   0
                   0
                   0
                   0
                   0
                   0
                   0
                   0
                   0
                   0
                   0
                   0
                   0
                   0
                   0
                   0
                   0
                   0
                   0
                   0
                   0
                   0
                   0
                   0
                   0
                   0
                   0
                   0
                   0
                   0
                   0
                   0
                   0
                   0
                   0
                   0
                   0
                   0
                   0
                   0
                   0
                   0
                   0
                   0
                   0
                   0
                   0
                   0
                   0
                   0
                   0
                   0
                   0
                   0
                   0
                   0
                   0
                   0
                   0
                   0
                   0
                   0
                   0
                   0
                   0
                   0
                   0
                   0
                   0
                   0
                   0
                   0
                   0
                   0
                   0
                   0
                   0
                   0
                   0
                   0
                   0
                   0
                   0
                   0
                   0
                   0
                   0
                   0
                   0
                   0
                   0
                   0
                   0
                   0
                   0
                   0
                   0
                   0
                   0
                   0
                   0
                   0
                   0
                   0
                   0
                   0
                   0
                   0
                   0
                   0
                   0
                   0
                   0
                   0
                   0
                   0
                   0
                   0
                   0
                   0
                   0
                   0
                   0
                   0
                   0
                   0
                   0
                   0
                   0
                   0
                   0
                   0
                   0
                   0
                   0
                   0
                   0
                   0
                   0
                   0
                   0
                   0
                   0
                   0
                   0
                   0
                   0
                   0
                   0
                   0
                   0
                   0
                   0
                   0
                   0
                   0
                   0
                   0
                   0
                   0
                   0
                   0
                   0
                   0
                   0
                   0
                   0
                   0
                   0
                   0
                   0
                   0
                   0
                   0
                   0
                   0
                   0
                   0
                   0
                   0
                   0
                   0
                   0
                   0
                   0
                   0
                   0
                   0
                   0
                   0
                   0
                   0
                   0
                   0
                   0
                   0
                   0
                   0
                   0
                   0
                   0
                   0
                   0
                   0
                   0
                   0
                   0
                   0
                   0
                   0
                   0
                   0
                   0
                   0
                   0
                   0
                   0
                   0
                   0
                   0
                   0
                   0
                   0
                   0
                   0
                   0
                   0
                   0
                   0
                   0
                   0
                   0
                   0
                   0
                   0
                   0
                   0
                   0
                   0
                   0
                   0
                   0
                   0
                   0
                   0
                   0
                   0
                   0
                   0
                   0
                   0
                   0
                   0
                   0
                   0
                   0
                   0
                   0
                   0
                   0
                   0
                   0
                   0
                   0
                   0
                   0
                   0
                   0
                   0
                   0
                   0
                   0
                   0
                   0
                   0
                   0
                   0
                   0
                   0
                   0
                   0
                   0
                   0
                   0
                   0
                   0
                   0
                   0
                   0
                   0
                   0
                   0
                   0
                   0
                   0
                   0
                   0
                   0
                   0
                   0
                   0
                   0
                   0
                   0
                   0
                   0
                   0
                   0
                   0
                   0
                   0
                   0
                   0
                   0
                   0
                   0
                   0
                   0
                   0
                   0
                   0
                   0
                   0
                   0
                   0
                   0
                   0
                   0
                   0
                   0
                   0
                   0
                   0
                   0
                   0
                   0
                   0
                   0
                   0
                   0
                   0
                   0
                   0
                   0
                   0
                   0
                   0
                   0
                   0
                   0
  
SCALARS                       fixity_y  double 1
LOOKUP_TABLE default
                   0
                   0
                   0
                   0
                   0
                   0
                   0
                   0
                   0
                   0
                   0
                   0
                   0
                   0
                   0
                   0
                   0
                   0
                   0
                   0
                   0
                   0
                   0
                   0
                   0
                   0
                   0
                   0
                   0
                   0
                   0
                   0
                   0
                   0
                   0
                   0
                   0
                   0
                   0
                   0
                   0
                   0
                   0
                   0
                   0
                   0
                   0
                   0
                   0
                   0
                   0
                   0
                   0
                   0
                   0
                   0
                   0
                   0
                   0
                   0
                   0
                   0
                   0
                   0
                   0
                   0
                   0
                   0
                   0
                   0
                   0
                   0
                   0
                   0
                   0
                   0
                   0
                   0
                   0
                   0
                   0
                   0
                   0
                   0
                   0
                   0
                   0
                   0
                   0
                   0
                   0
                   0
                   0
                   0
                   0
                   0
                   0
                   0
                   0
                   0
                   0
                   0
                   0
                   0
                   0
                   0
                   0
                   0
                   0
                   0
                   0
                   0
                   0
                   0
                   0
                   0
                   0
                   0
                   0
                   0
                   0
                   0
                   0
                   0
                   0
                   0
                   0
                   0
                   0
                   0
                   0
                   0
                   0
                   0
                   0
                   0
                   0
                   0
                   0
                   0
                   0
                   0
                   0
                   0
                   0
                   0
                   0
                   0
                   0
                   0
                   0
                   0
                   0
                   0
                   0
                   0
                   0
                   0
                   0
                   0
                   0
                   0
                   0
                   0
                   0
                   0
                   0
                   0
                   0
                   0
                   0
                   0
                   0
                   0
                   0
                   0
                   0
                   0
                   0
                   0
                   0
                   0
                   0
                   0
                   0
                   0
                   0
                   0
                   0
                   0
                   0
                   0
                   0
                   0
                   0
                   0
                   0
                   0
                   0
                   0
                   0
                   0
                   0
                   0
                   0
                   0
                   0
                   0
                   0
                   0
                   0
                   0
                   0
                   0
                   0
                   0
                   0
                   0
                   0
                   0
                   0
                   0
                   0
                   0
                   0
                   0
                   0
                   0
                   0
                   0
                   0
                   0
                   0
                   0
                   0
                   0
                   0
                   0
                   0
                   0
                   0
                   0
                   0
                   0
                   0
                   0
                   0
                   0
                   0
                   0
                   0
                   0
                   0
                   0
                   0
                   0
                   0
                   0
                   0
                   0
                   0
                   0
                   0
                   0
                   0
                   0
                   0
                   0
                   0
                   0
                   0
                   0
                   0
                   0
                   0
                   0
                   0
                   0
                   0
                   0
                   0
                   0
                   0
                   0
                   0
                   0
                   0
                   0
                   0
                   0
                   0
                   0
                   0
                   0
                   0
                   0
                   0
                   0
                   0
                   0
                   0
                   0
                   0
                   0
                   0
                   0
                   0
                   0
                   0
                   0
                   0
                   0
                   0
                   0
                   0
                   0
                   0
                   0
                   0
                   0
                   0
                   0
                   0
                   0
                   0
                   0
                   0
                   0
                   0
                   0
                   0
                   0
                   0
                   0
                   0
                   0
                   0
                   0
                   0
                   0
                   0
                   0
                   0
                   0
                   0
                   0
                   0
                   0
                   0
                   0
                   0
                   0
                   0
                   0
                   0
                   0
                   0
                   0
                   0
                   0
                   0
                   0
                   0
                   0
                   0
                   0
                   0
                   0
                   0
                   0
                   0
                   0
                   0
                   0
                   0
                   0
                   0
                   0
                   0
                   0
                   0
                   0
                   0
                   0
                   0
                   0
                   0
                   0
                   0
                   0
                   0
                   0
                   0
                   0
                   0
                   0
                   0
                   0
                   0
                   0
                   0
                   0
                   0
                   0
                   0
                   0
                   0
                   0
                   0
                   0
                   0
                   0
                   0
                   0
                   0
                   0
                   0
                   0
                   0
                   0
                   0
                   0
                   0
                   0
                   0
                   0
                   0
                   0
                   0
                   0
                   0
                   0
                   0
                   0
                   0
                   0
                   0
                   0
                   0
                   0
                   0
                   0
                   0
                   0
                   0
                   0
                   0
                   0
                   0
                   0
                   0
                   0
                   0
                   0
                   0
                   0
                   0
                   0
                   0
                   0
                   0
                   0
                   0
                   0
                   0
                   0
                   0
                   0
                   0
                   0
                   0
                   0
                   0
                   0
                   0
                   0
                   0
                   0
                   0
                   0
                   0
                   0
                   0
                   0
                   0
                   0
                   0
                   0
                   0
                   0
                   0
                   0
                   0
                   0
                   0
                   0
                   0
                   0
                   0
                   0
                   0
                   0
                   0
                   0
                   0
                   0
                   0
                   0
                   0
                   0
                   0
                   0
                   0
                   0
                   0
                   0
                   0
                   0
                   0
                   0
                   0
                   0
                   0
                   0
                   0
                   0
                   0
                   0
                   0
                   0
                   0
                   0
                   0
                   0
                   0
                   0
                   0
                   0
                   0
                   0
                   0
                   0
                   0
                   0
                   0
                   0
                   0
                   0
                   0
                   0
                   0
                   0
                   0
                   0
                   0
                   0
                   0
                   0
                   0
                   0
                   0
                   0
                   0
                   0
                   0
                   0
                   0
                   0
                   0
                   0
                   0
                   0
                   0
                   0
                   0
                   0
                   0
                   0
                   0
                   0
                   0
                   0
                   0
                   0
                   0
                   0
                   0
                   0
                   0
                   0
                   0
                   0
                   0
                   0
                   0
                   0
                   0
                   0
                   0
                   0
                   0
                   0
                   0
                   0
                   0
                   0
                   0
                   0
                   0
                   0
                   0
                   0
                   0
                   0
                   0
                   0
                   0
                   0
                   0
                   0
                   0
                   0
                   0
                   0
                   0
                   0
                   0
                   0
                   0
                   0
                   0
                   0
                   0
                   0
                   0
                   0
                   0
                   0
                   0
                   0
                   0
                   0
                   0
                   0
                   0
                   0
                   0
                   0
                   0
                   0
                   0
                   0
                   0
                   0
                   0
                   0
                   0
                   0
                   0
                   0
                   0
                   0
                   0
                   0
                   0
                   0
                   0
                   0
                   0
                   0
                   0
                   0
                   0
                   0
                   0
                   0
                   0
                   0
                   0
                   0
                   0
                   0
                   0
                   0
                   0
                   0
                   0
                   0
                   0
                   0
                   0
                   0
                   0
                   0
                   0
                   0
                   0
                   0
                   0
                   0
                   0
                   0
                   0
                   0
                   0
                   0
                   0
                   0
                   0
                   0
                   0
                   0
                   0
                   0
                   0
                   0
                   0
                   0
                   0
                   0
                   0
                   0
                   0
                   0
                   0
                   0
                   0
                   0
                   0
                   0
                   0
                   0
                   0
                   0
                   0
                   0
                   0
                   0
                   0
                   0
                   0
                   0
                   0
                   0
                   0
                   0
                   0
                   0
                   0
                   0
                   0
                   0
                   0
                   0
                   0
                   0
                   0
                   0
                   0
                   0
                   0
                   0
                   0
                   0
                   0
                   0
                   0
                   0
                   0
                   0
                   0
                   0
                   0
                   0
                   0
                   0
                   0
                   0
                   0
                   0
                   0
                   0
                   0
                   0
                   0
                   0
                   0
                   0
                   0
                   0
                   0
                   0
                   0
                   0
                   0
                   0
                   0
                   0
                   0
                   0
                   0
                   0
                   0
                   0
                   0
                   0
                   0
                   0
                   0
                   0
                   0
                   0
                   0
                   0
                   0
                   0
                   0
                   0
                   0
                   0
                   0
                   0
                   0
                   0
                   0
                   0
                   0
                   0
                   0
                   0
                   0
                   0
                   0
                   0
                   0
                   0
                   0
                   0
                   0
                   0
                   0
                   0
                   0
                   0
                   0
                   0
                   0
                   0
                   0
                   0
                   0
                   0
                   0
                   0
                   0
                   0
                   0
                   0
                   0
                   0
                   0
                   0
                   0
                   0
                   0
                   0
                   0
                   0
                   0
                   0
                   0
                   0
                   0
                   0
                   0
                   0
                   0
                   0
                   0
                   0
                   0
                   0
                   0
                   0
                   0
                   0
                   0
                   0
                   0
                   0
                   0
                   0
                   0
                   0
                   0
                   0
                   0
                   0
                   0
                   0
                   0
                   0
                   0
                   0
                   0
                   0
                   0
                   0
                   0
                   0
                   0
                   0
                   0
                   0
                   0
                   0
                   0
                   0
                   0
                   0
                   0
                   0
                   0
                   0
                   0
                   0
                   0
                   0
                   0
                   0
                   0
                   0
                   0
                   0
                   0
                   0
                   0
                   0
                   0
                   0
                   0
                   0
                   0
                   0
                   0
                   0
                   0
                   0
                   0
                   0
                   0
                   0
                   0
                   0
                   0
                   0
                   0
                   0
                   0
                   0
                   0
                   0
                   0
                   0
                   0
                   0
                   0
                   0
                   0
                   0
                   0
                   0
                   0
                   0
                   0
                   0
                   0
                   0
                   0
                   0
                   0
                   0
                   0
                   0
                   0
                   0
                   0
                   0
                   0
                   0
                   0
                   0
                   0
                   0
                   0
                   0
                   0
                   0
                   0
                   0
                   0
                   0
                   0
                   0
                   0
                   0
                   0
                   0
                   0
                   0
                   0
                   0
                   0
                   0
                   0
                   0
                   0
                   0
                   0
                   0
                   0
                   0
                   0
                   0
                   0
                   0
                   0
                   0
                   0
                   0
                   0
                   0
                   0
                   0
                   0
                   0
                   0
                   0
                   0
                   0
                   0
                   0
                   0
                   0
                   0
                   0
                   0
                   0
                   0
                   0
                   0
                   0
                   0
                   0
                   0
                   0
                   0
                   0
                   0
                   0
                   0
                   0
                   0
                   0
                   0
                   0
                   0
                   0
                   0
                   0
                   0
                   0
                   0
                   0
                   0
                   0
                   0
                   0
                   0
                   0
                   0
                   0
                   0
                   0
                   0
                   0
                   0
                   0
                   0
                   0
                   0
                   0
                   0
                   0
                   0
                   0
                   0
                   0
                   0
                   0
                   0
                   0
                   0
                   0
                   0
                   0
                   0
                   0
                   0
                   0
                   0
                   0
                   0
                   0
                   0
                   0
                   0
                   0
                   0
                   0
                   0
                   0
                   0
                   0
                   0
                   0
                   0
                   0
                   0
                   0
                   0
                   0
                   0
                   0
                   0
                   0
                   0
                   0
                   0
                   0
                   0
                   0
                   0
                   0
                   0
                   0
                   0
                   0
                   0
                   0
                   0
                   0
                   0
                   0
                   0
                   0
                   0
                   0
                   0
                   0
                   0
                   0
                   0
                   0
                   0
                   0
                   0
                   0
                   0
                   0
                   0
                   0
                   0
                   0
                   0
                   0
                   0
                   0
                   0
                   0
                   0
                   0
                   0
                   0
                   0
                   0
                   0
                   0
                   0
                   0
                   0
                   0
                   0
                   0
                   0
                   0
                   0
                   0
                   0
                   0
                   0
                   0
                   0
                   0
                   0
                   0
                   0
                   0
                   0
                   0
                   0
                   0
                   0
                   0
                   0
                   0
                   0
                   0
                   0
                   0
                   0
                   0
                   0
                   0
                   0
                   0
                   0
                   0
                   0
                   0
                   0
                   0
                   0
                   0
                   0
                   0
                   0
                   0
                   0
                   0
                   0
                   0
                   0
                   0
                   0
                   0
                   0
                   0
                   0
                   0
                   0
                   0
                   0
                   0
                   0
                   0
                   0
                   0
                   0
                   0
                   0
                   0
                   0
                   0
                   0
                   0
                   0
                   0
                   0
                   0
                   0
                   0
                   0
                   0
                   0
                   0
                   0
                   0
                   0
                   0
                   0
                   0
                   0
                   0
                   0
                   0
                   0
                   0
                   0
                   0
                   0
                   0
                   0
                   0
                   0
                   0
                   0
                   0
                   0
                   0
                   0
                   0
                   0
                   0
                   0
                   0
                   0
                   0
                   0
                   0
                   0
                   0
                   0
                   0
                   0
                   0
                   0
                   0
                   0
                   0
                   0
                   0
                   0
                   0
                   0
                   0
                   0
                   0
                   0
                   0
                   0
                   0
                   0
                   0
                   0
                   0
                   0
                   0
                   0
                   0
                   0
                   0
                   0
                   0
                   0
                   0
                   0
                   0
                   0
                   0
                   0
                   0
                   0
                   0
                   0
                   0
                   0
                   0
                   0
                   0
                   0
                   0
                   0
                   0
                   0
                   0
                   0
                   0
                   0
                   0
                   0
                   0
                   0
                   0
                   0
                   0
                   0
                   0
                   0
                   0
                   0
                   0
                   0
                   0
                   0
                   0
                   0
                   0
                   0
                   0
                   0
                   0
                   0
                   0
                   0
                   0
                   0
                   0
                   0
                   0
                   0
                   0
                   0
                   0
                   0
                   0
                   0
                   0
                   0
                   0
                   0
                   0
                   0
                   0
                   0
                   0
                   0
                   0
                   0
                   0
                   0
                   0
                   0
                   0
                   0
                   0
                   0
                   0
                   0
                   0
                   0
                   0
                   0
                   0
                   0
                   0
                   0
                   0
                   0
                   0
                   0
                   0
                   0
                   0
                   0
                   0
                   0
                   0
                   0
                   0
                   0
                   0
                   0
                   0
                   0
                   0
                   0
                   0
                   0
                   0
                   0
                   0
                   0
                   0
                   0
                   0
                   0
                   0
                   0
                   0
                   0
                   0
                   0
                   0
                   0
                   0
                   0
                   0
                   0
                   0
                   0
                   0
                   0
                   0
                   0
                   0
                   0
                   0
                   0
                   0
                   0
                   0
                   0
                   0
                   0
                   0
                   0
                   0
                   0
                   0
                   0
                   0
                   0
                   0
                   0
                   0
                   0
                   0
                   0
                   0
                   0
                   0
                   0
                   0
                   0
                   0
                   0
                   0
                   0
                   0
                   0
                   0
                   0
                   0
                   0
                   0
                   0
                   0
                   0
                   0
                   0
                   0
                   0
                   0
                   0
                   0
                   0
                   0
                   0
                   0
                   0
                   0
                   0
                   0
                   0
                   0
                   0
                   0
                   0
                   0
                   0
                   0
                   0
                   0
                   0
                   0
                   0
                   0
                   0
                   0
                   0
                   0
                   0
                   0
                   0
                   0
                   0
                   0
                   0
                   0
                   0
                   0
                   0
                   0
                   0
                   0
                   0
                   0
                   0
                   0
                   0
                   0
                   0
                   0
                   0
                   0
                   0
                   0
                   0
                   0
                   0
                   0
                   0
                   0
                   0
                   0
                   0
                   0
                   0
                   0
                   0
                   0
                   0
                   0
                   0
                   0
                   0
                   0
                   0
                   0
                   0
                   0
                   0
                   0
                   0
                   0
                   0
                   0
                   0
                   0
                   0
                   0
                   0
                   0
                   0
                   0
                   0
                   0
                   0
                   0
                   0
                   0
                   0
                   0
                   0
                   0
                   0
                   0
                   0
                   0
                   0
                   0
                   0
                   0
                   0
                   0
                   0
                   0
                   0
                   0
                   0
                   0
                   0
                   0
                   0
                   0
                   0
                   0
                   0
                   0
                   0
                   0
                   0
                   0
                   0
                   0
                   0
                   0
                   0
                   0
                   0
                   0
                   0
                   0
                   0
                   0
                   0
                   0
                   0
                   0
                   0
                   0
                   0
                   0
                   0
                   0
                   0
                   0
                   0
                   0
                   0
                   0
                   0
                   0
                   0
                   0
                   0
                   0
                   0
                   0
                   0
                   0
                   0
                   0
                   0
                   0
                   0
                   0
                   0
                   0
                   0
                   0
                   0
                   0
                   0
                   0
                   0
                   0
                   0
                   0
                   0
                   0
                   0
                   0
                   0
                   0
                   0
                   0
                   0
                   0
                   0
                   0
                   0
                   0
                   0
                   0
                   0
                   0
                   0
                   0
                   0
                   0
                   0
                   0
                   0
                   0
                   0
                   0
                   0
                   0
                   0
                   0
                   0
                   0
                   0
                   0
                   0
                   0
                   0
                   0
                   0
                   0
                   0
                   0
                   0
                   0
                   0
                   0
                   0
                   0
                   0
                   0
                   0
                   0
                   0
                   0
                   0
                   0
                   0
                   0
                   0
                   0
                   0
                   0
                   0
                   0
                   0
                   0
                   0
                   0
                   0
                   0
                   0
                   0
                   0
                   0
                   0
                   0
                   0
                   0
                   0
                   0
                   0
                   0
                   0
                   0
                   0
                   0
                   0
                   0
                   0
                   0
                   0
                   0
                   0
                   0
                   0
                   0
                   0
                   0
                   0
                   0
                   0
                   0
                   0
                   0
                   0
                   0
                   0
                   0
                   0
                   0
                   0
                   0
                   0
                   0
                   0
                   0
                   0
                   0
                   0
                   0
                   0
                   0
                   0
                   0
                   0
                   0
                   0
                   0
                   0
                   0
                   0
                   0
                   0
                   0
                   0
                   0
                   0
                   0
                   0
                   0
                   0
                   0
                   0
                   0
                   0
                   0
                   0
                   0
                   0
                   0
                   0
                   0
                   0
                   0
                   0
                   0
                   0
                   0
                   0
                   0
                   0
                   0
                   0
                   0
                   0
                   0
                   0
                   0
                   0
                   0
                   0
                   0
                   0
                   0
                   0
                   0
                   0
                   0
                   0
                   0
                   0
                   0
                   0
                   0
                   0
                   0
                   0
                   0
                   0
                   0
                   0
                   0
                   0
                   0
                   0
                   0
                   0
                   0
                   0
                   0
                   0
                   0
                   0
                   0
                   0
                   0
                   0
                   0
                   0
                   0
                   0
                   0
                   0
                   0
                   0
                   0
                   0
                   0
                   0
                   0
                   0
                   0
                   0
                   0
                   0
                   0
                   0
                   0
  
SCALARS                       fixity_z  double 1
LOOKUP_TABLE default
                   0
                   0
                   0
                   0
                   1
                   1
                   1
                   1
                   0
                   0
                   1
                   1
                   0
                   0
                   1
                   1
                   0
                   0
                   1
                   1
                   0
                   0
                   0
                   1
                   1
                   1
                   0
                   0
                   1
                   1
                   0
                   0
                   0
                   1
                   1
                   1
                   0
                   0
                   1
                   1
                   0
                   0
                   1
                   1
                   0
                   0
                   1
                   1
                   0
                   1
                   0
                   1
                   0
                   1
                   0
                   1
                   0
                   0
                   1
                   1
                   0
                   0
                   1
                   1
                   0
                   1
                   0
                   1
                   0
                   0
                   1
                   1
                   0
                   1
                   0
                   1
                   0
                   1
                   0
                   1
                   0
                   0
                   1
                   1
                   0
                   1
                   0
                   1
                   0
                   1
                   0
                   0
                   1
                   1
                   0
                   1
                   0
                   1
                   0
                   1
                   0
                   0
                   1
                   1
                   0
                   0
                   1
                   1
                   0
                   1
                   0
                   1
                   0
                   1
                   0
                   1
                   0
                   1
                   0
                   1
                   0
                   1
                   0
                   1
                   0
                   1
                   0
                   1
                   0
                   1
                   0
                   1
                   0
                   1
                   0
                   1
                   0
                   1
                   0
                   1
                   0
                   1
                   0
                   1
                   0
                   1
                   0
                   1
                   0
                   1
                   0
                   1
                   0
                   1
                   0
                   1
                   0
                   0
                   0
                   0
                   0
                   0
                   0
                   0
                   0
                   0
                   0
                   0
                   0
                   0
                   0
                   0
                   0
                   0
                   0
                   0
                   0
                   0
                   0
                   0
                   0
                   0
                   0
                   0
                   0
                   0
                   0
                   0
                   0
                   0
                   0
                   0
                   0
                   0
                   0
                   0
                   0
                   0
                   0
                   0
                   0
                   0
                   0
                   0
                   0
                   0
                   0
                   0
                   0
                   0
                   0
                   0
                   0
                   0
                   0
                   0
                   0
                   0
                   0
                   0
                   0
                   0
                   0
                   0
                   0
                   0
                   0
                   0
                   0
                   0
                   0
                   0
                   0
                   0
                   0
                   0
                   0
                   0
                   0
                   0
                   0
                   0
                   0
                   0
                   0
                   0
                   0
                   0
                   0
                   0
                   0
                   0
                   0
                   0
                   0
                   0
                   0
                   0
                   0
                   0
                   0
                   0
                   0
                   0
                   0
                   0
                   0
                   0
                   0
                   0
                   0
                   0
                   0
                   0
                   0
                   0
                   0
                   0
                   0
                   0
                   0
                   0
                   0
                   0
                   0
                   0
                   0
                   0
                   0
                   0
                   0
                   0
                   0
                   0
                   0
                   0
                   0
                   0
                   0
                   0
                   0
                   0
                   0
                   0
                   0
                   0
                   0
                   0
                   0
                   0
                   0
                   0
                   0
                   0
                   0
                   0
                   0
                   0
                   0
                   0
                   0
                   0
                   0
                   0
                   0
                   0
                   0
                   0
                   0
                   0
                   0
                   0
                   0
                   0
                   0
                   0
                   0
                   0
                   0
                   0
                   0
                   0
                   0
                   0
                   0
                   0
                   0
                   0
                   0
                   0
                   0
                   0
                   0
                   0
                   0
                   0
                   0
                   0
                   0
                   0
                   0
                   0
                   0
                   0
                   0
                   0
                   0
                   0
                   0
                   0
                   0
                   0
                   0
                   0
                   0
                   0
                   0
                   0
                   0
                   0
                   0
                   0
                   0
                   0
                   0
                   0
                   0
                   0
                   0
                   0
                   0
                   0
                   0
                   0
                   0
                   0
                   0
                   0
                   0
                   0
                   0
                   0
                   0
                   0
                   0
                   0
                   0
                   0
                   0
                   0
                   0
                   0
                   0
                   0
                   0
                   0
                   0
                   0
                   0
                   0
                   0
                   0
                   0
                   0
                   0
                   0
                   0
                   0
                   0
                   0
                   0
                   0
                   0
                   0
                   0
                   0
                   0
                   0
                   0
                   0
                   0
                   0
                   0
                   0
                   0
                   0
                   0
                   0
                   0
                   0
                   0
                   0
                   0
                   0
                   0
                   0
                   0
                   0
                   0
                   0
                   0
                   0
                   0
                   0
                   0
                   0
                   0
                   0
                   0
                   0
                   0
                   0
                   0
                   0
                   0
                   0
                   0
                   0
                   0
                   0
                   0
                   0
                   0
                   0
                   0
                   0
                   0
                   0
                   0
                   0
                   0
                   0
                   0
                   0
                   0
                   0
                   0
                   0
                   0
                   0
                   0
                   0
                   0
                   0
                   0
                   0
                   0
                   0
                   0
                   0
                   0
                   0
                   0
                   0
                   0
                   0
                   0
                   0
                   0
                   0
                   0
                   0
                   0
                   0
                   0
                   0
                   0
                   0
                   0
                   0
                   0
                   0
                   0
                   0
                   0
                   0
                   0
                   0
                   0
                   0
                   0
                   0
                   0
                   0
                   0
                   0
                   0
                   0
                   0
                   0
                   0
                   0
                   0
                   0
                   0
                   0
                   0
                   0
                   0
                   0
                   0
                   0
                   0
                   0
                   0
                   0
                   0
                   0
                   0
                   0
                   0
                   0
                   0
                   0
                   0
                   0
                   0
                   0
                   0
                   0
                   0
                   0
                   0
                   0
                   0
                   0
                   0
                   0
                   0
                   0
                   0
                   0
                   0
                   0
                   0
                   0
                   0
                   0
                   0
                   0
                   0
                   0
                   0
                   0
                   0
                   0
                   0
                   0
                   0
                   0
                   0
                   0
                   0
                   0
                   0
                   0
                   0
                   0
                   0
                   0
                   0
                   0
                   0
                   0
                   0
                   0
                   0
                   0
                   0
                   0
                   0
                   0
                   0
                   0
                   0
                   0
                   0
                   0
                   0
                   0
                   0
                   0
                   0
                   0
                   0
                   0
                   0
                   0
                   0
                   0
                   0
                   0
                   0
                   0
                   0
                   0
                   0
                   0
                   0
                   0
                   0
                   0
                   0
                   0
                   0
                   0
                   0
                   0
                   0
                   0
                   0
                   0
                   0
                   0
                   0
                   0
                   0
                   0
                   0
                   0
                   0
                   0
                   0
                   0
                   0
                   0
                   0
                   0
                   0
                   0
                   0
                   0
                   0
                   0
                   0
                   0
                   0
                   0
                   0
                   0
                   0
                   0
                   0
                   0
                   0
                   0
                   0
                   0
                   0
                   0
                   0
                   0
                   0
                   0
                   0
                   0
                   0
                   0
                   0
                   0
                   0
                   0
                   0
                   0
                   0
                   0
                   0
                   0
                   0
                   0
                   0
                   0
                   0
                   0
                   0
                   0
                   0
                   0
                   0
                   0
                   0
                   0
                   0
                   0
                   0
                   0
                   0
                   0
                   0
                   0
                   0
                   0
                   0
                   0
                   0
                   0
                   0
                   0
                   0
                   0
                   0
                   0
                   0
                   0
                   0
                   0
                   0
                   0
                   0
                   0
                   0
                   0
                   0
                   0
                   0
                   0
                   0
                   0
                   0
                   0
                   0
                   0
                   0
                   0
                   0
                   0
                   0
                   0
                   0
                   0
                   0
                   0
                   0
                   0
                   0
                   0
                   0
                   0
                   0
                   0
                   0
                   0
                   0
                   0
                   0
                   0
                   0
                   0
                   0
                   0
                   0
                   0
                   0
                   0
                   0
                   0
                   0
                   0
                   0
                   0
                   0
                   0
                   0
                   0
                   0
                   0
                   0
                   0
                   0
                   0
                   0
                   0
                   0
                   0
                   0
                   0
                   0
                   0
                   0
                   0
                   0
                   0
                   0
                   0
                   0
                   0
                   0
                   0
                   0
                   0
                   0
                   0
                   0
                   0
                   0
                   0
                   0
                   0
                   0
                   0
                   0
                   0
                   0
                   0
                   0
                   0
                   0
                   0
                   0
                   0
                   0
                   0
                   0
                   0
                   0
                   0
                   0
                   0
                   0
                   0
                   0
                   0
                   0
                   0
                   0
                   0
                   0
                   0
                   0
                   0
                   0
                   0
                   0
                   0
                   0
                   0
                   0
                   0
                   0
                   0
                   0
                   0
                   0
                   0
                   0
                   0
                   0
                   0
                   0
                   0
                   0
                   0
                   0
                   0
                   0
                   0
                   0
                   0
                   0
                   0
                   0
                   0
                   0
                   0
                   0
                   0
                   0
                   0
                   0
                   0
                   0
                   0
                   0
                   0
                   0
                   0
                   0
                   0
                   0
                   0
                   0
                   0
                   0
                   0
                   0
                   0
                   0
                   0
                   0
                   0
                   0
                   0
                   0
                   0
                   0
                   0
                   0
                   0
                   0
                   0
                   0
                   0
                   0
                   0
                   0
                   0
                   0
                   0
                   0
                   0
                   0
                   0
                   0
                   0
                   0
                   0
                   0
                   0
                   0
                   0
                   0
                   0
                   0
                   0
                   0
                   0
                   0
                   0
                   0
                   0
                   0
                   0
                   0
                   0
                   0
                   0
                   0
                   0
                   0
                   0
                   0
                   0
                   0
                   0
                   0
                   0
                   0
                   0
                   0
                   0
                   0
                   0
                   0
                   0
                   0
                   0
                   0
                   0
                   0
                   0
                   0
                   0
                   0
                   0
                   0
                   0
                   0
                   0
                   0
                   0
                   0
                   0
                   0
                   0
                   0
                   0
                   0
                   0
                   0
                   0
                   0
                   0
                   0
                   0
                   0
                   0
                   0
                   0
                   0
                   0
                   0
                   0
                   0
                   0
                   0
                   0
                   0
                   0
                   0
                   0
                   0
                   0
                   0
                   0
                   0
                   0
                   0
                   0
                   0
                   0
                   0
                   0
                   0
                   0
                   0
                   0
                   0
                   0
                   0
                   0
                   0
                   0
                   0
                   0
                   0
                   0
                   0
                   0
                   0
                   0
                   0
                   0
                   0
                   0
                   0
                   0
                   0
                   0
                   0
                   0
                   0
                   0
                   0
                   0
                   0
                   0
                   0
                   0
                   0
                   0
                   0
                   0
                   0
                   0
                   0
                   0
                   0
                   0
                   0
                   0
                   0
                   0
                   0
                   0
                   0
                   0
                   0
                   0
                   0
                   0
                   0
                   0
                   0
                   0
                   0
                   0
                   0
                   0
                   0
                   0
                   0
                   0
                   0
                   0
                   0
                   0
                   0
                   0
                   0
                   0
                   0
                   0
                   0
                   0
                   0
                   0
                   0
                   0
                   0
                   0
                   0
                   0
                   0
                   0
                   0
                   0
                   0
                   0
                   0
                   0
                   0
                   0
                   0
                   0
                   0
                   0
                   0
                   0
                   0
                   0
                   0
                   0
                   0
                   0
                   0
                   0
                   0
                   0
                   0
                   0
                   0
                   0
                   0
                   0
                   0
                   0
                   0
                   0
                   0
                   0
                   0
                   0
                   0
                   0
                   0
                   0
                   0
                   0
                   0
                   0
                   0
                   0
                   0
                   0
                   0
                   0
                   0
                   0
                   0
                   0
                   0
                   0
                   0
                   0
                   0
                   0
                   0
                   0
                   0
                   0
                   0
                   0
                   0
                   0
                   0
                   0
                   0
                   0
                   0
                   0
                   0
                   0
                   0
                   0
                   0
                   0
                   0
                   0
                   0
                   0
                   0
                   0
                   0
                   0
                   0
                   0
                   0
                   0
                   0
                   0
                   0
                   0
                   0
                   0
                   0
                   0
                   0
                   0
                   0
                   0
                   0
                   0
                   0
                   0
                   0
                   0
                   0
                   0
                   0
                   0
                   0
                   0
                   0
                   0
                   0
                   0
                   0
                   0
                   0
                   0
                   0
                   0
                   0
                   0
                   0
                   0
                   0
                   0
                   0
                   0
                   0
                   0
                   0
                   0
                   0
                   0
                   0
                   0
                   0
                   0
                   0
                   0
                   0
                   0
                   0
                   0
                   0
                   0
                   0
                   0
                   0
                   0
                   0
                   0
                   0
                   0
                   0
                   0
                   0
                   0
                   0
                   0
                   0
                   0
                   0
                   0
                   0
                   0
                   0
                   0
                   0
                   0
                   0
                   0
                   0
                   0
                   0
                   0
                   0
                   0
                   0
                   0
                   0
                   0
                   0
                   0
                   0
                   0
                   0
                   0
                   0
                   0
                   0
                   0
                   0
                   0
                   0
                   0
                   0
                   0
                   0
                   0
                   0
                   0
                   0
                   0
                   0
                   0
                   0
                   0
                   0
                   0
                   0
                   0
                   0
                   0
                   0
                   0
                   0
                   0
                   0
                   0
                   0
                   0
                   0
                   0
                   0
                   0
                   0
                   0
                   0
                   0
                   0
                   0
                   0
                   0
                   0
                   0
                   0
                   0
                   0
                   0
                   0
                   0
                   0
                   0
                   0
                   0
                   0
                   0
                   0
                   0
                   0
                   0
                   0
                   0
                   0
                   0
                   0
                   0
                   0
                   0
                   0
                   0
                   0
                   0
                   0
                   0
                   0
                   0
                   0
                   0
                   0
                   0
                   0
                   0
                   0
                   0
                   0
                   0
                   0
                   0
                   0
                   0
                   0
                   0
                   0
                   0
                   0
                   0
                   0
                   0
                   0
                   0
                   0
                   0
                   0
                   0
                   0
                   0
                   0
                   0
                   0
                   0
                   0
                   0
                   0
                   0
                   0
                   0
                   0
                   0
                   0
                   0
                   0
                   0
                   0
                   0
                   0
                   0
                   0
                   0
                   0
                   0
                   0
                   0
                   0
                   0
                   0
                   0
                   0
                   0
                   0
                   0
                   0
                   0
                   0
                   0
                   0
                   0
                   0
                   0
                   0
                   0
                   0
                   0
                   0
                   0
                   0
                   0
                   0
                   0
                   0
                   0
                   0
                   0
                   0
                   0
                   0
                   0
                   0
                   0
                   0
                   0
                   0
                   0
                   0
                   0
                   0
                   0
                   0
                   0
                   0
                   0
                   0
                   0
                   0
                   0
                   0
                   0
                   0
                   0
                   0
                   0
                   0
                   0
                   0
                   0
                   0
                   0
                   0
                   0
                   0
                   0
                   0
                   0
                   0
                   0
                   0
                   0
                   0
                   0
                   0
                   0
                   0
                   0
                   0
                   0
                   0
                   0
                   0
                   0
                   0
                   0
                   0
                   0
                   0
                   0
                   0
                   0
                   0
                   0
                   0
                   0
                   0
                   0
                   0
                   0
                   0
                   0
                   0
                   0
                   0
                   0
                   0
                   0
                   0
                   0
                   0
                   0
                   0
                   0
                   0
                   0
                   0
                   0
                   0
                   0
                   0
                   0
                   0
                   0
                   0
                   0
                   0
                   0
                   0
                   0
                   0
                   0
                   0
                   0
                   0
                   0
                   0
                   0
                   0
                   0
                   0
                   0
                   0
                   0
                   0
                   0
                   0
                   0
                   0
                   0
                   0
                   0
                   0
                   0
                   0
                   0
                   0
                   0
                   0
                   0
                   0
                   0
                   0
                   0
                   0
                   0
                   0
                   0
                   0
                   0
                   0
                   0
                   0
                   0
                   0
                   0
                   0
                   0
                   0
                   0
                   0
                   0
                   0
                   0
                   0
                   0
                   0
                   0
                   0
                   0
                   0
                   0
                   0
                   0
                   0
                   0
                   0
                   0
                   0
                   0
                   0
                   0
                   0
                   0
                   0
                   0
                   0
                   0
                   0
                   0
                   0
                   0
                   0
                   0
                   0
                   0
                   0
                   0
                   0
                   0
                   0
                   0
                   0
                   0
                   0
                   0
                   0
                   0
                   0
                   0
                   0
                   0
                   0
                   0
                   0
                   0
                   0
                   0
                   0
                   0
                   0
                   0
                   0
                   0
                   0
                   0
                   0
                   0
                   0
                   0
                   0
                   0
                   0
                   0
                   0
                   0
                   0
                   0
                   0
                   0
                   0
                   0
                   0
                   0
                   0
                   0
                   0
                   0
                   0
                   0
                   0
                   0
                   0
                   0
                   0
                   0
                   0
                   0
                   0
                   0
                   0
                   0
                   0
                   0
                   0
                   0
                   0
                   0
                   0
                   0
                   0
                   0
                   0
                   0
                   0
                   0
                   0
                   0
                   0
                   0
                   0
                   0
                   0
                   0
                   0
                   0
                   0
                   0
                   0
                   0
                   0
                   0
                   0
                   0
                   0
                   0
                   0
                   0
                   0
                   0
                   0
                   0
                   0
                   0
                   0
                   0
                   0
                   0
                   0
                   0
                   0
                   0
                   0
                   0
                   0
                   0
                   0
                   0
                   0
                   0
                   0
                   0
                   0
                   0
                   0
                   0
                   0
                   0
                   0
                   0
                   0
                   0
                   0
                   0
                   0
                   0
                   0
                   0
                   0
                   0
                   0
                   0
                   0
                   0
                   0
                   0
                   0
                   0
                   0
                   0
                   0
                   0
                   0
                   0
                   0
                   0
                   0
                   0
                   0
                   0
                   0
                   0
                   0
                   0
                   0
                   0
                   0
                   0
                   0
                   0
                   0
                   0
                   0
                   0
                   0
                   0
                   0
                   0
                   0
                   0
                   0
                   0
                   0
                   0
                   0
                   0
                   0
                   0
                   0
                   0
                   0
                   0
                   0
                   0
                   0
                   0
                   0
                   0
                   0
                   0
                   0
                   0
                   0
                   0
                   0
                   0
                   0
                   0
                   0
                   0
                   0
                   0
                   0
                   0
                   0
                   0
                   0
                   0
                   0
                   0
                   0
                   0
                   0
                   0
                   0
                   0
                   0
                   0
                   0
                   0
                   0
                   0
  
SCALARS                         Ispace  double 1
LOOKUP_TABLE default
                  12
                  12
                  12
                  12
                  12
                  12
                  12
                  12
                  12
                  12
                  12
                  12
                  12
                  11
                  12
                  11
                  11
                  11
                  11
                  11
                  11
                  12
                  12
                  11
                  12
                  12
                  11
                  11
                  11
                  11
                  11
                  11
                  11
                  11
                  11
                  11
                  11
                  11
                  11
                  11
                  11
                  11
                  11
                  11
                  11
                  11
                  11
                  11
                  11
                  11
                  11
                  11
                  11
                  11
                  11
                  11
                  11
                  11
                  11
                  11
                  11
                  11
                  11
                  11
                  11
                  11
                  12
                  12
                  12
                  12
                  12
                  12
                  12
                  12
                  11
                  11
                  11
                  11
                  11
                  11
                  11
                  11
                  11
                  11
                  11
                  11
                  11
                  11
                  11
                  11
                  11
                  11
                  11
                  11
                  11
                  11
                  12
                  12
                  12
                  12
                  12
                  12
                  12
                  12
                  12
                  12
                  12
                  12
                  12
                  12
                  12
                  12
                  12
                  12
                  12
                  12
                  11
                  11
                  11
                  11
                  11
                  11
                  11
                  11
                  11
                  11
                  11
                  11
                  11
                  11
                  11
                  11
                  11
                  11
                  11
                  11
                  11
                  11
                  11
                  11
                  11
                  11
                  11
                  11
                  11
                  11
                  12
                  12
                  12
                  12
                  12
                  12
                  12
                  12
                  12
                  12
                  12
                  12
                  12
                  12
                  12
                  12
                  12
                  11
                  11
                  11
                  11
                  12
                  12
                  11
                  11
                  11
                  11
                  11
                  11
                  11
                  11
                  11
                  11
                  11
                  11
                  11
                  11
                  11
                  11
                  11
                  11
                  11
                  11
                  12
                  12
                  12
                  12
                  11
                  11
                  11
                  11
                  11
                  11
                  11
                  11
                  11
                  11
                  11
                  12
                  12
                  12
                  12
                  12
                  12
                  12
                  12
                  12
                  12
                  11
                  11
                  11
                  11
                  11
                  11
                  11
                  11
                  11
                  11
                  11
                  11
                  11
                  11
                  11
                  12
                  12
                  12
                  12
                  12
                  12
                  12
                  12
                  12
                  12
                  12
                  12
                  11
                  11
                  11
                  11
                  12
                  12
                  11
                  11
                  11
                  11
                  11
                  11
                  11
                  11
                  11
                  11
                  11
                  11
                  11
                  11
                  11
                  11
                  11
                  11
                  11
                  11
                  12
                  12
                  12
                  12
                  11
                  11
                  11
                  11
                  11
                  11
                  11
                  11
                  11
                  11
                  11
                  12
                  12
                  12
                  12
                  12
                  12
                  12
                  12
                  12
                  12
                  11
                  11
                  11
                  11
                  11
                  11
                  11
                  11
                  11
                  11
                  11
                  11
                  11
                  11
                  11
                  12
                  12
                  12
                  12
                  12
                  12
                  12
                  12
                  12
                  12
                  12
                  12
                  11
                  11
                  11
                  11
                  12
                  12
                  11
                  11
                  11
                  11
                  11
                  11
                  11
                  11
                  11
                  11
                  11
                  11
                  11
                  11
                  11
                  11
                  11
                  11
                  11
                  11
                  12
                  12
                  12
                  12
                  11
                  11
                  11
                  11
                  11
                  11
                  11
                  11
                  11
                  11
                  11
                  12
                  12
                  12
                  12
                  12
                  12
                  12
                  12
                  12
                  12
                  11
                  11
                  11
                  11
                  11
                  11
                  11
                  11
                  11
                  11
                  11
                  11
                  11
                  11
                  11
                  12
                  12
                  12
                  12
                  12
                  12
                  12
                  12
                  12
                  12
                  12
                  12
                  11
                  11
                  11
                  11
                  12
                  12
                  11
                  11
                  11
                  11
                  11
                  11
                  11
                  11
                  11
                  11
                  11
                  11
                  11
                  11
                  11
                  11
                  11
                  11
                  11
                  11
                  12
                  12
                  12
                  12
                  11
                  11
                  11
                  11
                  11
                  11
                  11
                  11
                  11
                  11
                  11
                  12
                  12
                  12
                  12
                  12
                  12
                  12
                  12
                  12
                  12
                  11
                  11
                  11
                  11
                  11
                  11
                  11
                  11
                  11
                  11
                  11
                  11
                  11
                  11
                  11
                  12
                  12
                  12
                  12
                  12
                  12
                  12
                  12
                  12
                  12
                  12
                  12
                  11
                  11
                  11
                  11
                  12
                  12
                  11
                  11
                  11
                  11
                  11
                  11
                  11
                  11
                  11
                  11
                  11
                  11
                  11
                  11
                  11
                  11
                  11
                  11
                  11
                  11
                  12
                  12
                  12
                  12
                  11
                  11
                  11
                  11
                  11
                  11
                  11
                  11
                  11
                  11
                  11
                  12
                  12
                  12
                  12
                  12
                  12
                  12
                  12
                  12
                  12
                  11
                  11
                  11
                  11
                  11
                  11
                  11
                  11
                  11
                  11
                  11
                  11
                  11
                  11
                  11
                  12
                  12
                  12
                  12
                  12
                  12
                  12
                  12
                  12
                  12
                  12
                  12
                  11
                  11
                  11
                  11
                  12
                  12
                  11
                  11
                  11
                  11
                  11
                  11
                  11
                  11
                  11
                  11
                  11
                  11
                  11
                  11
                  11
                  11
                  11
                  11
                  11
                  11
                  12
                  12
                  12
                  12
                  11
                  11
                  11
                  11
                  11
                  11
                  11
                  11
                  11
                  11
                  11
                  12
                  12
                  12
                  12
                  12
                  12
                  12
                  12
                  12
                  12
                  11
                  11
                  11
                  11
                  11
                  11
                  11
                  11
                  11
                  11
                  11
                  11
                  11
                  11
                  11
                  12
                  12
                  12
                  12
                  12
                  12
                  12
                  12
                  12
                  12
                  12
                  12
                  11
                  11
                  11
                  11
                  12
                  12
                  11
                  11
                  11
                  11
                  11
                  11
                  11
                  11
                  11
                  11
                  11
                  11
                  11
                  11
                  11
                  11
                  11
                  11
                  11
                  11
                  12
                  12
                  12
                  12
                  11
                  11
                  11
                  11
                  11
                  11
                  11
                  11
                  11
                  11
                  11
                  12
                  12
                  12
                  12
                  12
                  12
                  12
                  12
                  12
                  12
                  11
                  11
                  11
                  11
                  11
                  11
                  11
                  11
                  11
                  11
                  11
                  11
                  11
                  11
                  11
                  12
                  12
                  12
                  12
                  12
                  12
                  12
                  12
                  12
                  12
                  12
                  12
                  11
                  11
                  11
                  11
                  12
                  12
                  11
                  11
                  11
                  11
                  11
                  11
                  11
                  11
                  11
                  11
                  11
                  11
                  11
                  11
                  11
                  11
                  11
                  11
                  11
                  11
                  12
                  12
                  12
                  12
                  11
                  11
                  11
                  11
                  11
                  11
                  11
                  11
                  11
                  11
                  11
                  12
                  12
                  12
                  12
                  12
                  12
                  12
                  12
                  12
                  12
                  11
                  11
                  11
                  11
                  11
                  11
                  11
                  11
                  11
                  11
                  11
                  11
                  11
                  11
                  11
                  12
                  12
                  12
                  12
                  12
                  12
                  12
                  12
                  12
                  12
                  12
                  12
                  11
                  11
                  11
                  11
                  12
                  12
                  11
                  11
                  11
                  11
                  11
                  11
                  11
                  11
                  11
                  11
                  11
                  11
                  11
                  11
                  11
                  11
                  11
                  11
                  11
                  11
                  12
                  12
                  12
                  12
                  11
                  11
                  11
                  11
                  11
                  11
                  11
                  11
                  11
                  11
                  11
                  12
                  12
                  12
                  12
                  12
                  12
                  12
                  12
                  12
                  12
                  11
                  11
                  11
                  11
                  11
                  11
                  11
                  11
                  11
                  11
                  11
                  11
                  11
                  11
                  11
                  12
                  12
                  12
                  12
                  12
                  12
                  12
                  12
                  12
                  12
                  12
                  12
                  11
                  11
                  11
                  11
                  12
                  12
                  11
                  11
                  11
                  11
                  11
                  11
                  11
                  11
                  11
                  11
                  11
                  11
                  11
                  11
                  11
                  11
                  11
                  11
                  11
                  11
                  12
                  12
                  12
                  12
                  11
                  11
                  11
                  11
                  11
                  11
                  11
                  11
                  11
                  11
                  11
                  12
                  12
                  12
                  12
                  12
                  12
                  12
                  12
                  12
                  12
                  11
                  11
                  11
                  11
                  11
                  11
                  11
                  11
                  11
                  11
                  11
                  11
                  11
                  11
                  11
                  12
                  12
                  12
                  12
                  12
                  12
                  12
                  12
                  12
                  12
                  12
                  12
                  11
                  11
                  11
                  11
                  12
                  12
                  11
                  11
                  11
                  11
                  11
                  11
                  11
                  11
                  11
                  11
                  11
                  11
                  11
                  11
                  11
                  11
                  11
                  11
                  11
                  11
                  12
                  12
                  12
                  12
                  11
                  11
                  11
                  11
                  11
                  11
                  11
                  11
                  11
                  11
                  11
                  12
                  12
                  12
                  12
                  12
                  12
                  12
                  12
                  12
                  12
                  11
                  11
                  11
                  11
                  11
                  11
                  11
                  11
                  11
                  11
                  11
                  11
                  11
                  11
                  11
                  12
                  12
                  12
                  12
                  12
                  12
                  12
                  12
                  12
                  12
                  12
                  12
                  11
                  11
                  11
                  11
                  12
                  12
                  11
                  11
                  11
                  11
                  11
                  11
                  11
                  11
                  11
                  11
                  11
                  11
                  11
                  11
                  11
                  11
                  11
                  11
                  11
                  11
                  12
                  12
                  12
                  12
                  11
                  11
                  11
                  11
                  11
                  11
                  11
                  11
                  11
                  11
                  11
                  12
                  12
                  12
                  12
                  12
                  12
                  12
                  12
                  12
                  12
                  11
                  11
                  11
                  11
                  11
                  11
                  11
                  11
                  11
                  11
                  11
                  11
                  11
                  11
                  11
                  12
                  12
                  12
                  12
                  12
                  12
                  12
                  12
                  12
                  12
                  12
                  12
                  11
                  11
                  11
                  11
                  12
                  12
                  11
                  11
                  11
                  11
                  11
                  11
                  11
                  11
                  11
                  11
                  11
                  11
                  11
                  11
                  11
                  11
                  11
                  11
                  11
                  11
                  12
                  12
                  12
                  12
                  11
                  11
                  11
                  11
                  11
                  11
                  11
                  11
                  11
                  11
                  11
                  12
                  12
                  12
                  12
                  12
                  12
                  12
                  12
                  12
                  12
                  11
                  11
                  11
                  11
                  11
                  11
                  11
                  11
                  11
                  11
                  11
                  11
                  11
                  11
                  11
                  12
                  12
                  12
                  12
                  12
                  12
                  12
                  12
                  12
                  12
                  12
                  12
                  11
                  11
                  11
                  11
                  12
                  12
                  11
                  11
                  11
                  11
                  11
                  11
                  11
                  11
                  11
                  11
                  11
                  11
                  11
                  11
                  11
                  11
                  11
                  11
                  11
                  11
                  12
                  12
                  12
                  12
                  11
                  11
                  11
                  11
                  11
                  11
                  11
                  11
                  11
                  11
                  11
                  12
                  12
                  12
                  12
                  12
                  12
                  12
                  12
                  12
                  12
                  11
                  11
                  11
                  11
                  11
                  11
                  11
                  11
                  11
                  11
                  11
                  11
                  11
                  11
                  11
                  12
                  12
                  12
                  12
                  12
                  12
                  12
                  12
                  12
                  12
                  12
                  12
                  11
                  11
                  11
                  11
                  12
                  12
                  11
                  11
                  11
                  11
                  11
                  11
                  11
                  11
                  11
                  11
                  11
                  11
                  11
                  11
                  11
                  11
                  11
                  11
                  11
                  11
                  12
                  12
                  12
                  12
                  11
                  11
                  11
                  11
                  11
                  11
                  11
                  11
                  11
                  11
                  11
                  12
                  12
                  12
                  12
                  12
                  12
                  12
                  12
                  12
                  12
                  11
                  11
                  11
                  11
                  11
                  11
                  11
                  11
                  11
                  11
                  11
                  11
                  11
                  11
                  11
                  12
                  12
                  12
                  12
                  12
                  12
                  12
                  12
                  12
                  12
                  12
                  12
                  11
                  11
                  11
                  11
                  12
                  12
                  11
                  11
                  11
                  11
                  11
                  11
                  11
                  11
                  11
                  11
                  11
                  11
                  11
                  11
                  11
                  11
                  11
                  11
                  11
                  11
                  12
                  12
                  12
                  12
                  11
                  11
                  11
                  11
                  11
                  11
                  11
                  11
                  11
                  11
                  11
                  12
                  12
                  12
                  12
                  12
                  12
                  12
                  12
                  12
                  12
                  11
                  11
                  11
                  11
                  11
                  11
                  11
                  11
                  11
                  11
                  11
                  11
                  11
                  11
                  11
                  12
                  12
                  12
                  12
                  12
                  12
                  12
                  12
                  12
                  12
                  12
                  12
                  11
                  11
                  11
                  11
                  12
                  12
                  11
                  11
                  11
                  11
                  11
                  11
                  11
                  11
                  11
                  11
                  11
                  11
                  11
                  11
                  11
                  11
                  11
                  11
                  11
                  11
                  12
                  12
                  12
                  12
                  11
                  11
                  11
                  11
                  11
                  11
                  11
                  11
                  11
                  11
                  11
                  12
                  12
                  12
                  12
                  12
                  12
                  12
                  12
                  12
                  12
                  11
                  11
                  11
                  11
                  11
                  11
                  11
                  11
                  11
                  11
                  11
                  11
                  11
                  11
                  11
                  12
                  12
                  12
                  12
                  12
                  12
                  12
                  12
                  12
                  12
                  12
                  12
                  11
                  11
                  11
                  11
                  12
                  12
                  11
                  11
                  11
                  11
                  11
                  11
                  11
                  11
                  11
                  11
                  11
                  11
                  11
                  11
                  11
                  11
                  11
                  11
                  11
                  11
                  12
                  12
                  12
                  12
                  11
                  11
                  11
                  11
                  11
                  11
                  11
                  11
                  11
                  11
                  11
                  12
                  12
                  12
                  12
                  12
                  12
                  12
                  12
                  12
                  12
                  11
                  11
                  11
                  11
                  11
                  11
                  11
                  11
                  11
                  11
                  11
                  11
                  11
                  11
                  11
                  12
                  12
                  12
                  12
                  12
                  12
                  12
                  12
                  12
                  12
                  12
                  12
                  11
                  11
                  11
                  11
                  12
                  12
                  11
                  11
                  11
                  11
                  11
                  11
                  11
                  11
                  11
                  11
                  11
                  11
                  11
                  11
                  11
                  11
                  11
                  11
                  11
                  11
                  12
                  12
                  12
                  12
                  11
                  11
                  11
                  11
                  11
                  11
                  11
                  11
                  11
                  11
                  11
                  12
                  12
                  12
                  12
                  12
                  12
                  12
                  12
                  12
                  12
                  11
                  11
                  11
                  11
                  11
                  11
                  11
                  11
                  11
                  11
                  11
                  11
                  11
                  11
                  11
                  12
                  12
                  12
                  12
                  12
                  12
                  12
                  12
                  12
                  12
                  12
                  12
                  11
                  11
                  11
                  11
                  12
                  12
                  11
                  11
                  11
                  11
                  11
                  11
                  11
                  11
                  11
                  11
                  11
                  11
                  11
                  11
                  11
                  11
                  11
                  11
                  11
                  11
                  12
                  12
                  12
                  12
                  11
                  11
                  11
                  11
                  11
                  11
                  11
                  11
                  11
                  11
                  11
                  12
                  12
                  12
                  12
                  12
                  12
                  12
                  12
                  12
                  12
                  11
                  11
                  11
                  11
                  11
                  11
                  11
                  11
                  11
                  11
                  11
                  11
                  11
                  11
                  11
                  12
                  12
                  12
                  12
                  12
                  12
                  12
                  12
                  12
                  12
                  12
                  12
                  11
                  11
                  11
                  11
                  12
                  12
                  11
                  11
                  11
                  11
                  11
                  11
                  11
                  11
                  11
                  11
                  11
                  11
                  11
                  11
                  11
                  11
                  11
                  11
                  11
                  11
                  12
                  12
                  12
                  12
                  11
                  11
                  11
                  11
                  11
                  11
                  11
                  11
                  11
                  11
                  11
                  12
                  12
                  12
                  12
                  12
                  12
                  12
                  12
                  12
                  12
                  11
                  11
                  11
                  11
                  11
                  11
                  11
                  11
                  11
                  11
                  11
                  11
                  11
                  11
                  11
                  12
                  12
                  12
                  12
                  12
                  12
                  12
                  12
                  12
                  12
                  12
                  12
                  11
                  11
                  11
                  11
                  12
                  12
                  11
                  11
                  11
                  11
                  11
                  11
                  11
                  11
                  11
                  11
                  11
                  11
                  11
                  11
                  11
                  11
                  11
                  11
                  11
                  11
                  12
                  12
                  12
                  12
                  11
                  11
                  11
                  11
                  11
                  11
                  11
                  11
                  11
                  11
                  11
                  12
                  12
                  12
                  12
                  12
                  12
                  12
                  12
                  12
                  12
                  11
                  11
                  11
                  11
                  11
                  11
                  11
                  11
                  11
                  11
                  11
                  11
                  11
                  11
                  11
                  12
                  12
                  12
                  12
                  12
                  12
                  12
                  12
                  12
                  12
                  12
                  12
                  11
                  11
                  11
                  11
                  12
                  12
                  11
                  11
                  11
                  11
                  11
                  11
                  11
                  11
                  11
                  11
                  11
                  11
                  11
                  11
                  11
                  11
                  11
                  11
                  11
                  11
                  12
                  12
                  12
                  12
                  11
                  11
                  11
                  11
                  11
                  11
                  11
                  11
                  11
                  11
                  11
                  12
                  12
                  12
                  12
                  12
                  12
                  12
                  12
                  12
                  12
                  11
                  11
                  11
                  11
                  11
                  11
                  11
                  11
                  11
                  11
                  11
                  11
                  11
                  11
                  11
                  12
                  12
                  12
                  12
                  12
  
SCALARS                         Jspace  double 1
LOOKUP_TABLE default
                  11
                  12
                  11
                  11
                  11
                  12
                  11
                  11
                  11
                  11
                  11
                  11
                  12
                  12
                  12
                  12
                  11
                  12
                  11
                  12
                  12
                  12
                  12
                  12
                  12
                  12
                  12
                  12
                  12
                  12
                  11
                  11
                  11
                  11
                  11
                  11
                  11
                  11
                  11
                  11
                  11
                  11
                  11
                  11
                  11
                  11
                  11
                  11
                  11
                  11
                  11
                  11
                  12
                  12
                  12
                  12
                  12
                  11
                  12
                  11
                  11
                  11
                  11
                  11
                  11
                  11
                  11
                  11
                  11
                  12
                  11
                  12
                  12
                  12
                  12
                  12
                  12
                  12
                  12
                  12
                  12
                  12
                  12
                  12
                  11
                  11
                  11
                  11
                  11
                  11
                  11
                  11
                  11
                  11
                  11
                  11
                  11
                  11
                  11
                  11
                  11
                  11
                  11
                  11
                  11
                  11
                  11
                  11
                  12
                  12
                  12
                  12
                  12
                  12
                  12
                  12
                  12
                  12
                  12
                  12
                  12
                  12
                  12
                  12
                  12
                  12
                  12
                  12
                  11
                  11
                  11
                  11
                  11
                  11
                  11
                  11
                  11
                  11
                  11
                  11
                  11
                  11
                  11
                  11
                  11
                  11
                  11
                  11
                  11
                  11
                  11
                  11
                  11
                  11
                  11
                  11
                  11
                  12
                  11
                  11
                  11
                  11
                  12
                  12
                  11
                  12
                  12
                  12
                  12
                  12
                  12
                  11
                  11
                  11
                  11
                  11
                  11
                  11
                  11
                  11
                  11
                  11
                  12
                  12
                  12
                  11
                  11
                  11
                  11
                  11
                  11
                  12
                  12
                  12
                  12
                  12
                  12
                  12
                  11
                  11
                  11
                  11
                  11
                  11
                  11
                  11
                  11
                  11
                  11
                  11
                  12
                  12
                  12
                  12
                  12
                  12
                  12
                  12
                  12
                  12
                  11
                  11
                  11
                  11
                  11
                  11
                  11
                  11
                  11
                  11
                  11
                  11
                  11
                  11
                  11
                  12
                  11
                  11
                  11
                  11
                  12
                  12
                  11
                  12
                  12
                  12
                  12
                  12
                  12
                  11
                  11
                  11
                  11
                  11
                  11
                  11
                  11
                  11
                  11
                  11
                  12
                  12
                  12
                  11
                  11
                  11
                  11
                  11
                  11
                  12
                  12
                  12
                  12
                  12
                  12
                  12
                  11
                  11
                  11
                  11
                  11
                  11
                  11
                  11
                  11
                  11
                  11
                  11
                  12
                  12
                  12
                  12
                  12
                  12
                  12
                  12
                  12
                  12
                  11
                  11
                  11
                  11
                  11
                  11
                  11
                  11
                  11
                  11
                  11
                  11
                  11
                  11
                  11
                  12
                  11
                  11
                  11
                  11
                  12
                  12
                  11
                  12
                  12
                  12
                  12
                  12
                  12
                  11
                  11
                  11
                  11
                  11
                  11
                  11
                  11
                  11
                  11
                  11
                  12
                  12
                  12
                  11
                  11
                  11
                  11
                  11
                  11
                  12
                  12
                  12
                  12
                  12
                  12
                  12
                  11
                  11
                  11
                  11
                  11
                  11
                  11
                  11
                  11
                  11
                  11
                  11
                  12
                  12
                  12
                  12
                  12
                  12
                  12
                  12
                  12
                  12
                  11
                  11
                  11
                  11
                  11
                  11
                  11
                  11
                  11
                  11
                  11
                  11
                  11
                  11
                  11
                  12
                  11
                  11
                  11
                  11
                  12
                  12
                  11
                  12
                  12
                  12
                  12
                  12
                  12
                  11
                  11
                  11
                  11
                  11
                  11
                  11
                  11
                  11
                  11
                  11
                  12
                  12
                  12
                  11
                  11
                  11
                  11
                  11
                  11
                  12
                  12
                  12
                  12
                  12
                  12
                  12
                  11
                  11
                  11
                  11
                  11
                  11
                  11
                  11
                  11
                  11
                  11
                  11
                  12
                  12
                  12
                  12
                  12
                  12
                  12
                  12
                  12
                  12
                  11
                  11
                  11
                  11
                  11
                  11
                  11
                  11
                  11
                  11
                  11
                  11
                  11
                  11
                  11
                  12
                  11
                  11
                  11
                  11
                  12
                  12
                  11
                  12
                  12
                  12
                  12
                  12
                  12
                  11
                  11
                  11
                  11
                  11
                  11
                  11
                  11
                  11
                  11
                  11
                  12
                  12
                  12
                  11
                  11
                  11
                  11
                  11
                  11
                  12
                  12
                  12
                  12
                  12
                  12
                  12
                  11
                  11
                  11
                  11
                  11
                  11
                  11
                  11
                  11
                  11
                  11
                  11
                  12
                  12
                  12
                  12
                  12
                  12
                  12
                  12
                  12
                  12
                  11
                  11
                  11
                  11
                  11
                  11
                  11
                  11
                  11
                  11
                  11
                  11
                  11
                  11
                  11
                  12
                  11
                  11
                  11
                  11
                  12
                  12
                  11
                  12
                  12
                  12
                  12
                  12
                  12
                  11
                  11
                  11
                  11
                  11
                  11
                  11
                  11
                  11
                  11
                  11
                  12
                  12
                  12
                  11
                  11
                  11
                  11
                  11
                  11
                  12
                  12
                  12
                  12
                  12
                  12
                  12
                  11
                  11
                  11
                  11
                  11
                  11
                  11
                  11
                  11
                  11
                  11
                  11
                  12
                  12
                  12
                  12
                  12
                  12
                  12
                  12
                  12
                  12
                  11
                  11
                  11
                  11
                  11
                  11
                  11
                  11
                  11
                  11
                  11
                  11
                  11
                  11
                  11
                  12
                  11
                  11
                  11
                  11
                  12
                  12
                  11
                  12
                  12
                  12
                  12
                  12
                  12
                  11
                  11
                  11
                  11
                  11
                  11
                  11
                  11
                  11
                  11
                  11
                  12
                  12
                  12
                  11
                  11
                  11
                  11
                  11
                  11
                  12
                  12
                  12
                  12
                  12
                  12
                  12
                  11
                  11
                  11
                  11
                  11
                  11
                  11
                  11
                  11
                  11
                  11
                  11
                  12
                  12
                  12
                  12
                  12
                  12
                  12
                  12
                  12
                  12
                  11
                  11
                  11
                  11
                  11
                  11
                  11
                  11
                  11
                  11
                  11
                  11
                  11
                  11
                  11
                  12
                  11
                  11
                  11
                  11
                  12
                  12
                  11
                  12
                  12
                  12
                  12
                  12
                  12
                  11
                  11
                  11
                  11
                  11
                  11
                  11
                  11
                  11
                  11
                  11
                  12
                  12
                  12
                  11
                  11
                  11
                  11
                  11
                  11
                  12
                  12
                  12
                  12
                  12
                  12
                  12
                  11
                  11
                  11
                  11
                  11
                  11
                  11
                  11
                  11
                  11
                  11
                  11
                  12
                  12
                  12
                  12
                  12
                  12
                  12
                  12
                  12
                  12
                  11
                  11
                  11
                  11
                  11
                  11
                  11
                  11
                  11
                  11
                  11
                  11
                  11
                  11
                  11
                  12
                  11
                  11
                  11
                  11
                  12
                  12
                  11
                  12
                  12
                  12
                  12
                  12
                  12
                  11
                  11
                  11
                  11
                  11
                  11
                  11
                  11
                  11
                  11
                  11
                  12
                  12
                  12
                  11
                  11
                  11
                  11
                  11
                  11
                  12
                  12
                  12
                  12
                  12
                  12
                  12
                  11
                  11
                  11
                  11
                  11
                  11
                  11
                  11
                  11
                  11
                  11
                  11
                  12
                  12
                  12
                  12
                  12
                  12
                  12
                  12
                  12
                  12
                  11
                  11
                  11
                  11
                  11
                  11
                  11
                  11
                  11
                  11
                  11
                  11
                  11
                  11
                  11
                  12
                  11
                  11
                  11
                  11
                  12
                  12
                  11
                  12
                  12
                  12
                  12
                  12
                  12
                  11
                  11
                  11
                  11
                  11
                  11
                  11
                  11
                  11
                  11
                  11
                  12
                  12
                  12
                  11
                  11
                  11
                  11
                  11
                  11
                  12
                  12
                  12
                  12
                  12
                  12
                  12
                  11
                  11
                  11
                  11
                  11
                  11
                  11
                  11
                  11
                  11
                  11
                  11
                  12
                  12
                  12
                  12
                  12
                  12
                  12
                  12
                  12
                  12
                  11
                  11
                  11
                  11
                  11
                  11
                  11
                  11
                  11
                  11
                  11
                  11
                  11
                  11
                  11
                  12
                  11
                  11
                  11
                  11
                  12
                  12
                  11
                  12
                  12
                  12
                  12
                  12
                  12
                  11
                  11
                  11
                  11
                  11
                  11
                  11
                  11
                  11
                  11
                  11
                  12
                  12
                  12
                  11
                  11
                  11
                  11
                  11
                  11
                  12
                  12
                  12
                  12
                  12
                  12
                  12
                  11
                  11
                  11
                  11
                  11
                  11
                  11
                  11
                  11
                  11
                  11
                  11
                  12
                  12
                  12
                  12
                  12
                  12
                  12
                  12
                  12
                  12
                  11
                  11
                  11
                  11
                  11
                  11
                  11
                  11
                  11
                  11
                  11
                  11
                  11
                  11
                  11
                  12
                  11
                  11
                  11
                  11
                  12
                  12
                  11
                  12
                  12
                  12
                  12
                  12
                  12
                  11
                  11
                  11
                  11
                  11
                  11
                  11
                  11
                  11
                  11
                  11
                  12
                  12
                  12
                  11
                  11
                  11
                  11
                  11
                  11
                  12
                  12
                  12
                  12
                  12
                  12
                  12
                  11
                  11
                  11
                  11
                  11
                  11
                  11
                  11
                  11
                  11
                  11
                  11
                  12
                  12
                  12
                  12
                  12
                  12
                  12
                  12
                  12
                  12
                  11
                  11
                  11
                  11
                  11
                  11
                  11
                  11
                  11
                  11
                  11
                  11
                  11
                  11
                  11
                  12
                  11
                  11
                  11
                  11
                  12
                  12
                  11
                  12
                  12
                  12
                  12
                  12
                  12
                  11
                  11
                  11
                  11
                  11
                  11
                  11
                  11
                  11
                  11
                  11
                  12
                  12
                  12
                  11
                  11
                  11
                  11
                  11
                  11
                  12
                  12
                  12
                  12
                  12
                  12
                  12
                  11
                  11
                  11
                  11
                  11
                  11
                  11
                  11
                  11
                  11
                  11
                  11
                  12
                  12
                  12
                  12
                  12
                  12
                  12
                  12
                  12
                  12
                  11
                  11
                  11
                  11
                  11
                  11
                  11
                  11
                  11
                  11
                  11
                  11
                  11
                  11
                  11
                  12
                  11
                  11
                  11
                  11
                  12
                  12
                  11
                  12
                  12
                  12
                  12
                  12
                  12
                  11
                  11
                  11
                  11
                  11
                  11
                  11
                  11
                  11
                  11
                  11
                  12
                  12
                  12
                  11
                  11
                  11
                  11
                  11
                  11
                  12
                  12
                  12
                  12
                  12
                  12
                  12
                  11
                  11
                  11
                  11
                  11
                  11
                  11
                  11
                  11
                  11
                  11
                  11
                  12
                  12
                  12
                  12
                  12
                  12
                  12
                  12
                  12
                  12
                  11
                  11
                  11
                  11
                  11
                  11
                  11
                  11
                  11
                  11
                  11
                  11
                  11
                  11
                  11
                  12
                  11
                  11
                  11
                  11
                  12
                  12
                  11
                  12
                  12
                  12
                  12
                  12
                  12
                  11
                  11
                  11
                  11
                  11
                  11
                  11
                  11
                  11
                  11
                  11
                  12
                  12
                  12
                  11
                  11
                  11
                  11
                  11
                  11
                  12
                  12
                  12
                  12
                  12
                  12
                  12
                  11
                  11
                  11
                  11
                  11
                  11
                  11
                  11
                  11
                  11
                  11
                  11
                  12
                  12
                  12
                  12
                  12
                  12
                  12
                  12
                  12
                  12
                  11
                  11
                  11
                  11
                  11
                  11
                  11
                  11
                  11
                  11
                  11
                  11
                  11
                  11
                  11
                  12
                  11
                  11
                  11
                  11
                  12
                  12
                  11
                  12
                  12
                  12
                  12
                  12
                  12
                  11
                  11
                  11
                  11
                  11
                  11
                  11
                  11
                  11
                  11
                  11
                  12
                  12
                  12
                  11
                  11
                  11
                  11
                  11
                  11
                  12
                  12
                  12
                  12
                  12
                  12
                  12
                  11
                  11
                  11
                  11
                  11
                  11
                  11
                  11
                  11
                  11
                  11
                  11
                  12
                  12
                  12
                  12
                  12
                  12
                  12
                  12
                  12
                  12
                  11
                  11
                  11
                  11
                  11
                  11
                  11
                  11
                  11
                  11
                  11
                  11
                  11
                  11
                  11
                  12
                  11
                  11
                  11
                  11
                  12
                  12
                  11
                  12
                  12
                  12
                  12
                  12
                  12
                  11
                  11
                  11
                  11
                  11
                  11
                  11
                  11
                  11
                  11
                  11
                  12
                  12
                  12
                  11
                  11
                  11
                  11
                  11
                  11
                  12
                  12
                  12
                  12
                  12
                  12
                  12
                  11
                  11
                  11
                  11
                  11
                  11
                  11
                  11
                  11
                  11
                  11
                  11
                  12
                  12
                  12
                  12
                  12
                  12
                  12
                  12
                  12
                  12
                  11
                  11
                  11
                  11
                  11
                  11
                  11
                  11
                  11
                  11
                  11
                  11
                  11
                  11
                  11
                  12
                  11
                  11
                  11
                  11
                  12
                  12
                  11
                  12
                  12
                  12
                  12
                  12
                  12
                  11
                  11
                  11
                  11
                  11
                  11
                  11
                  11
                  11
                  11
                  11
                  12
                  12
                  12
                  11
                  11
                  11
                  11
                  11
                  11
                  12
                  12
                  12
                  12
                  12
                  12
                  12
                  11
                  11
                  11
                  11
                  11
                  11
                  11
                  11
                  11
                  11
                  11
                  11
                  12
                  12
                  12
                  12
                  12
                  12
                  12
                  12
                  12
                  12
                  11
                  11
                  11
                  11
                  11
                  11
                  11
                  11
                  11
                  11
                  11
                  11
                  11
                  11
                  11
                  12
                  11
                  11
                  11
                  11
                  12
                  12
                  11
                  12
                  12
                  12
                  12
                  12
                  12
                  11
                  11
                  11
                  11
                  11
                  11
                  11
                  11
                  11
                  11
                  11
                  12
                  12
                  12
                  11
                  11
                  11
                  11
                  11
                  11
                  12
                  12
                  12
                  12
                  12
                  12
                  12
                  11
                  11
                  11
                  11
                  11
                  11
                  11
                  11
                  11
                  11
                  11
                  11
                  12
                  12
                  12
                  12
                  12
                  12
                  12
                  12
                  12
                  12
                  11
                  11
                  11
                  11
                  11
                  11
                  11
                  11
                  11
                  11
                  11
                  11
                  11
                  11
                  11
                  12
                  11
                  11
                  11
                  11
                  12
                  12
                  11
                  12
                  12
                  12
                  12
                  12
                  12
                  11
                  11
                  11
                  11
                  11
                  11
                  11
                  11
                  11
                  11
                  11
                  12
                  12
                  12
                  11
                  11
                  11
                  11
                  11
                  11
                  12
                  12
                  12
                  12
                  12
                  12
                  12
                  11
                  11
                  11
                  11
                  11
                  11
                  11
                  11
                  11
                  11
                  11
                  11
                  12
                  12
                  12
                  12
                  12
                  12
                  12
                  12
                  12
                  12
                  11
                  11
                  11
                  11
                  11
                  11
                  11
                  11
                  11
                  11
                  11
                  11
                  11
                  11
                  11
                  12
                  11
                  11
                  11
                  11
                  12
                  12
                  11
                  12
                  12
                  12
                  12
                  12
                  12
                  11
                  11
                  11
                  11
                  11
                  11
                  11
                  11
                  11
                  11
                  11
                  12
                  12
                  12
                  11
                  11
                  11
                  11
                  11
                  11
                  12
                  12
                  12
                  12
                  12
                  12
                  12
                  11
                  11
                  11
                  11
                  11
                  11
                  11
                  11
                  11
                  11
                  11
                  11
                  12
                  12
                  12
                  12
                  12
                  12
                  12
                  12
                  12
                  12
                  11
                  11
                  11
                  11
                  11
                  11
                  11
                  11
                  11
                  11
                  11
                  11
                  11
                  11
                  11
                  12
                  11
                  11
                  11
                  11
                  12
                  12
                  11
                  12
                  12
                  12
                  12
                  12
                  12
                  11
                  11
                  11
                  11
                  11
                  11
                  11
                  11
                  11
                  11
                  11
                  12
                  12
                  12
                  11
                  11
                  11
                  11
                  11
                  11
                  12
                  12
                  12
                  12
                  12
                  12
                  12
                  11
                  11
                  11
                  11
                  11
                  11
                  11
                  11
                  11
                  11
                  11
                  11
                  12
                  12
                  12
                  12
                  12
                  12
                  12
                  12
                  12
                  12
                  11
                  11
                  11
                  11
                  11
                  11
                  11
                  11
                  11
                  11
                  11
                  11
                  11
                  11
                  11
                  12
                  11
                  11
                  11
                  11
                  12
                  12
                  11
                  12
                  12
                  12
                  12
                  12
                  12
                  11
                  11
                  11
                  11
                  11
                  11
                  11
                  11
                  11
                  11
                  11
                  12
                  12
                  12
                  11
                  11
                  11
                  11
                  11
                  11
                  12
                  12
                  12
                  12
                  12
                  12
                  12
                  11
                  11
                  11
                  11
                  11
                  11
                  11
                  11
                  11
                  11
                  11
                  11
                  12
                  12
                  12
                  12
                  12
                  12
                  12
                  12
                  12
                  12
                  11
                  11
                  11
                  11
                  11
                  11
                  11
                  11
                  11
                  11
                  11
                  11
                  11
                  11
  
SCALARS                         Kspace  double 1
LOOKUP_TABLE default
                  11
                  11
                  11
                  11
                  11
                  11
                  11
                  11
                  11
                  11
                  11
                  11
                  11
                  11
                  11
                  11
                  11
                  11
                  11
                  11
                  11
                  11
                  11
                  11
                  11
                  11
                  11
                  11
                  11
                  11
                  11
                  11
                  11
                  11
                  11
                  11
                  11
                  11
                  11
                  11
                  11
                  11
                  11
                  11
                  11
                  11
                  11
                  11
                  11
                  11
                  11
                  11
                  11
                  11
                  11
                  11
                  11
                  11
                  11
                  11
                  11
                  11
                  11
                  11
                  11
                  11
                  11
                  11
                  11
                  11
                  11
                  11
                  11
                  11
                  11
                  11
                  11
                  11
                  11
                  11
                  11
                  11
                  11
                  11
                  11
                  11
                  11
                  11
                  11
                  11
                  11
                  11
                  11
                  11
                  11
                  11
                  11
                  11
                  11
                  11
                  11
                  11
                  11
                  11
                  11
                  11
                  11
                  11
                  11
                  11
                  11
                  11
                  11
                  11
                  11
                  11
                  11
                  11
                  11
                  11
                  11
                  11
                  11
                  11
                  11
                  11
                  11
                  11
                  11
                  11
                  11
                  11
                  11
                  11
                  11
                  11
                  11
                  11
                  11
                  11
                  11
                  11
                  11
                  11
                  11
                  11
                  11
                  11
                  11
                  11
                  11
                  11
                  11
                  11
                  11
                  11
                  11
                  11
                  11
                  11
                  11
                  11
                  11
                  11
                  11
                  11
                  11
                  11
                  11
                  11
                  11
                  11
                  11
                  11
                  11
                  11
                  11
                  11
                  11
                  11
                  11
                  11
                  11
                  11
                  11
                  11
                  11
                  11
                  11
                  11
                  11
                  11
                  11
                  11
                  11
                  11
                  11
                  11
                  11
                  11
                  11
                  11
                  11
                  11
                  11
                  11
                  11
                  11
                  11
                  11
                  11
                  11
                  11
                  11
                  11
                  11
                  11
                  11
                  11
                  11
                  11
                  11
                  11
                  11
                  11
                  11
                  11
                  11
                  11
                  11
                  11
                  11
                  11
                  11
                  11
                  11
                  11
                  11
                  11
                  11
                  11
                  11
                  11
                  11
                  11
                  11
                  11
                  11
                  11
                  11
                  11
                  11
                  11
                  11
                  11
                  11
                  11
                  11
                  11
                  11
                  11
                  11
                  11
                  11
                  11
                  11
                  11
                  11
                  11
                  11
                  11
                  11
                  11
                  11
                  11
                  11
                  11
                  11
                  11
                  11
                  11
                  11
                  11
                  11
                  11
                  11
                  11
                  11
                  11
                  11
                  11
                  11
                  11
                  11
                  11
                  11
                  11
                  11
                  11
                  11
                  11
                  11
                  11
                  11
                  11
                  11
                  11
                  11
                  11
                  11
                  11
                  11
                  12
                  12
                  12
                  12
                  12
                  12
                  12
                  12
                  12
                  12
                  12
                  12
                  12
                  12
                  12
                  12
                  12
                  12
                  12
                  12
                  12
                  12
                  12
                  12
                  12
                  12
                  12
                  12
                  12
                  12
                  12
                  12
                  12
                  12
                  12
                  12
                  12
                  12
                  12
                  12
                  12
                  12
                  12
                  12
                  12
                  12
                  12
                  12
                  12
                  12
                  12
                  12
                  12
                  12
                  12
                  12
                  12
                  12
                  12
                  12
                  12
                  12
                  12
                  12
                  12
                  12
                  12
                  12
                  12
                  12
                  12
                  12
                  12
                  12
                  12
                  12
                  12
                  12
                  12
                  12
                  12
                  12
                  12
                  12
                  12
                  12
                  12
                  12
                  12
                  12
                  12
                  12
                  12
                  12
                  12
                  12
                  12
                  12
                  12
                  12
                  12
                  12
                  12
                  12
                  12
                  12
                  12
                  12
                  12
                  12
                  12
                  12
                  12
                  12
                  12
                  12
                  12
                  12
                  12
                  12
                  12
                  12
                  12
                  12
                  12
                  12
                  12
                  12
                  12
                  12
                  12
                  12
                  12
                  12
                  12
                  12
                  12
                  12
                  12
                  12
                  12
                  12
                  12
                  12
                  12
                  12
                  12
                  12
                  12
                  12
                  12
                  12
                  12
                  12
                  12
                  12
                  12
                  12
                  12
                  12
                  12
                  12
                  12
                  12
                  12
                  12
                  12
                  12
                  12
                  12
                  12
                  12
                  12
                  12
                  12
                  12
                  12
                  12
                  12
                  12
                  12
                  12
                  12
                  12
                  12
                  12
                  12
                  12
                  12
                  12
                  12
                  12
                  12
                  12
                  12
                  12
                  12
                  12
                  12
                  12
                  12
                  12
                  12
                  12
                  12
                  12
                  12
                  12
                  12
                  12
                  12
                  12
                  12
                  12
                  12
                  12
                  12
                  12
                  12
                  12
                  12
                  12
                  12
                  12
                  12
                  12
                  12
                  12
                  12
                  12
                  12
                  12
                  12
                  12
                  13
                  13
                  13
                  13
                  13
                  13
                  13
                  13
                  13
                  13
                  13
                  13
                  13
                  13
                  13
                  13
                  13
                  13
                  13
                  13
                  13
                  13
                  13
                  13
                  13
                  13
                  13
                  13
                  13
                  13
                  13
                  13
                  13
                  13
                  13
                  13
                  13
                  13
                  13
                  13
                  13
                  13
                  13
                  13
                  13
                  13
                  13
                  13
                  13
                  13
                  13
                  13
                  13
                  13
                  13
                  13
                  13
                  13
                  13
                  13
                  13
                  13
                  13
                  13
                  13
                  13
                  13
                  13
                  13
                  13
                  13
                  13
                  13
                  13
                  13
                  13
                  13
                  13
                  13
                  13
                  13
                  13
                  13
                  13
                  13
                  13
                  13
                  13
                  13
                  13
                  13
                  13
                  13
                  13
                  13
                  13
                  13
                  13
                  13
                  13
                  13
                  13
                  13
                  13
                  13
                  13
                  13
                  13
                  13
                  13
                  13
                  13
                  13
                  13
                  13
                  13
                  13
                  13
                  13
                  13
                  13
                  13
                  13
                  13
                  13
                  13
                  13
                  13
                  13
                  13
                  13
                  13
                  13
                  13
                  13
                  13
                  13
                  13
                  13
                  13
                  13
                  13
                  13
                  13
                  13
                  13
                  13
                  13
                  13
                  13
                  13
                  13
                  13
                  13
                  13
                  13
                  13
                  13
                  13
                  13
                  13
                  13
                  13
                  13
                  13
                  13
                  13
                  13
                  13
                  13
                  13
                  13
                  13
                  13
                  13
                  13
                  13
                  13
                  13
                  13
                  13
                  13
                  13
                  13
                  13
                  13
                  13
                  13
                  13
                  13
                  13
                  13
                  13
                  13
                  13
                  13
                  13
                  13
                  13
                  13
                  13
                  13
                  13
                  13
                  13
                  13
                  13
                  13
                  13
                  13
                  13
                  13
                  13
                  13
                  13
                  13
                  13
                  13
                  13
                  13
                  13
                  13
                  13
                  13
                  13
                  13
                  13
                  13
                  13
                  13
                  13
                  13
                  13
                  13
                  14
                  14
                  14
                  14
                  14
                  14
                  14
                  14
                  14
                  14
                  14
                  14
                  14
                  14
                  14
                  14
                  14
                  14
                  14
                  14
                  14
                  14
                  14
                  14
                  14
                  14
                  14
                  14
                  14
                  14
                  14
                  14
                  14
                  14
                  14
                  14
                  14
                  14
                  14
                  14
                  14
                  14
                  14
                  14
                  14
                  14
                  14
                  14
                  14
                  14
                  14
                  14
                  14
                  14
                  14
                  14
                  14
                  14
                  14
                  14
                  14
                  14
                  14
                  14
                  14
                  14
                  14
                  14
                  14
                  14
                  14
                  14
                  14
                  14
                  14
                  14
                  14
                  14
                  14
                  14
                  14
                  14
                  14
                  14
                  14
                  14
                  14
                  14
                  14
                  14
                  14
                  14
                  14
                  14
                  14
                  14
                  14
                  14
                  14
                  14
                  14
                  14
                  14
                  14
                  14
                  14
                  14
                  14
                  14
                  14
                  14
                  14
                  14
                  14
                  14
                  14
                  14
                  14
                  14
                  14
                  14
                  14
                  14
                  14
                  14
                  14
                  14
                  14
                  14
                  14
                  14
                  14
                  14
                  14
                  14
                  14
                  14
                  14
                  14
                  14
                  14
                  14
                  14
                  14
                  14
                  14
                  14
                  14
                  14
                  14
                  14
                  14
                  14
                  14
                  14
                  14
                  14
                  14
                  14
                  14
                  14
                  14
                  14
                  14
                  14
                  14
                  14
                  14
                  14
                  14
                  14
                  14
                  14
                  14
                  14
                  14
                  14
                  14
                  14
                  14
                  14
                  14
                  14
                  14
                  14
                  14
                  14
                  14
                  14
                  14
                  14
                  14
                  14
                  14
                  14
                  14
                  14
                  14
                  14
                  14
                  14
                  14
                  14
                  14
                  14
                  14
                  14
                  14
                  14
                  14
                  14
                  14
                  14
                  14
                  14
                  14
                  14
                  14
                  14
                  14
                  14
                  14
                  14
                  14
                  14
                  14
                  14
                  14
                  14
                  14
                  14
                  14
                  14
                  14
                  15
                  15
                  15
                  15
                  15
                  15
                  15
                  15
                  15
                  15
                  15
                  15
                  15
                  15
                  15
                  15
                  15
                  15
                  15
                  15
                  15
                  15
                  15
                  15
                  15
                  15
                  15
                  15
                  15
                  15
                  15
                  15
                  15
                  15
                  15
                  15
                  15
                  15
                  15
                  15
                  15
                  15
                  15
                  15
                  15
                  15
                  15
                  15
                  15
                  15
                  15
                  15
                  15
                  15
                  15
                  15
                  15
                  15
                  15
                  15
                  15
                  15
                  15
                  15
                  15
                  15
                  15
                  15
                  15
                  15
                  15
                  15
                  15
                  15
                  15
                  15
                  15
                  15
                  15
                  15
                  15
                  15
                  15
                  15
                  15
                  15
                  15
                  15
                  15
                  15
                  15
                  15
                  15
                  15
                  15
                  15
                  15
                  15
                  15
                  15
                  15
                  15
                  15
                  15
                  15
                  15
                  15
                  15
                  15
                  15
                  15
                  15
                  15
                  15
                  15
                  15
                  15
                  15
                  15
                  15
                  15
                  15
                  15
                  15
                  15
                  15
                  15
                  15
                  15
                  15
                  15
                  15
                  15
                  15
                  15
                  15
                  15
                  15
                  15
                  15
                  15
                  15
                  15
                  15
                  15
                  15
                  15
                  15
                  15
                  15
                  15
                  15
                  15
                  15
                  15
                  15
                  15
                  15
                  15
                  15
                  15
                  15
                  15
                  15
                  15
                  15
                  15
                  15
                  15
                  15
                  15
                  15
                  15
                  15
                  15
                  15
                  15
                  15
                  15
                  15
                  15
                  15
                  15
                  15
                  15
                  15
                  15
                  15
                  15
                  15
                  15
                  15
                  15
                  15
                  15
                  15
                  15
                  15
                  15
                  15
                  15
                  15
                  15
                  15
                  15
                  15
                  15
                  15
                  15
                  15
                  15
                  15
                  15
                  15
                  15
                  15
                  15
                  15
                  15
                  15
                  15
                  15
                  15
                  15
                  15
                  15
                  15
                  15
                  15
                  15
                  15
                  15
                  15
                  15
                  15
                  15
                  15
                  15
                  15
                  15
                  15
                  15
                  15
                  15
                  15
                  15
                  15
                  15
                  15
                  15
                  15
                  15
                  15
                  15
                  15
                  15
                  15
                  15
                  15
                  15
                  15
                  15
                  15
                  15
                  15
                  15
                  15
                  15
                  15
                  15
                  15
                  15
                  15
                  15
                  15
                  15
                  15
                  15
                  15
                  15
                  15
                  15
                  15
                  15
                  15
                  15
                  15
                  15
                  15
                  15
                  15
                  15
                  15
                  15
                  15
                  15
                  15
                  15
                  15
                  15
                  15
                  15
                  15
                  15
                  15
                  15
                  15
                  15
                  15
                  15
                  15
                  15
                  16
                  16
                  16
                  16
                  16
                  16
                  16
                  16
                  16
                  16
                  16
                  16
                  16
                  16
                  16
                  16
                  16
                  16
                  16
                  16
                  16
                  16
                  16
                  16
                  16
                  16
                  16
                  16
                  16
                  16
                  16
                  16
                  16
                  16
                  16
                  16
                  16
                  16
                  16
                  16
                  16
                  16
                  16
                  16
                  16
                  16
                  16
                  16
                  16
                  16
                  16
                  16
                  16
                  16
                  16
                  16
                  16
                  16
                  16
                  16
                  16
                  16
                  16
                  16
                  16
                  16
                  16
                  16
                  16
                  16
                  16
                  16
                  16
                  16
                  16
                  16
                  16
                  16
                  16
                  16
                  16
                  16
                  16
                  16
                  16
                  16
                  16
                  16
                  16
                  16
                  16
                  16
                  16
                  16
                  16
                  16
                  16
                  16
                  16
                  16
                  16
                  16
                  16
                  16
                  16
                  16
                  16
                  16
                  16
                  16
                  16
                  16
                  16
                  16
                  16
                  16
                  16
                  16
                  16
                  16
                  16
                  16
                  16
                  16
                  16
                  16
                  16
                  16
                  16
                  16
                  16
                  16
                  16
                  16
                  16
                  16
                  16
                  16
                  16
                  16
                  16
                  16
                  16
                  16
                  16
                  16
                  16
                  16
                  16
                  16
                  16
                  16
                  16
                  16
                  16
                  16
                  16
                  16
                  16
                  16
                  16
                  16
                  16
                  16
                  16
                  16
                  16
                  16
                  16
                  16
                  16
                  16
                  16
                  16
                  16
                  16
                  16
                  16
                  16
                  16
                  16
                  16
                  16
                  16
                  16
                  16
                  16
                  16
                  16
                  16
                  16
                  16
                  16
                  16
                  16
                  16
                  16
                  16
                  16
                  16
                  16
                  16
                  16
                  16
                  16
                  16
                  16
                  16
                  16
                  16
                  16
                  16
                  16
                  16
                  16
                  16
                  16
                  16
                  16
                  16
                  16
                  16
                  16
                  16
                  16
                  16
                  16
                  16
                  16
                  16
                  16
                  16
                  16
                  16
                  17
                  17
                  17
                  17
                  17
                  17
                  17
                  17
                  17
                  17
                  17
                  17
                  17
                  17
                  17
                  17
                  17
                  17
                  17
                  17
                  17
                  17
                  17
                  17
                  17
                  17
                  17
                  17
                  17
                  17
                  17
                  17
                  17
                  17
                  17
                  17
                  17
                  17
                  17
                  17
                  17
                  17
                  17
                  17
                  17
                  17
                  17
                  17
                  17
                  17
                  17
                  17
                  17
                  17
                  17
                  17
                  17
                  17
                  17
                  17
                  17
                  17
                  17
                  17
                  17
                  17
                  17
                  17
                  17
                  17
                  17
                  17
                  17
                  17
                  17
                  17
                  17
                  17
                  17
                  17
                  17
                  17
                  17
                  17
                  17
                  17
                  17
                  17
                  17
                  17
                  17
                  17
                  17
                  17
                  17
                  17
                  17
                  17
                  17
                  17
                  17
                  17
                  17
                  17
                  17
                  17
                  17
                  17
                  17
                  17
                  17
                  17
                  17
                  17
                  17
                  17
                  17
                  17
                  17
                  17
                  17
                  17
                  17
                  17
                  17
                  17
                  17
                  17
                  17
                  17
                  17
                  17
                  17
                  17
                  17
                  17
                  17
                  17
                  17
                  17
                  17
                  17
                  17
                  17
                  17
                  17
                  17
                  17
                  17
                  17
                  17
                  17
                  17
                  17
                  17
                  17
                  17
                  17
                  17
                  17
                  17
                  17
                  17
                  17
                  17
                  17
                  17
                  17
                  17
                  17
                  17
                  17
                  17
                  17
                  17
                  17
                  17
                  17
                  17
                  17
                  17
                  17
                  17
                  17
                  17
                  17
                  17
                  17
                  17
                  17
                  17
                  17
                  17
                  17
                  17
                  17
                  17
                  17
                  17
                  17
                  17
                  17
                  17
                  17
                  17
                  17
                  17
                  17
                  17
                  17
                  17
                  17
                  17
                  17
                  17
                  17
                  17
                  17
                  17
                  17
                  17
                  17
                  17
                  17
                  17
                  17
                  17
                  17
                  17
                  17
                  17
                  17
                  17
                  17
                  18
                  18
                  18
                  18
                  18
                  18
                  18
                  18
                  18
                  18
                  18
                  18
                  18
                  18
                  18
                  18
                  18
                  18
                  18
                  18
                  18
                  18
                  18
                  18
                  18
                  18
                  18
                  18
                  18
                  18
                  18
                  18
                  18
                  18
                  18
                  18
                  18
                  18
                  18
                  18
                  18
                  18
                  18
                  18
                  18
                  18
                  18
                  18
                  18
                  18
                  18
                  18
                  18
                  18
                  18
                  18
                  18
                  18
                  18
                  18
                  18
                  18
                  18
                  18
                  18
                  18
                  18
                  18
                  18
                  18
                  18
                  18
                  18
                  18
                  18
                  18
                  18
                  18
                  18
                  18
                  18
                  18
                  18
                  18
                  18
                  18
                  18
                  18
                  18
                  18
                  18
                  18
                  18
                  18
                  18
                  18
                  18
                  18
                  18
                  18
                  18
                  18
                  18
                  18
                  18
                  18
                  18
                  18
                  18
                  18
                  18
                  18
                  18
                  18
                  18
                  18
                  18
                  18
                  18
                  18
                  18
                  18
                  18
                  18
                  18
                  18
                  18
                  18
                  18
                  18
                  18
                  18
                  18
                  18
                  18
                  18
                  18
                  18
                  18
                  18
                  18
                  18
                  18
                  18
                  18
                  18
                  18
                  18
                  18
                  18
                  18
                  18
                  18
                  18
                  18
                  18
  
SCALARS                 displacement_x  double 1
LOOKUP_TABLE default
         0.00000E+00
         0.00000E+00
         0.00000E+00
         0.00000E+00
         0.00000E+00
         0.00000E+00
         0.00000E+00
         0.00000E+00
         0.00000E+00
         0.00000E+00
         0.00000E+00
         0.00000E+00
         0.00000E+00
         0.00000E+00
         0.00000E+00
         0.00000E+00
         0.00000E+00
         0.00000E+00
         0.00000E+00
         0.00000E+00
         0.00000E+00
         0.00000E+00
         0.00000E+00
         0.00000E+00
         0.00000E+00
         0.00000E+00
         0.00000E+00
         0.00000E+00
         0.00000E+00
         0.00000E+00
         0.00000E+00
         0.00000E+00
         0.00000E+00
         0.00000E+00
         0.00000E+00
         0.00000E+00
         0.00000E+00
         0.00000E+00
         0.00000E+00
         0.00000E+00
         0.00000E+00
         0.00000E+00
         0.00000E+00
         0.00000E+00
         0.00000E+00
         0.00000E+00
         0.00000E+00
         0.00000E+00
         0.00000E+00
         0.00000E+00
         0.00000E+00
         0.00000E+00
         0.00000E+00
         0.00000E+00
         0.00000E+00
         0.00000E+00
         0.00000E+00
         0.00000E+00
         0.00000E+00
         0.00000E+00
         0.00000E+00
         0.00000E+00
         0.00000E+00
         0.00000E+00
         0.00000E+00
         0.00000E+00
         0.00000E+00
         0.00000E+00
         0.00000E+00
         0.00000E+00
         0.00000E+00
         0.00000E+00
         0.00000E+00
         0.00000E+00
         0.00000E+00
         0.00000E+00
         0.00000E+00
         0.00000E+00
         0.00000E+00
         0.00000E+00
         0.00000E+00
         0.00000E+00
         0.00000E+00
         0.00000E+00
         0.00000E+00
         0.00000E+00
         0.00000E+00
         0.00000E+00
         0.00000E+00
         0.00000E+00
         0.00000E+00
         0.00000E+00
         0.00000E+00
         0.00000E+00
         0.00000E+00
         0.00000E+00
         0.00000E+00
         0.00000E+00
         0.00000E+00
         0.00000E+00
         0.00000E+00
         0.00000E+00
         0.00000E+00
         0.00000E+00
         0.00000E+00
         0.00000E+00
         0.00000E+00
         0.00000E+00
         0.00000E+00
         0.00000E+00
         0.00000E+00
         0.00000E+00
         0.00000E+00
         0.00000E+00
         0.00000E+00
         0.00000E+00
         0.00000E+00
         0.00000E+00
         0.00000E+00
         0.00000E+00
         0.00000E+00
         0.00000E+00
         0.00000E+00
         0.00000E+00
         0.00000E+00
         0.00000E+00
         0.00000E+00
         0.00000E+00
         0.00000E+00
         0.00000E+00
         0.00000E+00
         0.00000E+00
         0.00000E+00
         0.00000E+00
         0.00000E+00
         0.00000E+00
         0.00000E+00
         0.00000E+00
         0.00000E+00
         0.00000E+00
         0.00000E+00
         0.00000E+00
         0.00000E+00
         0.00000E+00
         0.00000E+00
         0.00000E+00
         0.00000E+00
         0.00000E+00
         0.00000E+00
         0.00000E+00
         0.00000E+00
         0.00000E+00
         0.00000E+00
         0.00000E+00
         0.00000E+00
         0.00000E+00
         0.00000E+00
         0.00000E+00
         0.00000E+00
         0.00000E+00
         0.00000E+00
         0.00000E+00
         0.00000E+00
         0.00000E+00
         0.00000E+00
         0.00000E+00
         0.00000E+00
         0.00000E+00
         0.00000E+00
         0.00000E+00
         0.00000E+00
         0.00000E+00
         0.00000E+00
         0.00000E+00
         0.00000E+00
         0.00000E+00
         0.00000E+00
         0.00000E+00
         0.00000E+00
         0.00000E+00
         0.00000E+00
         0.00000E+00
         0.00000E+00
         0.00000E+00
         0.00000E+00
         0.00000E+00
         0.00000E+00
         0.00000E+00
         0.00000E+00
         0.00000E+00
         0.00000E+00
         0.00000E+00
         0.00000E+00
         0.00000E+00
         0.00000E+00
         0.00000E+00
         0.00000E+00
         0.00000E+00
         0.00000E+00
         0.00000E+00
         0.00000E+00
         0.00000E+00
         0.00000E+00
         0.00000E+00
         0.00000E+00
         0.00000E+00
         0.00000E+00
         0.00000E+00
         0.00000E+00
         0.00000E+00
         0.00000E+00
         0.00000E+00
         0.00000E+00
         0.00000E+00
         0.00000E+00
         0.00000E+00
         0.00000E+00
         0.00000E+00
         0.00000E+00
         0.00000E+00
         0.00000E+00
         0.00000E+00
         0.00000E+00
         0.00000E+00
         0.00000E+00
         0.00000E+00
         0.00000E+00
         0.00000E+00
         0.00000E+00
         0.00000E+00
         0.00000E+00
         0.00000E+00
         0.00000E+00
         0.00000E+00
         0.00000E+00
         0.00000E+00
         0.00000E+00
         0.00000E+00
         0.00000E+00
         0.00000E+00
         0.00000E+00
         0.00000E+00
         0.00000E+00
         0.00000E+00
         0.00000E+00
         0.00000E+00
         0.00000E+00
         0.00000E+00
         0.00000E+00
         0.00000E+00
         0.00000E+00
         0.00000E+00
         0.00000E+00
         0.00000E+00
         0.00000E+00
         0.00000E+00
         0.00000E+00
         0.00000E+00
         0.00000E+00
         0.00000E+00
         0.00000E+00
         0.00000E+00
         0.00000E+00
         0.00000E+00
         0.00000E+00
         0.00000E+00
         0.00000E+00
         0.00000E+00
         0.00000E+00
         0.00000E+00
         0.00000E+00
         0.00000E+00
         0.00000E+00
         0.00000E+00
         0.00000E+00
         0.00000E+00
         0.00000E+00
         0.00000E+00
         0.00000E+00
         0.00000E+00
         0.00000E+00
         0.00000E+00
         0.00000E+00
         0.00000E+00
         0.00000E+00
         0.00000E+00
         0.00000E+00
         0.00000E+00
         0.00000E+00
         0.00000E+00
         0.00000E+00
         0.00000E+00
         0.00000E+00
         0.00000E+00
         0.00000E+00
         0.00000E+00
         0.00000E+00
         0.00000E+00
         0.00000E+00
         0.00000E+00
         0.00000E+00
         0.00000E+00
         0.00000E+00
         0.00000E+00
         0.00000E+00
         0.00000E+00
         0.00000E+00
         0.00000E+00
         0.00000E+00
         0.00000E+00
         0.00000E+00
         0.00000E+00
         0.00000E+00
         0.00000E+00
         0.00000E+00
         0.00000E+00
         0.00000E+00
         0.00000E+00
         0.00000E+00
         0.00000E+00
         0.00000E+00
         0.00000E+00
         0.00000E+00
         0.00000E+00
         0.00000E+00
         0.00000E+00
         0.00000E+00
         0.00000E+00
         0.00000E+00
         0.00000E+00
         0.00000E+00
         0.00000E+00
         0.00000E+00
         0.00000E+00
         0.00000E+00
         0.00000E+00
         0.00000E+00
         0.00000E+00
         0.00000E+00
         0.00000E+00
         0.00000E+00
         0.00000E+00
         0.00000E+00
         0.00000E+00
         0.00000E+00
         0.00000E+00
         0.00000E+00
         0.00000E+00
         0.00000E+00
         0.00000E+00
         0.00000E+00
         0.00000E+00
         0.00000E+00
         0.00000E+00
         0.00000E+00
         0.00000E+00
         0.00000E+00
         0.00000E+00
         0.00000E+00
         0.00000E+00
         0.00000E+00
         0.00000E+00
         0.00000E+00
         0.00000E+00
         0.00000E+00
         0.00000E+00
         0.00000E+00
         0.00000E+00
         0.00000E+00
         0.00000E+00
         0.00000E+00
         0.00000E+00
         0.00000E+00
         0.00000E+00
         0.00000E+00
         0.00000E+00
         0.00000E+00
         0.00000E+00
         0.00000E+00
         0.00000E+00
         0.00000E+00
         0.00000E+00
         0.00000E+00
         0.00000E+00
         0.00000E+00
         0.00000E+00
         0.00000E+00
         0.00000E+00
         0.00000E+00
         0.00000E+00
         0.00000E+00
         0.00000E+00
         0.00000E+00
         0.00000E+00
         0.00000E+00
         0.00000E+00
         0.00000E+00
         0.00000E+00
         0.00000E+00
         0.00000E+00
         0.00000E+00
         0.00000E+00
         0.00000E+00
         0.00000E+00
         0.00000E+00
         0.00000E+00
         0.00000E+00
         0.00000E+00
         0.00000E+00
         0.00000E+00
         0.00000E+00
         0.00000E+00
         0.00000E+00
         0.00000E+00
         0.00000E+00
         0.00000E+00
         0.00000E+00
         0.00000E+00
         0.00000E+00
         0.00000E+00
         0.00000E+00
         0.00000E+00
         0.00000E+00
         0.00000E+00
         0.00000E+00
         0.00000E+00
         0.00000E+00
         0.00000E+00
         0.00000E+00
         0.00000E+00
         0.00000E+00
         0.00000E+00
         0.00000E+00
         0.00000E+00
         0.00000E+00
         0.00000E+00
         0.00000E+00
         0.00000E+00
         0.00000E+00
         0.00000E+00
         0.00000E+00
         0.00000E+00
         0.00000E+00
         0.00000E+00
         0.00000E+00
         0.00000E+00
         0.00000E+00
         0.00000E+00
         0.00000E+00
         0.00000E+00
         0.00000E+00
         0.00000E+00
         0.00000E+00
         0.00000E+00
         0.00000E+00
         0.00000E+00
         0.00000E+00
         0.00000E+00
         0.00000E+00
         0.00000E+00
         0.00000E+00
         0.00000E+00
         0.00000E+00
         0.00000E+00
         0.00000E+00
         0.00000E+00
         0.00000E+00
         0.00000E+00
         0.00000E+00
         0.00000E+00
         0.00000E+00
         0.00000E+00
         0.00000E+00
         0.00000E+00
         0.00000E+00
         0.00000E+00
         0.00000E+00
         0.00000E+00
         0.00000E+00
         0.00000E+00
         0.00000E+00
         0.00000E+00
         0.00000E+00
         0.00000E+00
         0.00000E+00
         0.00000E+00
         0.00000E+00
         0.00000E+00
         0.00000E+00
         0.00000E+00
         0.00000E+00
         0.00000E+00
         0.00000E+00
         0.00000E+00
         0.00000E+00
         0.00000E+00
         0.00000E+00
         0.00000E+00
         0.00000E+00
         0.00000E+00
         0.00000E+00
         0.00000E+00
         0.00000E+00
         0.00000E+00
         0.00000E+00
         0.00000E+00
         0.00000E+00
         0.00000E+00
         0.00000E+00
         0.00000E+00
         0.00000E+00
         0.00000E+00
         0.00000E+00
         0.00000E+00
         0.00000E+00
         0.00000E+00
         0.00000E+00
         0.00000E+00
         0.00000E+00
         0.00000E+00
         0.00000E+00
         0.00000E+00
         0.00000E+00
         0.00000E+00
         0.00000E+00
         0.00000E+00
         0.00000E+00
         0.00000E+00
         0.00000E+00
         0.00000E+00
         0.00000E+00
         0.00000E+00
         0.00000E+00
         0.00000E+00
         0.00000E+00
         0.00000E+00
         0.00000E+00
         0.00000E+00
         0.00000E+00
         0.00000E+00
         0.00000E+00
         0.00000E+00
         0.00000E+00
         0.00000E+00
         0.00000E+00
         0.00000E+00
         0.00000E+00
         0.00000E+00
         0.00000E+00
         0.00000E+00
         0.00000E+00
         0.00000E+00
         0.00000E+00
         0.00000E+00
         0.00000E+00
         0.00000E+00
         0.00000E+00
         0.00000E+00
         0.00000E+00
         0.00000E+00
         0.00000E+00
         0.00000E+00
         0.00000E+00
         0.00000E+00
         0.00000E+00
         0.00000E+00
         0.00000E+00
         0.00000E+00
         0.00000E+00
         0.00000E+00
         0.00000E+00
         0.00000E+00
         0.00000E+00
         0.00000E+00
         0.00000E+00
         0.00000E+00
         0.00000E+00
         0.00000E+00
         0.00000E+00
         0.00000E+00
         0.00000E+00
         0.00000E+00
         0.00000E+00
         0.00000E+00
         0.00000E+00
         0.00000E+00
         0.00000E+00
         0.00000E+00
         0.00000E+00
         0.00000E+00
         0.00000E+00
         0.00000E+00
         0.00000E+00
         0.00000E+00
         0.00000E+00
         0.00000E+00
         0.00000E+00
         0.00000E+00
         0.00000E+00
         0.00000E+00
         0.00000E+00
         0.00000E+00
         0.00000E+00
         0.00000E+00
         0.00000E+00
         0.00000E+00
         0.00000E+00
         0.00000E+00
         0.00000E+00
         0.00000E+00
         0.00000E+00
         0.00000E+00
         0.00000E+00
         0.00000E+00
         0.00000E+00
         0.00000E+00
         0.00000E+00
         0.00000E+00
         0.00000E+00
         0.00000E+00
         0.00000E+00
         0.00000E+00
         0.00000E+00
         0.00000E+00
         0.00000E+00
         0.00000E+00
         0.00000E+00
         0.00000E+00
         0.00000E+00
         0.00000E+00
         0.00000E+00
         0.00000E+00
         0.00000E+00
         0.00000E+00
         0.00000E+00
         0.00000E+00
         0.00000E+00
         0.00000E+00
         0.00000E+00
         0.00000E+00
         0.00000E+00
         0.00000E+00
         0.00000E+00
         0.00000E+00
         0.00000E+00
         0.00000E+00
         0.00000E+00
         0.00000E+00
         0.00000E+00
         0.00000E+00
         0.00000E+00
         0.00000E+00
         0.00000E+00
         0.00000E+00
         0.00000E+00
         0.00000E+00
         0.00000E+00
         0.00000E+00
         0.00000E+00
         0.00000E+00
         0.00000E+00
         0.00000E+00
         0.00000E+00
         0.00000E+00
         0.00000E+00
         0.00000E+00
         0.00000E+00
         0.00000E+00
         0.00000E+00
         0.00000E+00
         0.00000E+00
         0.00000E+00
         0.00000E+00
         0.00000E+00
         0.00000E+00
         0.00000E+00
         0.00000E+00
         0.00000E+00
         0.00000E+00
         0.00000E+00
         0.00000E+00
         0.00000E+00
         0.00000E+00
         0.00000E+00
         0.00000E+00
         0.00000E+00
         0.00000E+00
         0.00000E+00
         0.00000E+00
         0.00000E+00
         0.00000E+00
         0.00000E+00
         0.00000E+00
         0.00000E+00
         0.00000E+00
         0.00000E+00
         0.00000E+00
         0.00000E+00
         0.00000E+00
         0.00000E+00
         0.00000E+00
         0.00000E+00
         0.00000E+00
         0.00000E+00
         0.00000E+00
         0.00000E+00
         0.00000E+00
         0.00000E+00
         0.00000E+00
         0.00000E+00
         0.00000E+00
         0.00000E+00
         0.00000E+00
         0.00000E+00
         0.00000E+00
         0.00000E+00
         0.00000E+00
         0.00000E+00
         0.00000E+00
         0.00000E+00
         0.00000E+00
         0.00000E+00
         0.00000E+00
         0.00000E+00
         0.00000E+00
         0.00000E+00
         0.00000E+00
         0.00000E+00
         0.00000E+00
         0.00000E+00
         0.00000E+00
         0.00000E+00
         0.00000E+00
         0.00000E+00
         0.00000E+00
         0.00000E+00
         0.00000E+00
         0.00000E+00
         0.00000E+00
         0.00000E+00
         0.00000E+00
         0.00000E+00
         0.00000E+00
         0.00000E+00
         0.00000E+00
         0.00000E+00
         0.00000E+00
         0.00000E+00
         0.00000E+00
         0.00000E+00
         0.00000E+00
         0.00000E+00
         0.00000E+00
         0.00000E+00
         0.00000E+00
         0.00000E+00
         0.00000E+00
         0.00000E+00
         0.00000E+00
         0.00000E+00
         0.00000E+00
         0.00000E+00
         0.00000E+00
         0.00000E+00
         0.00000E+00
         0.00000E+00
         0.00000E+00
         0.00000E+00
         0.00000E+00
         0.00000E+00
         0.00000E+00
         0.00000E+00
         0.00000E+00
         0.00000E+00
         0.00000E+00
         0.00000E+00
         0.00000E+00
         0.00000E+00
         0.00000E+00
         0.00000E+00
         0.00000E+00
         0.00000E+00
         0.00000E+00
         0.00000E+00
         0.00000E+00
         0.00000E+00
         0.00000E+00
         0.00000E+00
         0.00000E+00
         0.00000E+00
         0.00000E+00
         0.00000E+00
         0.00000E+00
         0.00000E+00
         0.00000E+00
         0.00000E+00
         0.00000E+00
         0.00000E+00
         0.00000E+00
         0.00000E+00
         0.00000E+00
         0.00000E+00
         0.00000E+00
         0.00000E+00
         0.00000E+00
         0.00000E+00
         0.00000E+00
         0.00000E+00
         0.00000E+00
         0.00000E+00
         0.00000E+00
         0.00000E+00
         0.00000E+00
         0.00000E+00
         0.00000E+00
         0.00000E+00
         0.00000E+00
         0.00000E+00
         0.00000E+00
         0.00000E+00
         0.00000E+00
         0.00000E+00
         0.00000E+00
         0.00000E+00
         0.00000E+00
         0.00000E+00
         0.00000E+00
         0.00000E+00
         0.00000E+00
         0.00000E+00
         0.00000E+00
         0.00000E+00
         0.00000E+00
         0.00000E+00
         0.00000E+00
         0.00000E+00
         0.00000E+00
         0.00000E+00
         0.00000E+00
         0.00000E+00
         0.00000E+00
         0.00000E+00
         0.00000E+00
         0.00000E+00
         0.00000E+00
         0.00000E+00
         0.00000E+00
         0.00000E+00
         0.00000E+00
         0.00000E+00
         0.00000E+00
         0.00000E+00
         0.00000E+00
         0.00000E+00
         0.00000E+00
         0.00000E+00
         0.00000E+00
         0.00000E+00
         0.00000E+00
         0.00000E+00
         0.00000E+00
         0.00000E+00
         0.00000E+00
         0.00000E+00
         0.00000E+00
         0.00000E+00
         0.00000E+00
         0.00000E+00
         0.00000E+00
         0.00000E+00
         0.00000E+00
         0.00000E+00
         0.00000E+00
         0.00000E+00
         0.00000E+00
         0.00000E+00
         0.00000E+00
         0.00000E+00
         0.00000E+00
         0.00000E+00
         0.00000E+00
         0.00000E+00
         0.00000E+00
         0.00000E+00
         0.00000E+00
         0.00000E+00
         0.00000E+00
         0.00000E+00
         0.00000E+00
         0.00000E+00
         0.00000E+00
         0.00000E+00
         0.00000E+00
         0.00000E+00
         0.00000E+00
         0.00000E+00
         0.00000E+00
         0.00000E+00
         0.00000E+00
         0.00000E+00
         0.00000E+00
         0.00000E+00
         0.00000E+00
         0.00000E+00
         0.00000E+00
         0.00000E+00
         0.00000E+00
         0.00000E+00
         0.00000E+00
         0.00000E+00
         0.00000E+00
         0.00000E+00
         0.00000E+00
         0.00000E+00
         0.00000E+00
         0.00000E+00
         0.00000E+00
         0.00000E+00
         0.00000E+00
         0.00000E+00
         0.00000E+00
         0.00000E+00
         0.00000E+00
         0.00000E+00
         0.00000E+00
         0.00000E+00
         0.00000E+00
         0.00000E+00
         0.00000E+00
         0.00000E+00
         0.00000E+00
         0.00000E+00
         0.00000E+00
         0.00000E+00
         0.00000E+00
         0.00000E+00
         0.00000E+00
         0.00000E+00
         0.00000E+00
         0.00000E+00
         0.00000E+00
         0.00000E+00
         0.00000E+00
         0.00000E+00
         0.00000E+00
         0.00000E+00
         0.00000E+00
         0.00000E+00
         0.00000E+00
         0.00000E+00
         0.00000E+00
         0.00000E+00
         0.00000E+00
         0.00000E+00
         0.00000E+00
         0.00000E+00
         0.00000E+00
         0.00000E+00
         0.00000E+00
         0.00000E+00
         0.00000E+00
         0.00000E+00
         0.00000E+00
         0.00000E+00
         0.00000E+00
         0.00000E+00
         0.00000E+00
         0.00000E+00
         0.00000E+00
         0.00000E+00
         0.00000E+00
         0.00000E+00
         0.00000E+00
         0.00000E+00
         0.00000E+00
         0.00000E+00
         0.00000E+00
         0.00000E+00
         0.00000E+00
         0.00000E+00
         0.00000E+00
         0.00000E+00
         0.00000E+00
         0.00000E+00
         0.00000E+00
         0.00000E+00
         0.00000E+00
         0.00000E+00
         0.00000E+00
         0.00000E+00
         0.00000E+00
         0.00000E+00
         0.00000E+00
         0.00000E+00
         0.00000E+00
         0.00000E+00
         0.00000E+00
         0.00000E+00
         0.00000E+00
         0.00000E+00
         0.00000E+00
         0.00000E+00
         0.00000E+00
         0.00000E+00
         0.00000E+00
         0.00000E+00
         0.00000E+00
         0.00000E+00
         0.00000E+00
         0.00000E+00
         0.00000E+00
         0.00000E+00
         0.00000E+00
         0.00000E+00
         0.00000E+00
         0.00000E+00
         0.00000E+00
         0.00000E+00
         0.00000E+00
         0.00000E+00
         0.00000E+00
         0.00000E+00
         0.00000E+00
         0.00000E+00
         0.00000E+00
         0.00000E+00
         0.00000E+00
         0.00000E+00
         0.00000E+00
         0.00000E+00
         0.00000E+00
         0.00000E+00
         0.00000E+00
         0.00000E+00
         0.00000E+00
         0.00000E+00
         0.00000E+00
         0.00000E+00
         0.00000E+00
         0.00000E+00
         0.00000E+00
         0.00000E+00
         0.00000E+00
         0.00000E+00
         0.00000E+00
         0.00000E+00
         0.00000E+00
         0.00000E+00
         0.00000E+00
         0.00000E+00
         0.00000E+00
         0.00000E+00
         0.00000E+00
         0.00000E+00
         0.00000E+00
         0.00000E+00
         0.00000E+00
         0.00000E+00
         0.00000E+00
         0.00000E+00
         0.00000E+00
         0.00000E+00
         0.00000E+00
         0.00000E+00
         0.00000E+00
         0.00000E+00
         0.00000E+00
         0.00000E+00
         0.00000E+00
         0.00000E+00
         0.00000E+00
         0.00000E+00
         0.00000E+00
         0.00000E+00
         0.00000E+00
         0.00000E+00
         0.00000E+00
         0.00000E+00
         0.00000E+00
         0.00000E+00
         0.00000E+00
         0.00000E+00
         0.00000E+00
         0.00000E+00
         0.00000E+00
         0.00000E+00
         0.00000E+00
         0.00000E+00
         0.00000E+00
         0.00000E+00
         0.00000E+00
         0.00000E+00
         0.00000E+00
         0.00000E+00
         0.00000E+00
         0.00000E+00
         0.00000E+00
         0.00000E+00
         0.00000E+00
         0.00000E+00
         0.00000E+00
         0.00000E+00
         0.00000E+00
         0.00000E+00
         0.00000E+00
         0.00000E+00
         0.00000E+00
         0.00000E+00
         0.00000E+00
         0.00000E+00
         0.00000E+00
         0.00000E+00
         0.00000E+00
         0.00000E+00
         0.00000E+00
         0.00000E+00
         0.00000E+00
         0.00000E+00
         0.00000E+00
         0.00000E+00
         0.00000E+00
         0.00000E+00
         0.00000E+00
         0.00000E+00
         0.00000E+00
         0.00000E+00
         0.00000E+00
         0.00000E+00
         0.00000E+00
         0.00000E+00
         0.00000E+00
         0.00000E+00
         0.00000E+00
         0.00000E+00
         0.00000E+00
         0.00000E+00
         0.00000E+00
         0.00000E+00
         0.00000E+00
         0.00000E+00
         0.00000E+00
         0.00000E+00
         0.00000E+00
         0.00000E+00
         0.00000E+00
         0.00000E+00
         0.00000E+00
         0.00000E+00
         0.00000E+00
         0.00000E+00
         0.00000E+00
         0.00000E+00
         0.00000E+00
         0.00000E+00
         0.00000E+00
         0.00000E+00
         0.00000E+00
         0.00000E+00
         0.00000E+00
         0.00000E+00
         0.00000E+00
         0.00000E+00
         0.00000E+00
         0.00000E+00
         0.00000E+00
         0.00000E+00
         0.00000E+00
         0.00000E+00
         0.00000E+00
         0.00000E+00
         0.00000E+00
         0.00000E+00
         0.00000E+00
         0.00000E+00
         0.00000E+00
         0.00000E+00
         0.00000E+00
         0.00000E+00
         0.00000E+00
         0.00000E+00
         0.00000E+00
         0.00000E+00
         0.00000E+00
         0.00000E+00
         0.00000E+00
         0.00000E+00
         0.00000E+00
         0.00000E+00
         0.00000E+00
         0.00000E+00
         0.00000E+00
         0.00000E+00
         0.00000E+00
         0.00000E+00
         0.00000E+00
         0.00000E+00
         0.00000E+00
         0.00000E+00
         0.00000E+00
         0.00000E+00
         0.00000E+00
         0.00000E+00
         0.00000E+00
         0.00000E+00
         0.00000E+00
         0.00000E+00
         0.00000E+00
         0.00000E+00
         0.00000E+00
         0.00000E+00
         0.00000E+00
         0.00000E+00
         0.00000E+00
         0.00000E+00
         0.00000E+00
         0.00000E+00
         0.00000E+00
         0.00000E+00
         0.00000E+00
         0.00000E+00
         0.00000E+00
         0.00000E+00
         0.00000E+00
         0.00000E+00
         0.00000E+00
         0.00000E+00
         0.00000E+00
         0.00000E+00
         0.00000E+00
         0.00000E+00
         0.00000E+00
         0.00000E+00
         0.00000E+00
         0.00000E+00
         0.00000E+00
         0.00000E+00
         0.00000E+00
         0.00000E+00
         0.00000E+00
         0.00000E+00
         0.00000E+00
         0.00000E+00
         0.00000E+00
         0.00000E+00
         0.00000E+00
         0.00000E+00
         0.00000E+00
         0.00000E+00
         0.00000E+00
         0.00000E+00
         0.00000E+00
         0.00000E+00
         0.00000E+00
         0.00000E+00
         0.00000E+00
         0.00000E+00
         0.00000E+00
         0.00000E+00
         0.00000E+00
         0.00000E+00
         0.00000E+00
         0.00000E+00
         0.00000E+00
         0.00000E+00
         0.00000E+00
         0.00000E+00
         0.00000E+00
         0.00000E+00
         0.00000E+00
         0.00000E+00
         0.00000E+00
         0.00000E+00
         0.00000E+00
         0.00000E+00
         0.00000E+00
         0.00000E+00
         0.00000E+00
         0.00000E+00
         0.00000E+00
         0.00000E+00
         0.00000E+00
         0.00000E+00
         0.00000E+00
         0.00000E+00
         0.00000E+00
         0.00000E+00
         0.00000E+00
         0.00000E+00
         0.00000E+00
         0.00000E+00
         0.00000E+00
         0.00000E+00
         0.00000E+00
         0.00000E+00
         0.00000E+00
         0.00000E+00
         0.00000E+00
         0.00000E+00
         0.00000E+00
         0.00000E+00
         0.00000E+00
         0.00000E+00
         0.00000E+00
         0.00000E+00
         0.00000E+00
         0.00000E+00
         0.00000E+00
         0.00000E+00
         0.00000E+00
         0.00000E+00
         0.00000E+00
         0.00000E+00
         0.00000E+00
         0.00000E+00
         0.00000E+00
         0.00000E+00
         0.00000E+00
         0.00000E+00
         0.00000E+00
         0.00000E+00
         0.00000E+00
         0.00000E+00
         0.00000E+00
         0.00000E+00
         0.00000E+00
         0.00000E+00
         0.00000E+00
         0.00000E+00
         0.00000E+00
         0.00000E+00
         0.00000E+00
         0.00000E+00
         0.00000E+00
         0.00000E+00
         0.00000E+00
         0.00000E+00
         0.00000E+00
         0.00000E+00
         0.00000E+00
         0.00000E+00
         0.00000E+00
         0.00000E+00
         0.00000E+00
         0.00000E+00
         0.00000E+00
         0.00000E+00
         0.00000E+00
         0.00000E+00
         0.00000E+00
         0.00000E+00
         0.00000E+00
         0.00000E+00
         0.00000E+00
         0.00000E+00
         0.00000E+00
         0.00000E+00
         0.00000E+00
         0.00000E+00
         0.00000E+00
         0.00000E+00
         0.00000E+00
         0.00000E+00
         0.00000E+00
         0.00000E+00
         0.00000E+00
         0.00000E+00
         0.00000E+00
         0.00000E+00
         0.00000E+00
         0.00000E+00
         0.00000E+00
         0.00000E+00
         0.00000E+00
         0.00000E+00
         0.00000E+00
         0.00000E+00
         0.00000E+00
         0.00000E+00
         0.00000E+00
         0.00000E+00
         0.00000E+00
         0.00000E+00
         0.00000E+00
         0.00000E+00
         0.00000E+00
         0.00000E+00
         0.00000E+00
         0.00000E+00
         0.00000E+00
         0.00000E+00
         0.00000E+00
         0.00000E+00
         0.00000E+00
         0.00000E+00
         0.00000E+00
         0.00000E+00
         0.00000E+00
         0.00000E+00
         0.00000E+00
         0.00000E+00
         0.00000E+00
         0.00000E+00
         0.00000E+00
         0.00000E+00
         0.00000E+00
         0.00000E+00
         0.00000E+00
         0.00000E+00
         0.00000E+00
         0.00000E+00
         0.00000E+00
         0.00000E+00
         0.00000E+00
         0.00000E+00
         0.00000E+00
         0.00000E+00
         0.00000E+00
         0.00000E+00
         0.00000E+00
         0.00000E+00
         0.00000E+00
         0.00000E+00
         0.00000E+00
         0.00000E+00
         0.00000E+00
         0.00000E+00
         0.00000E+00
         0.00000E+00
         0.00000E+00
         0.00000E+00
         0.00000E+00
         0.00000E+00
         0.00000E+00
         0.00000E+00
         0.00000E+00
         0.00000E+00
         0.00000E+00
         0.00000E+00
         0.00000E+00
         0.00000E+00
         0.00000E+00
         0.00000E+00
         0.00000E+00
         0.00000E+00
         0.00000E+00
         0.00000E+00
         0.00000E+00
         0.00000E+00
         0.00000E+00
         0.00000E+00
         0.00000E+00
         0.00000E+00
         0.00000E+00
         0.00000E+00
         0.00000E+00
         0.00000E+00
         0.00000E+00
         0.00000E+00
         0.00000E+00
         0.00000E+00
         0.00000E+00
         0.00000E+00
         0.00000E+00
         0.00000E+00
         0.00000E+00
         0.00000E+00
         0.00000E+00
         0.00000E+00
         0.00000E+00
         0.00000E+00
         0.00000E+00
         0.00000E+00
         0.00000E+00
         0.00000E+00
         0.00000E+00
         0.00000E+00
         0.00000E+00
         0.00000E+00
         0.00000E+00
         0.00000E+00
         0.00000E+00
         0.00000E+00
         0.00000E+00
         0.00000E+00
         0.00000E+00
         0.00000E+00
         0.00000E+00
         0.00000E+00
         0.00000E+00
         0.00000E+00
         0.00000E+00
         0.00000E+00
         0.00000E+00
         0.00000E+00
         0.00000E+00
         0.00000E+00
         0.00000E+00
         0.00000E+00
         0.00000E+00
         0.00000E+00
         0.00000E+00
         0.00000E+00
         0.00000E+00
         0.00000E+00
         0.00000E+00
         0.00000E+00
         0.00000E+00
         0.00000E+00
         0.00000E+00
         0.00000E+00
         0.00000E+00
         0.00000E+00
         0.00000E+00
         0.00000E+00
         0.00000E+00
         0.00000E+00
         0.00000E+00
         0.00000E+00
         0.00000E+00
         0.00000E+00
         0.00000E+00
         0.00000E+00
         0.00000E+00
         0.00000E+00
         0.00000E+00
         0.00000E+00
         0.00000E+00
         0.00000E+00
         0.00000E+00
         0.00000E+00
         0.00000E+00
         0.00000E+00
         0.00000E+00
         0.00000E+00
         0.00000E+00
         0.00000E+00
         0.00000E+00
         0.00000E+00
         0.00000E+00
         0.00000E+00
         0.00000E+00
         0.00000E+00
         0.00000E+00
         0.00000E+00
         0.00000E+00
         0.00000E+00
         0.00000E+00
         0.00000E+00
         0.00000E+00
         0.00000E+00
         0.00000E+00
         0.00000E+00
         0.00000E+00
         0.00000E+00
         0.00000E+00
         0.00000E+00
         0.00000E+00
         0.00000E+00
         0.00000E+00
         0.00000E+00
         0.00000E+00
         0.00000E+00
         0.00000E+00
         0.00000E+00
         0.00000E+00
         0.00000E+00
         0.00000E+00
         0.00000E+00
         0.00000E+00
         0.00000E+00
         0.00000E+00
         0.00000E+00
         0.00000E+00
         0.00000E+00
         0.00000E+00
         0.00000E+00
         0.00000E+00
         0.00000E+00
         0.00000E+00
         0.00000E+00
         0.00000E+00
         0.00000E+00
         0.00000E+00
         0.00000E+00
         0.00000E+00
         0.00000E+00
         0.00000E+00
         0.00000E+00
         0.00000E+00
         0.00000E+00
         0.00000E+00
         0.00000E+00
         0.00000E+00
         0.00000E+00
         0.00000E+00
         0.00000E+00
         0.00000E+00
         0.00000E+00
         0.00000E+00
         0.00000E+00
         0.00000E+00
         0.00000E+00
         0.00000E+00
         0.00000E+00
         0.00000E+00
         0.00000E+00
         0.00000E+00
         0.00000E+00
         0.00000E+00
         0.00000E+00
         0.00000E+00
         0.00000E+00
         0.00000E+00
         0.00000E+00
         0.00000E+00
         0.00000E+00
         0.00000E+00
         0.00000E+00
         0.00000E+00
         0.00000E+00
         0.00000E+00
         0.00000E+00
         0.00000E+00
         0.00000E+00
         0.00000E+00
         0.00000E+00
         0.00000E+00
         0.00000E+00
         0.00000E+00
         0.00000E+00
         0.00000E+00
         0.00000E+00
         0.00000E+00
         0.00000E+00
         0.00000E+00
         0.00000E+00
         0.00000E+00
         0.00000E+00
         0.00000E+00
         0.00000E+00
         0.00000E+00
         0.00000E+00
         0.00000E+00
         0.00000E+00
         0.00000E+00
         0.00000E+00
         0.00000E+00
         0.00000E+00
         0.00000E+00
         0.00000E+00
         0.00000E+00
         0.00000E+00
         0.00000E+00
         0.00000E+00
         0.00000E+00
         0.00000E+00
         0.00000E+00
         0.00000E+00
         0.00000E+00
         0.00000E+00
         0.00000E+00
         0.00000E+00
         0.00000E+00
         0.00000E+00
         0.00000E+00
         0.00000E+00
         0.00000E+00
         0.00000E+00
         0.00000E+00
         0.00000E+00
         0.00000E+00
         0.00000E+00
         0.00000E+00
         0.00000E+00
         0.00000E+00
         0.00000E+00
         0.00000E+00
         0.00000E+00
         0.00000E+00
         0.00000E+00
         0.00000E+00
         0.00000E+00
         0.00000E+00
         0.00000E+00
         0.00000E+00
         0.00000E+00
         0.00000E+00
         0.00000E+00
         0.00000E+00
         0.00000E+00
         0.00000E+00
         0.00000E+00
         0.00000E+00
         0.00000E+00
         0.00000E+00
         0.00000E+00
         0.00000E+00
         0.00000E+00
         0.00000E+00
         0.00000E+00
         0.00000E+00
         0.00000E+00
         0.00000E+00
         0.00000E+00
         0.00000E+00
         0.00000E+00
         0.00000E+00
         0.00000E+00
         0.00000E+00
         0.00000E+00
         0.00000E+00
         0.00000E+00
         0.00000E+00
         0.00000E+00
         0.00000E+00
         0.00000E+00
         0.00000E+00
         0.00000E+00
         0.00000E+00
         0.00000E+00
         0.00000E+00
         0.00000E+00
         0.00000E+00
         0.00000E+00
         0.00000E+00
         0.00000E+00
         0.00000E+00
         0.00000E+00
         0.00000E+00
         0.00000E+00
         0.00000E+00
         0.00000E+00
         0.00000E+00
         0.00000E+00
         0.00000E+00
         0.00000E+00
         0.00000E+00
         0.00000E+00
         0.00000E+00
         0.00000E+00
         0.00000E+00
         0.00000E+00
         0.00000E+00
         0.00000E+00
         0.00000E+00
         0.00000E+00
         0.00000E+00
         0.00000E+00
         0.00000E+00
         0.00000E+00
         0.00000E+00
         0.00000E+00
         0.00000E+00
         0.00000E+00
         0.00000E+00
         0.00000E+00
         0.00000E+00
         0.00000E+00
         0.00000E+00
         0.00000E+00
         0.00000E+00
         0.00000E+00
         0.00000E+00
         0.00000E+00
         0.00000E+00
         0.00000E+00
         0.00000E+00
         0.00000E+00
         0.00000E+00
         0.00000E+00
         0.00000E+00
         0.00000E+00
         0.00000E+00
         0.00000E+00
         0.00000E+00
         0.00000E+00
         0.00000E+00
         0.00000E+00
         0.00000E+00
         0.00000E+00
         0.00000E+00
         0.00000E+00
         0.00000E+00
         0.00000E+00
         0.00000E+00
         0.00000E+00
         0.00000E+00
         0.00000E+00
         0.00000E+00
         0.00000E+00
         0.00000E+00
         0.00000E+00
         0.00000E+00
         0.00000E+00
         0.00000E+00
         0.00000E+00
         0.00000E+00
         0.00000E+00
         0.00000E+00
         0.00000E+00
         0.00000E+00
         0.00000E+00
         0.00000E+00
         0.00000E+00
         0.00000E+00
         0.00000E+00
         0.00000E+00
         0.00000E+00
         0.00000E+00
         0.00000E+00
         0.00000E+00
         0.00000E+00
         0.00000E+00
         0.00000E+00
         0.00000E+00
         0.00000E+00
         0.00000E+00
         0.00000E+00
         0.00000E+00
         0.00000E+00
         0.00000E+00
         0.00000E+00
         0.00000E+00
         0.00000E+00
         0.00000E+00
         0.00000E+00
         0.00000E+00
         0.00000E+00
         0.00000E+00
         0.00000E+00
         0.00000E+00
         0.00000E+00
         0.00000E+00
         0.00000E+00
         0.00000E+00
         0.00000E+00
         0.00000E+00
         0.00000E+00
         0.00000E+00
         0.00000E+00
         0.00000E+00
         0.00000E+00
         0.00000E+00
         0.00000E+00
         0.00000E+00
         0.00000E+00
         0.00000E+00
         0.00000E+00
         0.00000E+00
         0.00000E+00
         0.00000E+00
         0.00000E+00
         0.00000E+00
         0.00000E+00
         0.00000E+00
         0.00000E+00
         0.00000E+00
         0.00000E+00
         0.00000E+00
         0.00000E+00
         0.00000E+00
         0.00000E+00
         0.00000E+00
         0.00000E+00
         0.00000E+00
         0.00000E+00
         0.00000E+00
         0.00000E+00
         0.00000E+00
         0.00000E+00
         0.00000E+00
         0.00000E+00
         0.00000E+00
         0.00000E+00
         0.00000E+00
         0.00000E+00
         0.00000E+00
         0.00000E+00
         0.00000E+00
         0.00000E+00
         0.00000E+00
         0.00000E+00
         0.00000E+00
         0.00000E+00
         0.00000E+00
         0.00000E+00
         0.00000E+00
         0.00000E+00
         0.00000E+00
         0.00000E+00
         0.00000E+00
         0.00000E+00
         0.00000E+00
         0.00000E+00
         0.00000E+00
         0.00000E+00
         0.00000E+00
         0.00000E+00
         0.00000E+00
         0.00000E+00
         0.00000E+00
         0.00000E+00
         0.00000E+00
         0.00000E+00
         0.00000E+00
         0.00000E+00
         0.00000E+00
         0.00000E+00
         0.00000E+00
         0.00000E+00
         0.00000E+00
         0.00000E+00
         0.00000E+00
         0.00000E+00
         0.00000E+00
         0.00000E+00
         0.00000E+00
         0.00000E+00
         0.00000E+00
         0.00000E+00
         0.00000E+00
         0.00000E+00
         0.00000E+00
         0.00000E+00
         0.00000E+00
         0.00000E+00
         0.00000E+00
         0.00000E+00
         0.00000E+00
         0.00000E+00
         0.00000E+00
         0.00000E+00
         0.00000E+00
         0.00000E+00
         0.00000E+00
         0.00000E+00
         0.00000E+00
         0.00000E+00
         0.00000E+00
         0.00000E+00
         0.00000E+00
         0.00000E+00
         0.00000E+00
         0.00000E+00
         0.00000E+00
         0.00000E+00
         0.00000E+00
         0.00000E+00
         0.00000E+00
         0.00000E+00
  
SCALARS                 displacement_y  double 1
LOOKUP_TABLE default
         0.00000E+00
         0.00000E+00
         0.00000E+00
         0.00000E+00
         0.00000E+00
         0.00000E+00
         0.00000E+00
         0.00000E+00
         0.00000E+00
         0.00000E+00
         0.00000E+00
         0.00000E+00
         0.00000E+00
         0.00000E+00
         0.00000E+00
         0.00000E+00
         0.00000E+00
         0.00000E+00
         0.00000E+00
         0.00000E+00
         0.00000E+00
         0.00000E+00
         0.00000E+00
         0.00000E+00
         0.00000E+00
         0.00000E+00
         0.00000E+00
         0.00000E+00
         0.00000E+00
         0.00000E+00
         0.00000E+00
         0.00000E+00
         0.00000E+00
         0.00000E+00
         0.00000E+00
         0.00000E+00
         0.00000E+00
         0.00000E+00
         0.00000E+00
         0.00000E+00
         0.00000E+00
         0.00000E+00
         0.00000E+00
         0.00000E+00
         0.00000E+00
         0.00000E+00
         0.00000E+00
         0.00000E+00
         0.00000E+00
         0.00000E+00
         0.00000E+00
         0.00000E+00
         0.00000E+00
         0.00000E+00
         0.00000E+00
         0.00000E+00
         0.00000E+00
         0.00000E+00
         0.00000E+00
         0.00000E+00
         0.00000E+00
         0.00000E+00
         0.00000E+00
         0.00000E+00
         0.00000E+00
         0.00000E+00
         0.00000E+00
         0.00000E+00
         0.00000E+00
         0.00000E+00
         0.00000E+00
         0.00000E+00
         0.00000E+00
         0.00000E+00
         0.00000E+00
         0.00000E+00
         0.00000E+00
         0.00000E+00
         0.00000E+00
         0.00000E+00
         0.00000E+00
         0.00000E+00
         0.00000E+00
         0.00000E+00
         0.00000E+00
         0.00000E+00
         0.00000E+00
         0.00000E+00
         0.00000E+00
         0.00000E+00
         0.00000E+00
         0.00000E+00
         0.00000E+00
         0.00000E+00
         0.00000E+00
         0.00000E+00
         0.00000E+00
         0.00000E+00
         0.00000E+00
         0.00000E+00
         0.00000E+00
         0.00000E+00
         0.00000E+00
         0.00000E+00
         0.00000E+00
         0.00000E+00
         0.00000E+00
         0.00000E+00
         0.00000E+00
         0.00000E+00
         0.00000E+00
         0.00000E+00
         0.00000E+00
         0.00000E+00
         0.00000E+00
         0.00000E+00
         0.00000E+00
         0.00000E+00
         0.00000E+00
         0.00000E+00
         0.00000E+00
         0.00000E+00
         0.00000E+00
         0.00000E+00
         0.00000E+00
         0.00000E+00
         0.00000E+00
         0.00000E+00
         0.00000E+00
         0.00000E+00
         0.00000E+00
         0.00000E+00
         0.00000E+00
         0.00000E+00
         0.00000E+00
         0.00000E+00
         0.00000E+00
         0.00000E+00
         0.00000E+00
         0.00000E+00
         0.00000E+00
         0.00000E+00
         0.00000E+00
         0.00000E+00
         0.00000E+00
         0.00000E+00
         0.00000E+00
         0.00000E+00
         0.00000E+00
         0.00000E+00
         0.00000E+00
         0.00000E+00
         0.00000E+00
         0.00000E+00
         0.00000E+00
         0.00000E+00
         0.00000E+00
         0.00000E+00
         0.00000E+00
         0.00000E+00
         0.00000E+00
         0.00000E+00
         0.00000E+00
         0.00000E+00
         0.00000E+00
         0.00000E+00
         0.00000E+00
         0.00000E+00
         0.00000E+00
         0.00000E+00
         0.00000E+00
         0.00000E+00
         0.00000E+00
         0.00000E+00
         0.00000E+00
         0.00000E+00
         0.00000E+00
         0.00000E+00
         0.00000E+00
         0.00000E+00
         0.00000E+00
         0.00000E+00
         0.00000E+00
         0.00000E+00
         0.00000E+00
         0.00000E+00
         0.00000E+00
         0.00000E+00
         0.00000E+00
         0.00000E+00
         0.00000E+00
         0.00000E+00
         0.00000E+00
         0.00000E+00
         0.00000E+00
         0.00000E+00
         0.00000E+00
         0.00000E+00
         0.00000E+00
         0.00000E+00
         0.00000E+00
         0.00000E+00
         0.00000E+00
         0.00000E+00
         0.00000E+00
         0.00000E+00
         0.00000E+00
         0.00000E+00
         0.00000E+00
         0.00000E+00
         0.00000E+00
         0.00000E+00
         0.00000E+00
         0.00000E+00
         0.00000E+00
         0.00000E+00
         0.00000E+00
         0.00000E+00
         0.00000E+00
         0.00000E+00
         0.00000E+00
         0.00000E+00
         0.00000E+00
         0.00000E+00
         0.00000E+00
         0.00000E+00
         0.00000E+00
         0.00000E+00
         0.00000E+00
         0.00000E+00
         0.00000E+00
         0.00000E+00
         0.00000E+00
         0.00000E+00
         0.00000E+00
         0.00000E+00
         0.00000E+00
         0.00000E+00
         0.00000E+00
         0.00000E+00
         0.00000E+00
         0.00000E+00
         0.00000E+00
         0.00000E+00
         0.00000E+00
         0.00000E+00
         0.00000E+00
         0.00000E+00
         0.00000E+00
         0.00000E+00
         0.00000E+00
         0.00000E+00
         0.00000E+00
         0.00000E+00
         0.00000E+00
         0.00000E+00
         0.00000E+00
         0.00000E+00
         0.00000E+00
         0.00000E+00
         0.00000E+00
         0.00000E+00
         0.00000E+00
         0.00000E+00
         0.00000E+00
         0.00000E+00
         0.00000E+00
         0.00000E+00
         0.00000E+00
         0.00000E+00
         0.00000E+00
         0.00000E+00
         0.00000E+00
         0.00000E+00
         0.00000E+00
         0.00000E+00
         0.00000E+00
         0.00000E+00
         0.00000E+00
         0.00000E+00
         0.00000E+00
         0.00000E+00
         0.00000E+00
         0.00000E+00
         0.00000E+00
         0.00000E+00
         0.00000E+00
         0.00000E+00
         0.00000E+00
         0.00000E+00
         0.00000E+00
         0.00000E+00
         0.00000E+00
         0.00000E+00
         0.00000E+00
         0.00000E+00
         0.00000E+00
         0.00000E+00
         0.00000E+00
         0.00000E+00
         0.00000E+00
         0.00000E+00
         0.00000E+00
         0.00000E+00
         0.00000E+00
         0.00000E+00
         0.00000E+00
         0.00000E+00
         0.00000E+00
         0.00000E+00
         0.00000E+00
         0.00000E+00
         0.00000E+00
         0.00000E+00
         0.00000E+00
         0.00000E+00
         0.00000E+00
         0.00000E+00
         0.00000E+00
         0.00000E+00
         0.00000E+00
         0.00000E+00
         0.00000E+00
         0.00000E+00
         0.00000E+00
         0.00000E+00
         0.00000E+00
         0.00000E+00
         0.00000E+00
         0.00000E+00
         0.00000E+00
         0.00000E+00
         0.00000E+00
         0.00000E+00
         0.00000E+00
         0.00000E+00
         0.00000E+00
         0.00000E+00
         0.00000E+00
         0.00000E+00
         0.00000E+00
         0.00000E+00
         0.00000E+00
         0.00000E+00
         0.00000E+00
         0.00000E+00
         0.00000E+00
         0.00000E+00
         0.00000E+00
         0.00000E+00
         0.00000E+00
         0.00000E+00
         0.00000E+00
         0.00000E+00
         0.00000E+00
         0.00000E+00
         0.00000E+00
         0.00000E+00
         0.00000E+00
         0.00000E+00
         0.00000E+00
         0.00000E+00
         0.00000E+00
         0.00000E+00
         0.00000E+00
         0.00000E+00
         0.00000E+00
         0.00000E+00
         0.00000E+00
         0.00000E+00
         0.00000E+00
         0.00000E+00
         0.00000E+00
         0.00000E+00
         0.00000E+00
         0.00000E+00
         0.00000E+00
         0.00000E+00
         0.00000E+00
         0.00000E+00
         0.00000E+00
         0.00000E+00
         0.00000E+00
         0.00000E+00
         0.00000E+00
         0.00000E+00
         0.00000E+00
         0.00000E+00
         0.00000E+00
         0.00000E+00
         0.00000E+00
         0.00000E+00
         0.00000E+00
         0.00000E+00
         0.00000E+00
         0.00000E+00
         0.00000E+00
         0.00000E+00
         0.00000E+00
         0.00000E+00
         0.00000E+00
         0.00000E+00
         0.00000E+00
         0.00000E+00
         0.00000E+00
         0.00000E+00
         0.00000E+00
         0.00000E+00
         0.00000E+00
         0.00000E+00
         0.00000E+00
         0.00000E+00
         0.00000E+00
         0.00000E+00
         0.00000E+00
         0.00000E+00
         0.00000E+00
         0.00000E+00
         0.00000E+00
         0.00000E+00
         0.00000E+00
         0.00000E+00
         0.00000E+00
         0.00000E+00
         0.00000E+00
         0.00000E+00
         0.00000E+00
         0.00000E+00
         0.00000E+00
         0.00000E+00
         0.00000E+00
         0.00000E+00
         0.00000E+00
         0.00000E+00
         0.00000E+00
         0.00000E+00
         0.00000E+00
         0.00000E+00
         0.00000E+00
         0.00000E+00
         0.00000E+00
         0.00000E+00
         0.00000E+00
         0.00000E+00
         0.00000E+00
         0.00000E+00
         0.00000E+00
         0.00000E+00
         0.00000E+00
         0.00000E+00
         0.00000E+00
         0.00000E+00
         0.00000E+00
         0.00000E+00
         0.00000E+00
         0.00000E+00
         0.00000E+00
         0.00000E+00
         0.00000E+00
         0.00000E+00
         0.00000E+00
         0.00000E+00
         0.00000E+00
         0.00000E+00
         0.00000E+00
         0.00000E+00
         0.00000E+00
         0.00000E+00
         0.00000E+00
         0.00000E+00
         0.00000E+00
         0.00000E+00
         0.00000E+00
         0.00000E+00
         0.00000E+00
         0.00000E+00
         0.00000E+00
         0.00000E+00
         0.00000E+00
         0.00000E+00
         0.00000E+00
         0.00000E+00
         0.00000E+00
         0.00000E+00
         0.00000E+00
         0.00000E+00
         0.00000E+00
         0.00000E+00
         0.00000E+00
         0.00000E+00
         0.00000E+00
         0.00000E+00
         0.00000E+00
         0.00000E+00
         0.00000E+00
         0.00000E+00
         0.00000E+00
         0.00000E+00
         0.00000E+00
         0.00000E+00
         0.00000E+00
         0.00000E+00
         0.00000E+00
         0.00000E+00
         0.00000E+00
         0.00000E+00
         0.00000E+00
         0.00000E+00
         0.00000E+00
         0.00000E+00
         0.00000E+00
         0.00000E+00
         0.00000E+00
         0.00000E+00
         0.00000E+00
         0.00000E+00
         0.00000E+00
         0.00000E+00
         0.00000E+00
         0.00000E+00
         0.00000E+00
         0.00000E+00
         0.00000E+00
         0.00000E+00
         0.00000E+00
         0.00000E+00
         0.00000E+00
         0.00000E+00
         0.00000E+00
         0.00000E+00
         0.00000E+00
         0.00000E+00
         0.00000E+00
         0.00000E+00
         0.00000E+00
         0.00000E+00
         0.00000E+00
         0.00000E+00
         0.00000E+00
         0.00000E+00
         0.00000E+00
         0.00000E+00
         0.00000E+00
         0.00000E+00
         0.00000E+00
         0.00000E+00
         0.00000E+00
         0.00000E+00
         0.00000E+00
         0.00000E+00
         0.00000E+00
         0.00000E+00
         0.00000E+00
         0.00000E+00
         0.00000E+00
         0.00000E+00
         0.00000E+00
         0.00000E+00
         0.00000E+00
         0.00000E+00
         0.00000E+00
         0.00000E+00
         0.00000E+00
         0.00000E+00
         0.00000E+00
         0.00000E+00
         0.00000E+00
         0.00000E+00
         0.00000E+00
         0.00000E+00
         0.00000E+00
         0.00000E+00
         0.00000E+00
         0.00000E+00
         0.00000E+00
         0.00000E+00
         0.00000E+00
         0.00000E+00
         0.00000E+00
         0.00000E+00
         0.00000E+00
         0.00000E+00
         0.00000E+00
         0.00000E+00
         0.00000E+00
         0.00000E+00
         0.00000E+00
         0.00000E+00
         0.00000E+00
         0.00000E+00
         0.00000E+00
         0.00000E+00
         0.00000E+00
         0.00000E+00
         0.00000E+00
         0.00000E+00
         0.00000E+00
         0.00000E+00
         0.00000E+00
         0.00000E+00
         0.00000E+00
         0.00000E+00
         0.00000E+00
         0.00000E+00
         0.00000E+00
         0.00000E+00
         0.00000E+00
         0.00000E+00
         0.00000E+00
         0.00000E+00
         0.00000E+00
         0.00000E+00
         0.00000E+00
         0.00000E+00
         0.00000E+00
         0.00000E+00
         0.00000E+00
         0.00000E+00
         0.00000E+00
         0.00000E+00
         0.00000E+00
         0.00000E+00
         0.00000E+00
         0.00000E+00
         0.00000E+00
         0.00000E+00
         0.00000E+00
         0.00000E+00
         0.00000E+00
         0.00000E+00
         0.00000E+00
         0.00000E+00
         0.00000E+00
         0.00000E+00
         0.00000E+00
         0.00000E+00
         0.00000E+00
         0.00000E+00
         0.00000E+00
         0.00000E+00
         0.00000E+00
         0.00000E+00
         0.00000E+00
         0.00000E+00
         0.00000E+00
         0.00000E+00
         0.00000E+00
         0.00000E+00
         0.00000E+00
         0.00000E+00
         0.00000E+00
         0.00000E+00
         0.00000E+00
         0.00000E+00
         0.00000E+00
         0.00000E+00
         0.00000E+00
         0.00000E+00
         0.00000E+00
         0.00000E+00
         0.00000E+00
         0.00000E+00
         0.00000E+00
         0.00000E+00
         0.00000E+00
         0.00000E+00
         0.00000E+00
         0.00000E+00
         0.00000E+00
         0.00000E+00
         0.00000E+00
         0.00000E+00
         0.00000E+00
         0.00000E+00
         0.00000E+00
         0.00000E+00
         0.00000E+00
         0.00000E+00
         0.00000E+00
         0.00000E+00
         0.00000E+00
         0.00000E+00
         0.00000E+00
         0.00000E+00
         0.00000E+00
         0.00000E+00
         0.00000E+00
         0.00000E+00
         0.00000E+00
         0.00000E+00
         0.00000E+00
         0.00000E+00
         0.00000E+00
         0.00000E+00
         0.00000E+00
         0.00000E+00
         0.00000E+00
         0.00000E+00
         0.00000E+00
         0.00000E+00
         0.00000E+00
         0.00000E+00
         0.00000E+00
         0.00000E+00
         0.00000E+00
         0.00000E+00
         0.00000E+00
         0.00000E+00
         0.00000E+00
         0.00000E+00
         0.00000E+00
         0.00000E+00
         0.00000E+00
         0.00000E+00
         0.00000E+00
         0.00000E+00
         0.00000E+00
         0.00000E+00
         0.00000E+00
         0.00000E+00
         0.00000E+00
         0.00000E+00
         0.00000E+00
         0.00000E+00
         0.00000E+00
         0.00000E+00
         0.00000E+00
         0.00000E+00
         0.00000E+00
         0.00000E+00
         0.00000E+00
         0.00000E+00
         0.00000E+00
         0.00000E+00
         0.00000E+00
         0.00000E+00
         0.00000E+00
         0.00000E+00
         0.00000E+00
         0.00000E+00
         0.00000E+00
         0.00000E+00
         0.00000E+00
         0.00000E+00
         0.00000E+00
         0.00000E+00
         0.00000E+00
         0.00000E+00
         0.00000E+00
         0.00000E+00
         0.00000E+00
         0.00000E+00
         0.00000E+00
         0.00000E+00
         0.00000E+00
         0.00000E+00
         0.00000E+00
         0.00000E+00
         0.00000E+00
         0.00000E+00
         0.00000E+00
         0.00000E+00
         0.00000E+00
         0.00000E+00
         0.00000E+00
         0.00000E+00
         0.00000E+00
         0.00000E+00
         0.00000E+00
         0.00000E+00
         0.00000E+00
         0.00000E+00
         0.00000E+00
         0.00000E+00
         0.00000E+00
         0.00000E+00
         0.00000E+00
         0.00000E+00
         0.00000E+00
         0.00000E+00
         0.00000E+00
         0.00000E+00
         0.00000E+00
         0.00000E+00
         0.00000E+00
         0.00000E+00
         0.00000E+00
         0.00000E+00
         0.00000E+00
         0.00000E+00
         0.00000E+00
         0.00000E+00
         0.00000E+00
         0.00000E+00
         0.00000E+00
         0.00000E+00
         0.00000E+00
         0.00000E+00
         0.00000E+00
         0.00000E+00
         0.00000E+00
         0.00000E+00
         0.00000E+00
         0.00000E+00
         0.00000E+00
         0.00000E+00
         0.00000E+00
         0.00000E+00
         0.00000E+00
         0.00000E+00
         0.00000E+00
         0.00000E+00
         0.00000E+00
         0.00000E+00
         0.00000E+00
         0.00000E+00
         0.00000E+00
         0.00000E+00
         0.00000E+00
         0.00000E+00
         0.00000E+00
         0.00000E+00
         0.00000E+00
         0.00000E+00
         0.00000E+00
         0.00000E+00
         0.00000E+00
         0.00000E+00
         0.00000E+00
         0.00000E+00
         0.00000E+00
         0.00000E+00
         0.00000E+00
         0.00000E+00
         0.00000E+00
         0.00000E+00
         0.00000E+00
         0.00000E+00
         0.00000E+00
         0.00000E+00
         0.00000E+00
         0.00000E+00
         0.00000E+00
         0.00000E+00
         0.00000E+00
         0.00000E+00
         0.00000E+00
         0.00000E+00
         0.00000E+00
         0.00000E+00
         0.00000E+00
         0.00000E+00
         0.00000E+00
         0.00000E+00
         0.00000E+00
         0.00000E+00
         0.00000E+00
         0.00000E+00
         0.00000E+00
         0.00000E+00
         0.00000E+00
         0.00000E+00
         0.00000E+00
         0.00000E+00
         0.00000E+00
         0.00000E+00
         0.00000E+00
         0.00000E+00
         0.00000E+00
         0.00000E+00
         0.00000E+00
         0.00000E+00
         0.00000E+00
         0.00000E+00
         0.00000E+00
         0.00000E+00
         0.00000E+00
         0.00000E+00
         0.00000E+00
         0.00000E+00
         0.00000E+00
         0.00000E+00
         0.00000E+00
         0.00000E+00
         0.00000E+00
         0.00000E+00
         0.00000E+00
         0.00000E+00
         0.00000E+00
         0.00000E+00
         0.00000E+00
         0.00000E+00
         0.00000E+00
         0.00000E+00
         0.00000E+00
         0.00000E+00
         0.00000E+00
         0.00000E+00
         0.00000E+00
         0.00000E+00
         0.00000E+00
         0.00000E+00
         0.00000E+00
         0.00000E+00
         0.00000E+00
         0.00000E+00
         0.00000E+00
         0.00000E+00
         0.00000E+00
         0.00000E+00
         0.00000E+00
         0.00000E+00
         0.00000E+00
         0.00000E+00
         0.00000E+00
         0.00000E+00
         0.00000E+00
         0.00000E+00
         0.00000E+00
         0.00000E+00
         0.00000E+00
         0.00000E+00
         0.00000E+00
         0.00000E+00
         0.00000E+00
         0.00000E+00
         0.00000E+00
         0.00000E+00
         0.00000E+00
         0.00000E+00
         0.00000E+00
         0.00000E+00
         0.00000E+00
         0.00000E+00
         0.00000E+00
         0.00000E+00
         0.00000E+00
         0.00000E+00
         0.00000E+00
         0.00000E+00
         0.00000E+00
         0.00000E+00
         0.00000E+00
         0.00000E+00
         0.00000E+00
         0.00000E+00
         0.00000E+00
         0.00000E+00
         0.00000E+00
         0.00000E+00
         0.00000E+00
         0.00000E+00
         0.00000E+00
         0.00000E+00
         0.00000E+00
         0.00000E+00
         0.00000E+00
         0.00000E+00
         0.00000E+00
         0.00000E+00
         0.00000E+00
         0.00000E+00
         0.00000E+00
         0.00000E+00
         0.00000E+00
         0.00000E+00
         0.00000E+00
         0.00000E+00
         0.00000E+00
         0.00000E+00
         0.00000E+00
         0.00000E+00
         0.00000E+00
         0.00000E+00
         0.00000E+00
         0.00000E+00
         0.00000E+00
         0.00000E+00
         0.00000E+00
         0.00000E+00
         0.00000E+00
         0.00000E+00
         0.00000E+00
         0.00000E+00
         0.00000E+00
         0.00000E+00
         0.00000E+00
         0.00000E+00
         0.00000E+00
         0.00000E+00
         0.00000E+00
         0.00000E+00
         0.00000E+00
         0.00000E+00
         0.00000E+00
         0.00000E+00
         0.00000E+00
         0.00000E+00
         0.00000E+00
         0.00000E+00
         0.00000E+00
         0.00000E+00
         0.00000E+00
         0.00000E+00
         0.00000E+00
         0.00000E+00
         0.00000E+00
         0.00000E+00
         0.00000E+00
         0.00000E+00
         0.00000E+00
         0.00000E+00
         0.00000E+00
         0.00000E+00
         0.00000E+00
         0.00000E+00
         0.00000E+00
         0.00000E+00
         0.00000E+00
         0.00000E+00
         0.00000E+00
         0.00000E+00
         0.00000E+00
         0.00000E+00
         0.00000E+00
         0.00000E+00
         0.00000E+00
         0.00000E+00
         0.00000E+00
         0.00000E+00
         0.00000E+00
         0.00000E+00
         0.00000E+00
         0.00000E+00
         0.00000E+00
         0.00000E+00
         0.00000E+00
         0.00000E+00
         0.00000E+00
         0.00000E+00
         0.00000E+00
         0.00000E+00
         0.00000E+00
         0.00000E+00
         0.00000E+00
         0.00000E+00
         0.00000E+00
         0.00000E+00
         0.00000E+00
         0.00000E+00
         0.00000E+00
         0.00000E+00
         0.00000E+00
         0.00000E+00
         0.00000E+00
         0.00000E+00
         0.00000E+00
         0.00000E+00
         0.00000E+00
         0.00000E+00
         0.00000E+00
         0.00000E+00
         0.00000E+00
         0.00000E+00
         0.00000E+00
         0.00000E+00
         0.00000E+00
         0.00000E+00
         0.00000E+00
         0.00000E+00
         0.00000E+00
         0.00000E+00
         0.00000E+00
         0.00000E+00
         0.00000E+00
         0.00000E+00
         0.00000E+00
         0.00000E+00
         0.00000E+00
         0.00000E+00
         0.00000E+00
         0.00000E+00
         0.00000E+00
         0.00000E+00
         0.00000E+00
         0.00000E+00
         0.00000E+00
         0.00000E+00
         0.00000E+00
         0.00000E+00
         0.00000E+00
         0.00000E+00
         0.00000E+00
         0.00000E+00
         0.00000E+00
         0.00000E+00
         0.00000E+00
         0.00000E+00
         0.00000E+00
         0.00000E+00
         0.00000E+00
         0.00000E+00
         0.00000E+00
         0.00000E+00
         0.00000E+00
         0.00000E+00
         0.00000E+00
         0.00000E+00
         0.00000E+00
         0.00000E+00
         0.00000E+00
         0.00000E+00
         0.00000E+00
         0.00000E+00
         0.00000E+00
         0.00000E+00
         0.00000E+00
         0.00000E+00
         0.00000E+00
         0.00000E+00
         0.00000E+00
         0.00000E+00
         0.00000E+00
         0.00000E+00
         0.00000E+00
         0.00000E+00
         0.00000E+00
         0.00000E+00
         0.00000E+00
         0.00000E+00
         0.00000E+00
         0.00000E+00
         0.00000E+00
         0.00000E+00
         0.00000E+00
         0.00000E+00
         0.00000E+00
         0.00000E+00
         0.00000E+00
         0.00000E+00
         0.00000E+00
         0.00000E+00
         0.00000E+00
         0.00000E+00
         0.00000E+00
         0.00000E+00
         0.00000E+00
         0.00000E+00
         0.00000E+00
         0.00000E+00
         0.00000E+00
         0.00000E+00
         0.00000E+00
         0.00000E+00
         0.00000E+00
         0.00000E+00
         0.00000E+00
         0.00000E+00
         0.00000E+00
         0.00000E+00
         0.00000E+00
         0.00000E+00
         0.00000E+00
         0.00000E+00
         0.00000E+00
         0.00000E+00
         0.00000E+00
         0.00000E+00
         0.00000E+00
         0.00000E+00
         0.00000E+00
         0.00000E+00
         0.00000E+00
         0.00000E+00
         0.00000E+00
         0.00000E+00
         0.00000E+00
         0.00000E+00
         0.00000E+00
         0.00000E+00
         0.00000E+00
         0.00000E+00
         0.00000E+00
         0.00000E+00
         0.00000E+00
         0.00000E+00
         0.00000E+00
         0.00000E+00
         0.00000E+00
         0.00000E+00
         0.00000E+00
         0.00000E+00
         0.00000E+00
         0.00000E+00
         0.00000E+00
         0.00000E+00
         0.00000E+00
         0.00000E+00
         0.00000E+00
         0.00000E+00
         0.00000E+00
         0.00000E+00
         0.00000E+00
         0.00000E+00
         0.00000E+00
         0.00000E+00
         0.00000E+00
         0.00000E+00
         0.00000E+00
         0.00000E+00
         0.00000E+00
         0.00000E+00
         0.00000E+00
         0.00000E+00
         0.00000E+00
         0.00000E+00
         0.00000E+00
         0.00000E+00
         0.00000E+00
         0.00000E+00
         0.00000E+00
         0.00000E+00
         0.00000E+00
         0.00000E+00
         0.00000E+00
         0.00000E+00
         0.00000E+00
         0.00000E+00
         0.00000E+00
         0.00000E+00
         0.00000E+00
         0.00000E+00
         0.00000E+00
         0.00000E+00
         0.00000E+00
         0.00000E+00
         0.00000E+00
         0.00000E+00
         0.00000E+00
         0.00000E+00
         0.00000E+00
         0.00000E+00
         0.00000E+00
         0.00000E+00
         0.00000E+00
         0.00000E+00
         0.00000E+00
         0.00000E+00
         0.00000E+00
         0.00000E+00
         0.00000E+00
         0.00000E+00
         0.00000E+00
         0.00000E+00
         0.00000E+00
         0.00000E+00
         0.00000E+00
         0.00000E+00
         0.00000E+00
         0.00000E+00
         0.00000E+00
         0.00000E+00
         0.00000E+00
         0.00000E+00
         0.00000E+00
         0.00000E+00
         0.00000E+00
         0.00000E+00
         0.00000E+00
         0.00000E+00
         0.00000E+00
         0.00000E+00
         0.00000E+00
         0.00000E+00
         0.00000E+00
         0.00000E+00
         0.00000E+00
         0.00000E+00
         0.00000E+00
         0.00000E+00
         0.00000E+00
         0.00000E+00
         0.00000E+00
         0.00000E+00
         0.00000E+00
         0.00000E+00
         0.00000E+00
         0.00000E+00
         0.00000E+00
         0.00000E+00
         0.00000E+00
         0.00000E+00
         0.00000E+00
         0.00000E+00
         0.00000E+00
         0.00000E+00
         0.00000E+00
         0.00000E+00
         0.00000E+00
         0.00000E+00
         0.00000E+00
         0.00000E+00
         0.00000E+00
         0.00000E+00
         0.00000E+00
         0.00000E+00
         0.00000E+00
         0.00000E+00
         0.00000E+00
         0.00000E+00
         0.00000E+00
         0.00000E+00
         0.00000E+00
         0.00000E+00
         0.00000E+00
         0.00000E+00
         0.00000E+00
         0.00000E+00
         0.00000E+00
         0.00000E+00
         0.00000E+00
         0.00000E+00
         0.00000E+00
         0.00000E+00
         0.00000E+00
         0.00000E+00
         0.00000E+00
         0.00000E+00
         0.00000E+00
         0.00000E+00
         0.00000E+00
         0.00000E+00
         0.00000E+00
         0.00000E+00
         0.00000E+00
         0.00000E+00
         0.00000E+00
         0.00000E+00
         0.00000E+00
         0.00000E+00
         0.00000E+00
         0.00000E+00
         0.00000E+00
         0.00000E+00
         0.00000E+00
         0.00000E+00
         0.00000E+00
         0.00000E+00
         0.00000E+00
         0.00000E+00
         0.00000E+00
         0.00000E+00
         0.00000E+00
         0.00000E+00
         0.00000E+00
         0.00000E+00
         0.00000E+00
         0.00000E+00
         0.00000E+00
         0.00000E+00
         0.00000E+00
         0.00000E+00
         0.00000E+00
         0.00000E+00
         0.00000E+00
         0.00000E+00
         0.00000E+00
         0.00000E+00
         0.00000E+00
         0.00000E+00
         0.00000E+00
         0.00000E+00
         0.00000E+00
         0.00000E+00
         0.00000E+00
         0.00000E+00
         0.00000E+00
         0.00000E+00
         0.00000E+00
         0.00000E+00
         0.00000E+00
         0.00000E+00
         0.00000E+00
         0.00000E+00
         0.00000E+00
         0.00000E+00
         0.00000E+00
         0.00000E+00
         0.00000E+00
         0.00000E+00
         0.00000E+00
         0.00000E+00
         0.00000E+00
         0.00000E+00
         0.00000E+00
         0.00000E+00
         0.00000E+00
         0.00000E+00
         0.00000E+00
         0.00000E+00
         0.00000E+00
         0.00000E+00
         0.00000E+00
         0.00000E+00
         0.00000E+00
         0.00000E+00
         0.00000E+00
         0.00000E+00
         0.00000E+00
         0.00000E+00
         0.00000E+00
         0.00000E+00
         0.00000E+00
         0.00000E+00
         0.00000E+00
         0.00000E+00
         0.00000E+00
         0.00000E+00
         0.00000E+00
         0.00000E+00
         0.00000E+00
         0.00000E+00
         0.00000E+00
         0.00000E+00
         0.00000E+00
         0.00000E+00
         0.00000E+00
         0.00000E+00
         0.00000E+00
         0.00000E+00
         0.00000E+00
         0.00000E+00
         0.00000E+00
         0.00000E+00
         0.00000E+00
         0.00000E+00
         0.00000E+00
         0.00000E+00
         0.00000E+00
         0.00000E+00
         0.00000E+00
         0.00000E+00
         0.00000E+00
         0.00000E+00
         0.00000E+00
         0.00000E+00
         0.00000E+00
         0.00000E+00
         0.00000E+00
         0.00000E+00
         0.00000E+00
         0.00000E+00
         0.00000E+00
         0.00000E+00
         0.00000E+00
         0.00000E+00
         0.00000E+00
         0.00000E+00
         0.00000E+00
         0.00000E+00
         0.00000E+00
         0.00000E+00
         0.00000E+00
         0.00000E+00
         0.00000E+00
         0.00000E+00
         0.00000E+00
         0.00000E+00
         0.00000E+00
         0.00000E+00
         0.00000E+00
         0.00000E+00
         0.00000E+00
         0.00000E+00
         0.00000E+00
         0.00000E+00
         0.00000E+00
         0.00000E+00
         0.00000E+00
         0.00000E+00
         0.00000E+00
         0.00000E+00
         0.00000E+00
         0.00000E+00
         0.00000E+00
         0.00000E+00
         0.00000E+00
         0.00000E+00
         0.00000E+00
         0.00000E+00
         0.00000E+00
         0.00000E+00
         0.00000E+00
         0.00000E+00
         0.00000E+00
         0.00000E+00
         0.00000E+00
         0.00000E+00
         0.00000E+00
         0.00000E+00
         0.00000E+00
         0.00000E+00
         0.00000E+00
         0.00000E+00
         0.00000E+00
         0.00000E+00
         0.00000E+00
         0.00000E+00
         0.00000E+00
         0.00000E+00
         0.00000E+00
         0.00000E+00
         0.00000E+00
         0.00000E+00
         0.00000E+00
         0.00000E+00
         0.00000E+00
         0.00000E+00
         0.00000E+00
         0.00000E+00
         0.00000E+00
         0.00000E+00
         0.00000E+00
         0.00000E+00
         0.00000E+00
         0.00000E+00
         0.00000E+00
         0.00000E+00
         0.00000E+00
         0.00000E+00
         0.00000E+00
         0.00000E+00
         0.00000E+00
         0.00000E+00
         0.00000E+00
         0.00000E+00
         0.00000E+00
         0.00000E+00
         0.00000E+00
         0.00000E+00
         0.00000E+00
         0.00000E+00
         0.00000E+00
         0.00000E+00
         0.00000E+00
         0.00000E+00
         0.00000E+00
         0.00000E+00
         0.00000E+00
         0.00000E+00
         0.00000E+00
         0.00000E+00
         0.00000E+00
         0.00000E+00
         0.00000E+00
         0.00000E+00
         0.00000E+00
         0.00000E+00
         0.00000E+00
         0.00000E+00
         0.00000E+00
         0.00000E+00
         0.00000E+00
         0.00000E+00
         0.00000E+00
         0.00000E+00
         0.00000E+00
         0.00000E+00
         0.00000E+00
         0.00000E+00
         0.00000E+00
         0.00000E+00
         0.00000E+00
         0.00000E+00
         0.00000E+00
         0.00000E+00
         0.00000E+00
         0.00000E+00
         0.00000E+00
         0.00000E+00
         0.00000E+00
         0.00000E+00
         0.00000E+00
         0.00000E+00
         0.00000E+00
         0.00000E+00
         0.00000E+00
         0.00000E+00
         0.00000E+00
         0.00000E+00
         0.00000E+00
         0.00000E+00
         0.00000E+00
         0.00000E+00
         0.00000E+00
         0.00000E+00
         0.00000E+00
         0.00000E+00
         0.00000E+00
         0.00000E+00
         0.00000E+00
         0.00000E+00
         0.00000E+00
         0.00000E+00
         0.00000E+00
         0.00000E+00
         0.00000E+00
         0.00000E+00
         0.00000E+00
         0.00000E+00
         0.00000E+00
         0.00000E+00
         0.00000E+00
         0.00000E+00
         0.00000E+00
         0.00000E+00
         0.00000E+00
         0.00000E+00
         0.00000E+00
         0.00000E+00
         0.00000E+00
         0.00000E+00
         0.00000E+00
         0.00000E+00
         0.00000E+00
         0.00000E+00
         0.00000E+00
         0.00000E+00
         0.00000E+00
         0.00000E+00
         0.00000E+00
         0.00000E+00
         0.00000E+00
         0.00000E+00
         0.00000E+00
         0.00000E+00
         0.00000E+00
         0.00000E+00
         0.00000E+00
         0.00000E+00
         0.00000E+00
         0.00000E+00
         0.00000E+00
         0.00000E+00
         0.00000E+00
         0.00000E+00
         0.00000E+00
         0.00000E+00
         0.00000E+00
         0.00000E+00
         0.00000E+00
         0.00000E+00
         0.00000E+00
         0.00000E+00
         0.00000E+00
         0.00000E+00
         0.00000E+00
         0.00000E+00
         0.00000E+00
         0.00000E+00
         0.00000E+00
         0.00000E+00
         0.00000E+00
         0.00000E+00
         0.00000E+00
         0.00000E+00
         0.00000E+00
         0.00000E+00
         0.00000E+00
         0.00000E+00
         0.00000E+00
         0.00000E+00
         0.00000E+00
         0.00000E+00
         0.00000E+00
         0.00000E+00
         0.00000E+00
         0.00000E+00
         0.00000E+00
         0.00000E+00
         0.00000E+00
         0.00000E+00
         0.00000E+00
         0.00000E+00
         0.00000E+00
         0.00000E+00
         0.00000E+00
         0.00000E+00
         0.00000E+00
         0.00000E+00
         0.00000E+00
         0.00000E+00
         0.00000E+00
         0.00000E+00
         0.00000E+00
         0.00000E+00
         0.00000E+00
         0.00000E+00
         0.00000E+00
         0.00000E+00
         0.00000E+00
         0.00000E+00
         0.00000E+00
         0.00000E+00
         0.00000E+00
         0.00000E+00
         0.00000E+00
         0.00000E+00
         0.00000E+00
         0.00000E+00
         0.00000E+00
         0.00000E+00
         0.00000E+00
         0.00000E+00
         0.00000E+00
         0.00000E+00
         0.00000E+00
         0.00000E+00
         0.00000E+00
         0.00000E+00
         0.00000E+00
         0.00000E+00
         0.00000E+00
         0.00000E+00
         0.00000E+00
         0.00000E+00
         0.00000E+00
         0.00000E+00
         0.00000E+00
         0.00000E+00
         0.00000E+00
         0.00000E+00
         0.00000E+00
         0.00000E+00
         0.00000E+00
         0.00000E+00
         0.00000E+00
         0.00000E+00
         0.00000E+00
         0.00000E+00
         0.00000E+00
         0.00000E+00
         0.00000E+00
         0.00000E+00
         0.00000E+00
         0.00000E+00
         0.00000E+00
         0.00000E+00
         0.00000E+00
         0.00000E+00
         0.00000E+00
         0.00000E+00
         0.00000E+00
         0.00000E+00
         0.00000E+00
         0.00000E+00
         0.00000E+00
         0.00000E+00
         0.00000E+00
         0.00000E+00
         0.00000E+00
         0.00000E+00
         0.00000E+00
         0.00000E+00
         0.00000E+00
         0.00000E+00
         0.00000E+00
         0.00000E+00
         0.00000E+00
         0.00000E+00
         0.00000E+00
         0.00000E+00
         0.00000E+00
         0.00000E+00
         0.00000E+00
         0.00000E+00
         0.00000E+00
         0.00000E+00
         0.00000E+00
         0.00000E+00
         0.00000E+00
         0.00000E+00
         0.00000E+00
         0.00000E+00
         0.00000E+00
         0.00000E+00
         0.00000E+00
         0.00000E+00
         0.00000E+00
         0.00000E+00
         0.00000E+00
         0.00000E+00
         0.00000E+00
         0.00000E+00
         0.00000E+00
         0.00000E+00
         0.00000E+00
         0.00000E+00
         0.00000E+00
         0.00000E+00
         0.00000E+00
         0.00000E+00
         0.00000E+00
         0.00000E+00
         0.00000E+00
         0.00000E+00
         0.00000E+00
         0.00000E+00
         0.00000E+00
         0.00000E+00
         0.00000E+00
         0.00000E+00
         0.00000E+00
         0.00000E+00
         0.00000E+00
         0.00000E+00
         0.00000E+00
         0.00000E+00
         0.00000E+00
         0.00000E+00
         0.00000E+00
         0.00000E+00
         0.00000E+00
         0.00000E+00
         0.00000E+00
         0.00000E+00
         0.00000E+00
         0.00000E+00
         0.00000E+00
         0.00000E+00
         0.00000E+00
         0.00000E+00
         0.00000E+00
         0.00000E+00
         0.00000E+00
         0.00000E+00
         0.00000E+00
         0.00000E+00
         0.00000E+00
         0.00000E+00
         0.00000E+00
         0.00000E+00
         0.00000E+00
         0.00000E+00
         0.00000E+00
         0.00000E+00
         0.00000E+00
         0.00000E+00
         0.00000E+00
         0.00000E+00
         0.00000E+00
         0.00000E+00
         0.00000E+00
         0.00000E+00
         0.00000E+00
         0.00000E+00
         0.00000E+00
         0.00000E+00
         0.00000E+00
         0.00000E+00
         0.00000E+00
         0.00000E+00
         0.00000E+00
         0.00000E+00
         0.00000E+00
         0.00000E+00
         0.00000E+00
         0.00000E+00
         0.00000E+00
         0.00000E+00
         0.00000E+00
         0.00000E+00
         0.00000E+00
         0.00000E+00
         0.00000E+00
         0.00000E+00
         0.00000E+00
         0.00000E+00
         0.00000E+00
         0.00000E+00
         0.00000E+00
         0.00000E+00
         0.00000E+00
         0.00000E+00
         0.00000E+00
         0.00000E+00
         0.00000E+00
         0.00000E+00
         0.00000E+00
         0.00000E+00
         0.00000E+00
         0.00000E+00
         0.00000E+00
         0.00000E+00
         0.00000E+00
         0.00000E+00
         0.00000E+00
         0.00000E+00
         0.00000E+00
         0.00000E+00
         0.00000E+00
         0.00000E+00
         0.00000E+00
         0.00000E+00
         0.00000E+00
         0.00000E+00
         0.00000E+00
         0.00000E+00
         0.00000E+00
         0.00000E+00
         0.00000E+00
         0.00000E+00
         0.00000E+00
         0.00000E+00
         0.00000E+00
         0.00000E+00
         0.00000E+00
         0.00000E+00
         0.00000E+00
         0.00000E+00
         0.00000E+00
         0.00000E+00
         0.00000E+00
         0.00000E+00
         0.00000E+00
         0.00000E+00
         0.00000E+00
         0.00000E+00
         0.00000E+00
         0.00000E+00
         0.00000E+00
         0.00000E+00
         0.00000E+00
         0.00000E+00
         0.00000E+00
         0.00000E+00
         0.00000E+00
         0.00000E+00
         0.00000E+00
         0.00000E+00
         0.00000E+00
         0.00000E+00
         0.00000E+00
         0.00000E+00
         0.00000E+00
         0.00000E+00
         0.00000E+00
         0.00000E+00
         0.00000E+00
         0.00000E+00
  
SCALARS                 displacement_z  double 1
LOOKUP_TABLE default
        -0.90948E-02
        -0.90804E-02
        -0.90782E-02
        -0.91050E-02
        -0.55890E-16
        -0.62670E-16
        -0.60010E-16
        -0.54517E-16
        -0.90510E-02
        -0.90831E-02
        -0.56357E-16
        -0.54540E-16
        -0.90646E-02
        -0.90851E-02
        -0.66962E-16
        -0.62961E-16
        -0.90960E-02
        -0.90999E-02
        -0.49480E-16
        -0.54879E-16
        -0.90537E-02
        -0.90413E-02
        -0.90473E-02
        -0.66366E-16
        -0.57959E-16
        -0.59850E-16
        -0.90790E-02
        -0.90708E-02
        -0.63668E-16
        -0.53694E-16
        -0.91075E-02
        -0.91145E-02
        -0.91026E-02
        -0.54335E-16
        -0.50513E-16
        -0.49112E-16
        -0.90786E-02
        -0.91080E-02
        -0.57483E-16
        -0.52454E-16
        -0.90701E-02
        -0.90948E-02
        -0.49682E-16
        -0.43983E-16
        -0.90473E-02
        -0.90589E-02
        -0.54444E-16
        -0.60834E-16
        -0.91166E-02
        -0.53187E-16
        -0.90749E-02
        -0.62498E-16
        -0.91057E-02
        -0.56164E-16
        -0.91147E-02
        -0.53874E-16
        -0.90901E-02
        -0.91096E-02
        -0.54892E-16
        -0.53460E-16
        -0.91009E-02
        -0.90748E-02
        -0.55045E-16
        -0.62227E-16
        -0.90993E-02
        -0.53115E-16
        -0.90885E-02
        -0.57969E-16
        -0.90105E-02
        -0.90420E-02
        -0.55799E-16
        -0.58467E-16
        -0.90538E-02
        -0.58958E-16
        -0.90876E-02
        -0.46580E-16
        -0.90845E-02
        -0.45213E-16
        -0.90548E-02
        -0.47673E-16
        -0.90209E-02
        -0.90633E-02
        -0.45422E-16
        -0.47355E-16
        -0.90977E-02
        -0.44105E-16
        -0.90502E-02
        -0.57837E-16
        -0.90379E-02
        -0.59195E-16
        -0.90071E-02
        -0.90490E-02
        -0.56847E-16
        -0.57511E-16
        -0.90775E-02
        -0.52236E-16
        -0.90733E-02
        -0.51491E-16
        -0.90506E-02
        -0.55123E-16
        -0.90181E-02
        -0.90561E-02
        -0.54056E-16
        -0.55642E-16
        -0.89238E-02
        -0.89388E-02
        -0.41968E-16
        -0.39474E-16
        -0.89371E-02
        -0.40074E-16
        -0.89262E-02
        -0.38424E-16
        -0.89272E-02
        -0.37889E-16
        -0.89257E-02
        -0.35806E-16
        -0.89344E-02
        -0.31810E-16
        -0.89381E-02
        -0.28643E-16
        -0.89359E-02
        -0.28444E-16
        -0.89341E-02
        -0.30846E-16
        -0.89209E-02
        -0.32418E-16
        -0.89378E-02
        -0.29601E-16
        -0.89438E-02
        -0.26682E-16
        -0.89422E-02
        -0.26652E-16
        -0.89354E-02
        -0.29790E-16
        -0.89288E-02
        -0.33967E-16
        -0.89253E-02
        -0.36491E-16
        -0.89357E-02
        -0.39410E-16
        -0.89257E-02
        -0.42222E-16
        -0.89409E-02
        -0.38679E-16
        -0.89357E-02
        -0.33931E-16
        -0.89308E-02
        -0.33826E-16
        -0.89394E-02
        -0.37010E-16
        -0.89273E-02
        -0.39456E-16
        -0.89394E-02
        -0.37444E-16
        -0.89397E-02
        -0.36199E-16
        -0.12819E-01
        -0.12816E-01
        -0.12816E-01
        -0.12820E-01
        -0.12812E-01
        -0.12817E-01
        -0.12814E-01
        -0.12817E-01
        -0.12820E-01
        -0.12820E-01
        -0.12813E-01
        -0.12811E-01
        -0.12811E-01
        -0.12816E-01
        -0.12815E-01
        -0.12820E-01
        -0.12822E-01
        -0.12820E-01
        -0.12816E-01
        -0.12821E-01
        -0.12815E-01
        -0.12819E-01
        -0.12811E-01
        -0.12813E-01
        -0.12822E-01
        -0.12815E-01
        -0.12821E-01
        -0.12822E-01
        -0.12818E-01
        -0.12821E-01
        -0.12820E-01
        -0.12815E-01
        -0.12820E-01
        -0.12817E-01
        -0.12806E-01
        -0.12810E-01
        -0.12812E-01
        -0.12818E-01
        -0.12817E-01
        -0.12812E-01
        -0.12808E-01
        -0.12814E-01
        -0.12819E-01
        -0.12812E-01
        -0.12810E-01
        -0.12806E-01
        -0.12811E-01
        -0.12816E-01
        -0.12815E-01
        -0.12812E-01
        -0.12807E-01
        -0.12813E-01
        -0.12797E-01
        -0.12800E-01
        -0.12799E-01
        -0.12798E-01
        -0.12798E-01
        -0.12798E-01
        -0.12800E-01
        -0.12800E-01
        -0.12799E-01
        -0.12798E-01
        -0.12796E-01
        -0.12799E-01
        -0.12801E-01
        -0.12800E-01
        -0.12799E-01
        -0.12798E-01
        -0.12798E-01
        -0.12799E-01
        -0.12798E-01
        -0.12800E-01
        -0.12800E-01
        -0.12799E-01
        -0.12800E-01
        -0.12798E-01
        -0.12800E-01
        -0.12800E-01
        -0.13124E-01
        -0.13124E-01
        -0.13124E-01
        -0.13124E-01
        -0.13124E-01
        -0.13124E-01
        -0.13124E-01
        -0.13124E-01
        -0.13124E-01
        -0.13124E-01
        -0.13124E-01
        -0.13124E-01
        -0.13124E-01
        -0.13124E-01
        -0.13124E-01
        -0.13124E-01
        -0.13124E-01
        -0.13124E-01
        -0.13124E-01
        -0.13124E-01
        -0.13124E-01
        -0.13124E-01
        -0.13124E-01
        -0.13124E-01
        -0.13124E-01
        -0.13124E-01
        -0.13124E-01
        -0.13124E-01
        -0.13124E-01
        -0.13124E-01
        -0.13124E-01
        -0.13124E-01
        -0.13124E-01
        -0.13124E-01
        -0.13124E-01
        -0.13124E-01
        -0.13124E-01
        -0.13124E-01
        -0.13124E-01
        -0.13124E-01
        -0.13124E-01
        -0.13124E-01
        -0.13124E-01
        -0.13124E-01
        -0.13124E-01
        -0.13124E-01
        -0.13124E-01
        -0.13124E-01
        -0.13124E-01
        -0.13124E-01
        -0.13124E-01
        -0.13124E-01
        -0.13124E-01
        -0.13124E-01
        -0.13124E-01
        -0.13124E-01
        -0.13124E-01
        -0.13124E-01
        -0.13124E-01
        -0.13124E-01
        -0.13124E-01
        -0.13124E-01
        -0.13124E-01
        -0.13124E-01
        -0.13124E-01
        -0.13124E-01
        -0.13124E-01
        -0.13124E-01
        -0.13124E-01
        -0.13124E-01
        -0.13124E-01
        -0.13124E-01
        -0.13124E-01
        -0.13124E-01
        -0.13124E-01
        -0.13124E-01
        -0.13124E-01
        -0.13124E-01
        -0.13124E-01
        -0.13124E-01
        -0.13124E-01
        -0.13124E-01
        -0.13124E-01
        -0.13124E-01
        -0.13124E-01
        -0.13124E-01
        -0.13124E-01
        -0.13124E-01
        -0.13124E-01
        -0.13124E-01
        -0.13124E-01
        -0.13124E-01
        -0.13124E-01
        -0.13124E-01
        -0.13124E-01
        -0.13124E-01
        -0.13124E-01
        -0.13124E-01
        -0.13124E-01
        -0.13124E-01
        -0.13124E-01
        -0.13124E-01
        -0.13124E-01
        -0.13124E-01
        -0.13124E-01
        -0.13124E-01
        -0.13124E-01
        -0.13124E-01
        -0.13124E-01
        -0.13124E-01
        -0.13124E-01
        -0.13124E-01
        -0.13124E-01
        -0.13124E-01
        -0.13124E-01
        -0.13124E-01
        -0.13124E-01
        -0.13124E-01
        -0.13124E-01
        -0.13124E-01
        -0.13124E-01
        -0.13124E-01
        -0.13124E-01
        -0.13124E-01
        -0.13124E-01
        -0.13124E-01
        -0.13124E-01
        -0.13124E-01
        -0.13124E-01
        -0.13124E-01
        -0.13124E-01
        -0.13124E-01
        -0.13124E-01
        -0.13124E-01
        -0.13124E-01
        -0.13124E-01
        -0.13124E-01
        -0.13124E-01
        -0.13124E-01
        -0.13124E-01
        -0.13124E-01
        -0.13124E-01
        -0.13124E-01
        -0.13124E-01
        -0.13124E-01
        -0.13124E-01
        -0.13124E-01
        -0.13124E-01
        -0.13124E-01
        -0.13124E-01
        -0.13124E-01
        -0.13124E-01
        -0.13124E-01
        -0.13124E-01
        -0.13124E-01
        -0.13124E-01
        -0.13124E-01
        -0.13124E-01
        -0.13124E-01
        -0.13124E-01
        -0.13124E-01
        -0.13124E-01
        -0.13124E-01
        -0.13124E-01
        -0.13124E-01
        -0.13124E-01
        -0.13124E-01
        -0.13124E-01
        -0.13124E-01
        -0.13124E-01
        -0.13124E-01
        -0.13124E-01
        -0.13124E-01
        -0.13124E-01
        -0.13124E-01
        -0.13124E-01
        -0.13124E-01
        -0.13124E-01
        -0.13124E-01
        -0.13124E-01
        -0.13124E-01
        -0.13124E-01
        -0.13124E-01
        -0.13124E-01
        -0.13124E-01
        -0.13124E-01
        -0.13124E-01
        -0.13124E-01
        -0.13124E-01
        -0.13124E-01
        -0.13124E-01
        -0.13124E-01
        -0.13124E-01
        -0.13124E-01
        -0.13124E-01
        -0.13124E-01
        -0.13124E-01
        -0.13124E-01
        -0.13124E-01
        -0.13124E-01
        -0.13124E-01
        -0.13124E-01
        -0.13124E-01
        -0.13124E-01
        -0.13124E-01
        -0.13124E-01
        -0.13124E-01
        -0.13124E-01
        -0.13124E-01
        -0.13124E-01
        -0.13124E-01
        -0.13124E-01
        -0.13124E-01
        -0.13124E-01
        -0.13124E-01
        -0.13124E-01
        -0.13124E-01
        -0.13124E-01
        -0.13124E-01
        -0.13124E-01
        -0.13124E-01
        -0.13124E-01
        -0.13124E-01
        -0.13124E-01
        -0.13124E-01
        -0.13124E-01
        -0.13124E-01
        -0.13124E-01
        -0.13124E-01
        -0.13124E-01
        -0.13124E-01
        -0.13124E-01
        -0.13124E-01
        -0.13124E-01
        -0.13124E-01
        -0.13124E-01
        -0.13124E-01
        -0.13124E-01
        -0.13124E-01
        -0.13124E-01
        -0.13124E-01
        -0.13124E-01
        -0.13124E-01
        -0.13124E-01
        -0.13124E-01
        -0.13124E-01
        -0.13124E-01
        -0.13124E-01
        -0.13124E-01
        -0.13124E-01
        -0.13124E-01
        -0.13124E-01
        -0.13124E-01
        -0.13124E-01
        -0.13124E-01
        -0.13124E-01
        -0.13124E-01
        -0.13124E-01
        -0.13124E-01
        -0.13124E-01
        -0.13124E-01
        -0.13124E-01
        -0.13124E-01
        -0.13124E-01
        -0.13124E-01
        -0.13124E-01
        -0.13124E-01
        -0.13124E-01
        -0.13124E-01
        -0.13124E-01
        -0.13124E-01
        -0.13124E-01
        -0.13124E-01
        -0.13124E-01
        -0.13124E-01
        -0.13124E-01
        -0.13124E-01
        -0.13124E-01
        -0.13124E-01
        -0.13124E-01
        -0.13124E-01
        -0.13124E-01
        -0.13124E-01
        -0.13124E-01
        -0.13124E-01
        -0.13124E-01
        -0.13124E-01
        -0.13124E-01
        -0.13124E-01
        -0.13124E-01
        -0.13124E-01
        -0.13124E-01
        -0.13124E-01
        -0.13124E-01
        -0.13124E-01
        -0.13124E-01
        -0.13124E-01
        -0.13124E-01
        -0.13124E-01
        -0.13124E-01
        -0.13124E-01
        -0.13124E-01
        -0.13124E-01
        -0.13124E-01
        -0.13124E-01
        -0.13124E-01
        -0.13124E-01
        -0.13124E-01
        -0.13124E-01
        -0.13124E-01
        -0.13124E-01
        -0.13124E-01
        -0.13124E-01
        -0.13124E-01
        -0.13124E-01
        -0.13124E-01
        -0.13124E-01
        -0.13124E-01
        -0.13124E-01
        -0.13124E-01
        -0.13124E-01
        -0.13124E-01
        -0.13124E-01
        -0.13124E-01
        -0.13124E-01
        -0.13124E-01
        -0.13124E-01
        -0.13124E-01
        -0.13124E-01
        -0.13124E-01
        -0.13124E-01
        -0.13124E-01
        -0.13124E-01
        -0.13124E-01
        -0.13124E-01
        -0.13124E-01
        -0.13124E-01
        -0.13124E-01
        -0.13124E-01
        -0.13124E-01
        -0.13124E-01
        -0.13124E-01
        -0.13124E-01
        -0.13124E-01
        -0.13124E-01
        -0.13124E-01
        -0.13124E-01
        -0.13124E-01
        -0.13124E-01
        -0.13124E-01
        -0.13124E-01
        -0.13124E-01
        -0.13124E-01
        -0.13124E-01
        -0.13124E-01
        -0.13124E-01
        -0.13124E-01
        -0.13124E-01
        -0.13124E-01
        -0.13124E-01
        -0.13124E-01
        -0.13124E-01
        -0.13124E-01
        -0.13124E-01
        -0.13124E-01
        -0.13124E-01
        -0.13124E-01
        -0.13124E-01
        -0.13124E-01
        -0.13124E-01
        -0.13124E-01
        -0.13124E-01
        -0.13124E-01
        -0.13124E-01
        -0.13124E-01
        -0.13124E-01
        -0.13124E-01
        -0.13124E-01
        -0.13124E-01
        -0.13124E-01
        -0.13124E-01
        -0.13124E-01
        -0.13124E-01
        -0.13124E-01
        -0.13124E-01
        -0.13124E-01
        -0.13124E-01
        -0.13124E-01
        -0.13124E-01
        -0.13124E-01
        -0.13124E-01
        -0.13124E-01
        -0.13124E-01
        -0.13124E-01
        -0.13124E-01
        -0.13124E-01
        -0.13124E-01
        -0.13124E-01
        -0.13124E-01
        -0.13124E-01
        -0.13124E-01
        -0.13124E-01
        -0.13124E-01
        -0.13124E-01
        -0.13124E-01
        -0.13124E-01
        -0.13124E-01
        -0.13124E-01
        -0.13124E-01
        -0.13124E-01
        -0.13124E-01
        -0.13124E-01
        -0.13124E-01
        -0.13124E-01
        -0.13124E-01
        -0.13124E-01
        -0.13124E-01
        -0.13124E-01
        -0.13124E-01
        -0.13124E-01
        -0.13124E-01
        -0.13124E-01
        -0.13124E-01
        -0.13124E-01
        -0.13124E-01
        -0.13124E-01
        -0.13124E-01
        -0.13124E-01
        -0.13124E-01
        -0.13124E-01
        -0.13124E-01
        -0.13124E-01
        -0.13124E-01
        -0.13124E-01
        -0.13124E-01
        -0.13124E-01
        -0.13124E-01
        -0.13124E-01
        -0.13124E-01
        -0.13124E-01
        -0.13124E-01
        -0.13124E-01
        -0.13124E-01
        -0.13124E-01
        -0.13124E-01
        -0.13124E-01
        -0.13124E-01
        -0.13124E-01
        -0.13124E-01
        -0.13124E-01
        -0.13124E-01
        -0.13124E-01
        -0.13124E-01
        -0.13124E-01
        -0.13124E-01
        -0.13124E-01
        -0.13124E-01
        -0.13124E-01
        -0.13124E-01
        -0.13124E-01
        -0.13124E-01
        -0.13124E-01
        -0.13124E-01
        -0.13124E-01
        -0.13124E-01
        -0.13124E-01
        -0.13124E-01
        -0.13124E-01
        -0.13124E-01
        -0.13124E-01
        -0.13124E-01
        -0.13124E-01
        -0.13124E-01
        -0.13124E-01
        -0.13124E-01
        -0.13124E-01
        -0.13124E-01
        -0.13124E-01
        -0.13124E-01
        -0.13124E-01
        -0.13124E-01
        -0.13124E-01
        -0.13124E-01
        -0.13124E-01
        -0.13124E-01
        -0.13124E-01
        -0.13124E-01
        -0.13124E-01
        -0.13124E-01
        -0.13124E-01
        -0.13124E-01
        -0.13124E-01
        -0.13124E-01
        -0.13124E-01
        -0.13124E-01
        -0.13124E-01
        -0.13124E-01
        -0.13124E-01
        -0.13124E-01
        -0.13124E-01
        -0.13124E-01
        -0.13124E-01
        -0.13124E-01
        -0.13124E-01
        -0.13124E-01
        -0.13124E-01
        -0.13124E-01
        -0.13124E-01
        -0.13124E-01
        -0.13124E-01
        -0.13124E-01
        -0.13124E-01
        -0.13124E-01
        -0.13124E-01
        -0.13124E-01
        -0.13124E-01
        -0.13124E-01
        -0.13124E-01
        -0.13124E-01
        -0.13124E-01
        -0.13124E-01
        -0.13124E-01
        -0.13124E-01
        -0.13124E-01
        -0.13124E-01
        -0.13124E-01
        -0.13124E-01
        -0.13124E-01
        -0.13124E-01
        -0.13124E-01
        -0.13124E-01
        -0.13124E-01
        -0.13124E-01
        -0.13124E-01
        -0.13124E-01
        -0.13124E-01
        -0.13124E-01
        -0.13124E-01
        -0.13124E-01
        -0.13124E-01
        -0.13124E-01
        -0.13124E-01
        -0.13124E-01
        -0.13124E-01
        -0.13124E-01
        -0.13124E-01
        -0.13124E-01
        -0.13124E-01
        -0.13124E-01
        -0.13124E-01
        -0.13124E-01
        -0.13124E-01
        -0.13124E-01
        -0.13124E-01
        -0.13124E-01
        -0.13124E-01
        -0.13124E-01
        -0.13124E-01
        -0.13124E-01
        -0.13124E-01
        -0.13124E-01
        -0.13124E-01
        -0.13124E-01
        -0.13124E-01
        -0.13124E-01
        -0.13124E-01
        -0.13124E-01
        -0.13124E-01
        -0.13124E-01
        -0.13124E-01
        -0.13124E-01
        -0.13124E-01
        -0.13124E-01
        -0.13124E-01
        -0.13124E-01
        -0.13124E-01
        -0.13124E-01
        -0.13124E-01
        -0.13124E-01
        -0.13124E-01
        -0.13124E-01
        -0.13124E-01
        -0.13124E-01
        -0.13124E-01
        -0.13124E-01
        -0.13124E-01
        -0.13124E-01
        -0.13124E-01
        -0.13124E-01
        -0.13124E-01
        -0.13124E-01
        -0.13124E-01
        -0.13124E-01
        -0.13124E-01
        -0.13124E-01
        -0.13124E-01
        -0.13124E-01
        -0.13124E-01
        -0.13124E-01
        -0.13124E-01
        -0.13124E-01
        -0.13124E-01
        -0.13124E-01
        -0.13124E-01
        -0.13124E-01
        -0.13124E-01
        -0.13124E-01
        -0.13124E-01
        -0.13124E-01
        -0.13124E-01
        -0.13124E-01
        -0.13124E-01
        -0.13124E-01
        -0.13124E-01
        -0.13124E-01
        -0.13124E-01
        -0.13124E-01
        -0.13124E-01
        -0.13124E-01
        -0.13124E-01
        -0.13124E-01
        -0.13124E-01
        -0.13124E-01
        -0.13124E-01
        -0.13124E-01
        -0.13124E-01
        -0.13124E-01
        -0.13124E-01
        -0.13124E-01
        -0.13124E-01
        -0.13124E-01
        -0.13124E-01
        -0.13124E-01
        -0.13124E-01
        -0.13124E-01
        -0.13124E-01
        -0.13124E-01
        -0.13124E-01
        -0.13124E-01
        -0.13124E-01
        -0.13124E-01
        -0.13124E-01
        -0.13124E-01
        -0.13124E-01
        -0.13124E-01
        -0.13124E-01
        -0.13124E-01
        -0.13124E-01
        -0.13124E-01
        -0.13124E-01
        -0.13124E-01
        -0.13124E-01
        -0.13124E-01
        -0.13124E-01
        -0.13124E-01
        -0.13124E-01
        -0.13124E-01
        -0.13124E-01
        -0.13124E-01
        -0.13124E-01
        -0.13124E-01
        -0.13124E-01
        -0.13124E-01
        -0.13124E-01
        -0.13124E-01
        -0.13124E-01
        -0.13124E-01
        -0.13124E-01
        -0.13124E-01
        -0.13124E-01
        -0.13124E-01
        -0.13124E-01
        -0.13124E-01
        -0.13124E-01
        -0.13124E-01
        -0.13124E-01
        -0.13124E-01
        -0.13124E-01
        -0.13124E-01
        -0.13124E-01
        -0.13124E-01
        -0.13124E-01
        -0.13124E-01
        -0.13124E-01
        -0.13124E-01
        -0.13124E-01
        -0.13124E-01
        -0.13124E-01
        -0.13124E-01
        -0.13124E-01
        -0.13124E-01
        -0.13124E-01
        -0.13124E-01
        -0.13124E-01
        -0.13124E-01
        -0.13124E-01
        -0.13124E-01
        -0.13124E-01
        -0.13124E-01
        -0.13124E-01
        -0.13124E-01
        -0.13124E-01
        -0.13124E-01
        -0.13124E-01
        -0.13124E-01
        -0.13124E-01
        -0.13124E-01
        -0.13124E-01
        -0.13124E-01
        -0.13124E-01
        -0.13124E-01
        -0.13124E-01
        -0.13124E-01
        -0.13124E-01
        -0.13124E-01
        -0.13124E-01
        -0.13124E-01
        -0.13124E-01
        -0.13124E-01
        -0.13124E-01
        -0.13124E-01
        -0.13124E-01
        -0.13124E-01
        -0.13124E-01
        -0.13124E-01
        -0.13124E-01
        -0.13124E-01
        -0.13124E-01
        -0.13124E-01
        -0.13124E-01
        -0.13124E-01
        -0.13124E-01
        -0.13124E-01
        -0.13124E-01
        -0.13124E-01
        -0.13124E-01
        -0.13124E-01
        -0.13124E-01
        -0.13124E-01
        -0.13124E-01
        -0.13124E-01
        -0.13124E-01
        -0.13124E-01
        -0.13124E-01
        -0.13124E-01
        -0.13124E-01
        -0.13124E-01
        -0.13124E-01
        -0.13124E-01
        -0.13124E-01
        -0.13124E-01
        -0.13124E-01
        -0.13124E-01
        -0.13124E-01
        -0.13124E-01
        -0.13124E-01
        -0.13124E-01
        -0.13124E-01
        -0.13124E-01
        -0.13124E-01
        -0.13124E-01
        -0.13124E-01
        -0.13124E-01
        -0.13124E-01
        -0.13124E-01
        -0.13124E-01
        -0.13124E-01
        -0.13124E-01
        -0.13124E-01
        -0.13124E-01
        -0.13124E-01
        -0.13124E-01
        -0.13124E-01
        -0.13124E-01
        -0.13124E-01
        -0.13124E-01
        -0.13124E-01
        -0.13124E-01
        -0.13124E-01
        -0.13124E-01
        -0.13124E-01
        -0.13124E-01
        -0.13124E-01
        -0.13124E-01
        -0.13124E-01
        -0.13124E-01
        -0.13124E-01
        -0.13124E-01
        -0.13124E-01
        -0.13124E-01
        -0.13124E-01
        -0.13124E-01
        -0.13124E-01
        -0.13124E-01
        -0.13124E-01
        -0.13124E-01
        -0.13124E-01
        -0.13124E-01
        -0.13124E-01
        -0.13124E-01
        -0.13124E-01
        -0.13124E-01
        -0.13124E-01
        -0.13124E-01
        -0.13124E-01
        -0.13124E-01
        -0.13124E-01
        -0.13124E-01
        -0.13124E-01
        -0.13124E-01
        -0.13124E-01
        -0.13124E-01
        -0.13124E-01
        -0.13124E-01
        -0.13124E-01
        -0.13124E-01
        -0.13124E-01
        -0.13124E-01
        -0.13124E-01
        -0.13124E-01
        -0.13124E-01
        -0.13124E-01
        -0.13124E-01
        -0.13124E-01
        -0.13124E-01
        -0.13124E-01
        -0.13124E-01
        -0.13124E-01
        -0.13124E-01
        -0.13124E-01
        -0.13124E-01
        -0.13124E-01
        -0.13124E-01
        -0.13124E-01
        -0.13124E-01
        -0.13124E-01
        -0.13124E-01
        -0.13124E-01
        -0.13124E-01
        -0.13124E-01
        -0.13124E-01
        -0.13124E-01
        -0.13124E-01
        -0.13124E-01
        -0.13124E-01
        -0.13124E-01
        -0.13124E-01
        -0.13124E-01
        -0.13124E-01
        -0.13124E-01
        -0.13124E-01
        -0.13124E-01
        -0.13124E-01
        -0.13124E-01
        -0.13124E-01
        -0.13124E-01
        -0.13124E-01
        -0.13124E-01
        -0.13124E-01
        -0.13124E-01
        -0.13124E-01
        -0.13124E-01
        -0.13124E-01
        -0.13124E-01
        -0.13124E-01
        -0.13124E-01
        -0.13124E-01
        -0.13124E-01
        -0.13124E-01
        -0.13124E-01
        -0.13124E-01
        -0.13124E-01
        -0.13124E-01
        -0.13124E-01
        -0.13124E-01
        -0.13124E-01
        -0.13124E-01
        -0.13124E-01
        -0.13124E-01
        -0.13124E-01
        -0.13124E-01
        -0.13124E-01
        -0.13124E-01
        -0.13124E-01
        -0.13124E-01
        -0.13124E-01
        -0.13124E-01
        -0.13124E-01
        -0.13124E-01
        -0.13124E-01
        -0.13124E-01
        -0.13124E-01
        -0.13124E-01
        -0.13124E-01
        -0.13124E-01
        -0.13124E-01
        -0.13124E-01
        -0.13124E-01
        -0.13124E-01
        -0.13124E-01
        -0.13124E-01
        -0.13124E-01
        -0.13124E-01
        -0.13124E-01
        -0.13124E-01
        -0.13124E-01
        -0.13124E-01
        -0.13124E-01
        -0.13124E-01
        -0.13124E-01
        -0.13124E-01
        -0.13124E-01
        -0.13124E-01
        -0.13124E-01
        -0.13124E-01
        -0.13124E-01
        -0.13124E-01
        -0.13124E-01
        -0.13124E-01
        -0.13124E-01
        -0.13124E-01
        -0.13124E-01
        -0.13124E-01
        -0.13124E-01
        -0.13124E-01
        -0.13124E-01
        -0.13124E-01
        -0.13124E-01
        -0.13124E-01
        -0.13124E-01
        -0.13124E-01
        -0.13124E-01
        -0.13124E-01
        -0.13124E-01
        -0.13124E-01
        -0.13124E-01
        -0.13124E-01
        -0.13124E-01
        -0.13124E-01
        -0.13124E-01
        -0.13124E-01
        -0.13124E-01
        -0.13124E-01
        -0.13124E-01
        -0.13124E-01
        -0.13124E-01
        -0.13124E-01
        -0.13124E-01
        -0.13124E-01
        -0.13124E-01
        -0.13124E-01
        -0.13124E-01
        -0.13124E-01
        -0.13124E-01
        -0.13124E-01
        -0.13124E-01
        -0.13124E-01
        -0.13124E-01
        -0.13124E-01
        -0.13124E-01
        -0.13124E-01
        -0.13124E-01
        -0.13124E-01
        -0.13124E-01
        -0.13124E-01
        -0.13124E-01
        -0.13124E-01
        -0.13124E-01
        -0.13124E-01
        -0.13124E-01
        -0.13124E-01
        -0.13124E-01
        -0.13124E-01
        -0.13124E-01
        -0.13124E-01
        -0.13124E-01
        -0.13124E-01
        -0.13124E-01
        -0.13124E-01
        -0.13124E-01
        -0.13124E-01
        -0.13124E-01
        -0.13124E-01
        -0.13124E-01
        -0.13124E-01
        -0.13124E-01
        -0.13124E-01
        -0.13124E-01
        -0.13124E-01
        -0.13124E-01
        -0.13124E-01
        -0.13124E-01
        -0.13124E-01
        -0.13124E-01
        -0.13124E-01
        -0.13124E-01
        -0.13124E-01
        -0.13124E-01
        -0.13124E-01
        -0.13124E-01
        -0.13124E-01
        -0.13124E-01
        -0.13124E-01
        -0.13124E-01
        -0.13124E-01
        -0.13124E-01
        -0.13124E-01
        -0.13124E-01
        -0.13124E-01
        -0.13124E-01
        -0.13124E-01
        -0.13124E-01
        -0.13124E-01
        -0.13124E-01
        -0.13124E-01
        -0.13124E-01
        -0.13124E-01
        -0.13124E-01
        -0.13124E-01
        -0.13124E-01
        -0.13124E-01
        -0.13124E-01
        -0.13124E-01
        -0.13124E-01
        -0.13124E-01
        -0.13124E-01
        -0.13124E-01
        -0.13124E-01
        -0.13124E-01
        -0.13124E-01
        -0.13124E-01
        -0.13124E-01
        -0.13124E-01
        -0.13124E-01
        -0.13124E-01
        -0.13124E-01
        -0.13124E-01
        -0.13124E-01
        -0.13124E-01
        -0.13124E-01
        -0.13124E-01
        -0.13124E-01
        -0.13124E-01
        -0.13124E-01
        -0.13124E-01
        -0.13124E-01
        -0.13124E-01
        -0.13124E-01
        -0.13124E-01
        -0.13124E-01
        -0.13124E-01
        -0.13124E-01
        -0.13124E-01
        -0.13124E-01
        -0.13124E-01
        -0.13124E-01
        -0.13124E-01
        -0.13124E-01
        -0.13124E-01
        -0.13124E-01
        -0.13124E-01
        -0.13124E-01
        -0.13124E-01
        -0.13124E-01
        -0.13124E-01
        -0.13124E-01
        -0.13124E-01
        -0.13124E-01
        -0.13124E-01
        -0.13124E-01
        -0.13124E-01
        -0.13124E-01
        -0.13124E-01
        -0.13124E-01
        -0.13124E-01
        -0.13124E-01
        -0.13124E-01
        -0.13124E-01
        -0.13124E-01
        -0.13124E-01
        -0.13124E-01
        -0.13124E-01
        -0.13124E-01
        -0.13124E-01
        -0.13124E-01
        -0.13124E-01
        -0.13124E-01
        -0.13124E-01
        -0.13124E-01
        -0.13124E-01
        -0.13124E-01
        -0.13124E-01
        -0.13124E-01
        -0.13124E-01
        -0.13124E-01
        -0.13124E-01
        -0.13124E-01
        -0.13124E-01
        -0.13124E-01
        -0.13124E-01
        -0.13124E-01
        -0.13124E-01
        -0.13124E-01
        -0.13124E-01
        -0.13124E-01
        -0.13124E-01
        -0.13124E-01
        -0.13124E-01
        -0.13124E-01
        -0.13124E-01
        -0.13124E-01
        -0.13124E-01
        -0.13124E-01
        -0.13124E-01
        -0.13124E-01
        -0.13124E-01
        -0.13124E-01
        -0.13124E-01
        -0.13124E-01
        -0.13124E-01
        -0.13124E-01
        -0.13124E-01
        -0.13124E-01
        -0.13124E-01
        -0.13124E-01
        -0.13124E-01
        -0.13124E-01
        -0.13124E-01
        -0.13124E-01
        -0.13124E-01
        -0.13124E-01
        -0.13124E-01
        -0.13124E-01
        -0.13124E-01
        -0.13124E-01
        -0.13124E-01
        -0.13124E-01
        -0.13124E-01
        -0.13124E-01
        -0.13124E-01
        -0.13124E-01
        -0.13124E-01
        -0.13124E-01
        -0.13124E-01
        -0.13124E-01
        -0.13124E-01
        -0.13124E-01
        -0.13124E-01
        -0.13124E-01
        -0.13124E-01
        -0.13124E-01
        -0.13124E-01
        -0.13124E-01
        -0.13124E-01
        -0.13124E-01
        -0.13124E-01
        -0.13124E-01
        -0.13124E-01
        -0.13124E-01
        -0.13124E-01
        -0.13124E-01
        -0.13124E-01
        -0.13124E-01
        -0.13124E-01
        -0.13124E-01
        -0.13124E-01
        -0.13124E-01
        -0.13124E-01
        -0.13124E-01
        -0.13124E-01
        -0.13124E-01
        -0.13124E-01
        -0.13124E-01
        -0.13124E-01
        -0.13124E-01
        -0.13124E-01
        -0.13124E-01
        -0.13124E-01
        -0.13124E-01
        -0.13124E-01
        -0.13124E-01
        -0.13124E-01
        -0.13124E-01
        -0.13124E-01
        -0.13124E-01
        -0.13124E-01
        -0.13124E-01
        -0.13124E-01
        -0.13124E-01
        -0.13124E-01
        -0.13124E-01
        -0.13124E-01
        -0.13124E-01
        -0.13124E-01
        -0.13124E-01
        -0.13124E-01
        -0.13124E-01
        -0.13124E-01
        -0.13124E-01
        -0.13124E-01
        -0.13124E-01
        -0.13124E-01
        -0.13124E-01
        -0.13124E-01
        -0.13124E-01
        -0.13124E-01
        -0.13124E-01
        -0.13124E-01
        -0.13124E-01
        -0.13124E-01
        -0.13124E-01
        -0.13124E-01
        -0.13124E-01
        -0.13124E-01
        -0.13124E-01
        -0.13124E-01
        -0.13124E-01
        -0.13124E-01
        -0.13124E-01
        -0.13124E-01
        -0.13124E-01
        -0.13124E-01
        -0.13124E-01
        -0.13124E-01
        -0.13124E-01
        -0.13124E-01
        -0.13124E-01
        -0.13124E-01
        -0.13124E-01
        -0.13124E-01
        -0.13124E-01
        -0.13124E-01
        -0.13124E-01
        -0.13124E-01
        -0.13124E-01
        -0.13124E-01
        -0.13124E-01
        -0.13124E-01
        -0.13124E-01
        -0.13124E-01
        -0.13124E-01
        -0.13124E-01
        -0.13124E-01
        -0.13124E-01
        -0.13124E-01
        -0.13124E-01
        -0.13124E-01
        -0.13124E-01
        -0.13124E-01
        -0.13124E-01
        -0.13124E-01
        -0.13124E-01
        -0.13124E-01
        -0.13124E-01
        -0.13124E-01
        -0.13124E-01
        -0.13124E-01
        -0.13124E-01
        -0.13124E-01
        -0.13124E-01
        -0.13124E-01
        -0.13124E-01
        -0.13124E-01
        -0.13124E-01
        -0.13124E-01
        -0.13124E-01
        -0.13124E-01
        -0.13124E-01
        -0.13124E-01
        -0.13124E-01
        -0.13124E-01
        -0.13124E-01
        -0.13124E-01
        -0.13124E-01
        -0.13124E-01
        -0.13124E-01
        -0.13124E-01
        -0.13124E-01
        -0.13124E-01
        -0.13124E-01
        -0.13124E-01
        -0.13124E-01
        -0.13124E-01
        -0.13124E-01
        -0.13124E-01
        -0.13124E-01
        -0.13124E-01
        -0.13124E-01
        -0.13124E-01
        -0.13124E-01
        -0.13124E-01
        -0.13124E-01
        -0.13124E-01
        -0.13124E-01
        -0.13124E-01
        -0.13124E-01
        -0.13124E-01
        -0.13124E-01
        -0.13124E-01
        -0.13124E-01
        -0.13124E-01
        -0.13124E-01
        -0.13124E-01
        -0.13124E-01
        -0.13124E-01
        -0.13124E-01
        -0.13124E-01
        -0.13124E-01
        -0.13124E-01
        -0.13124E-01
        -0.13124E-01
        -0.13124E-01
        -0.13124E-01
        -0.13124E-01
        -0.13124E-01
        -0.13124E-01
        -0.13124E-01
        -0.13124E-01
        -0.13124E-01
        -0.13124E-01
        -0.13124E-01
        -0.13124E-01
        -0.13124E-01
        -0.13124E-01
        -0.13124E-01
        -0.13124E-01
        -0.13124E-01
        -0.13124E-01
        -0.13124E-01
        -0.13124E-01
        -0.13124E-01
        -0.13124E-01
        -0.13124E-01
        -0.13124E-01
        -0.13124E-01
        -0.13124E-01
        -0.13124E-01
        -0.13124E-01
        -0.13124E-01
        -0.13124E-01
        -0.13124E-01
        -0.13124E-01
        -0.13124E-01
        -0.13124E-01
        -0.13124E-01
        -0.13124E-01
        -0.13124E-01
        -0.13124E-01
        -0.13124E-01
        -0.13124E-01
        -0.13124E-01
        -0.13124E-01
        -0.13124E-01
        -0.13124E-01
        -0.13124E-01
        -0.13124E-01
        -0.13124E-01
        -0.13124E-01
        -0.13124E-01
        -0.13124E-01
        -0.13124E-01
        -0.13124E-01
        -0.13124E-01
        -0.13124E-01
        -0.13124E-01
        -0.13124E-01
        -0.13124E-01
        -0.13124E-01
        -0.13124E-01
        -0.13124E-01
        -0.13124E-01
        -0.13124E-01
        -0.13124E-01
        -0.13124E-01
        -0.13124E-01
        -0.13124E-01
        -0.13124E-01
        -0.13124E-01
        -0.13124E-01
        -0.13124E-01
        -0.13124E-01
        -0.13124E-01
        -0.13124E-01
        -0.13124E-01
        -0.13124E-01
        -0.13124E-01
        -0.13124E-01
        -0.13124E-01
        -0.13124E-01
        -0.13124E-01
        -0.13124E-01
        -0.13124E-01
        -0.13124E-01
        -0.13124E-01
        -0.13124E-01
        -0.13124E-01
        -0.13124E-01
        -0.13124E-01
        -0.13124E-01
        -0.13124E-01
        -0.13124E-01
        -0.13124E-01
        -0.13124E-01
        -0.13124E-01
        -0.13124E-01
        -0.13124E-01
        -0.13124E-01
        -0.13124E-01
        -0.13124E-01
        -0.13124E-01
        -0.13124E-01
        -0.13124E-01
        -0.13124E-01
        -0.13124E-01
        -0.13124E-01
        -0.13124E-01
        -0.13124E-01
        -0.13124E-01
        -0.13124E-01
        -0.13124E-01
        -0.13124E-01
        -0.13124E-01
        -0.13124E-01
        -0.13124E-01
        -0.13124E-01
        -0.13124E-01
        -0.13124E-01
        -0.13124E-01
        -0.13124E-01
        -0.13124E-01
        -0.13124E-01
        -0.13124E-01
        -0.13124E-01
        -0.13124E-01
        -0.13124E-01
        -0.13124E-01
        -0.13124E-01
        -0.13124E-01
        -0.13124E-01
        -0.13124E-01
        -0.13124E-01
        -0.13124E-01
        -0.13124E-01
        -0.13124E-01
        -0.13124E-01
        -0.13124E-01
        -0.13124E-01
        -0.13124E-01
        -0.13124E-01
        -0.13124E-01
        -0.13124E-01
        -0.13124E-01
        -0.13124E-01
        -0.13124E-01
        -0.13124E-01
        -0.13124E-01
        -0.13124E-01
        -0.13124E-01
        -0.13124E-01
        -0.13124E-01
        -0.13124E-01
        -0.13124E-01
        -0.13124E-01
        -0.13124E-01
        -0.13124E-01
        -0.13124E-01
        -0.13124E-01
        -0.13124E-01
        -0.13124E-01
        -0.13124E-01
        -0.13124E-01
        -0.13124E-01
        -0.13124E-01
        -0.13124E-01
        -0.13124E-01
        -0.13124E-01
        -0.13124E-01
        -0.13124E-01
        -0.13124E-01
        -0.13124E-01
        -0.13124E-01
        -0.13124E-01
        -0.13124E-01
        -0.13124E-01
        -0.13124E-01
        -0.13124E-01
        -0.13124E-01
        -0.13124E-01
        -0.13124E-01
        -0.13124E-01
        -0.13124E-01
        -0.13124E-01
        -0.13124E-01
        -0.13124E-01
        -0.13124E-01
        -0.13124E-01
        -0.13124E-01
        -0.13124E-01
        -0.13124E-01
        -0.13124E-01
        -0.13124E-01
        -0.13124E-01
        -0.13124E-01
        -0.13124E-01
        -0.13124E-01
        -0.13124E-01
        -0.13124E-01
        -0.13124E-01
        -0.13124E-01
        -0.13124E-01
        -0.13124E-01
        -0.13124E-01
        -0.13124E-01
        -0.13124E-01
        -0.13124E-01
        -0.13124E-01
        -0.13124E-01
        -0.13124E-01
        -0.13124E-01
        -0.13124E-01
        -0.13124E-01
        -0.13124E-01
        -0.13124E-01
        -0.13124E-01
        -0.13124E-01
        -0.13124E-01
        -0.13124E-01
        -0.13124E-01
        -0.13124E-01
        -0.13124E-01
        -0.13124E-01
        -0.13124E-01
        -0.13124E-01
        -0.13124E-01
        -0.13124E-01
        -0.13124E-01
        -0.13124E-01
        -0.13124E-01
        -0.13124E-01
        -0.13124E-01
        -0.13124E-01
        -0.13124E-01
        -0.13124E-01
        -0.13124E-01
        -0.13124E-01
        -0.13124E-01
        -0.13124E-01
        -0.13124E-01
        -0.13124E-01
        -0.13124E-01
        -0.13124E-01
        -0.13124E-01
        -0.13124E-01
        -0.13124E-01
        -0.13124E-01
        -0.13124E-01
        -0.13124E-01
        -0.13124E-01
        -0.13124E-01
        -0.13124E-01
        -0.13124E-01
        -0.13124E-01
        -0.13124E-01
        -0.13124E-01
        -0.13124E-01
        -0.13124E-01
        -0.13124E-01
        -0.13124E-01
        -0.13124E-01
        -0.13124E-01
        -0.13124E-01
        -0.13124E-01
        -0.13124E-01
        -0.13124E-01
        -0.13124E-01
        -0.13124E-01
        -0.13124E-01
        -0.13124E-01
        -0.13124E-01
        -0.13124E-01
        -0.13124E-01
        -0.13124E-01
        -0.13124E-01
        -0.13124E-01
        -0.13124E-01
        -0.13124E-01
        -0.13124E-01
        -0.13124E-01
        -0.13124E-01
        -0.13124E-01
        -0.13124E-01
        -0.13124E-01
        -0.13124E-01
        -0.13124E-01
        -0.13124E-01
        -0.13124E-01
        -0.13124E-01
        -0.13124E-01
        -0.13124E-01
        -0.13124E-01
        -0.13124E-01
        -0.13124E-01
        -0.13124E-01
        -0.13124E-01
        -0.13124E-01
        -0.13124E-01
        -0.13124E-01
        -0.13124E-01
        -0.13124E-01
        -0.13124E-01
        -0.13124E-01
        -0.13124E-01
        -0.13124E-01
        -0.13124E-01
        -0.13124E-01
        -0.13124E-01
        -0.13124E-01
        -0.13124E-01
        -0.13124E-01
        -0.13124E-01
        -0.13124E-01
        -0.13124E-01
        -0.13124E-01
        -0.13124E-01
        -0.13124E-01
        -0.13124E-01
        -0.13124E-01
        -0.13124E-01
        -0.13124E-01
        -0.13124E-01
        -0.13124E-01
        -0.13124E-01
        -0.13124E-01
        -0.13124E-01
        -0.13124E-01
        -0.13124E-01
        -0.13124E-01
        -0.13124E-01
        -0.13124E-01
        -0.13124E-01
        -0.13124E-01
        -0.13124E-01
        -0.13124E-01
        -0.13124E-01
        -0.13124E-01
        -0.13124E-01
        -0.13124E-01
        -0.13124E-01
        -0.13124E-01
        -0.13124E-01
        -0.13124E-01
        -0.13124E-01
        -0.13124E-01
        -0.13124E-01
        -0.13124E-01
        -0.13124E-01
        -0.13124E-01
        -0.13124E-01
        -0.13124E-01
        -0.13124E-01
        -0.13124E-01
        -0.13124E-01
        -0.13124E-01
        -0.13124E-01
        -0.13124E-01
        -0.13124E-01
        -0.13124E-01
        -0.13124E-01
        -0.13124E-01
        -0.13124E-01
        -0.13124E-01
        -0.13124E-01
        -0.13124E-01
        -0.13124E-01
        -0.13124E-01
        -0.13124E-01
        -0.13124E-01
        -0.13124E-01
        -0.13124E-01
        -0.13124E-01
        -0.13124E-01
        -0.13124E-01
        -0.13124E-01
        -0.13124E-01
        -0.13124E-01
        -0.13124E-01
        -0.13124E-01
        -0.13124E-01
        -0.13124E-01
        -0.13124E-01
        -0.13124E-01
        -0.13124E-01
        -0.13124E-01
        -0.13124E-01
        -0.13124E-01
        -0.13124E-01
        -0.13124E-01
        -0.13124E-01
        -0.13124E-01
        -0.13124E-01
        -0.13124E-01
        -0.13124E-01
        -0.13124E-01
        -0.13124E-01
        -0.13124E-01
        -0.13124E-01
        -0.13124E-01
        -0.13124E-01
        -0.13124E-01
        -0.13124E-01
        -0.13124E-01
        -0.13124E-01
        -0.13124E-01
        -0.13124E-01
        -0.13124E-01
        -0.13124E-01
  
SCALARS                     velocity_x  double 1
LOOKUP_TABLE default
         0.00000E+00
         0.00000E+00
         0.00000E+00
         0.00000E+00
         0.00000E+00
         0.00000E+00
         0.00000E+00
         0.00000E+00
         0.00000E+00
         0.00000E+00
         0.00000E+00
         0.00000E+00
         0.00000E+00
         0.00000E+00
         0.00000E+00
         0.00000E+00
         0.00000E+00
         0.00000E+00
         0.00000E+00
         0.00000E+00
         0.00000E+00
         0.00000E+00
         0.00000E+00
         0.00000E+00
         0.00000E+00
         0.00000E+00
         0.00000E+00
         0.00000E+00
         0.00000E+00
         0.00000E+00
         0.00000E+00
         0.00000E+00
         0.00000E+00
         0.00000E+00
         0.00000E+00
         0.00000E+00
         0.00000E+00
         0.00000E+00
         0.00000E+00
         0.00000E+00
         0.00000E+00
         0.00000E+00
         0.00000E+00
         0.00000E+00
         0.00000E+00
         0.00000E+00
         0.00000E+00
         0.00000E+00
         0.00000E+00
         0.00000E+00
         0.00000E+00
         0.00000E+00
         0.00000E+00
         0.00000E+00
         0.00000E+00
         0.00000E+00
         0.00000E+00
         0.00000E+00
         0.00000E+00
         0.00000E+00
         0.00000E+00
         0.00000E+00
         0.00000E+00
         0.00000E+00
         0.00000E+00
         0.00000E+00
         0.00000E+00
         0.00000E+00
         0.00000E+00
         0.00000E+00
         0.00000E+00
         0.00000E+00
         0.00000E+00
         0.00000E+00
         0.00000E+00
         0.00000E+00
         0.00000E+00
         0.00000E+00
         0.00000E+00
         0.00000E+00
         0.00000E+00
         0.00000E+00
         0.00000E+00
         0.00000E+00
         0.00000E+00
         0.00000E+00
         0.00000E+00
         0.00000E+00
         0.00000E+00
         0.00000E+00
         0.00000E+00
         0.00000E+00
         0.00000E+00
         0.00000E+00
         0.00000E+00
         0.00000E+00
         0.00000E+00
         0.00000E+00
         0.00000E+00
         0.00000E+00
         0.00000E+00
         0.00000E+00
         0.00000E+00
         0.00000E+00
         0.00000E+00
         0.00000E+00
         0.00000E+00
         0.00000E+00
         0.00000E+00
         0.00000E+00
         0.00000E+00
         0.00000E+00
         0.00000E+00
         0.00000E+00
         0.00000E+00
         0.00000E+00
         0.00000E+00
         0.00000E+00
         0.00000E+00
         0.00000E+00
         0.00000E+00
         0.00000E+00
         0.00000E+00
         0.00000E+00
         0.00000E+00
         0.00000E+00
         0.00000E+00
         0.00000E+00
         0.00000E+00
         0.00000E+00
         0.00000E+00
         0.00000E+00
         0.00000E+00
         0.00000E+00
         0.00000E+00
         0.00000E+00
         0.00000E+00
         0.00000E+00
         0.00000E+00
         0.00000E+00
         0.00000E+00
         0.00000E+00
         0.00000E+00
         0.00000E+00
         0.00000E+00
         0.00000E+00
         0.00000E+00
         0.00000E+00
         0.00000E+00
         0.00000E+00
         0.00000E+00
         0.00000E+00
         0.00000E+00
         0.00000E+00
         0.00000E+00
         0.00000E+00
         0.00000E+00
         0.00000E+00
         0.00000E+00
         0.00000E+00
         0.00000E+00
         0.00000E+00
         0.00000E+00
         0.00000E+00
         0.00000E+00
         0.00000E+00
         0.00000E+00
         0.00000E+00
         0.00000E+00
         0.00000E+00
         0.00000E+00
         0.00000E+00
         0.00000E+00
         0.00000E+00
         0.00000E+00
         0.00000E+00
         0.00000E+00
         0.00000E+00
         0.00000E+00
         0.00000E+00
         0.00000E+00
         0.00000E+00
         0.00000E+00
         0.00000E+00
         0.00000E+00
         0.00000E+00
         0.00000E+00
         0.00000E+00
         0.00000E+00
         0.00000E+00
         0.00000E+00
         0.00000E+00
         0.00000E+00
         0.00000E+00
         0.00000E+00
         0.00000E+00
         0.00000E+00
         0.00000E+00
         0.00000E+00
         0.00000E+00
         0.00000E+00
         0.00000E+00
         0.00000E+00
         0.00000E+00
         0.00000E+00
         0.00000E+00
         0.00000E+00
         0.00000E+00
         0.00000E+00
         0.00000E+00
         0.00000E+00
         0.00000E+00
         0.00000E+00
         0.00000E+00
         0.00000E+00
         0.00000E+00
         0.00000E+00
         0.00000E+00
         0.00000E+00
         0.00000E+00
         0.00000E+00
         0.00000E+00
         0.00000E+00
         0.00000E+00
         0.00000E+00
         0.00000E+00
         0.00000E+00
         0.00000E+00
         0.00000E+00
         0.00000E+00
         0.00000E+00
         0.00000E+00
         0.00000E+00
         0.00000E+00
         0.00000E+00
         0.00000E+00
         0.00000E+00
         0.00000E+00
         0.00000E+00
         0.00000E+00
         0.00000E+00
         0.00000E+00
         0.00000E+00
         0.00000E+00
         0.00000E+00
         0.00000E+00
         0.00000E+00
         0.00000E+00
         0.00000E+00
         0.00000E+00
         0.00000E+00
         0.00000E+00
         0.00000E+00
         0.00000E+00
         0.00000E+00
         0.00000E+00
         0.00000E+00
         0.00000E+00
         0.00000E+00
         0.00000E+00
         0.00000E+00
         0.00000E+00
         0.00000E+00
         0.00000E+00
         0.00000E+00
         0.00000E+00
         0.00000E+00
         0.00000E+00
         0.00000E+00
         0.00000E+00
         0.00000E+00
         0.00000E+00
         0.00000E+00
         0.00000E+00
         0.00000E+00
         0.00000E+00
         0.00000E+00
         0.00000E+00
         0.00000E+00
         0.00000E+00
         0.00000E+00
         0.00000E+00
         0.00000E+00
         0.00000E+00
         0.00000E+00
         0.00000E+00
         0.00000E+00
         0.00000E+00
         0.00000E+00
         0.00000E+00
         0.00000E+00
         0.00000E+00
         0.00000E+00
         0.00000E+00
         0.00000E+00
         0.00000E+00
         0.00000E+00
         0.00000E+00
         0.00000E+00
         0.00000E+00
         0.00000E+00
         0.00000E+00
         0.00000E+00
         0.00000E+00
         0.00000E+00
         0.00000E+00
         0.00000E+00
         0.00000E+00
         0.00000E+00
         0.00000E+00
         0.00000E+00
         0.00000E+00
         0.00000E+00
         0.00000E+00
         0.00000E+00
         0.00000E+00
         0.00000E+00
         0.00000E+00
         0.00000E+00
         0.00000E+00
         0.00000E+00
         0.00000E+00
         0.00000E+00
         0.00000E+00
         0.00000E+00
         0.00000E+00
         0.00000E+00
         0.00000E+00
         0.00000E+00
         0.00000E+00
         0.00000E+00
         0.00000E+00
         0.00000E+00
         0.00000E+00
         0.00000E+00
         0.00000E+00
         0.00000E+00
         0.00000E+00
         0.00000E+00
         0.00000E+00
         0.00000E+00
         0.00000E+00
         0.00000E+00
         0.00000E+00
         0.00000E+00
         0.00000E+00
         0.00000E+00
         0.00000E+00
         0.00000E+00
         0.00000E+00
         0.00000E+00
         0.00000E+00
         0.00000E+00
         0.00000E+00
         0.00000E+00
         0.00000E+00
         0.00000E+00
         0.00000E+00
         0.00000E+00
         0.00000E+00
         0.00000E+00
         0.00000E+00
         0.00000E+00
         0.00000E+00
         0.00000E+00
         0.00000E+00
         0.00000E+00
         0.00000E+00
         0.00000E+00
         0.00000E+00
         0.00000E+00
         0.00000E+00
         0.00000E+00
         0.00000E+00
         0.00000E+00
         0.00000E+00
         0.00000E+00
         0.00000E+00
         0.00000E+00
         0.00000E+00
         0.00000E+00
         0.00000E+00
         0.00000E+00
         0.00000E+00
         0.00000E+00
         0.00000E+00
         0.00000E+00
         0.00000E+00
         0.00000E+00
         0.00000E+00
         0.00000E+00
         0.00000E+00
         0.00000E+00
         0.00000E+00
         0.00000E+00
         0.00000E+00
         0.00000E+00
         0.00000E+00
         0.00000E+00
         0.00000E+00
         0.00000E+00
         0.00000E+00
         0.00000E+00
         0.00000E+00
         0.00000E+00
         0.00000E+00
         0.00000E+00
         0.00000E+00
         0.00000E+00
         0.00000E+00
         0.00000E+00
         0.00000E+00
         0.00000E+00
         0.00000E+00
         0.00000E+00
         0.00000E+00
         0.00000E+00
         0.00000E+00
         0.00000E+00
         0.00000E+00
         0.00000E+00
         0.00000E+00
         0.00000E+00
         0.00000E+00
         0.00000E+00
         0.00000E+00
         0.00000E+00
         0.00000E+00
         0.00000E+00
         0.00000E+00
         0.00000E+00
         0.00000E+00
         0.00000E+00
         0.00000E+00
         0.00000E+00
         0.00000E+00
         0.00000E+00
         0.00000E+00
         0.00000E+00
         0.00000E+00
         0.00000E+00
         0.00000E+00
         0.00000E+00
         0.00000E+00
         0.00000E+00
         0.00000E+00
         0.00000E+00
         0.00000E+00
         0.00000E+00
         0.00000E+00
         0.00000E+00
         0.00000E+00
         0.00000E+00
         0.00000E+00
         0.00000E+00
         0.00000E+00
         0.00000E+00
         0.00000E+00
         0.00000E+00
         0.00000E+00
         0.00000E+00
         0.00000E+00
         0.00000E+00
         0.00000E+00
         0.00000E+00
         0.00000E+00
         0.00000E+00
         0.00000E+00
         0.00000E+00
         0.00000E+00
         0.00000E+00
         0.00000E+00
         0.00000E+00
         0.00000E+00
         0.00000E+00
         0.00000E+00
         0.00000E+00
         0.00000E+00
         0.00000E+00
         0.00000E+00
         0.00000E+00
         0.00000E+00
         0.00000E+00
         0.00000E+00
         0.00000E+00
         0.00000E+00
         0.00000E+00
         0.00000E+00
         0.00000E+00
         0.00000E+00
         0.00000E+00
         0.00000E+00
         0.00000E+00
         0.00000E+00
         0.00000E+00
         0.00000E+00
         0.00000E+00
         0.00000E+00
         0.00000E+00
         0.00000E+00
         0.00000E+00
         0.00000E+00
         0.00000E+00
         0.00000E+00
         0.00000E+00
         0.00000E+00
         0.00000E+00
         0.00000E+00
         0.00000E+00
         0.00000E+00
         0.00000E+00
         0.00000E+00
         0.00000E+00
         0.00000E+00
         0.00000E+00
         0.00000E+00
         0.00000E+00
         0.00000E+00
         0.00000E+00
         0.00000E+00
         0.00000E+00
         0.00000E+00
         0.00000E+00
         0.00000E+00
         0.00000E+00
         0.00000E+00
         0.00000E+00
         0.00000E+00
         0.00000E+00
         0.00000E+00
         0.00000E+00
         0.00000E+00
         0.00000E+00
         0.00000E+00
         0.00000E+00
         0.00000E+00
         0.00000E+00
         0.00000E+00
         0.00000E+00
         0.00000E+00
         0.00000E+00
         0.00000E+00
         0.00000E+00
         0.00000E+00
         0.00000E+00
         0.00000E+00
         0.00000E+00
         0.00000E+00
         0.00000E+00
         0.00000E+00
         0.00000E+00
         0.00000E+00
         0.00000E+00
         0.00000E+00
         0.00000E+00
         0.00000E+00
         0.00000E+00
         0.00000E+00
         0.00000E+00
         0.00000E+00
         0.00000E+00
         0.00000E+00
         0.00000E+00
         0.00000E+00
         0.00000E+00
         0.00000E+00
         0.00000E+00
         0.00000E+00
         0.00000E+00
         0.00000E+00
         0.00000E+00
         0.00000E+00
         0.00000E+00
         0.00000E+00
         0.00000E+00
         0.00000E+00
         0.00000E+00
         0.00000E+00
         0.00000E+00
         0.00000E+00
         0.00000E+00
         0.00000E+00
         0.00000E+00
         0.00000E+00
         0.00000E+00
         0.00000E+00
         0.00000E+00
         0.00000E+00
         0.00000E+00
         0.00000E+00
         0.00000E+00
         0.00000E+00
         0.00000E+00
         0.00000E+00
         0.00000E+00
         0.00000E+00
         0.00000E+00
         0.00000E+00
         0.00000E+00
         0.00000E+00
         0.00000E+00
         0.00000E+00
         0.00000E+00
         0.00000E+00
         0.00000E+00
         0.00000E+00
         0.00000E+00
         0.00000E+00
         0.00000E+00
         0.00000E+00
         0.00000E+00
         0.00000E+00
         0.00000E+00
         0.00000E+00
         0.00000E+00
         0.00000E+00
         0.00000E+00
         0.00000E+00
         0.00000E+00
         0.00000E+00
         0.00000E+00
         0.00000E+00
         0.00000E+00
         0.00000E+00
         0.00000E+00
         0.00000E+00
         0.00000E+00
         0.00000E+00
         0.00000E+00
         0.00000E+00
         0.00000E+00
         0.00000E+00
         0.00000E+00
         0.00000E+00
         0.00000E+00
         0.00000E+00
         0.00000E+00
         0.00000E+00
         0.00000E+00
         0.00000E+00
         0.00000E+00
         0.00000E+00
         0.00000E+00
         0.00000E+00
         0.00000E+00
         0.00000E+00
         0.00000E+00
         0.00000E+00
         0.00000E+00
         0.00000E+00
         0.00000E+00
         0.00000E+00
         0.00000E+00
         0.00000E+00
         0.00000E+00
         0.00000E+00
         0.00000E+00
         0.00000E+00
         0.00000E+00
         0.00000E+00
         0.00000E+00
         0.00000E+00
         0.00000E+00
         0.00000E+00
         0.00000E+00
         0.00000E+00
         0.00000E+00
         0.00000E+00
         0.00000E+00
         0.00000E+00
         0.00000E+00
         0.00000E+00
         0.00000E+00
         0.00000E+00
         0.00000E+00
         0.00000E+00
         0.00000E+00
         0.00000E+00
         0.00000E+00
         0.00000E+00
         0.00000E+00
         0.00000E+00
         0.00000E+00
         0.00000E+00
         0.00000E+00
         0.00000E+00
         0.00000E+00
         0.00000E+00
         0.00000E+00
         0.00000E+00
         0.00000E+00
         0.00000E+00
         0.00000E+00
         0.00000E+00
         0.00000E+00
         0.00000E+00
         0.00000E+00
         0.00000E+00
         0.00000E+00
         0.00000E+00
         0.00000E+00
         0.00000E+00
         0.00000E+00
         0.00000E+00
         0.00000E+00
         0.00000E+00
         0.00000E+00
         0.00000E+00
         0.00000E+00
         0.00000E+00
         0.00000E+00
         0.00000E+00
         0.00000E+00
         0.00000E+00
         0.00000E+00
         0.00000E+00
         0.00000E+00
         0.00000E+00
         0.00000E+00
         0.00000E+00
         0.00000E+00
         0.00000E+00
         0.00000E+00
         0.00000E+00
         0.00000E+00
         0.00000E+00
         0.00000E+00
         0.00000E+00
         0.00000E+00
         0.00000E+00
         0.00000E+00
         0.00000E+00
         0.00000E+00
         0.00000E+00
         0.00000E+00
         0.00000E+00
         0.00000E+00
         0.00000E+00
         0.00000E+00
         0.00000E+00
         0.00000E+00
         0.00000E+00
         0.00000E+00
         0.00000E+00
         0.00000E+00
         0.00000E+00
         0.00000E+00
         0.00000E+00
         0.00000E+00
         0.00000E+00
         0.00000E+00
         0.00000E+00
         0.00000E+00
         0.00000E+00
         0.00000E+00
         0.00000E+00
         0.00000E+00
         0.00000E+00
         0.00000E+00
         0.00000E+00
         0.00000E+00
         0.00000E+00
         0.00000E+00
         0.00000E+00
         0.00000E+00
         0.00000E+00
         0.00000E+00
         0.00000E+00
         0.00000E+00
         0.00000E+00
         0.00000E+00
         0.00000E+00
         0.00000E+00
         0.00000E+00
         0.00000E+00
         0.00000E+00
         0.00000E+00
         0.00000E+00
         0.00000E+00
         0.00000E+00
         0.00000E+00
         0.00000E+00
         0.00000E+00
         0.00000E+00
         0.00000E+00
         0.00000E+00
         0.00000E+00
         0.00000E+00
         0.00000E+00
         0.00000E+00
         0.00000E+00
         0.00000E+00
         0.00000E+00
         0.00000E+00
         0.00000E+00
         0.00000E+00
         0.00000E+00
         0.00000E+00
         0.00000E+00
         0.00000E+00
         0.00000E+00
         0.00000E+00
         0.00000E+00
         0.00000E+00
         0.00000E+00
         0.00000E+00
         0.00000E+00
         0.00000E+00
         0.00000E+00
         0.00000E+00
         0.00000E+00
         0.00000E+00
         0.00000E+00
         0.00000E+00
         0.00000E+00
         0.00000E+00
         0.00000E+00
         0.00000E+00
         0.00000E+00
         0.00000E+00
         0.00000E+00
         0.00000E+00
         0.00000E+00
         0.00000E+00
         0.00000E+00
         0.00000E+00
         0.00000E+00
         0.00000E+00
         0.00000E+00
         0.00000E+00
         0.00000E+00
         0.00000E+00
         0.00000E+00
         0.00000E+00
         0.00000E+00
         0.00000E+00
         0.00000E+00
         0.00000E+00
         0.00000E+00
         0.00000E+00
         0.00000E+00
         0.00000E+00
         0.00000E+00
         0.00000E+00
         0.00000E+00
         0.00000E+00
         0.00000E+00
         0.00000E+00
         0.00000E+00
         0.00000E+00
         0.00000E+00
         0.00000E+00
         0.00000E+00
         0.00000E+00
         0.00000E+00
         0.00000E+00
         0.00000E+00
         0.00000E+00
         0.00000E+00
         0.00000E+00
         0.00000E+00
         0.00000E+00
         0.00000E+00
         0.00000E+00
         0.00000E+00
         0.00000E+00
         0.00000E+00
         0.00000E+00
         0.00000E+00
         0.00000E+00
         0.00000E+00
         0.00000E+00
         0.00000E+00
         0.00000E+00
         0.00000E+00
         0.00000E+00
         0.00000E+00
         0.00000E+00
         0.00000E+00
         0.00000E+00
         0.00000E+00
         0.00000E+00
         0.00000E+00
         0.00000E+00
         0.00000E+00
         0.00000E+00
         0.00000E+00
         0.00000E+00
         0.00000E+00
         0.00000E+00
         0.00000E+00
         0.00000E+00
         0.00000E+00
         0.00000E+00
         0.00000E+00
         0.00000E+00
         0.00000E+00
         0.00000E+00
         0.00000E+00
         0.00000E+00
         0.00000E+00
         0.00000E+00
         0.00000E+00
         0.00000E+00
         0.00000E+00
         0.00000E+00
         0.00000E+00
         0.00000E+00
         0.00000E+00
         0.00000E+00
         0.00000E+00
         0.00000E+00
         0.00000E+00
         0.00000E+00
         0.00000E+00
         0.00000E+00
         0.00000E+00
         0.00000E+00
         0.00000E+00
         0.00000E+00
         0.00000E+00
         0.00000E+00
         0.00000E+00
         0.00000E+00
         0.00000E+00
         0.00000E+00
         0.00000E+00
         0.00000E+00
         0.00000E+00
         0.00000E+00
         0.00000E+00
         0.00000E+00
         0.00000E+00
         0.00000E+00
         0.00000E+00
         0.00000E+00
         0.00000E+00
         0.00000E+00
         0.00000E+00
         0.00000E+00
         0.00000E+00
         0.00000E+00
         0.00000E+00
         0.00000E+00
         0.00000E+00
         0.00000E+00
         0.00000E+00
         0.00000E+00
         0.00000E+00
         0.00000E+00
         0.00000E+00
         0.00000E+00
         0.00000E+00
         0.00000E+00
         0.00000E+00
         0.00000E+00
         0.00000E+00
         0.00000E+00
         0.00000E+00
         0.00000E+00
         0.00000E+00
         0.00000E+00
         0.00000E+00
         0.00000E+00
         0.00000E+00
         0.00000E+00
         0.00000E+00
         0.00000E+00
         0.00000E+00
         0.00000E+00
         0.00000E+00
         0.00000E+00
         0.00000E+00
         0.00000E+00
         0.00000E+00
         0.00000E+00
         0.00000E+00
         0.00000E+00
         0.00000E+00
         0.00000E+00
         0.00000E+00
         0.00000E+00
         0.00000E+00
         0.00000E+00
         0.00000E+00
         0.00000E+00
         0.00000E+00
         0.00000E+00
         0.00000E+00
         0.00000E+00
         0.00000E+00
         0.00000E+00
         0.00000E+00
         0.00000E+00
         0.00000E+00
         0.00000E+00
         0.00000E+00
         0.00000E+00
         0.00000E+00
         0.00000E+00
         0.00000E+00
         0.00000E+00
         0.00000E+00
         0.00000E+00
         0.00000E+00
         0.00000E+00
         0.00000E+00
         0.00000E+00
         0.00000E+00
         0.00000E+00
         0.00000E+00
         0.00000E+00
         0.00000E+00
         0.00000E+00
         0.00000E+00
         0.00000E+00
         0.00000E+00
         0.00000E+00
         0.00000E+00
         0.00000E+00
         0.00000E+00
         0.00000E+00
         0.00000E+00
         0.00000E+00
         0.00000E+00
         0.00000E+00
         0.00000E+00
         0.00000E+00
         0.00000E+00
         0.00000E+00
         0.00000E+00
         0.00000E+00
         0.00000E+00
         0.00000E+00
         0.00000E+00
         0.00000E+00
         0.00000E+00
         0.00000E+00
         0.00000E+00
         0.00000E+00
         0.00000E+00
         0.00000E+00
         0.00000E+00
         0.00000E+00
         0.00000E+00
         0.00000E+00
         0.00000E+00
         0.00000E+00
         0.00000E+00
         0.00000E+00
         0.00000E+00
         0.00000E+00
         0.00000E+00
         0.00000E+00
         0.00000E+00
         0.00000E+00
         0.00000E+00
         0.00000E+00
         0.00000E+00
         0.00000E+00
         0.00000E+00
         0.00000E+00
         0.00000E+00
         0.00000E+00
         0.00000E+00
         0.00000E+00
         0.00000E+00
         0.00000E+00
         0.00000E+00
         0.00000E+00
         0.00000E+00
         0.00000E+00
         0.00000E+00
         0.00000E+00
         0.00000E+00
         0.00000E+00
         0.00000E+00
         0.00000E+00
         0.00000E+00
         0.00000E+00
         0.00000E+00
         0.00000E+00
         0.00000E+00
         0.00000E+00
         0.00000E+00
         0.00000E+00
         0.00000E+00
         0.00000E+00
         0.00000E+00
         0.00000E+00
         0.00000E+00
         0.00000E+00
         0.00000E+00
         0.00000E+00
         0.00000E+00
         0.00000E+00
         0.00000E+00
         0.00000E+00
         0.00000E+00
         0.00000E+00
         0.00000E+00
         0.00000E+00
         0.00000E+00
         0.00000E+00
         0.00000E+00
         0.00000E+00
         0.00000E+00
         0.00000E+00
         0.00000E+00
         0.00000E+00
         0.00000E+00
         0.00000E+00
         0.00000E+00
         0.00000E+00
         0.00000E+00
         0.00000E+00
         0.00000E+00
         0.00000E+00
         0.00000E+00
         0.00000E+00
         0.00000E+00
         0.00000E+00
         0.00000E+00
         0.00000E+00
         0.00000E+00
         0.00000E+00
         0.00000E+00
         0.00000E+00
         0.00000E+00
         0.00000E+00
         0.00000E+00
         0.00000E+00
         0.00000E+00
         0.00000E+00
         0.00000E+00
         0.00000E+00
         0.00000E+00
         0.00000E+00
         0.00000E+00
         0.00000E+00
         0.00000E+00
         0.00000E+00
         0.00000E+00
         0.00000E+00
         0.00000E+00
         0.00000E+00
         0.00000E+00
         0.00000E+00
         0.00000E+00
         0.00000E+00
         0.00000E+00
         0.00000E+00
         0.00000E+00
         0.00000E+00
         0.00000E+00
         0.00000E+00
         0.00000E+00
         0.00000E+00
         0.00000E+00
         0.00000E+00
         0.00000E+00
         0.00000E+00
         0.00000E+00
         0.00000E+00
         0.00000E+00
         0.00000E+00
         0.00000E+00
         0.00000E+00
         0.00000E+00
         0.00000E+00
         0.00000E+00
         0.00000E+00
         0.00000E+00
         0.00000E+00
         0.00000E+00
         0.00000E+00
         0.00000E+00
         0.00000E+00
         0.00000E+00
         0.00000E+00
         0.00000E+00
         0.00000E+00
         0.00000E+00
         0.00000E+00
         0.00000E+00
         0.00000E+00
         0.00000E+00
         0.00000E+00
         0.00000E+00
         0.00000E+00
         0.00000E+00
         0.00000E+00
         0.00000E+00
         0.00000E+00
         0.00000E+00
         0.00000E+00
         0.00000E+00
         0.00000E+00
         0.00000E+00
         0.00000E+00
         0.00000E+00
         0.00000E+00
         0.00000E+00
         0.00000E+00
         0.00000E+00
         0.00000E+00
         0.00000E+00
         0.00000E+00
         0.00000E+00
         0.00000E+00
         0.00000E+00
         0.00000E+00
         0.00000E+00
         0.00000E+00
         0.00000E+00
         0.00000E+00
         0.00000E+00
         0.00000E+00
         0.00000E+00
         0.00000E+00
         0.00000E+00
         0.00000E+00
         0.00000E+00
         0.00000E+00
         0.00000E+00
         0.00000E+00
         0.00000E+00
         0.00000E+00
         0.00000E+00
         0.00000E+00
         0.00000E+00
         0.00000E+00
         0.00000E+00
         0.00000E+00
         0.00000E+00
         0.00000E+00
         0.00000E+00
         0.00000E+00
         0.00000E+00
         0.00000E+00
         0.00000E+00
         0.00000E+00
         0.00000E+00
         0.00000E+00
         0.00000E+00
         0.00000E+00
         0.00000E+00
         0.00000E+00
         0.00000E+00
         0.00000E+00
         0.00000E+00
         0.00000E+00
         0.00000E+00
         0.00000E+00
         0.00000E+00
         0.00000E+00
         0.00000E+00
         0.00000E+00
         0.00000E+00
         0.00000E+00
         0.00000E+00
         0.00000E+00
         0.00000E+00
         0.00000E+00
         0.00000E+00
         0.00000E+00
         0.00000E+00
         0.00000E+00
         0.00000E+00
         0.00000E+00
         0.00000E+00
         0.00000E+00
         0.00000E+00
         0.00000E+00
         0.00000E+00
         0.00000E+00
         0.00000E+00
         0.00000E+00
         0.00000E+00
         0.00000E+00
         0.00000E+00
         0.00000E+00
         0.00000E+00
         0.00000E+00
         0.00000E+00
         0.00000E+00
         0.00000E+00
         0.00000E+00
         0.00000E+00
         0.00000E+00
         0.00000E+00
         0.00000E+00
         0.00000E+00
         0.00000E+00
         0.00000E+00
         0.00000E+00
         0.00000E+00
         0.00000E+00
         0.00000E+00
         0.00000E+00
         0.00000E+00
         0.00000E+00
         0.00000E+00
         0.00000E+00
         0.00000E+00
         0.00000E+00
         0.00000E+00
         0.00000E+00
         0.00000E+00
         0.00000E+00
         0.00000E+00
         0.00000E+00
         0.00000E+00
         0.00000E+00
         0.00000E+00
         0.00000E+00
         0.00000E+00
         0.00000E+00
         0.00000E+00
         0.00000E+00
         0.00000E+00
         0.00000E+00
         0.00000E+00
         0.00000E+00
         0.00000E+00
         0.00000E+00
         0.00000E+00
         0.00000E+00
         0.00000E+00
         0.00000E+00
         0.00000E+00
         0.00000E+00
         0.00000E+00
         0.00000E+00
         0.00000E+00
         0.00000E+00
         0.00000E+00
         0.00000E+00
         0.00000E+00
         0.00000E+00
         0.00000E+00
         0.00000E+00
         0.00000E+00
         0.00000E+00
         0.00000E+00
         0.00000E+00
         0.00000E+00
         0.00000E+00
         0.00000E+00
         0.00000E+00
         0.00000E+00
         0.00000E+00
         0.00000E+00
         0.00000E+00
         0.00000E+00
         0.00000E+00
         0.00000E+00
         0.00000E+00
         0.00000E+00
         0.00000E+00
         0.00000E+00
         0.00000E+00
         0.00000E+00
         0.00000E+00
         0.00000E+00
         0.00000E+00
         0.00000E+00
         0.00000E+00
         0.00000E+00
         0.00000E+00
         0.00000E+00
         0.00000E+00
         0.00000E+00
         0.00000E+00
         0.00000E+00
         0.00000E+00
         0.00000E+00
         0.00000E+00
         0.00000E+00
         0.00000E+00
         0.00000E+00
         0.00000E+00
         0.00000E+00
         0.00000E+00
         0.00000E+00
         0.00000E+00
         0.00000E+00
         0.00000E+00
         0.00000E+00
         0.00000E+00
         0.00000E+00
         0.00000E+00
         0.00000E+00
         0.00000E+00
         0.00000E+00
         0.00000E+00
         0.00000E+00
         0.00000E+00
         0.00000E+00
         0.00000E+00
         0.00000E+00
         0.00000E+00
         0.00000E+00
         0.00000E+00
         0.00000E+00
         0.00000E+00
         0.00000E+00
         0.00000E+00
         0.00000E+00
         0.00000E+00
         0.00000E+00
         0.00000E+00
         0.00000E+00
         0.00000E+00
         0.00000E+00
         0.00000E+00
         0.00000E+00
         0.00000E+00
         0.00000E+00
         0.00000E+00
         0.00000E+00
         0.00000E+00
         0.00000E+00
         0.00000E+00
         0.00000E+00
         0.00000E+00
         0.00000E+00
         0.00000E+00
         0.00000E+00
         0.00000E+00
         0.00000E+00
         0.00000E+00
         0.00000E+00
         0.00000E+00
         0.00000E+00
         0.00000E+00
         0.00000E+00
         0.00000E+00
         0.00000E+00
         0.00000E+00
         0.00000E+00
         0.00000E+00
         0.00000E+00
         0.00000E+00
         0.00000E+00
         0.00000E+00
         0.00000E+00
         0.00000E+00
         0.00000E+00
         0.00000E+00
         0.00000E+00
         0.00000E+00
         0.00000E+00
         0.00000E+00
         0.00000E+00
         0.00000E+00
         0.00000E+00
         0.00000E+00
         0.00000E+00
         0.00000E+00
         0.00000E+00
         0.00000E+00
         0.00000E+00
         0.00000E+00
         0.00000E+00
         0.00000E+00
         0.00000E+00
         0.00000E+00
         0.00000E+00
         0.00000E+00
         0.00000E+00
         0.00000E+00
         0.00000E+00
         0.00000E+00
         0.00000E+00
         0.00000E+00
         0.00000E+00
         0.00000E+00
         0.00000E+00
         0.00000E+00
         0.00000E+00
         0.00000E+00
         0.00000E+00
         0.00000E+00
         0.00000E+00
         0.00000E+00
         0.00000E+00
         0.00000E+00
         0.00000E+00
         0.00000E+00
         0.00000E+00
         0.00000E+00
         0.00000E+00
         0.00000E+00
         0.00000E+00
         0.00000E+00
         0.00000E+00
         0.00000E+00
         0.00000E+00
         0.00000E+00
         0.00000E+00
         0.00000E+00
         0.00000E+00
         0.00000E+00
         0.00000E+00
         0.00000E+00
         0.00000E+00
         0.00000E+00
         0.00000E+00
         0.00000E+00
         0.00000E+00
         0.00000E+00
         0.00000E+00
         0.00000E+00
         0.00000E+00
         0.00000E+00
         0.00000E+00
         0.00000E+00
         0.00000E+00
         0.00000E+00
         0.00000E+00
         0.00000E+00
         0.00000E+00
         0.00000E+00
         0.00000E+00
         0.00000E+00
         0.00000E+00
         0.00000E+00
         0.00000E+00
         0.00000E+00
         0.00000E+00
         0.00000E+00
         0.00000E+00
         0.00000E+00
         0.00000E+00
         0.00000E+00
         0.00000E+00
         0.00000E+00
         0.00000E+00
         0.00000E+00
         0.00000E+00
         0.00000E+00
         0.00000E+00
         0.00000E+00
         0.00000E+00
         0.00000E+00
         0.00000E+00
         0.00000E+00
         0.00000E+00
         0.00000E+00
         0.00000E+00
         0.00000E+00
         0.00000E+00
         0.00000E+00
         0.00000E+00
         0.00000E+00
         0.00000E+00
         0.00000E+00
         0.00000E+00
         0.00000E+00
         0.00000E+00
         0.00000E+00
         0.00000E+00
         0.00000E+00
         0.00000E+00
         0.00000E+00
         0.00000E+00
         0.00000E+00
         0.00000E+00
         0.00000E+00
         0.00000E+00
         0.00000E+00
         0.00000E+00
         0.00000E+00
         0.00000E+00
         0.00000E+00
         0.00000E+00
         0.00000E+00
         0.00000E+00
         0.00000E+00
         0.00000E+00
         0.00000E+00
         0.00000E+00
         0.00000E+00
         0.00000E+00
         0.00000E+00
         0.00000E+00
         0.00000E+00
         0.00000E+00
         0.00000E+00
         0.00000E+00
         0.00000E+00
         0.00000E+00
         0.00000E+00
         0.00000E+00
         0.00000E+00
         0.00000E+00
         0.00000E+00
         0.00000E+00
         0.00000E+00
         0.00000E+00
         0.00000E+00
         0.00000E+00
         0.00000E+00
         0.00000E+00
         0.00000E+00
         0.00000E+00
         0.00000E+00
         0.00000E+00
         0.00000E+00
         0.00000E+00
         0.00000E+00
         0.00000E+00
         0.00000E+00
         0.00000E+00
         0.00000E+00
         0.00000E+00
         0.00000E+00
         0.00000E+00
         0.00000E+00
         0.00000E+00
         0.00000E+00
         0.00000E+00
         0.00000E+00
         0.00000E+00
         0.00000E+00
         0.00000E+00
         0.00000E+00
         0.00000E+00
         0.00000E+00
         0.00000E+00
         0.00000E+00
         0.00000E+00
         0.00000E+00
         0.00000E+00
         0.00000E+00
         0.00000E+00
         0.00000E+00
         0.00000E+00
         0.00000E+00
         0.00000E+00
         0.00000E+00
         0.00000E+00
         0.00000E+00
         0.00000E+00
         0.00000E+00
         0.00000E+00
         0.00000E+00
         0.00000E+00
         0.00000E+00
         0.00000E+00
         0.00000E+00
         0.00000E+00
         0.00000E+00
         0.00000E+00
         0.00000E+00
         0.00000E+00
         0.00000E+00
         0.00000E+00
         0.00000E+00
         0.00000E+00
         0.00000E+00
         0.00000E+00
         0.00000E+00
         0.00000E+00
         0.00000E+00
         0.00000E+00
         0.00000E+00
         0.00000E+00
         0.00000E+00
         0.00000E+00
         0.00000E+00
         0.00000E+00
         0.00000E+00
         0.00000E+00
         0.00000E+00
         0.00000E+00
         0.00000E+00
         0.00000E+00
         0.00000E+00
         0.00000E+00
         0.00000E+00
         0.00000E+00
         0.00000E+00
         0.00000E+00
         0.00000E+00
         0.00000E+00
         0.00000E+00
         0.00000E+00
         0.00000E+00
         0.00000E+00
         0.00000E+00
         0.00000E+00
         0.00000E+00
         0.00000E+00
         0.00000E+00
         0.00000E+00
         0.00000E+00
         0.00000E+00
         0.00000E+00
         0.00000E+00
         0.00000E+00
         0.00000E+00
         0.00000E+00
         0.00000E+00
         0.00000E+00
         0.00000E+00
         0.00000E+00
         0.00000E+00
         0.00000E+00
         0.00000E+00
         0.00000E+00
         0.00000E+00
         0.00000E+00
         0.00000E+00
         0.00000E+00
         0.00000E+00
         0.00000E+00
         0.00000E+00
         0.00000E+00
         0.00000E+00
         0.00000E+00
         0.00000E+00
         0.00000E+00
         0.00000E+00
         0.00000E+00
         0.00000E+00
         0.00000E+00
         0.00000E+00
         0.00000E+00
         0.00000E+00
         0.00000E+00
         0.00000E+00
         0.00000E+00
         0.00000E+00
         0.00000E+00
         0.00000E+00
         0.00000E+00
         0.00000E+00
         0.00000E+00
         0.00000E+00
         0.00000E+00
         0.00000E+00
         0.00000E+00
         0.00000E+00
         0.00000E+00
         0.00000E+00
         0.00000E+00
         0.00000E+00
         0.00000E+00
         0.00000E+00
         0.00000E+00
         0.00000E+00
         0.00000E+00
         0.00000E+00
         0.00000E+00
         0.00000E+00
         0.00000E+00
         0.00000E+00
         0.00000E+00
         0.00000E+00
         0.00000E+00
         0.00000E+00
         0.00000E+00
         0.00000E+00
         0.00000E+00
         0.00000E+00
         0.00000E+00
         0.00000E+00
         0.00000E+00
         0.00000E+00
         0.00000E+00
         0.00000E+00
         0.00000E+00
         0.00000E+00
         0.00000E+00
         0.00000E+00
         0.00000E+00
         0.00000E+00
         0.00000E+00
         0.00000E+00
         0.00000E+00
         0.00000E+00
         0.00000E+00
         0.00000E+00
         0.00000E+00
         0.00000E+00
         0.00000E+00
         0.00000E+00
         0.00000E+00
         0.00000E+00
         0.00000E+00
         0.00000E+00
         0.00000E+00
         0.00000E+00
         0.00000E+00
         0.00000E+00
         0.00000E+00
         0.00000E+00
         0.00000E+00
         0.00000E+00
         0.00000E+00
         0.00000E+00
         0.00000E+00
         0.00000E+00
         0.00000E+00
         0.00000E+00
         0.00000E+00
         0.00000E+00
         0.00000E+00
         0.00000E+00
         0.00000E+00
         0.00000E+00
         0.00000E+00
         0.00000E+00
         0.00000E+00
         0.00000E+00
         0.00000E+00
         0.00000E+00
         0.00000E+00
         0.00000E+00
         0.00000E+00
         0.00000E+00
         0.00000E+00
         0.00000E+00
         0.00000E+00
         0.00000E+00
         0.00000E+00
         0.00000E+00
         0.00000E+00
         0.00000E+00
         0.00000E+00
         0.00000E+00
         0.00000E+00
         0.00000E+00
         0.00000E+00
         0.00000E+00
         0.00000E+00
         0.00000E+00
         0.00000E+00
         0.00000E+00
         0.00000E+00
         0.00000E+00
         0.00000E+00
         0.00000E+00
         0.00000E+00
         0.00000E+00
         0.00000E+00
         0.00000E+00
         0.00000E+00
         0.00000E+00
         0.00000E+00
         0.00000E+00
         0.00000E+00
         0.00000E+00
         0.00000E+00
         0.00000E+00
         0.00000E+00
         0.00000E+00
         0.00000E+00
         0.00000E+00
         0.00000E+00
         0.00000E+00
         0.00000E+00
         0.00000E+00
         0.00000E+00
         0.00000E+00
         0.00000E+00
         0.00000E+00
         0.00000E+00
         0.00000E+00
         0.00000E+00
         0.00000E+00
         0.00000E+00
         0.00000E+00
         0.00000E+00
         0.00000E+00
         0.00000E+00
         0.00000E+00
         0.00000E+00
         0.00000E+00
         0.00000E+00
         0.00000E+00
         0.00000E+00
         0.00000E+00
         0.00000E+00
         0.00000E+00
         0.00000E+00
         0.00000E+00
         0.00000E+00
         0.00000E+00
         0.00000E+00
         0.00000E+00
         0.00000E+00
         0.00000E+00
         0.00000E+00
         0.00000E+00
         0.00000E+00
         0.00000E+00
         0.00000E+00
         0.00000E+00
         0.00000E+00
         0.00000E+00
         0.00000E+00
         0.00000E+00
         0.00000E+00
         0.00000E+00
         0.00000E+00
         0.00000E+00
         0.00000E+00
         0.00000E+00
         0.00000E+00
         0.00000E+00
         0.00000E+00
         0.00000E+00
         0.00000E+00
         0.00000E+00
         0.00000E+00
         0.00000E+00
         0.00000E+00
         0.00000E+00
         0.00000E+00
         0.00000E+00
         0.00000E+00
         0.00000E+00
         0.00000E+00
         0.00000E+00
         0.00000E+00
         0.00000E+00
         0.00000E+00
         0.00000E+00
         0.00000E+00
         0.00000E+00
         0.00000E+00
         0.00000E+00
         0.00000E+00
         0.00000E+00
         0.00000E+00
         0.00000E+00
         0.00000E+00
         0.00000E+00
         0.00000E+00
         0.00000E+00
         0.00000E+00
         0.00000E+00
         0.00000E+00
         0.00000E+00
         0.00000E+00
         0.00000E+00
         0.00000E+00
  
SCALARS                     velocity_y  double 1
LOOKUP_TABLE default
         0.00000E+00
         0.00000E+00
         0.00000E+00
         0.00000E+00
         0.00000E+00
         0.00000E+00
         0.00000E+00
         0.00000E+00
         0.00000E+00
         0.00000E+00
         0.00000E+00
         0.00000E+00
         0.00000E+00
         0.00000E+00
         0.00000E+00
         0.00000E+00
         0.00000E+00
         0.00000E+00
         0.00000E+00
         0.00000E+00
         0.00000E+00
         0.00000E+00
         0.00000E+00
         0.00000E+00
         0.00000E+00
         0.00000E+00
         0.00000E+00
         0.00000E+00
         0.00000E+00
         0.00000E+00
         0.00000E+00
         0.00000E+00
         0.00000E+00
         0.00000E+00
         0.00000E+00
         0.00000E+00
         0.00000E+00
         0.00000E+00
         0.00000E+00
         0.00000E+00
         0.00000E+00
         0.00000E+00
         0.00000E+00
         0.00000E+00
         0.00000E+00
         0.00000E+00
         0.00000E+00
         0.00000E+00
         0.00000E+00
         0.00000E+00
         0.00000E+00
         0.00000E+00
         0.00000E+00
         0.00000E+00
         0.00000E+00
         0.00000E+00
         0.00000E+00
         0.00000E+00
         0.00000E+00
         0.00000E+00
         0.00000E+00
         0.00000E+00
         0.00000E+00
         0.00000E+00
         0.00000E+00
         0.00000E+00
         0.00000E+00
         0.00000E+00
         0.00000E+00
         0.00000E+00
         0.00000E+00
         0.00000E+00
         0.00000E+00
         0.00000E+00
         0.00000E+00
         0.00000E+00
         0.00000E+00
         0.00000E+00
         0.00000E+00
         0.00000E+00
         0.00000E+00
         0.00000E+00
         0.00000E+00
         0.00000E+00
         0.00000E+00
         0.00000E+00
         0.00000E+00
         0.00000E+00
         0.00000E+00
         0.00000E+00
         0.00000E+00
         0.00000E+00
         0.00000E+00
         0.00000E+00
         0.00000E+00
         0.00000E+00
         0.00000E+00
         0.00000E+00
         0.00000E+00
         0.00000E+00
         0.00000E+00
         0.00000E+00
         0.00000E+00
         0.00000E+00
         0.00000E+00
         0.00000E+00
         0.00000E+00
         0.00000E+00
         0.00000E+00
         0.00000E+00
         0.00000E+00
         0.00000E+00
         0.00000E+00
         0.00000E+00
         0.00000E+00
         0.00000E+00
         0.00000E+00
         0.00000E+00
         0.00000E+00
         0.00000E+00
         0.00000E+00
         0.00000E+00
         0.00000E+00
         0.00000E+00
         0.00000E+00
         0.00000E+00
         0.00000E+00
         0.00000E+00
         0.00000E+00
         0.00000E+00
         0.00000E+00
         0.00000E+00
         0.00000E+00
         0.00000E+00
         0.00000E+00
         0.00000E+00
         0.00000E+00
         0.00000E+00
         0.00000E+00
         0.00000E+00
         0.00000E+00
         0.00000E+00
         0.00000E+00
         0.00000E+00
         0.00000E+00
         0.00000E+00
         0.00000E+00
         0.00000E+00
         0.00000E+00
         0.00000E+00
         0.00000E+00
         0.00000E+00
         0.00000E+00
         0.00000E+00
         0.00000E+00
         0.00000E+00
         0.00000E+00
         0.00000E+00
         0.00000E+00
         0.00000E+00
         0.00000E+00
         0.00000E+00
         0.00000E+00
         0.00000E+00
         0.00000E+00
         0.00000E+00
         0.00000E+00
         0.00000E+00
         0.00000E+00
         0.00000E+00
         0.00000E+00
         0.00000E+00
         0.00000E+00
         0.00000E+00
         0.00000E+00
         0.00000E+00
         0.00000E+00
         0.00000E+00
         0.00000E+00
         0.00000E+00
         0.00000E+00
         0.00000E+00
         0.00000E+00
         0.00000E+00
         0.00000E+00
         0.00000E+00
         0.00000E+00
         0.00000E+00
         0.00000E+00
         0.00000E+00
         0.00000E+00
         0.00000E+00
         0.00000E+00
         0.00000E+00
         0.00000E+00
         0.00000E+00
         0.00000E+00
         0.00000E+00
         0.00000E+00
         0.00000E+00
         0.00000E+00
         0.00000E+00
         0.00000E+00
         0.00000E+00
         0.00000E+00
         0.00000E+00
         0.00000E+00
         0.00000E+00
         0.00000E+00
         0.00000E+00
         0.00000E+00
         0.00000E+00
         0.00000E+00
         0.00000E+00
         0.00000E+00
         0.00000E+00
         0.00000E+00
         0.00000E+00
         0.00000E+00
         0.00000E+00
         0.00000E+00
         0.00000E+00
         0.00000E+00
         0.00000E+00
         0.00000E+00
         0.00000E+00
         0.00000E+00
         0.00000E+00
         0.00000E+00
         0.00000E+00
         0.00000E+00
         0.00000E+00
         0.00000E+00
         0.00000E+00
         0.00000E+00
         0.00000E+00
         0.00000E+00
         0.00000E+00
         0.00000E+00
         0.00000E+00
         0.00000E+00
         0.00000E+00
         0.00000E+00
         0.00000E+00
         0.00000E+00
         0.00000E+00
         0.00000E+00
         0.00000E+00
         0.00000E+00
         0.00000E+00
         0.00000E+00
         0.00000E+00
         0.00000E+00
         0.00000E+00
         0.00000E+00
         0.00000E+00
         0.00000E+00
         0.00000E+00
         0.00000E+00
         0.00000E+00
         0.00000E+00
         0.00000E+00
         0.00000E+00
         0.00000E+00
         0.00000E+00
         0.00000E+00
         0.00000E+00
         0.00000E+00
         0.00000E+00
         0.00000E+00
         0.00000E+00
         0.00000E+00
         0.00000E+00
         0.00000E+00
         0.00000E+00
         0.00000E+00
         0.00000E+00
         0.00000E+00
         0.00000E+00
         0.00000E+00
         0.00000E+00
         0.00000E+00
         0.00000E+00
         0.00000E+00
         0.00000E+00
         0.00000E+00
         0.00000E+00
         0.00000E+00
         0.00000E+00
         0.00000E+00
         0.00000E+00
         0.00000E+00
         0.00000E+00
         0.00000E+00
         0.00000E+00
         0.00000E+00
         0.00000E+00
         0.00000E+00
         0.00000E+00
         0.00000E+00
         0.00000E+00
         0.00000E+00
         0.00000E+00
         0.00000E+00
         0.00000E+00
         0.00000E+00
         0.00000E+00
         0.00000E+00
         0.00000E+00
         0.00000E+00
         0.00000E+00
         0.00000E+00
         0.00000E+00
         0.00000E+00
         0.00000E+00
         0.00000E+00
         0.00000E+00
         0.00000E+00
         0.00000E+00
         0.00000E+00
         0.00000E+00
         0.00000E+00
         0.00000E+00
         0.00000E+00
         0.00000E+00
         0.00000E+00
         0.00000E+00
         0.00000E+00
         0.00000E+00
         0.00000E+00
         0.00000E+00
         0.00000E+00
         0.00000E+00
         0.00000E+00
         0.00000E+00
         0.00000E+00
         0.00000E+00
         0.00000E+00
         0.00000E+00
         0.00000E+00
         0.00000E+00
         0.00000E+00
         0.00000E+00
         0.00000E+00
         0.00000E+00
         0.00000E+00
         0.00000E+00
         0.00000E+00
         0.00000E+00
         0.00000E+00
         0.00000E+00
         0.00000E+00
         0.00000E+00
         0.00000E+00
         0.00000E+00
         0.00000E+00
         0.00000E+00
         0.00000E+00
         0.00000E+00
         0.00000E+00
         0.00000E+00
         0.00000E+00
         0.00000E+00
         0.00000E+00
         0.00000E+00
         0.00000E+00
         0.00000E+00
         0.00000E+00
         0.00000E+00
         0.00000E+00
         0.00000E+00
         0.00000E+00
         0.00000E+00
         0.00000E+00
         0.00000E+00
         0.00000E+00
         0.00000E+00
         0.00000E+00
         0.00000E+00
         0.00000E+00
         0.00000E+00
         0.00000E+00
         0.00000E+00
         0.00000E+00
         0.00000E+00
         0.00000E+00
         0.00000E+00
         0.00000E+00
         0.00000E+00
         0.00000E+00
         0.00000E+00
         0.00000E+00
         0.00000E+00
         0.00000E+00
         0.00000E+00
         0.00000E+00
         0.00000E+00
         0.00000E+00
         0.00000E+00
         0.00000E+00
         0.00000E+00
         0.00000E+00
         0.00000E+00
         0.00000E+00
         0.00000E+00
         0.00000E+00
         0.00000E+00
         0.00000E+00
         0.00000E+00
         0.00000E+00
         0.00000E+00
         0.00000E+00
         0.00000E+00
         0.00000E+00
         0.00000E+00
         0.00000E+00
         0.00000E+00
         0.00000E+00
         0.00000E+00
         0.00000E+00
         0.00000E+00
         0.00000E+00
         0.00000E+00
         0.00000E+00
         0.00000E+00
         0.00000E+00
         0.00000E+00
         0.00000E+00
         0.00000E+00
         0.00000E+00
         0.00000E+00
         0.00000E+00
         0.00000E+00
         0.00000E+00
         0.00000E+00
         0.00000E+00
         0.00000E+00
         0.00000E+00
         0.00000E+00
         0.00000E+00
         0.00000E+00
         0.00000E+00
         0.00000E+00
         0.00000E+00
         0.00000E+00
         0.00000E+00
         0.00000E+00
         0.00000E+00
         0.00000E+00
         0.00000E+00
         0.00000E+00
         0.00000E+00
         0.00000E+00
         0.00000E+00
         0.00000E+00
         0.00000E+00
         0.00000E+00
         0.00000E+00
         0.00000E+00
         0.00000E+00
         0.00000E+00
         0.00000E+00
         0.00000E+00
         0.00000E+00
         0.00000E+00
         0.00000E+00
         0.00000E+00
         0.00000E+00
         0.00000E+00
         0.00000E+00
         0.00000E+00
         0.00000E+00
         0.00000E+00
         0.00000E+00
         0.00000E+00
         0.00000E+00
         0.00000E+00
         0.00000E+00
         0.00000E+00
         0.00000E+00
         0.00000E+00
         0.00000E+00
         0.00000E+00
         0.00000E+00
         0.00000E+00
         0.00000E+00
         0.00000E+00
         0.00000E+00
         0.00000E+00
         0.00000E+00
         0.00000E+00
         0.00000E+00
         0.00000E+00
         0.00000E+00
         0.00000E+00
         0.00000E+00
         0.00000E+00
         0.00000E+00
         0.00000E+00
         0.00000E+00
         0.00000E+00
         0.00000E+00
         0.00000E+00
         0.00000E+00
         0.00000E+00
         0.00000E+00
         0.00000E+00
         0.00000E+00
         0.00000E+00
         0.00000E+00
         0.00000E+00
         0.00000E+00
         0.00000E+00
         0.00000E+00
         0.00000E+00
         0.00000E+00
         0.00000E+00
         0.00000E+00
         0.00000E+00
         0.00000E+00
         0.00000E+00
         0.00000E+00
         0.00000E+00
         0.00000E+00
         0.00000E+00
         0.00000E+00
         0.00000E+00
         0.00000E+00
         0.00000E+00
         0.00000E+00
         0.00000E+00
         0.00000E+00
         0.00000E+00
         0.00000E+00
         0.00000E+00
         0.00000E+00
         0.00000E+00
         0.00000E+00
         0.00000E+00
         0.00000E+00
         0.00000E+00
         0.00000E+00
         0.00000E+00
         0.00000E+00
         0.00000E+00
         0.00000E+00
         0.00000E+00
         0.00000E+00
         0.00000E+00
         0.00000E+00
         0.00000E+00
         0.00000E+00
         0.00000E+00
         0.00000E+00
         0.00000E+00
         0.00000E+00
         0.00000E+00
         0.00000E+00
         0.00000E+00
         0.00000E+00
         0.00000E+00
         0.00000E+00
         0.00000E+00
         0.00000E+00
         0.00000E+00
         0.00000E+00
         0.00000E+00
         0.00000E+00
         0.00000E+00
         0.00000E+00
         0.00000E+00
         0.00000E+00
         0.00000E+00
         0.00000E+00
         0.00000E+00
         0.00000E+00
         0.00000E+00
         0.00000E+00
         0.00000E+00
         0.00000E+00
         0.00000E+00
         0.00000E+00
         0.00000E+00
         0.00000E+00
         0.00000E+00
         0.00000E+00
         0.00000E+00
         0.00000E+00
         0.00000E+00
         0.00000E+00
         0.00000E+00
         0.00000E+00
         0.00000E+00
         0.00000E+00
         0.00000E+00
         0.00000E+00
         0.00000E+00
         0.00000E+00
         0.00000E+00
         0.00000E+00
         0.00000E+00
         0.00000E+00
         0.00000E+00
         0.00000E+00
         0.00000E+00
         0.00000E+00
         0.00000E+00
         0.00000E+00
         0.00000E+00
         0.00000E+00
         0.00000E+00
         0.00000E+00
         0.00000E+00
         0.00000E+00
         0.00000E+00
         0.00000E+00
         0.00000E+00
         0.00000E+00
         0.00000E+00
         0.00000E+00
         0.00000E+00
         0.00000E+00
         0.00000E+00
         0.00000E+00
         0.00000E+00
         0.00000E+00
         0.00000E+00
         0.00000E+00
         0.00000E+00
         0.00000E+00
         0.00000E+00
         0.00000E+00
         0.00000E+00
         0.00000E+00
         0.00000E+00
         0.00000E+00
         0.00000E+00
         0.00000E+00
         0.00000E+00
         0.00000E+00
         0.00000E+00
         0.00000E+00
         0.00000E+00
         0.00000E+00
         0.00000E+00
         0.00000E+00
         0.00000E+00
         0.00000E+00
         0.00000E+00
         0.00000E+00
         0.00000E+00
         0.00000E+00
         0.00000E+00
         0.00000E+00
         0.00000E+00
         0.00000E+00
         0.00000E+00
         0.00000E+00
         0.00000E+00
         0.00000E+00
         0.00000E+00
         0.00000E+00
         0.00000E+00
         0.00000E+00
         0.00000E+00
         0.00000E+00
         0.00000E+00
         0.00000E+00
         0.00000E+00
         0.00000E+00
         0.00000E+00
         0.00000E+00
         0.00000E+00
         0.00000E+00
         0.00000E+00
         0.00000E+00
         0.00000E+00
         0.00000E+00
         0.00000E+00
         0.00000E+00
         0.00000E+00
         0.00000E+00
         0.00000E+00
         0.00000E+00
         0.00000E+00
         0.00000E+00
         0.00000E+00
         0.00000E+00
         0.00000E+00
         0.00000E+00
         0.00000E+00
         0.00000E+00
         0.00000E+00
         0.00000E+00
         0.00000E+00
         0.00000E+00
         0.00000E+00
         0.00000E+00
         0.00000E+00
         0.00000E+00
         0.00000E+00
         0.00000E+00
         0.00000E+00
         0.00000E+00
         0.00000E+00
         0.00000E+00
         0.00000E+00
         0.00000E+00
         0.00000E+00
         0.00000E+00
         0.00000E+00
         0.00000E+00
         0.00000E+00
         0.00000E+00
         0.00000E+00
         0.00000E+00
         0.00000E+00
         0.00000E+00
         0.00000E+00
         0.00000E+00
         0.00000E+00
         0.00000E+00
         0.00000E+00
         0.00000E+00
         0.00000E+00
         0.00000E+00
         0.00000E+00
         0.00000E+00
         0.00000E+00
         0.00000E+00
         0.00000E+00
         0.00000E+00
         0.00000E+00
         0.00000E+00
         0.00000E+00
         0.00000E+00
         0.00000E+00
         0.00000E+00
         0.00000E+00
         0.00000E+00
         0.00000E+00
         0.00000E+00
         0.00000E+00
         0.00000E+00
         0.00000E+00
         0.00000E+00
         0.00000E+00
         0.00000E+00
         0.00000E+00
         0.00000E+00
         0.00000E+00
         0.00000E+00
         0.00000E+00
         0.00000E+00
         0.00000E+00
         0.00000E+00
         0.00000E+00
         0.00000E+00
         0.00000E+00
         0.00000E+00
         0.00000E+00
         0.00000E+00
         0.00000E+00
         0.00000E+00
         0.00000E+00
         0.00000E+00
         0.00000E+00
         0.00000E+00
         0.00000E+00
         0.00000E+00
         0.00000E+00
         0.00000E+00
         0.00000E+00
         0.00000E+00
         0.00000E+00
         0.00000E+00
         0.00000E+00
         0.00000E+00
         0.00000E+00
         0.00000E+00
         0.00000E+00
         0.00000E+00
         0.00000E+00
         0.00000E+00
         0.00000E+00
         0.00000E+00
         0.00000E+00
         0.00000E+00
         0.00000E+00
         0.00000E+00
         0.00000E+00
         0.00000E+00
         0.00000E+00
         0.00000E+00
         0.00000E+00
         0.00000E+00
         0.00000E+00
         0.00000E+00
         0.00000E+00
         0.00000E+00
         0.00000E+00
         0.00000E+00
         0.00000E+00
         0.00000E+00
         0.00000E+00
         0.00000E+00
         0.00000E+00
         0.00000E+00
         0.00000E+00
         0.00000E+00
         0.00000E+00
         0.00000E+00
         0.00000E+00
         0.00000E+00
         0.00000E+00
         0.00000E+00
         0.00000E+00
         0.00000E+00
         0.00000E+00
         0.00000E+00
         0.00000E+00
         0.00000E+00
         0.00000E+00
         0.00000E+00
         0.00000E+00
         0.00000E+00
         0.00000E+00
         0.00000E+00
         0.00000E+00
         0.00000E+00
         0.00000E+00
         0.00000E+00
         0.00000E+00
         0.00000E+00
         0.00000E+00
         0.00000E+00
         0.00000E+00
         0.00000E+00
         0.00000E+00
         0.00000E+00
         0.00000E+00
         0.00000E+00
         0.00000E+00
         0.00000E+00
         0.00000E+00
         0.00000E+00
         0.00000E+00
         0.00000E+00
         0.00000E+00
         0.00000E+00
         0.00000E+00
         0.00000E+00
         0.00000E+00
         0.00000E+00
         0.00000E+00
         0.00000E+00
         0.00000E+00
         0.00000E+00
         0.00000E+00
         0.00000E+00
         0.00000E+00
         0.00000E+00
         0.00000E+00
         0.00000E+00
         0.00000E+00
         0.00000E+00
         0.00000E+00
         0.00000E+00
         0.00000E+00
         0.00000E+00
         0.00000E+00
         0.00000E+00
         0.00000E+00
         0.00000E+00
         0.00000E+00
         0.00000E+00
         0.00000E+00
         0.00000E+00
         0.00000E+00
         0.00000E+00
         0.00000E+00
         0.00000E+00
         0.00000E+00
         0.00000E+00
         0.00000E+00
         0.00000E+00
         0.00000E+00
         0.00000E+00
         0.00000E+00
         0.00000E+00
         0.00000E+00
         0.00000E+00
         0.00000E+00
         0.00000E+00
         0.00000E+00
         0.00000E+00
         0.00000E+00
         0.00000E+00
         0.00000E+00
         0.00000E+00
         0.00000E+00
         0.00000E+00
         0.00000E+00
         0.00000E+00
         0.00000E+00
         0.00000E+00
         0.00000E+00
         0.00000E+00
         0.00000E+00
         0.00000E+00
         0.00000E+00
         0.00000E+00
         0.00000E+00
         0.00000E+00
         0.00000E+00
         0.00000E+00
         0.00000E+00
         0.00000E+00
         0.00000E+00
         0.00000E+00
         0.00000E+00
         0.00000E+00
         0.00000E+00
         0.00000E+00
         0.00000E+00
         0.00000E+00
         0.00000E+00
         0.00000E+00
         0.00000E+00
         0.00000E+00
         0.00000E+00
         0.00000E+00
         0.00000E+00
         0.00000E+00
         0.00000E+00
         0.00000E+00
         0.00000E+00
         0.00000E+00
         0.00000E+00
         0.00000E+00
         0.00000E+00
         0.00000E+00
         0.00000E+00
         0.00000E+00
         0.00000E+00
         0.00000E+00
         0.00000E+00
         0.00000E+00
         0.00000E+00
         0.00000E+00
         0.00000E+00
         0.00000E+00
         0.00000E+00
         0.00000E+00
         0.00000E+00
         0.00000E+00
         0.00000E+00
         0.00000E+00
         0.00000E+00
         0.00000E+00
         0.00000E+00
         0.00000E+00
         0.00000E+00
         0.00000E+00
         0.00000E+00
         0.00000E+00
         0.00000E+00
         0.00000E+00
         0.00000E+00
         0.00000E+00
         0.00000E+00
         0.00000E+00
         0.00000E+00
         0.00000E+00
         0.00000E+00
         0.00000E+00
         0.00000E+00
         0.00000E+00
         0.00000E+00
         0.00000E+00
         0.00000E+00
         0.00000E+00
         0.00000E+00
         0.00000E+00
         0.00000E+00
         0.00000E+00
         0.00000E+00
         0.00000E+00
         0.00000E+00
         0.00000E+00
         0.00000E+00
         0.00000E+00
         0.00000E+00
         0.00000E+00
         0.00000E+00
         0.00000E+00
         0.00000E+00
         0.00000E+00
         0.00000E+00
         0.00000E+00
         0.00000E+00
         0.00000E+00
         0.00000E+00
         0.00000E+00
         0.00000E+00
         0.00000E+00
         0.00000E+00
         0.00000E+00
         0.00000E+00
         0.00000E+00
         0.00000E+00
         0.00000E+00
         0.00000E+00
         0.00000E+00
         0.00000E+00
         0.00000E+00
         0.00000E+00
         0.00000E+00
         0.00000E+00
         0.00000E+00
         0.00000E+00
         0.00000E+00
         0.00000E+00
         0.00000E+00
         0.00000E+00
         0.00000E+00
         0.00000E+00
         0.00000E+00
         0.00000E+00
         0.00000E+00
         0.00000E+00
         0.00000E+00
         0.00000E+00
         0.00000E+00
         0.00000E+00
         0.00000E+00
         0.00000E+00
         0.00000E+00
         0.00000E+00
         0.00000E+00
         0.00000E+00
         0.00000E+00
         0.00000E+00
         0.00000E+00
         0.00000E+00
         0.00000E+00
         0.00000E+00
         0.00000E+00
         0.00000E+00
         0.00000E+00
         0.00000E+00
         0.00000E+00
         0.00000E+00
         0.00000E+00
         0.00000E+00
         0.00000E+00
         0.00000E+00
         0.00000E+00
         0.00000E+00
         0.00000E+00
         0.00000E+00
         0.00000E+00
         0.00000E+00
         0.00000E+00
         0.00000E+00
         0.00000E+00
         0.00000E+00
         0.00000E+00
         0.00000E+00
         0.00000E+00
         0.00000E+00
         0.00000E+00
         0.00000E+00
         0.00000E+00
         0.00000E+00
         0.00000E+00
         0.00000E+00
         0.00000E+00
         0.00000E+00
         0.00000E+00
         0.00000E+00
         0.00000E+00
         0.00000E+00
         0.00000E+00
         0.00000E+00
         0.00000E+00
         0.00000E+00
         0.00000E+00
         0.00000E+00
         0.00000E+00
         0.00000E+00
         0.00000E+00
         0.00000E+00
         0.00000E+00
         0.00000E+00
         0.00000E+00
         0.00000E+00
         0.00000E+00
         0.00000E+00
         0.00000E+00
         0.00000E+00
         0.00000E+00
         0.00000E+00
         0.00000E+00
         0.00000E+00
         0.00000E+00
         0.00000E+00
         0.00000E+00
         0.00000E+00
         0.00000E+00
         0.00000E+00
         0.00000E+00
         0.00000E+00
         0.00000E+00
         0.00000E+00
         0.00000E+00
         0.00000E+00
         0.00000E+00
         0.00000E+00
         0.00000E+00
         0.00000E+00
         0.00000E+00
         0.00000E+00
         0.00000E+00
         0.00000E+00
         0.00000E+00
         0.00000E+00
         0.00000E+00
         0.00000E+00
         0.00000E+00
         0.00000E+00
         0.00000E+00
         0.00000E+00
         0.00000E+00
         0.00000E+00
         0.00000E+00
         0.00000E+00
         0.00000E+00
         0.00000E+00
         0.00000E+00
         0.00000E+00
         0.00000E+00
         0.00000E+00
         0.00000E+00
         0.00000E+00
         0.00000E+00
         0.00000E+00
         0.00000E+00
         0.00000E+00
         0.00000E+00
         0.00000E+00
         0.00000E+00
         0.00000E+00
         0.00000E+00
         0.00000E+00
         0.00000E+00
         0.00000E+00
         0.00000E+00
         0.00000E+00
         0.00000E+00
         0.00000E+00
         0.00000E+00
         0.00000E+00
         0.00000E+00
         0.00000E+00
         0.00000E+00
         0.00000E+00
         0.00000E+00
         0.00000E+00
         0.00000E+00
         0.00000E+00
         0.00000E+00
         0.00000E+00
         0.00000E+00
         0.00000E+00
         0.00000E+00
         0.00000E+00
         0.00000E+00
         0.00000E+00
         0.00000E+00
         0.00000E+00
         0.00000E+00
         0.00000E+00
         0.00000E+00
         0.00000E+00
         0.00000E+00
         0.00000E+00
         0.00000E+00
         0.00000E+00
         0.00000E+00
         0.00000E+00
         0.00000E+00
         0.00000E+00
         0.00000E+00
         0.00000E+00
         0.00000E+00
         0.00000E+00
         0.00000E+00
         0.00000E+00
         0.00000E+00
         0.00000E+00
         0.00000E+00
         0.00000E+00
         0.00000E+00
         0.00000E+00
         0.00000E+00
         0.00000E+00
         0.00000E+00
         0.00000E+00
         0.00000E+00
         0.00000E+00
         0.00000E+00
         0.00000E+00
         0.00000E+00
         0.00000E+00
         0.00000E+00
         0.00000E+00
         0.00000E+00
         0.00000E+00
         0.00000E+00
         0.00000E+00
         0.00000E+00
         0.00000E+00
         0.00000E+00
         0.00000E+00
         0.00000E+00
         0.00000E+00
         0.00000E+00
         0.00000E+00
         0.00000E+00
         0.00000E+00
         0.00000E+00
         0.00000E+00
         0.00000E+00
         0.00000E+00
         0.00000E+00
         0.00000E+00
         0.00000E+00
         0.00000E+00
         0.00000E+00
         0.00000E+00
         0.00000E+00
         0.00000E+00
         0.00000E+00
         0.00000E+00
         0.00000E+00
         0.00000E+00
         0.00000E+00
         0.00000E+00
         0.00000E+00
         0.00000E+00
         0.00000E+00
         0.00000E+00
         0.00000E+00
         0.00000E+00
         0.00000E+00
         0.00000E+00
         0.00000E+00
         0.00000E+00
         0.00000E+00
         0.00000E+00
         0.00000E+00
         0.00000E+00
         0.00000E+00
         0.00000E+00
         0.00000E+00
         0.00000E+00
         0.00000E+00
         0.00000E+00
         0.00000E+00
         0.00000E+00
         0.00000E+00
         0.00000E+00
         0.00000E+00
         0.00000E+00
         0.00000E+00
         0.00000E+00
         0.00000E+00
         0.00000E+00
         0.00000E+00
         0.00000E+00
         0.00000E+00
         0.00000E+00
         0.00000E+00
         0.00000E+00
         0.00000E+00
         0.00000E+00
         0.00000E+00
         0.00000E+00
         0.00000E+00
         0.00000E+00
         0.00000E+00
         0.00000E+00
         0.00000E+00
         0.00000E+00
         0.00000E+00
         0.00000E+00
         0.00000E+00
         0.00000E+00
         0.00000E+00
         0.00000E+00
         0.00000E+00
         0.00000E+00
         0.00000E+00
         0.00000E+00
         0.00000E+00
         0.00000E+00
         0.00000E+00
         0.00000E+00
         0.00000E+00
         0.00000E+00
         0.00000E+00
         0.00000E+00
         0.00000E+00
         0.00000E+00
         0.00000E+00
         0.00000E+00
         0.00000E+00
         0.00000E+00
         0.00000E+00
         0.00000E+00
         0.00000E+00
         0.00000E+00
         0.00000E+00
         0.00000E+00
         0.00000E+00
         0.00000E+00
         0.00000E+00
         0.00000E+00
         0.00000E+00
         0.00000E+00
         0.00000E+00
         0.00000E+00
         0.00000E+00
         0.00000E+00
         0.00000E+00
         0.00000E+00
         0.00000E+00
         0.00000E+00
         0.00000E+00
         0.00000E+00
         0.00000E+00
         0.00000E+00
         0.00000E+00
         0.00000E+00
         0.00000E+00
         0.00000E+00
         0.00000E+00
         0.00000E+00
         0.00000E+00
         0.00000E+00
         0.00000E+00
         0.00000E+00
         0.00000E+00
         0.00000E+00
         0.00000E+00
         0.00000E+00
         0.00000E+00
         0.00000E+00
         0.00000E+00
         0.00000E+00
         0.00000E+00
         0.00000E+00
         0.00000E+00
         0.00000E+00
         0.00000E+00
         0.00000E+00
         0.00000E+00
         0.00000E+00
         0.00000E+00
         0.00000E+00
         0.00000E+00
         0.00000E+00
         0.00000E+00
         0.00000E+00
         0.00000E+00
         0.00000E+00
         0.00000E+00
         0.00000E+00
         0.00000E+00
         0.00000E+00
         0.00000E+00
         0.00000E+00
         0.00000E+00
         0.00000E+00
         0.00000E+00
         0.00000E+00
         0.00000E+00
         0.00000E+00
         0.00000E+00
         0.00000E+00
         0.00000E+00
         0.00000E+00
         0.00000E+00
         0.00000E+00
         0.00000E+00
         0.00000E+00
         0.00000E+00
         0.00000E+00
         0.00000E+00
         0.00000E+00
         0.00000E+00
         0.00000E+00
         0.00000E+00
         0.00000E+00
         0.00000E+00
         0.00000E+00
         0.00000E+00
         0.00000E+00
         0.00000E+00
         0.00000E+00
         0.00000E+00
         0.00000E+00
         0.00000E+00
         0.00000E+00
         0.00000E+00
         0.00000E+00
         0.00000E+00
         0.00000E+00
         0.00000E+00
         0.00000E+00
         0.00000E+00
         0.00000E+00
         0.00000E+00
         0.00000E+00
         0.00000E+00
         0.00000E+00
         0.00000E+00
         0.00000E+00
         0.00000E+00
         0.00000E+00
         0.00000E+00
         0.00000E+00
         0.00000E+00
         0.00000E+00
         0.00000E+00
         0.00000E+00
         0.00000E+00
         0.00000E+00
         0.00000E+00
         0.00000E+00
         0.00000E+00
         0.00000E+00
         0.00000E+00
         0.00000E+00
         0.00000E+00
         0.00000E+00
         0.00000E+00
         0.00000E+00
         0.00000E+00
         0.00000E+00
         0.00000E+00
         0.00000E+00
         0.00000E+00
         0.00000E+00
         0.00000E+00
         0.00000E+00
         0.00000E+00
         0.00000E+00
         0.00000E+00
         0.00000E+00
         0.00000E+00
         0.00000E+00
         0.00000E+00
         0.00000E+00
         0.00000E+00
         0.00000E+00
         0.00000E+00
         0.00000E+00
         0.00000E+00
         0.00000E+00
         0.00000E+00
         0.00000E+00
         0.00000E+00
         0.00000E+00
         0.00000E+00
         0.00000E+00
         0.00000E+00
         0.00000E+00
         0.00000E+00
         0.00000E+00
         0.00000E+00
         0.00000E+00
         0.00000E+00
         0.00000E+00
         0.00000E+00
         0.00000E+00
         0.00000E+00
         0.00000E+00
         0.00000E+00
         0.00000E+00
         0.00000E+00
         0.00000E+00
         0.00000E+00
         0.00000E+00
         0.00000E+00
         0.00000E+00
         0.00000E+00
         0.00000E+00
         0.00000E+00
         0.00000E+00
         0.00000E+00
         0.00000E+00
         0.00000E+00
         0.00000E+00
         0.00000E+00
         0.00000E+00
         0.00000E+00
         0.00000E+00
         0.00000E+00
         0.00000E+00
         0.00000E+00
         0.00000E+00
         0.00000E+00
         0.00000E+00
         0.00000E+00
         0.00000E+00
         0.00000E+00
         0.00000E+00
         0.00000E+00
         0.00000E+00
         0.00000E+00
         0.00000E+00
         0.00000E+00
         0.00000E+00
         0.00000E+00
         0.00000E+00
         0.00000E+00
         0.00000E+00
         0.00000E+00
         0.00000E+00
         0.00000E+00
         0.00000E+00
         0.00000E+00
         0.00000E+00
         0.00000E+00
         0.00000E+00
         0.00000E+00
         0.00000E+00
         0.00000E+00
         0.00000E+00
         0.00000E+00
         0.00000E+00
         0.00000E+00
         0.00000E+00
         0.00000E+00
         0.00000E+00
         0.00000E+00
         0.00000E+00
         0.00000E+00
         0.00000E+00
         0.00000E+00
         0.00000E+00
         0.00000E+00
         0.00000E+00
         0.00000E+00
         0.00000E+00
         0.00000E+00
         0.00000E+00
         0.00000E+00
         0.00000E+00
         0.00000E+00
         0.00000E+00
         0.00000E+00
         0.00000E+00
         0.00000E+00
         0.00000E+00
         0.00000E+00
         0.00000E+00
         0.00000E+00
         0.00000E+00
         0.00000E+00
         0.00000E+00
         0.00000E+00
         0.00000E+00
         0.00000E+00
         0.00000E+00
         0.00000E+00
         0.00000E+00
         0.00000E+00
         0.00000E+00
         0.00000E+00
         0.00000E+00
         0.00000E+00
         0.00000E+00
         0.00000E+00
         0.00000E+00
         0.00000E+00
         0.00000E+00
         0.00000E+00
         0.00000E+00
         0.00000E+00
         0.00000E+00
         0.00000E+00
         0.00000E+00
         0.00000E+00
         0.00000E+00
         0.00000E+00
         0.00000E+00
         0.00000E+00
         0.00000E+00
         0.00000E+00
         0.00000E+00
         0.00000E+00
         0.00000E+00
         0.00000E+00
         0.00000E+00
         0.00000E+00
         0.00000E+00
         0.00000E+00
         0.00000E+00
         0.00000E+00
         0.00000E+00
         0.00000E+00
         0.00000E+00
         0.00000E+00
         0.00000E+00
         0.00000E+00
         0.00000E+00
         0.00000E+00
         0.00000E+00
         0.00000E+00
         0.00000E+00
         0.00000E+00
         0.00000E+00
         0.00000E+00
         0.00000E+00
         0.00000E+00
         0.00000E+00
         0.00000E+00
         0.00000E+00
         0.00000E+00
         0.00000E+00
         0.00000E+00
         0.00000E+00
         0.00000E+00
         0.00000E+00
         0.00000E+00
         0.00000E+00
         0.00000E+00
         0.00000E+00
         0.00000E+00
         0.00000E+00
         0.00000E+00
         0.00000E+00
         0.00000E+00
         0.00000E+00
         0.00000E+00
         0.00000E+00
         0.00000E+00
         0.00000E+00
         0.00000E+00
         0.00000E+00
         0.00000E+00
         0.00000E+00
         0.00000E+00
         0.00000E+00
         0.00000E+00
         0.00000E+00
         0.00000E+00
         0.00000E+00
         0.00000E+00
         0.00000E+00
         0.00000E+00
         0.00000E+00
         0.00000E+00
         0.00000E+00
         0.00000E+00
         0.00000E+00
         0.00000E+00
         0.00000E+00
         0.00000E+00
         0.00000E+00
         0.00000E+00
         0.00000E+00
         0.00000E+00
         0.00000E+00
         0.00000E+00
         0.00000E+00
         0.00000E+00
         0.00000E+00
         0.00000E+00
         0.00000E+00
         0.00000E+00
         0.00000E+00
         0.00000E+00
         0.00000E+00
         0.00000E+00
         0.00000E+00
         0.00000E+00
         0.00000E+00
         0.00000E+00
         0.00000E+00
         0.00000E+00
         0.00000E+00
         0.00000E+00
         0.00000E+00
         0.00000E+00
         0.00000E+00
         0.00000E+00
         0.00000E+00
         0.00000E+00
         0.00000E+00
         0.00000E+00
         0.00000E+00
         0.00000E+00
         0.00000E+00
         0.00000E+00
         0.00000E+00
         0.00000E+00
         0.00000E+00
         0.00000E+00
         0.00000E+00
         0.00000E+00
         0.00000E+00
         0.00000E+00
         0.00000E+00
         0.00000E+00
         0.00000E+00
         0.00000E+00
         0.00000E+00
         0.00000E+00
         0.00000E+00
         0.00000E+00
         0.00000E+00
         0.00000E+00
         0.00000E+00
         0.00000E+00
         0.00000E+00
         0.00000E+00
         0.00000E+00
         0.00000E+00
         0.00000E+00
         0.00000E+00
         0.00000E+00
         0.00000E+00
         0.00000E+00
         0.00000E+00
         0.00000E+00
         0.00000E+00
         0.00000E+00
         0.00000E+00
         0.00000E+00
         0.00000E+00
         0.00000E+00
         0.00000E+00
         0.00000E+00
         0.00000E+00
         0.00000E+00
         0.00000E+00
         0.00000E+00
         0.00000E+00
         0.00000E+00
         0.00000E+00
         0.00000E+00
         0.00000E+00
         0.00000E+00
         0.00000E+00
         0.00000E+00
         0.00000E+00
         0.00000E+00
         0.00000E+00
         0.00000E+00
         0.00000E+00
         0.00000E+00
         0.00000E+00
         0.00000E+00
         0.00000E+00
         0.00000E+00
         0.00000E+00
         0.00000E+00
         0.00000E+00
         0.00000E+00
         0.00000E+00
         0.00000E+00
         0.00000E+00
         0.00000E+00
         0.00000E+00
         0.00000E+00
         0.00000E+00
         0.00000E+00
         0.00000E+00
         0.00000E+00
         0.00000E+00
         0.00000E+00
         0.00000E+00
         0.00000E+00
         0.00000E+00
         0.00000E+00
         0.00000E+00
         0.00000E+00
         0.00000E+00
         0.00000E+00
         0.00000E+00
         0.00000E+00
         0.00000E+00
         0.00000E+00
         0.00000E+00
         0.00000E+00
         0.00000E+00
         0.00000E+00
         0.00000E+00
         0.00000E+00
         0.00000E+00
         0.00000E+00
         0.00000E+00
         0.00000E+00
         0.00000E+00
         0.00000E+00
         0.00000E+00
         0.00000E+00
         0.00000E+00
         0.00000E+00
         0.00000E+00
         0.00000E+00
         0.00000E+00
         0.00000E+00
         0.00000E+00
         0.00000E+00
         0.00000E+00
         0.00000E+00
         0.00000E+00
         0.00000E+00
         0.00000E+00
         0.00000E+00
         0.00000E+00
         0.00000E+00
         0.00000E+00
         0.00000E+00
         0.00000E+00
         0.00000E+00
         0.00000E+00
         0.00000E+00
         0.00000E+00
         0.00000E+00
         0.00000E+00
         0.00000E+00
         0.00000E+00
         0.00000E+00
         0.00000E+00
         0.00000E+00
         0.00000E+00
         0.00000E+00
         0.00000E+00
         0.00000E+00
         0.00000E+00
         0.00000E+00
         0.00000E+00
         0.00000E+00
         0.00000E+00
         0.00000E+00
         0.00000E+00
         0.00000E+00
         0.00000E+00
         0.00000E+00
         0.00000E+00
         0.00000E+00
         0.00000E+00
         0.00000E+00
         0.00000E+00
         0.00000E+00
         0.00000E+00
         0.00000E+00
         0.00000E+00
         0.00000E+00
         0.00000E+00
         0.00000E+00
         0.00000E+00
         0.00000E+00
         0.00000E+00
         0.00000E+00
         0.00000E+00
         0.00000E+00
         0.00000E+00
         0.00000E+00
         0.00000E+00
         0.00000E+00
         0.00000E+00
         0.00000E+00
         0.00000E+00
         0.00000E+00
         0.00000E+00
         0.00000E+00
         0.00000E+00
         0.00000E+00
         0.00000E+00
         0.00000E+00
         0.00000E+00
         0.00000E+00
         0.00000E+00
         0.00000E+00
         0.00000E+00
         0.00000E+00
         0.00000E+00
         0.00000E+00
         0.00000E+00
         0.00000E+00
         0.00000E+00
         0.00000E+00
         0.00000E+00
         0.00000E+00
         0.00000E+00
         0.00000E+00
         0.00000E+00
         0.00000E+00
         0.00000E+00
         0.00000E+00
         0.00000E+00
         0.00000E+00
         0.00000E+00
         0.00000E+00
         0.00000E+00
         0.00000E+00
         0.00000E+00
         0.00000E+00
         0.00000E+00
         0.00000E+00
         0.00000E+00
         0.00000E+00
         0.00000E+00
         0.00000E+00
         0.00000E+00
         0.00000E+00
         0.00000E+00
         0.00000E+00
         0.00000E+00
         0.00000E+00
         0.00000E+00
         0.00000E+00
         0.00000E+00
         0.00000E+00
         0.00000E+00
         0.00000E+00
         0.00000E+00
         0.00000E+00
         0.00000E+00
         0.00000E+00
         0.00000E+00
         0.00000E+00
         0.00000E+00
         0.00000E+00
         0.00000E+00
         0.00000E+00
         0.00000E+00
         0.00000E+00
         0.00000E+00
         0.00000E+00
         0.00000E+00
         0.00000E+00
         0.00000E+00
  
SCALARS                     velocity_z  double 1
LOOKUP_TABLE default
        -0.37300E+03
        -0.37300E+03
        -0.37300E+03
        -0.37300E+03
         0.00000E+00
         0.00000E+00
         0.00000E+00
         0.00000E+00
        -0.37300E+03
        -0.37300E+03
         0.00000E+00
         0.00000E+00
        -0.37300E+03
        -0.37300E+03
         0.00000E+00
         0.00000E+00
        -0.37300E+03
        -0.37300E+03
         0.00000E+00
         0.00000E+00
        -0.37300E+03
        -0.37300E+03
        -0.37300E+03
         0.00000E+00
         0.00000E+00
         0.00000E+00
        -0.37300E+03
        -0.37300E+03
         0.00000E+00
         0.00000E+00
        -0.37300E+03
        -0.37300E+03
        -0.37300E+03
         0.00000E+00
         0.00000E+00
         0.00000E+00
        -0.37300E+03
        -0.37300E+03
         0.00000E+00
         0.00000E+00
        -0.37300E+03
        -0.37300E+03
         0.00000E+00
         0.00000E+00
        -0.37300E+03
        -0.37300E+03
         0.00000E+00
         0.00000E+00
        -0.37300E+03
         0.00000E+00
        -0.37300E+03
         0.00000E+00
        -0.37300E+03
         0.00000E+00
        -0.37300E+03
         0.00000E+00
        -0.37300E+03
        -0.37300E+03
         0.00000E+00
         0.00000E+00
        -0.37300E+03
        -0.37300E+03
         0.00000E+00
         0.00000E+00
        -0.37300E+03
         0.00000E+00
        -0.37300E+03
         0.00000E+00
        -0.37300E+03
        -0.37300E+03
         0.00000E+00
         0.00000E+00
        -0.37300E+03
         0.00000E+00
        -0.37300E+03
         0.00000E+00
        -0.37300E+03
         0.00000E+00
        -0.37300E+03
         0.00000E+00
        -0.37300E+03
        -0.37300E+03
         0.00000E+00
         0.00000E+00
        -0.37300E+03
         0.00000E+00
        -0.37300E+03
         0.00000E+00
        -0.37300E+03
         0.00000E+00
        -0.37300E+03
        -0.37300E+03
         0.00000E+00
         0.00000E+00
        -0.37300E+03
         0.00000E+00
        -0.37300E+03
         0.00000E+00
        -0.37300E+03
         0.00000E+00
        -0.37300E+03
        -0.37300E+03
         0.00000E+00
         0.00000E+00
        -0.37300E+03
        -0.37300E+03
         0.00000E+00
         0.00000E+00
        -0.37300E+03
         0.00000E+00
        -0.37300E+03
         0.00000E+00
        -0.37300E+03
         0.00000E+00
        -0.37300E+03
         0.00000E+00
        -0.37300E+03
         0.00000E+00
        -0.37300E+03
         0.00000E+00
        -0.37300E+03
         0.00000E+00
        -0.37300E+03
         0.00000E+00
        -0.37300E+03
         0.00000E+00
        -0.37300E+03
         0.00000E+00
        -0.37300E+03
         0.00000E+00
        -0.37300E+03
         0.00000E+00
        -0.37300E+03
         0.00000E+00
        -0.37300E+03
         0.00000E+00
        -0.37300E+03
         0.00000E+00
        -0.37300E+03
         0.00000E+00
        -0.37300E+03
         0.00000E+00
        -0.37300E+03
         0.00000E+00
        -0.37300E+03
         0.00000E+00
        -0.37300E+03
         0.00000E+00
        -0.37300E+03
         0.00000E+00
        -0.37300E+03
         0.00000E+00
        -0.37300E+03
         0.00000E+00
        -0.37300E+03
         0.00000E+00
        -0.37300E+03
        -0.37300E+03
        -0.37300E+03
        -0.37300E+03
        -0.37300E+03
        -0.37300E+03
        -0.37300E+03
        -0.37300E+03
        -0.37300E+03
        -0.37300E+03
        -0.37300E+03
        -0.37300E+03
        -0.37300E+03
        -0.37300E+03
        -0.37300E+03
        -0.37300E+03
        -0.37300E+03
        -0.37300E+03
        -0.37300E+03
        -0.37300E+03
        -0.37300E+03
        -0.37300E+03
        -0.37300E+03
        -0.37300E+03
        -0.37300E+03
        -0.37300E+03
        -0.37300E+03
        -0.37300E+03
        -0.37300E+03
        -0.37300E+03
        -0.37300E+03
        -0.37300E+03
        -0.37300E+03
        -0.37300E+03
        -0.37300E+03
        -0.37300E+03
        -0.37300E+03
        -0.37300E+03
        -0.37300E+03
        -0.37300E+03
        -0.37300E+03
        -0.37300E+03
        -0.37300E+03
        -0.37300E+03
        -0.37300E+03
        -0.37300E+03
        -0.37300E+03
        -0.37300E+03
        -0.37300E+03
        -0.37300E+03
        -0.37300E+03
        -0.37300E+03
        -0.37300E+03
        -0.37300E+03
        -0.37300E+03
        -0.37300E+03
        -0.37300E+03
        -0.37300E+03
        -0.37300E+03
        -0.37300E+03
        -0.37300E+03
        -0.37300E+03
        -0.37300E+03
        -0.37300E+03
        -0.37300E+03
        -0.37300E+03
        -0.37300E+03
        -0.37300E+03
        -0.37300E+03
        -0.37300E+03
        -0.37300E+03
        -0.37300E+03
        -0.37300E+03
        -0.37300E+03
        -0.37300E+03
        -0.37300E+03
        -0.37300E+03
        -0.37300E+03
        -0.37300E+03
        -0.37300E+03
        -0.37300E+03
        -0.37300E+03
        -0.37300E+03
        -0.37300E+03
        -0.37300E+03
        -0.37300E+03
        -0.37300E+03
        -0.37300E+03
        -0.37300E+03
        -0.37300E+03
        -0.37300E+03
        -0.37300E+03
        -0.37300E+03
        -0.37300E+03
        -0.37300E+03
        -0.37300E+03
        -0.37300E+03
        -0.37300E+03
        -0.37300E+03
        -0.37300E+03
        -0.37300E+03
        -0.37300E+03
        -0.37300E+03
        -0.37300E+03
        -0.37300E+03
        -0.37300E+03
        -0.37300E+03
        -0.37300E+03
        -0.37300E+03
        -0.37300E+03
        -0.37300E+03
        -0.37300E+03
        -0.37300E+03
        -0.37300E+03
        -0.37300E+03
        -0.37300E+03
        -0.37300E+03
        -0.37300E+03
        -0.37300E+03
        -0.37300E+03
        -0.37300E+03
        -0.37300E+03
        -0.37300E+03
        -0.37300E+03
        -0.37300E+03
        -0.37300E+03
        -0.37300E+03
        -0.37300E+03
        -0.37300E+03
        -0.37300E+03
        -0.37300E+03
        -0.37300E+03
        -0.37300E+03
        -0.37300E+03
        -0.37300E+03
        -0.37300E+03
        -0.37300E+03
        -0.37300E+03
        -0.37300E+03
        -0.37300E+03
        -0.37300E+03
        -0.37300E+03
        -0.37300E+03
        -0.37300E+03
        -0.37300E+03
        -0.37300E+03
        -0.37300E+03
        -0.37300E+03
        -0.37300E+03
        -0.37300E+03
        -0.37300E+03
        -0.37300E+03
        -0.37300E+03
        -0.37300E+03
        -0.37300E+03
        -0.37300E+03
        -0.37300E+03
        -0.37300E+03
        -0.37300E+03
        -0.37300E+03
        -0.37300E+03
        -0.37300E+03
        -0.37300E+03
        -0.37300E+03
        -0.37300E+03
        -0.37300E+03
        -0.37300E+03
        -0.37300E+03
        -0.37300E+03
        -0.37300E+03
        -0.37300E+03
        -0.37300E+03
        -0.37300E+03
        -0.37300E+03
        -0.37300E+03
        -0.37300E+03
        -0.37300E+03
        -0.37300E+03
        -0.37300E+03
        -0.37300E+03
        -0.37300E+03
        -0.37300E+03
        -0.37300E+03
        -0.37300E+03
        -0.37300E+03
        -0.37300E+03
        -0.37300E+03
        -0.37300E+03
        -0.37300E+03
        -0.37300E+03
        -0.37300E+03
        -0.37300E+03
        -0.37300E+03
        -0.37300E+03
        -0.37300E+03
        -0.37300E+03
        -0.37300E+03
        -0.37300E+03
        -0.37300E+03
        -0.37300E+03
        -0.37300E+03
        -0.37300E+03
        -0.37300E+03
        -0.37300E+03
        -0.37300E+03
        -0.37300E+03
        -0.37300E+03
        -0.37300E+03
        -0.37300E+03
        -0.37300E+03
        -0.37300E+03
        -0.37300E+03
        -0.37300E+03
        -0.37300E+03
        -0.37300E+03
        -0.37300E+03
        -0.37300E+03
        -0.37300E+03
        -0.37300E+03
        -0.37300E+03
        -0.37300E+03
        -0.37300E+03
        -0.37300E+03
        -0.37300E+03
        -0.37300E+03
        -0.37300E+03
        -0.37300E+03
        -0.37300E+03
        -0.37300E+03
        -0.37300E+03
        -0.37300E+03
        -0.37300E+03
        -0.37300E+03
        -0.37300E+03
        -0.37300E+03
        -0.37300E+03
        -0.37300E+03
        -0.37300E+03
        -0.37300E+03
        -0.37300E+03
        -0.37300E+03
        -0.37300E+03
        -0.37300E+03
        -0.37300E+03
        -0.37300E+03
        -0.37300E+03
        -0.37300E+03
        -0.37300E+03
        -0.37300E+03
        -0.37300E+03
        -0.37300E+03
        -0.37300E+03
        -0.37300E+03
        -0.37300E+03
        -0.37300E+03
        -0.37300E+03
        -0.37300E+03
        -0.37300E+03
        -0.37300E+03
        -0.37300E+03
        -0.37300E+03
        -0.37300E+03
        -0.37300E+03
        -0.37300E+03
        -0.37300E+03
        -0.37300E+03
        -0.37300E+03
        -0.37300E+03
        -0.37300E+03
        -0.37300E+03
        -0.37300E+03
        -0.37300E+03
        -0.37300E+03
        -0.37300E+03
        -0.37300E+03
        -0.37300E+03
        -0.37300E+03
        -0.37300E+03
        -0.37300E+03
        -0.37300E+03
        -0.37300E+03
        -0.37300E+03
        -0.37300E+03
        -0.37300E+03
        -0.37300E+03
        -0.37300E+03
        -0.37300E+03
        -0.37300E+03
        -0.37300E+03
        -0.37300E+03
        -0.37300E+03
        -0.37300E+03
        -0.37300E+03
        -0.37300E+03
        -0.37300E+03
        -0.37300E+03
        -0.37300E+03
        -0.37300E+03
        -0.37300E+03
        -0.37300E+03
        -0.37300E+03
        -0.37300E+03
        -0.37300E+03
        -0.37300E+03
        -0.37300E+03
        -0.37300E+03
        -0.37300E+03
        -0.37300E+03
        -0.37300E+03
        -0.37300E+03
        -0.37300E+03
        -0.37300E+03
        -0.37300E+03
        -0.37300E+03
        -0.37300E+03
        -0.37300E+03
        -0.37300E+03
        -0.37300E+03
        -0.37300E+03
        -0.37300E+03
        -0.37300E+03
        -0.37300E+03
        -0.37300E+03
        -0.37300E+03
        -0.37300E+03
        -0.37300E+03
        -0.37300E+03
        -0.37300E+03
        -0.37300E+03
        -0.37300E+03
        -0.37300E+03
        -0.37300E+03
        -0.37300E+03
        -0.37300E+03
        -0.37300E+03
        -0.37300E+03
        -0.37300E+03
        -0.37300E+03
        -0.37300E+03
        -0.37300E+03
        -0.37300E+03
        -0.37300E+03
        -0.37300E+03
        -0.37300E+03
        -0.37300E+03
        -0.37300E+03
        -0.37300E+03
        -0.37300E+03
        -0.37300E+03
        -0.37300E+03
        -0.37300E+03
        -0.37300E+03
        -0.37300E+03
        -0.37300E+03
        -0.37300E+03
        -0.37300E+03
        -0.37300E+03
        -0.37300E+03
        -0.37300E+03
        -0.37300E+03
        -0.37300E+03
        -0.37300E+03
        -0.37300E+03
        -0.37300E+03
        -0.37300E+03
        -0.37300E+03
        -0.37300E+03
        -0.37300E+03
        -0.37300E+03
        -0.37300E+03
        -0.37300E+03
        -0.37300E+03
        -0.37300E+03
        -0.37300E+03
        -0.37300E+03
        -0.37300E+03
        -0.37300E+03
        -0.37300E+03
        -0.37300E+03
        -0.37300E+03
        -0.37300E+03
        -0.37300E+03
        -0.37300E+03
        -0.37300E+03
        -0.37300E+03
        -0.37300E+03
        -0.37300E+03
        -0.37300E+03
        -0.37300E+03
        -0.37300E+03
        -0.37300E+03
        -0.37300E+03
        -0.37300E+03
        -0.37300E+03
        -0.37300E+03
        -0.37300E+03
        -0.37300E+03
        -0.37300E+03
        -0.37300E+03
        -0.37300E+03
        -0.37300E+03
        -0.37300E+03
        -0.37300E+03
        -0.37300E+03
        -0.37300E+03
        -0.37300E+03
        -0.37300E+03
        -0.37300E+03
        -0.37300E+03
        -0.37300E+03
        -0.37300E+03
        -0.37300E+03
        -0.37300E+03
        -0.37300E+03
        -0.37300E+03
        -0.37300E+03
        -0.37300E+03
        -0.37300E+03
        -0.37300E+03
        -0.37300E+03
        -0.37300E+03
        -0.37300E+03
        -0.37300E+03
        -0.37300E+03
        -0.37300E+03
        -0.37300E+03
        -0.37300E+03
        -0.37300E+03
        -0.37300E+03
        -0.37300E+03
        -0.37300E+03
        -0.37300E+03
        -0.37300E+03
        -0.37300E+03
        -0.37300E+03
        -0.37300E+03
        -0.37300E+03
        -0.37300E+03
        -0.37300E+03
        -0.37300E+03
        -0.37300E+03
        -0.37300E+03
        -0.37300E+03
        -0.37300E+03
        -0.37300E+03
        -0.37300E+03
        -0.37300E+03
        -0.37300E+03
        -0.37300E+03
        -0.37300E+03
        -0.37300E+03
        -0.37300E+03
        -0.37300E+03
        -0.37300E+03
        -0.37300E+03
        -0.37300E+03
        -0.37300E+03
        -0.37300E+03
        -0.37300E+03
        -0.37300E+03
        -0.37300E+03
        -0.37300E+03
        -0.37300E+03
        -0.37300E+03
        -0.37300E+03
        -0.37300E+03
        -0.37300E+03
        -0.37300E+03
        -0.37300E+03
        -0.37300E+03
        -0.37300E+03
        -0.37300E+03
        -0.37300E+03
        -0.37300E+03
        -0.37300E+03
        -0.37300E+03
        -0.37300E+03
        -0.37300E+03
        -0.37300E+03
        -0.37300E+03
        -0.37300E+03
        -0.37300E+03
        -0.37300E+03
        -0.37300E+03
        -0.37300E+03
        -0.37300E+03
        -0.37300E+03
        -0.37300E+03
        -0.37300E+03
        -0.37300E+03
        -0.37300E+03
        -0.37300E+03
        -0.37300E+03
        -0.37300E+03
        -0.37300E+03
        -0.37300E+03
        -0.37300E+03
        -0.37300E+03
        -0.37300E+03
        -0.37300E+03
        -0.37300E+03
        -0.37300E+03
        -0.37300E+03
        -0.37300E+03
        -0.37300E+03
        -0.37300E+03
        -0.37300E+03
        -0.37300E+03
        -0.37300E+03
        -0.37300E+03
        -0.37300E+03
        -0.37300E+03
        -0.37300E+03
        -0.37300E+03
        -0.37300E+03
        -0.37300E+03
        -0.37300E+03
        -0.37300E+03
        -0.37300E+03
        -0.37300E+03
        -0.37300E+03
        -0.37300E+03
        -0.37300E+03
        -0.37300E+03
        -0.37300E+03
        -0.37300E+03
        -0.37300E+03
        -0.37300E+03
        -0.37300E+03
        -0.37300E+03
        -0.37300E+03
        -0.37300E+03
        -0.37300E+03
        -0.37300E+03
        -0.37300E+03
        -0.37300E+03
        -0.37300E+03
        -0.37300E+03
        -0.37300E+03
        -0.37300E+03
        -0.37300E+03
        -0.37300E+03
        -0.37300E+03
        -0.37300E+03
        -0.37300E+03
        -0.37300E+03
        -0.37300E+03
        -0.37300E+03
        -0.37300E+03
        -0.37300E+03
        -0.37300E+03
        -0.37300E+03
        -0.37300E+03
        -0.37300E+03
        -0.37300E+03
        -0.37300E+03
        -0.37300E+03
        -0.37300E+03
        -0.37300E+03
        -0.37300E+03
        -0.37300E+03
        -0.37300E+03
        -0.37300E+03
        -0.37300E+03
        -0.37300E+03
        -0.37300E+03
        -0.37300E+03
        -0.37300E+03
        -0.37300E+03
        -0.37300E+03
        -0.37300E+03
        -0.37300E+03
        -0.37300E+03
        -0.37300E+03
        -0.37300E+03
        -0.37300E+03
        -0.37300E+03
        -0.37300E+03
        -0.37300E+03
        -0.37300E+03
        -0.37300E+03
        -0.37300E+03
        -0.37300E+03
        -0.37300E+03
        -0.37300E+03
        -0.37300E+03
        -0.37300E+03
        -0.37300E+03
        -0.37300E+03
        -0.37300E+03
        -0.37300E+03
        -0.37300E+03
        -0.37300E+03
        -0.37300E+03
        -0.37300E+03
        -0.37300E+03
        -0.37300E+03
        -0.37300E+03
        -0.37300E+03
        -0.37300E+03
        -0.37300E+03
        -0.37300E+03
        -0.37300E+03
        -0.37300E+03
        -0.37300E+03
        -0.37300E+03
        -0.37300E+03
        -0.37300E+03
        -0.37300E+03
        -0.37300E+03
        -0.37300E+03
        -0.37300E+03
        -0.37300E+03
        -0.37300E+03
        -0.37300E+03
        -0.37300E+03
        -0.37300E+03
        -0.37300E+03
        -0.37300E+03
        -0.37300E+03
        -0.37300E+03
        -0.37300E+03
        -0.37300E+03
        -0.37300E+03
        -0.37300E+03
        -0.37300E+03
        -0.37300E+03
        -0.37300E+03
        -0.37300E+03
        -0.37300E+03
        -0.37300E+03
        -0.37300E+03
        -0.37300E+03
        -0.37300E+03
        -0.37300E+03
        -0.37300E+03
        -0.37300E+03
        -0.37300E+03
        -0.37300E+03
        -0.37300E+03
        -0.37300E+03
        -0.37300E+03
        -0.37300E+03
        -0.37300E+03
        -0.37300E+03
        -0.37300E+03
        -0.37300E+03
        -0.37300E+03
        -0.37300E+03
        -0.37300E+03
        -0.37300E+03
        -0.37300E+03
        -0.37300E+03
        -0.37300E+03
        -0.37300E+03
        -0.37300E+03
        -0.37300E+03
        -0.37300E+03
        -0.37300E+03
        -0.37300E+03
        -0.37300E+03
        -0.37300E+03
        -0.37300E+03
        -0.37300E+03
        -0.37300E+03
        -0.37300E+03
        -0.37300E+03
        -0.37300E+03
        -0.37300E+03
        -0.37300E+03
        -0.37300E+03
        -0.37300E+03
        -0.37300E+03
        -0.37300E+03
        -0.37300E+03
        -0.37300E+03
        -0.37300E+03
        -0.37300E+03
        -0.37300E+03
        -0.37300E+03
        -0.37300E+03
        -0.37300E+03
        -0.37300E+03
        -0.37300E+03
        -0.37300E+03
        -0.37300E+03
        -0.37300E+03
        -0.37300E+03
        -0.37300E+03
        -0.37300E+03
        -0.37300E+03
        -0.37300E+03
        -0.37300E+03
        -0.37300E+03
        -0.37300E+03
        -0.37300E+03
        -0.37300E+03
        -0.37300E+03
        -0.37300E+03
        -0.37300E+03
        -0.37300E+03
        -0.37300E+03
        -0.37300E+03
        -0.37300E+03
        -0.37300E+03
        -0.37300E+03
        -0.37300E+03
        -0.37300E+03
        -0.37300E+03
        -0.37300E+03
        -0.37300E+03
        -0.37300E+03
        -0.37300E+03
        -0.37300E+03
        -0.37300E+03
        -0.37300E+03
        -0.37300E+03
        -0.37300E+03
        -0.37300E+03
        -0.37300E+03
        -0.37300E+03
        -0.37300E+03
        -0.37300E+03
        -0.37300E+03
        -0.37300E+03
        -0.37300E+03
        -0.37300E+03
        -0.37300E+03
        -0.37300E+03
        -0.37300E+03
        -0.37300E+03
        -0.37300E+03
        -0.37300E+03
        -0.37300E+03
        -0.37300E+03
        -0.37300E+03
        -0.37300E+03
        -0.37300E+03
        -0.37300E+03
        -0.37300E+03
        -0.37300E+03
        -0.37300E+03
        -0.37300E+03
        -0.37300E+03
        -0.37300E+03
        -0.37300E+03
        -0.37300E+03
        -0.37300E+03
        -0.37300E+03
        -0.37300E+03
        -0.37300E+03
        -0.37300E+03
        -0.37300E+03
        -0.37300E+03
        -0.37300E+03
        -0.37300E+03
        -0.37300E+03
        -0.37300E+03
        -0.37300E+03
        -0.37300E+03
        -0.37300E+03
        -0.37300E+03
        -0.37300E+03
        -0.37300E+03
        -0.37300E+03
        -0.37300E+03
        -0.37300E+03
        -0.37300E+03
        -0.37300E+03
        -0.37300E+03
        -0.37300E+03
        -0.37300E+03
        -0.37300E+03
        -0.37300E+03
        -0.37300E+03
        -0.37300E+03
        -0.37300E+03
        -0.37300E+03
        -0.37300E+03
        -0.37300E+03
        -0.37300E+03
        -0.37300E+03
        -0.37300E+03
        -0.37300E+03
        -0.37300E+03
        -0.37300E+03
        -0.37300E+03
        -0.37300E+03
        -0.37300E+03
        -0.37300E+03
        -0.37300E+03
        -0.37300E+03
        -0.37300E+03
        -0.37300E+03
        -0.37300E+03
        -0.37300E+03
        -0.37300E+03
        -0.37300E+03
        -0.37300E+03
        -0.37300E+03
        -0.37300E+03
        -0.37300E+03
        -0.37300E+03
        -0.37300E+03
        -0.37300E+03
        -0.37300E+03
        -0.37300E+03
        -0.37300E+03
        -0.37300E+03
        -0.37300E+03
        -0.37300E+03
        -0.37300E+03
        -0.37300E+03
        -0.37300E+03
        -0.37300E+03
        -0.37300E+03
        -0.37300E+03
        -0.37300E+03
        -0.37300E+03
        -0.37300E+03
        -0.37300E+03
        -0.37300E+03
        -0.37300E+03
        -0.37300E+03
        -0.37300E+03
        -0.37300E+03
        -0.37300E+03
        -0.37300E+03
        -0.37300E+03
        -0.37300E+03
        -0.37300E+03
        -0.37300E+03
        -0.37300E+03
        -0.37300E+03
        -0.37300E+03
        -0.37300E+03
        -0.37300E+03
        -0.37300E+03
        -0.37300E+03
        -0.37300E+03
        -0.37300E+03
        -0.37300E+03
        -0.37300E+03
        -0.37300E+03
        -0.37300E+03
        -0.37300E+03
        -0.37300E+03
        -0.37300E+03
        -0.37300E+03
        -0.37300E+03
        -0.37300E+03
        -0.37300E+03
        -0.37300E+03
        -0.37300E+03
        -0.37300E+03
        -0.37300E+03
        -0.37300E+03
        -0.37300E+03
        -0.37300E+03
        -0.37300E+03
        -0.37300E+03
        -0.37300E+03
        -0.37300E+03
        -0.37300E+03
        -0.37300E+03
        -0.37300E+03
        -0.37300E+03
        -0.37300E+03
        -0.37300E+03
        -0.37300E+03
        -0.37300E+03
        -0.37300E+03
        -0.37300E+03
        -0.37300E+03
        -0.37300E+03
        -0.37300E+03
        -0.37300E+03
        -0.37300E+03
        -0.37300E+03
        -0.37300E+03
        -0.37300E+03
        -0.37300E+03
        -0.37300E+03
        -0.37300E+03
        -0.37300E+03
        -0.37300E+03
        -0.37300E+03
        -0.37300E+03
        -0.37300E+03
        -0.37300E+03
        -0.37300E+03
        -0.37300E+03
        -0.37300E+03
        -0.37300E+03
        -0.37300E+03
        -0.37300E+03
        -0.37300E+03
        -0.37300E+03
        -0.37300E+03
        -0.37300E+03
        -0.37300E+03
        -0.37300E+03
        -0.37300E+03
        -0.37300E+03
        -0.37300E+03
        -0.37300E+03
        -0.37300E+03
        -0.37300E+03
        -0.37300E+03
        -0.37300E+03
        -0.37300E+03
        -0.37300E+03
        -0.37300E+03
        -0.37300E+03
        -0.37300E+03
        -0.37300E+03
        -0.37300E+03
        -0.37300E+03
        -0.37300E+03
        -0.37300E+03
        -0.37300E+03
        -0.37300E+03
        -0.37300E+03
        -0.37300E+03
        -0.37300E+03
        -0.37300E+03
        -0.37300E+03
        -0.37300E+03
        -0.37300E+03
        -0.37300E+03
        -0.37300E+03
        -0.37300E+03
        -0.37300E+03
        -0.37300E+03
        -0.37300E+03
        -0.37300E+03
        -0.37300E+03
        -0.37300E+03
        -0.37300E+03
        -0.37300E+03
        -0.37300E+03
        -0.37300E+03
        -0.37300E+03
        -0.37300E+03
        -0.37300E+03
        -0.37300E+03
        -0.37300E+03
        -0.37300E+03
        -0.37300E+03
        -0.37300E+03
        -0.37300E+03
        -0.37300E+03
        -0.37300E+03
        -0.37300E+03
        -0.37300E+03
        -0.37300E+03
        -0.37300E+03
        -0.37300E+03
        -0.37300E+03
        -0.37300E+03
        -0.37300E+03
        -0.37300E+03
        -0.37300E+03
        -0.37300E+03
        -0.37300E+03
        -0.37300E+03
        -0.37300E+03
        -0.37300E+03
        -0.37300E+03
        -0.37300E+03
        -0.37300E+03
        -0.37300E+03
        -0.37300E+03
        -0.37300E+03
        -0.37300E+03
        -0.37300E+03
        -0.37300E+03
        -0.37300E+03
        -0.37300E+03
        -0.37300E+03
        -0.37300E+03
        -0.37300E+03
        -0.37300E+03
        -0.37300E+03
        -0.37300E+03
        -0.37300E+03
        -0.37300E+03
        -0.37300E+03
        -0.37300E+03
        -0.37300E+03
        -0.37300E+03
        -0.37300E+03
        -0.37300E+03
        -0.37300E+03
        -0.37300E+03
        -0.37300E+03
        -0.37300E+03
        -0.37300E+03
        -0.37300E+03
        -0.37300E+03
        -0.37300E+03
        -0.37300E+03
        -0.37300E+03
        -0.37300E+03
        -0.37300E+03
        -0.37300E+03
        -0.37300E+03
        -0.37300E+03
        -0.37300E+03
        -0.37300E+03
        -0.37300E+03
        -0.37300E+03
        -0.37300E+03
        -0.37300E+03
        -0.37300E+03
        -0.37300E+03
        -0.37300E+03
        -0.37300E+03
        -0.37300E+03
        -0.37300E+03
        -0.37300E+03
        -0.37300E+03
        -0.37300E+03
        -0.37300E+03
        -0.37300E+03
        -0.37300E+03
        -0.37300E+03
        -0.37300E+03
        -0.37300E+03
        -0.37300E+03
        -0.37300E+03
        -0.37300E+03
        -0.37300E+03
        -0.37300E+03
        -0.37300E+03
        -0.37300E+03
        -0.37300E+03
        -0.37300E+03
        -0.37300E+03
        -0.37300E+03
        -0.37300E+03
        -0.37300E+03
        -0.37300E+03
        -0.37300E+03
        -0.37300E+03
        -0.37300E+03
        -0.37300E+03
        -0.37300E+03
        -0.37300E+03
        -0.37300E+03
        -0.37300E+03
        -0.37300E+03
        -0.37300E+03
        -0.37300E+03
        -0.37300E+03
        -0.37300E+03
        -0.37300E+03
        -0.37300E+03
        -0.37300E+03
        -0.37300E+03
        -0.37300E+03
        -0.37300E+03
        -0.37300E+03
        -0.37300E+03
        -0.37300E+03
        -0.37300E+03
        -0.37300E+03
        -0.37300E+03
        -0.37300E+03
        -0.37300E+03
        -0.37300E+03
        -0.37300E+03
        -0.37300E+03
        -0.37300E+03
        -0.37300E+03
        -0.37300E+03
        -0.37300E+03
        -0.37300E+03
        -0.37300E+03
        -0.37300E+03
        -0.37300E+03
        -0.37300E+03
        -0.37300E+03
        -0.37300E+03
        -0.37300E+03
        -0.37300E+03
        -0.37300E+03
        -0.37300E+03
        -0.37300E+03
        -0.37300E+03
        -0.37300E+03
        -0.37300E+03
        -0.37300E+03
        -0.37300E+03
        -0.37300E+03
        -0.37300E+03
        -0.37300E+03
        -0.37300E+03
        -0.37300E+03
        -0.37300E+03
        -0.37300E+03
        -0.37300E+03
        -0.37300E+03
        -0.37300E+03
        -0.37300E+03
        -0.37300E+03
        -0.37300E+03
        -0.37300E+03
        -0.37300E+03
        -0.37300E+03
        -0.37300E+03
        -0.37300E+03
        -0.37300E+03
        -0.37300E+03
        -0.37300E+03
        -0.37300E+03
        -0.37300E+03
        -0.37300E+03
        -0.37300E+03
        -0.37300E+03
        -0.37300E+03
        -0.37300E+03
        -0.37300E+03
        -0.37300E+03
        -0.37300E+03
        -0.37300E+03
        -0.37300E+03
        -0.37300E+03
        -0.37300E+03
        -0.37300E+03
        -0.37300E+03
        -0.37300E+03
        -0.37300E+03
        -0.37300E+03
        -0.37300E+03
        -0.37300E+03
        -0.37300E+03
        -0.37300E+03
        -0.37300E+03
        -0.37300E+03
        -0.37300E+03
        -0.37300E+03
        -0.37300E+03
        -0.37300E+03
        -0.37300E+03
        -0.37300E+03
        -0.37300E+03
        -0.37300E+03
        -0.37300E+03
        -0.37300E+03
        -0.37300E+03
        -0.37300E+03
        -0.37300E+03
        -0.37300E+03
        -0.37300E+03
        -0.37300E+03
        -0.37300E+03
        -0.37300E+03
        -0.37300E+03
        -0.37300E+03
        -0.37300E+03
        -0.37300E+03
        -0.37300E+03
        -0.37300E+03
        -0.37300E+03
        -0.37300E+03
        -0.37300E+03
        -0.37300E+03
        -0.37300E+03
        -0.37300E+03
        -0.37300E+03
        -0.37300E+03
        -0.37300E+03
        -0.37300E+03
        -0.37300E+03
        -0.37300E+03
        -0.37300E+03
        -0.37300E+03
        -0.37300E+03
        -0.37300E+03
        -0.37300E+03
        -0.37300E+03
        -0.37300E+03
        -0.37300E+03
        -0.37300E+03
        -0.37300E+03
        -0.37300E+03
        -0.37300E+03
        -0.37300E+03
        -0.37300E+03
        -0.37300E+03
        -0.37300E+03
        -0.37300E+03
        -0.37300E+03
        -0.37300E+03
        -0.37300E+03
        -0.37300E+03
        -0.37300E+03
        -0.37300E+03
        -0.37300E+03
        -0.37300E+03
        -0.37300E+03
        -0.37300E+03
        -0.37300E+03
        -0.37300E+03
        -0.37300E+03
        -0.37300E+03
        -0.37300E+03
        -0.37300E+03
        -0.37300E+03
        -0.37300E+03
        -0.37300E+03
        -0.37300E+03
        -0.37300E+03
        -0.37300E+03
        -0.37300E+03
        -0.37300E+03
        -0.37300E+03
        -0.37300E+03
        -0.37300E+03
        -0.37300E+03
        -0.37300E+03
        -0.37300E+03
        -0.37300E+03
        -0.37300E+03
        -0.37300E+03
        -0.37300E+03
        -0.37300E+03
        -0.37300E+03
        -0.37300E+03
        -0.37300E+03
        -0.37300E+03
        -0.37300E+03
        -0.37300E+03
        -0.37300E+03
        -0.37300E+03
        -0.37300E+03
        -0.37300E+03
        -0.37300E+03
        -0.37300E+03
        -0.37300E+03
        -0.37300E+03
        -0.37300E+03
        -0.37300E+03
        -0.37300E+03
        -0.37300E+03
        -0.37300E+03
        -0.37300E+03
        -0.37300E+03
        -0.37300E+03
        -0.37300E+03
        -0.37300E+03
        -0.37300E+03
        -0.37300E+03
        -0.37300E+03
        -0.37300E+03
        -0.37300E+03
        -0.37300E+03
        -0.37300E+03
        -0.37300E+03
        -0.37300E+03
        -0.37300E+03
        -0.37300E+03
        -0.37300E+03
        -0.37300E+03
        -0.37300E+03
        -0.37300E+03
        -0.37300E+03
        -0.37300E+03
        -0.37300E+03
        -0.37300E+03
        -0.37300E+03
        -0.37300E+03
        -0.37300E+03
        -0.37300E+03
        -0.37300E+03
        -0.37300E+03
        -0.37300E+03
        -0.37300E+03
        -0.37300E+03
        -0.37300E+03
        -0.37300E+03
        -0.37300E+03
        -0.37300E+03
        -0.37300E+03
        -0.37300E+03
        -0.37300E+03
        -0.37300E+03
        -0.37300E+03
        -0.37300E+03
        -0.37300E+03
        -0.37300E+03
        -0.37300E+03
        -0.37300E+03
        -0.37300E+03
        -0.37300E+03
        -0.37300E+03
        -0.37300E+03
        -0.37300E+03
        -0.37300E+03
        -0.37300E+03
        -0.37300E+03
        -0.37300E+03
        -0.37300E+03
        -0.37300E+03
        -0.37300E+03
        -0.37300E+03
        -0.37300E+03
        -0.37300E+03
        -0.37300E+03
        -0.37300E+03
        -0.37300E+03
        -0.37300E+03
        -0.37300E+03
        -0.37300E+03
        -0.37300E+03
        -0.37300E+03
        -0.37300E+03
        -0.37300E+03
        -0.37300E+03
        -0.37300E+03
        -0.37300E+03
        -0.37300E+03
        -0.37300E+03
        -0.37300E+03
        -0.37300E+03
        -0.37300E+03
        -0.37300E+03
        -0.37300E+03
        -0.37300E+03
        -0.37300E+03
        -0.37300E+03
        -0.37300E+03
        -0.37300E+03
        -0.37300E+03
        -0.37300E+03
        -0.37300E+03
        -0.37300E+03
        -0.37300E+03
        -0.37300E+03
        -0.37300E+03
        -0.37300E+03
        -0.37300E+03
        -0.37300E+03
        -0.37300E+03
        -0.37300E+03
        -0.37300E+03
        -0.37300E+03
        -0.37300E+03
        -0.37300E+03
        -0.37300E+03
        -0.37300E+03
        -0.37300E+03
        -0.37300E+03
        -0.37300E+03
        -0.37300E+03
        -0.37300E+03
        -0.37300E+03
        -0.37300E+03
        -0.37300E+03
        -0.37300E+03
        -0.37300E+03
        -0.37300E+03
        -0.37300E+03
        -0.37300E+03
        -0.37300E+03
        -0.37300E+03
        -0.37300E+03
        -0.37300E+03
        -0.37300E+03
        -0.37300E+03
        -0.37300E+03
        -0.37300E+03
        -0.37300E+03
        -0.37300E+03
        -0.37300E+03
        -0.37300E+03
        -0.37300E+03
        -0.37300E+03
        -0.37300E+03
        -0.37300E+03
        -0.37300E+03
        -0.37300E+03
        -0.37300E+03
        -0.37300E+03
        -0.37300E+03
        -0.37300E+03
        -0.37300E+03
        -0.37300E+03
        -0.37300E+03
        -0.37300E+03
        -0.37300E+03
        -0.37300E+03
        -0.37300E+03
        -0.37300E+03
        -0.37300E+03
        -0.37300E+03
        -0.37300E+03
        -0.37300E+03
        -0.37300E+03
        -0.37300E+03
        -0.37300E+03
        -0.37300E+03
        -0.37300E+03
        -0.37300E+03
        -0.37300E+03
        -0.37300E+03
        -0.37300E+03
        -0.37300E+03
        -0.37300E+03
        -0.37300E+03
        -0.37300E+03
        -0.37300E+03
        -0.37300E+03
        -0.37300E+03
        -0.37300E+03
        -0.37300E+03
        -0.37300E+03
        -0.37300E+03
        -0.37300E+03
        -0.37300E+03
        -0.37300E+03
        -0.37300E+03
        -0.37300E+03
        -0.37300E+03
        -0.37300E+03
        -0.37300E+03
        -0.37300E+03
        -0.37300E+03
        -0.37300E+03
        -0.37300E+03
        -0.37300E+03
        -0.37300E+03
        -0.37300E+03
        -0.37300E+03
        -0.37300E+03
        -0.37300E+03
        -0.37300E+03
        -0.37300E+03
        -0.37300E+03
        -0.37300E+03
        -0.37300E+03
        -0.37300E+03
        -0.37300E+03
        -0.37300E+03
        -0.37300E+03
        -0.37300E+03
        -0.37300E+03
        -0.37300E+03
        -0.37300E+03
        -0.37300E+03
        -0.37300E+03
        -0.37300E+03
        -0.37300E+03
        -0.37300E+03
        -0.37300E+03
        -0.37300E+03
        -0.37300E+03
        -0.37300E+03
        -0.37300E+03
        -0.37300E+03
        -0.37300E+03
        -0.37300E+03
        -0.37300E+03
        -0.37300E+03
        -0.37300E+03
        -0.37300E+03
        -0.37300E+03
        -0.37300E+03
        -0.37300E+03
        -0.37300E+03
        -0.37300E+03
        -0.37300E+03
        -0.37300E+03
        -0.37300E+03
        -0.37300E+03
        -0.37300E+03
        -0.37300E+03
        -0.37300E+03
        -0.37300E+03
        -0.37300E+03
        -0.37300E+03
        -0.37300E+03
        -0.37300E+03
        -0.37300E+03
        -0.37300E+03
        -0.37300E+03
        -0.37300E+03
        -0.37300E+03
        -0.37300E+03
        -0.37300E+03
        -0.37300E+03
        -0.37300E+03
        -0.37300E+03
        -0.37300E+03
        -0.37300E+03
        -0.37300E+03
        -0.37300E+03
        -0.37300E+03
        -0.37300E+03
        -0.37300E+03
        -0.37300E+03
        -0.37300E+03
        -0.37300E+03
        -0.37300E+03
        -0.37300E+03
        -0.37300E+03
        -0.37300E+03
        -0.37300E+03
        -0.37300E+03
        -0.37300E+03
        -0.37300E+03
        -0.37300E+03
        -0.37300E+03
        -0.37300E+03
        -0.37300E+03
        -0.37300E+03
        -0.37300E+03
        -0.37300E+03
        -0.37300E+03
        -0.37300E+03
        -0.37300E+03
        -0.37300E+03
        -0.37300E+03
        -0.37300E+03
        -0.37300E+03
        -0.37300E+03
        -0.37300E+03
        -0.37300E+03
        -0.37300E+03
        -0.37300E+03
        -0.37300E+03
        -0.37300E+03
        -0.37300E+03
        -0.37300E+03
        -0.37300E+03
        -0.37300E+03
        -0.37300E+03
        -0.37300E+03
        -0.37300E+03
        -0.37300E+03
        -0.37300E+03
        -0.37300E+03
        -0.37300E+03
        -0.37300E+03
        -0.37300E+03
        -0.37300E+03
        -0.37300E+03
        -0.37300E+03
        -0.37300E+03
        -0.37300E+03
        -0.37300E+03
        -0.37300E+03
        -0.37300E+03
        -0.37300E+03
        -0.37300E+03
        -0.37300E+03
        -0.37300E+03
        -0.37300E+03
        -0.37300E+03
        -0.37300E+03
        -0.37300E+03
        -0.37300E+03
        -0.37300E+03
        -0.37300E+03
        -0.37300E+03
        -0.37300E+03
        -0.37300E+03
        -0.37300E+03
        -0.37300E+03
        -0.37300E+03
        -0.37300E+03
        -0.37300E+03
        -0.37300E+03
        -0.37300E+03
        -0.37300E+03
        -0.37300E+03
        -0.37300E+03
        -0.37300E+03
        -0.37300E+03
        -0.37300E+03
        -0.37300E+03
        -0.37300E+03
        -0.37300E+03
        -0.37300E+03
        -0.37300E+03
        -0.37300E+03
        -0.37300E+03
        -0.37300E+03
        -0.37300E+03
        -0.37300E+03
        -0.37300E+03
        -0.37300E+03
        -0.37300E+03
        -0.37300E+03
        -0.37300E+03
        -0.37300E+03
        -0.37300E+03
        -0.37300E+03
        -0.37300E+03
        -0.37300E+03
        -0.37300E+03
        -0.37300E+03
        -0.37300E+03
        -0.37300E+03
        -0.37300E+03
        -0.37300E+03
        -0.37300E+03
        -0.37300E+03
        -0.37300E+03
        -0.37300E+03
        -0.37300E+03
        -0.37300E+03
        -0.37300E+03
        -0.37300E+03
        -0.37300E+03
        -0.37300E+03
        -0.37300E+03
        -0.37300E+03
        -0.37300E+03
        -0.37300E+03
        -0.37300E+03
        -0.37300E+03
        -0.37300E+03
        -0.37300E+03
        -0.37300E+03
        -0.37300E+03
        -0.37300E+03
        -0.37300E+03
        -0.37300E+03
        -0.37300E+03
        -0.37300E+03
        -0.37300E+03
        -0.37300E+03
        -0.37300E+03
        -0.37300E+03
        -0.37300E+03
        -0.37300E+03
        -0.37300E+03
        -0.37300E+03
        -0.37300E+03
        -0.37300E+03
        -0.37300E+03
        -0.37300E+03
        -0.37300E+03
        -0.37300E+03
        -0.37300E+03
        -0.37300E+03
        -0.37300E+03
        -0.37300E+03
        -0.37300E+03
        -0.37300E+03
        -0.37300E+03
        -0.37300E+03
        -0.37300E+03
        -0.37300E+03
        -0.37300E+03
        -0.37300E+03
        -0.37300E+03
        -0.37300E+03
        -0.37300E+03
        -0.37300E+03
        -0.37300E+03
        -0.37300E+03
        -0.37300E+03
        -0.37300E+03
        -0.37300E+03
        -0.37300E+03
        -0.37300E+03
        -0.37300E+03
        -0.37300E+03
        -0.37300E+03
        -0.37300E+03
        -0.37300E+03
        -0.37300E+03
        -0.37300E+03
        -0.37300E+03
        -0.37300E+03
        -0.37300E+03
        -0.37300E+03
        -0.37300E+03
        -0.37300E+03
        -0.37300E+03
        -0.37300E+03
        -0.37300E+03
        -0.37300E+03
        -0.37300E+03
        -0.37300E+03
        -0.37300E+03
        -0.37300E+03
        -0.37300E+03
        -0.37300E+03
        -0.37300E+03
        -0.37300E+03
        -0.37300E+03
        -0.37300E+03
        -0.37300E+03
        -0.37300E+03
        -0.37300E+03
        -0.37300E+03
        -0.37300E+03
        -0.37300E+03
        -0.37300E+03
        -0.37300E+03
        -0.37300E+03
        -0.37300E+03
        -0.37300E+03
        -0.37300E+03
        -0.37300E+03
        -0.37300E+03
        -0.37300E+03
        -0.37300E+03
        -0.37300E+03
        -0.37300E+03
        -0.37300E+03
        -0.37300E+03
        -0.37300E+03
        -0.37300E+03
        -0.37300E+03
        -0.37300E+03
        -0.37300E+03
        -0.37300E+03
        -0.37300E+03
        -0.37300E+03
        -0.37300E+03
        -0.37300E+03
        -0.37300E+03
        -0.37300E+03
        -0.37300E+03
        -0.37300E+03
        -0.37300E+03
        -0.37300E+03
        -0.37300E+03
        -0.37300E+03
        -0.37300E+03
        -0.37300E+03
        -0.37300E+03
        -0.37300E+03
        -0.37300E+03
        -0.37300E+03
        -0.37300E+03
        -0.37300E+03
        -0.37300E+03
        -0.37300E+03
        -0.37300E+03
        -0.37300E+03
        -0.37300E+03
        -0.37300E+03
        -0.37300E+03
        -0.37300E+03
        -0.37300E+03
        -0.37300E+03
        -0.37300E+03
        -0.37300E+03
        -0.37300E+03
        -0.37300E+03
        -0.37300E+03
        -0.37300E+03
        -0.37300E+03
        -0.37300E+03
        -0.37300E+03
        -0.37300E+03
        -0.37300E+03
        -0.37300E+03
        -0.37300E+03
        -0.37300E+03
        -0.37300E+03
        -0.37300E+03
        -0.37300E+03
        -0.37300E+03
        -0.37300E+03
        -0.37300E+03
        -0.37300E+03
        -0.37300E+03
        -0.37300E+03
        -0.37300E+03
        -0.37300E+03
        -0.37300E+03
        -0.37300E+03
        -0.37300E+03
        -0.37300E+03
        -0.37300E+03
        -0.37300E+03
        -0.37300E+03
        -0.37300E+03
        -0.37300E+03
        -0.37300E+03
        -0.37300E+03
        -0.37300E+03
        -0.37300E+03
        -0.37300E+03
        -0.37300E+03
        -0.37300E+03
        -0.37300E+03
  
SCALARS                 acceleration_x  double 1
LOOKUP_TABLE default
         0.00000E+00
         0.00000E+00
         0.00000E+00
         0.00000E+00
         0.00000E+00
         0.00000E+00
         0.00000E+00
         0.00000E+00
         0.00000E+00
         0.00000E+00
         0.00000E+00
         0.00000E+00
         0.00000E+00
         0.00000E+00
         0.00000E+00
         0.00000E+00
         0.00000E+00
         0.00000E+00
         0.00000E+00
         0.00000E+00
         0.00000E+00
         0.00000E+00
         0.00000E+00
         0.00000E+00
         0.00000E+00
         0.00000E+00
         0.00000E+00
         0.00000E+00
         0.00000E+00
         0.00000E+00
         0.00000E+00
         0.00000E+00
         0.00000E+00
         0.00000E+00
         0.00000E+00
         0.00000E+00
         0.00000E+00
         0.00000E+00
         0.00000E+00
         0.00000E+00
         0.00000E+00
         0.00000E+00
         0.00000E+00
         0.00000E+00
         0.00000E+00
         0.00000E+00
         0.00000E+00
         0.00000E+00
         0.00000E+00
         0.00000E+00
         0.00000E+00
         0.00000E+00
         0.00000E+00
         0.00000E+00
         0.00000E+00
         0.00000E+00
         0.00000E+00
         0.00000E+00
         0.00000E+00
         0.00000E+00
         0.00000E+00
         0.00000E+00
         0.00000E+00
         0.00000E+00
         0.00000E+00
         0.00000E+00
         0.00000E+00
         0.00000E+00
         0.00000E+00
         0.00000E+00
         0.00000E+00
         0.00000E+00
         0.00000E+00
         0.00000E+00
         0.00000E+00
         0.00000E+00
         0.00000E+00
         0.00000E+00
         0.00000E+00
         0.00000E+00
         0.00000E+00
         0.00000E+00
         0.00000E+00
         0.00000E+00
         0.00000E+00
         0.00000E+00
         0.00000E+00
         0.00000E+00
         0.00000E+00
         0.00000E+00
         0.00000E+00
         0.00000E+00
         0.00000E+00
         0.00000E+00
         0.00000E+00
         0.00000E+00
         0.00000E+00
         0.00000E+00
         0.00000E+00
         0.00000E+00
         0.00000E+00
         0.00000E+00
         0.00000E+00
         0.00000E+00
         0.00000E+00
         0.00000E+00
         0.00000E+00
         0.00000E+00
         0.00000E+00
         0.00000E+00
         0.00000E+00
         0.00000E+00
         0.00000E+00
         0.00000E+00
         0.00000E+00
         0.00000E+00
         0.00000E+00
         0.00000E+00
         0.00000E+00
         0.00000E+00
         0.00000E+00
         0.00000E+00
         0.00000E+00
         0.00000E+00
         0.00000E+00
         0.00000E+00
         0.00000E+00
         0.00000E+00
         0.00000E+00
         0.00000E+00
         0.00000E+00
         0.00000E+00
         0.00000E+00
         0.00000E+00
         0.00000E+00
         0.00000E+00
         0.00000E+00
         0.00000E+00
         0.00000E+00
         0.00000E+00
         0.00000E+00
         0.00000E+00
         0.00000E+00
         0.00000E+00
         0.00000E+00
         0.00000E+00
         0.00000E+00
         0.00000E+00
         0.00000E+00
         0.00000E+00
         0.00000E+00
         0.00000E+00
         0.00000E+00
         0.00000E+00
         0.00000E+00
         0.00000E+00
         0.00000E+00
         0.00000E+00
         0.00000E+00
         0.00000E+00
         0.00000E+00
         0.00000E+00
         0.00000E+00
         0.00000E+00
         0.00000E+00
         0.00000E+00
         0.00000E+00
         0.00000E+00
         0.00000E+00
         0.00000E+00
         0.00000E+00
         0.00000E+00
         0.00000E+00
         0.00000E+00
         0.00000E+00
         0.00000E+00
         0.00000E+00
         0.00000E+00
         0.00000E+00
         0.00000E+00
         0.00000E+00
         0.00000E+00
         0.00000E+00
         0.00000E+00
         0.00000E+00
         0.00000E+00
         0.00000E+00
         0.00000E+00
         0.00000E+00
         0.00000E+00
         0.00000E+00
         0.00000E+00
         0.00000E+00
         0.00000E+00
         0.00000E+00
         0.00000E+00
         0.00000E+00
         0.00000E+00
         0.00000E+00
         0.00000E+00
         0.00000E+00
         0.00000E+00
         0.00000E+00
         0.00000E+00
         0.00000E+00
         0.00000E+00
         0.00000E+00
         0.00000E+00
         0.00000E+00
         0.00000E+00
         0.00000E+00
         0.00000E+00
         0.00000E+00
         0.00000E+00
         0.00000E+00
         0.00000E+00
         0.00000E+00
         0.00000E+00
         0.00000E+00
         0.00000E+00
         0.00000E+00
         0.00000E+00
         0.00000E+00
         0.00000E+00
         0.00000E+00
         0.00000E+00
         0.00000E+00
         0.00000E+00
         0.00000E+00
         0.00000E+00
         0.00000E+00
         0.00000E+00
         0.00000E+00
         0.00000E+00
         0.00000E+00
         0.00000E+00
         0.00000E+00
         0.00000E+00
         0.00000E+00
         0.00000E+00
         0.00000E+00
         0.00000E+00
         0.00000E+00
         0.00000E+00
         0.00000E+00
         0.00000E+00
         0.00000E+00
         0.00000E+00
         0.00000E+00
         0.00000E+00
         0.00000E+00
         0.00000E+00
         0.00000E+00
         0.00000E+00
         0.00000E+00
         0.00000E+00
         0.00000E+00
         0.00000E+00
         0.00000E+00
         0.00000E+00
         0.00000E+00
         0.00000E+00
         0.00000E+00
         0.00000E+00
         0.00000E+00
         0.00000E+00
         0.00000E+00
         0.00000E+00
         0.00000E+00
         0.00000E+00
         0.00000E+00
         0.00000E+00
         0.00000E+00
         0.00000E+00
         0.00000E+00
         0.00000E+00
         0.00000E+00
         0.00000E+00
         0.00000E+00
         0.00000E+00
         0.00000E+00
         0.00000E+00
         0.00000E+00
         0.00000E+00
         0.00000E+00
         0.00000E+00
         0.00000E+00
         0.00000E+00
         0.00000E+00
         0.00000E+00
         0.00000E+00
         0.00000E+00
         0.00000E+00
         0.00000E+00
         0.00000E+00
         0.00000E+00
         0.00000E+00
         0.00000E+00
         0.00000E+00
         0.00000E+00
         0.00000E+00
         0.00000E+00
         0.00000E+00
         0.00000E+00
         0.00000E+00
         0.00000E+00
         0.00000E+00
         0.00000E+00
         0.00000E+00
         0.00000E+00
         0.00000E+00
         0.00000E+00
         0.00000E+00
         0.00000E+00
         0.00000E+00
         0.00000E+00
         0.00000E+00
         0.00000E+00
         0.00000E+00
         0.00000E+00
         0.00000E+00
         0.00000E+00
         0.00000E+00
         0.00000E+00
         0.00000E+00
         0.00000E+00
         0.00000E+00
         0.00000E+00
         0.00000E+00
         0.00000E+00
         0.00000E+00
         0.00000E+00
         0.00000E+00
         0.00000E+00
         0.00000E+00
         0.00000E+00
         0.00000E+00
         0.00000E+00
         0.00000E+00
         0.00000E+00
         0.00000E+00
         0.00000E+00
         0.00000E+00
         0.00000E+00
         0.00000E+00
         0.00000E+00
         0.00000E+00
         0.00000E+00
         0.00000E+00
         0.00000E+00
         0.00000E+00
         0.00000E+00
         0.00000E+00
         0.00000E+00
         0.00000E+00
         0.00000E+00
         0.00000E+00
         0.00000E+00
         0.00000E+00
         0.00000E+00
         0.00000E+00
         0.00000E+00
         0.00000E+00
         0.00000E+00
         0.00000E+00
         0.00000E+00
         0.00000E+00
         0.00000E+00
         0.00000E+00
         0.00000E+00
         0.00000E+00
         0.00000E+00
         0.00000E+00
         0.00000E+00
         0.00000E+00
         0.00000E+00
         0.00000E+00
         0.00000E+00
         0.00000E+00
         0.00000E+00
         0.00000E+00
         0.00000E+00
         0.00000E+00
         0.00000E+00
         0.00000E+00
         0.00000E+00
         0.00000E+00
         0.00000E+00
         0.00000E+00
         0.00000E+00
         0.00000E+00
         0.00000E+00
         0.00000E+00
         0.00000E+00
         0.00000E+00
         0.00000E+00
         0.00000E+00
         0.00000E+00
         0.00000E+00
         0.00000E+00
         0.00000E+00
         0.00000E+00
         0.00000E+00
         0.00000E+00
         0.00000E+00
         0.00000E+00
         0.00000E+00
         0.00000E+00
         0.00000E+00
         0.00000E+00
         0.00000E+00
         0.00000E+00
         0.00000E+00
         0.00000E+00
         0.00000E+00
         0.00000E+00
         0.00000E+00
         0.00000E+00
         0.00000E+00
         0.00000E+00
         0.00000E+00
         0.00000E+00
         0.00000E+00
         0.00000E+00
         0.00000E+00
         0.00000E+00
         0.00000E+00
         0.00000E+00
         0.00000E+00
         0.00000E+00
         0.00000E+00
         0.00000E+00
         0.00000E+00
         0.00000E+00
         0.00000E+00
         0.00000E+00
         0.00000E+00
         0.00000E+00
         0.00000E+00
         0.00000E+00
         0.00000E+00
         0.00000E+00
         0.00000E+00
         0.00000E+00
         0.00000E+00
         0.00000E+00
         0.00000E+00
         0.00000E+00
         0.00000E+00
         0.00000E+00
         0.00000E+00
         0.00000E+00
         0.00000E+00
         0.00000E+00
         0.00000E+00
         0.00000E+00
         0.00000E+00
         0.00000E+00
         0.00000E+00
         0.00000E+00
         0.00000E+00
         0.00000E+00
         0.00000E+00
         0.00000E+00
         0.00000E+00
         0.00000E+00
         0.00000E+00
         0.00000E+00
         0.00000E+00
         0.00000E+00
         0.00000E+00
         0.00000E+00
         0.00000E+00
         0.00000E+00
         0.00000E+00
         0.00000E+00
         0.00000E+00
         0.00000E+00
         0.00000E+00
         0.00000E+00
         0.00000E+00
         0.00000E+00
         0.00000E+00
         0.00000E+00
         0.00000E+00
         0.00000E+00
         0.00000E+00
         0.00000E+00
         0.00000E+00
         0.00000E+00
         0.00000E+00
         0.00000E+00
         0.00000E+00
         0.00000E+00
         0.00000E+00
         0.00000E+00
         0.00000E+00
         0.00000E+00
         0.00000E+00
         0.00000E+00
         0.00000E+00
         0.00000E+00
         0.00000E+00
         0.00000E+00
         0.00000E+00
         0.00000E+00
         0.00000E+00
         0.00000E+00
         0.00000E+00
         0.00000E+00
         0.00000E+00
         0.00000E+00
         0.00000E+00
         0.00000E+00
         0.00000E+00
         0.00000E+00
         0.00000E+00
         0.00000E+00
         0.00000E+00
         0.00000E+00
         0.00000E+00
         0.00000E+00
         0.00000E+00
         0.00000E+00
         0.00000E+00
         0.00000E+00
         0.00000E+00
         0.00000E+00
         0.00000E+00
         0.00000E+00
         0.00000E+00
         0.00000E+00
         0.00000E+00
         0.00000E+00
         0.00000E+00
         0.00000E+00
         0.00000E+00
         0.00000E+00
         0.00000E+00
         0.00000E+00
         0.00000E+00
         0.00000E+00
         0.00000E+00
         0.00000E+00
         0.00000E+00
         0.00000E+00
         0.00000E+00
         0.00000E+00
         0.00000E+00
         0.00000E+00
         0.00000E+00
         0.00000E+00
         0.00000E+00
         0.00000E+00
         0.00000E+00
         0.00000E+00
         0.00000E+00
         0.00000E+00
         0.00000E+00
         0.00000E+00
         0.00000E+00
         0.00000E+00
         0.00000E+00
         0.00000E+00
         0.00000E+00
         0.00000E+00
         0.00000E+00
         0.00000E+00
         0.00000E+00
         0.00000E+00
         0.00000E+00
         0.00000E+00
         0.00000E+00
         0.00000E+00
         0.00000E+00
         0.00000E+00
         0.00000E+00
         0.00000E+00
         0.00000E+00
         0.00000E+00
         0.00000E+00
         0.00000E+00
         0.00000E+00
         0.00000E+00
         0.00000E+00
         0.00000E+00
         0.00000E+00
         0.00000E+00
         0.00000E+00
         0.00000E+00
         0.00000E+00
         0.00000E+00
         0.00000E+00
         0.00000E+00
         0.00000E+00
         0.00000E+00
         0.00000E+00
         0.00000E+00
         0.00000E+00
         0.00000E+00
         0.00000E+00
         0.00000E+00
         0.00000E+00
         0.00000E+00
         0.00000E+00
         0.00000E+00
         0.00000E+00
         0.00000E+00
         0.00000E+00
         0.00000E+00
         0.00000E+00
         0.00000E+00
         0.00000E+00
         0.00000E+00
         0.00000E+00
         0.00000E+00
         0.00000E+00
         0.00000E+00
         0.00000E+00
         0.00000E+00
         0.00000E+00
         0.00000E+00
         0.00000E+00
         0.00000E+00
         0.00000E+00
         0.00000E+00
         0.00000E+00
         0.00000E+00
         0.00000E+00
         0.00000E+00
         0.00000E+00
         0.00000E+00
         0.00000E+00
         0.00000E+00
         0.00000E+00
         0.00000E+00
         0.00000E+00
         0.00000E+00
         0.00000E+00
         0.00000E+00
         0.00000E+00
         0.00000E+00
         0.00000E+00
         0.00000E+00
         0.00000E+00
         0.00000E+00
         0.00000E+00
         0.00000E+00
         0.00000E+00
         0.00000E+00
         0.00000E+00
         0.00000E+00
         0.00000E+00
         0.00000E+00
         0.00000E+00
         0.00000E+00
         0.00000E+00
         0.00000E+00
         0.00000E+00
         0.00000E+00
         0.00000E+00
         0.00000E+00
         0.00000E+00
         0.00000E+00
         0.00000E+00
         0.00000E+00
         0.00000E+00
         0.00000E+00
         0.00000E+00
         0.00000E+00
         0.00000E+00
         0.00000E+00
         0.00000E+00
         0.00000E+00
         0.00000E+00
         0.00000E+00
         0.00000E+00
         0.00000E+00
         0.00000E+00
         0.00000E+00
         0.00000E+00
         0.00000E+00
         0.00000E+00
         0.00000E+00
         0.00000E+00
         0.00000E+00
         0.00000E+00
         0.00000E+00
         0.00000E+00
         0.00000E+00
         0.00000E+00
         0.00000E+00
         0.00000E+00
         0.00000E+00
         0.00000E+00
         0.00000E+00
         0.00000E+00
         0.00000E+00
         0.00000E+00
         0.00000E+00
         0.00000E+00
         0.00000E+00
         0.00000E+00
         0.00000E+00
         0.00000E+00
         0.00000E+00
         0.00000E+00
         0.00000E+00
         0.00000E+00
         0.00000E+00
         0.00000E+00
         0.00000E+00
         0.00000E+00
         0.00000E+00
         0.00000E+00
         0.00000E+00
         0.00000E+00
         0.00000E+00
         0.00000E+00
         0.00000E+00
         0.00000E+00
         0.00000E+00
         0.00000E+00
         0.00000E+00
         0.00000E+00
         0.00000E+00
         0.00000E+00
         0.00000E+00
         0.00000E+00
         0.00000E+00
         0.00000E+00
         0.00000E+00
         0.00000E+00
         0.00000E+00
         0.00000E+00
         0.00000E+00
         0.00000E+00
         0.00000E+00
         0.00000E+00
         0.00000E+00
         0.00000E+00
         0.00000E+00
         0.00000E+00
         0.00000E+00
         0.00000E+00
         0.00000E+00
         0.00000E+00
         0.00000E+00
         0.00000E+00
         0.00000E+00
         0.00000E+00
         0.00000E+00
         0.00000E+00
         0.00000E+00
         0.00000E+00
         0.00000E+00
         0.00000E+00
         0.00000E+00
         0.00000E+00
         0.00000E+00
         0.00000E+00
         0.00000E+00
         0.00000E+00
         0.00000E+00
         0.00000E+00
         0.00000E+00
         0.00000E+00
         0.00000E+00
         0.00000E+00
         0.00000E+00
         0.00000E+00
         0.00000E+00
         0.00000E+00
         0.00000E+00
         0.00000E+00
         0.00000E+00
         0.00000E+00
         0.00000E+00
         0.00000E+00
         0.00000E+00
         0.00000E+00
         0.00000E+00
         0.00000E+00
         0.00000E+00
         0.00000E+00
         0.00000E+00
         0.00000E+00
         0.00000E+00
         0.00000E+00
         0.00000E+00
         0.00000E+00
         0.00000E+00
         0.00000E+00
         0.00000E+00
         0.00000E+00
         0.00000E+00
         0.00000E+00
         0.00000E+00
         0.00000E+00
         0.00000E+00
         0.00000E+00
         0.00000E+00
         0.00000E+00
         0.00000E+00
         0.00000E+00
         0.00000E+00
         0.00000E+00
         0.00000E+00
         0.00000E+00
         0.00000E+00
         0.00000E+00
         0.00000E+00
         0.00000E+00
         0.00000E+00
         0.00000E+00
         0.00000E+00
         0.00000E+00
         0.00000E+00
         0.00000E+00
         0.00000E+00
         0.00000E+00
         0.00000E+00
         0.00000E+00
         0.00000E+00
         0.00000E+00
         0.00000E+00
         0.00000E+00
         0.00000E+00
         0.00000E+00
         0.00000E+00
         0.00000E+00
         0.00000E+00
         0.00000E+00
         0.00000E+00
         0.00000E+00
         0.00000E+00
         0.00000E+00
         0.00000E+00
         0.00000E+00
         0.00000E+00
         0.00000E+00
         0.00000E+00
         0.00000E+00
         0.00000E+00
         0.00000E+00
         0.00000E+00
         0.00000E+00
         0.00000E+00
         0.00000E+00
         0.00000E+00
         0.00000E+00
         0.00000E+00
         0.00000E+00
         0.00000E+00
         0.00000E+00
         0.00000E+00
         0.00000E+00
         0.00000E+00
         0.00000E+00
         0.00000E+00
         0.00000E+00
         0.00000E+00
         0.00000E+00
         0.00000E+00
         0.00000E+00
         0.00000E+00
         0.00000E+00
         0.00000E+00
         0.00000E+00
         0.00000E+00
         0.00000E+00
         0.00000E+00
         0.00000E+00
         0.00000E+00
         0.00000E+00
         0.00000E+00
         0.00000E+00
         0.00000E+00
         0.00000E+00
         0.00000E+00
         0.00000E+00
         0.00000E+00
         0.00000E+00
         0.00000E+00
         0.00000E+00
         0.00000E+00
         0.00000E+00
         0.00000E+00
         0.00000E+00
         0.00000E+00
         0.00000E+00
         0.00000E+00
         0.00000E+00
         0.00000E+00
         0.00000E+00
         0.00000E+00
         0.00000E+00
         0.00000E+00
         0.00000E+00
         0.00000E+00
         0.00000E+00
         0.00000E+00
         0.00000E+00
         0.00000E+00
         0.00000E+00
         0.00000E+00
         0.00000E+00
         0.00000E+00
         0.00000E+00
         0.00000E+00
         0.00000E+00
         0.00000E+00
         0.00000E+00
         0.00000E+00
         0.00000E+00
         0.00000E+00
         0.00000E+00
         0.00000E+00
         0.00000E+00
         0.00000E+00
         0.00000E+00
         0.00000E+00
         0.00000E+00
         0.00000E+00
         0.00000E+00
         0.00000E+00
         0.00000E+00
         0.00000E+00
         0.00000E+00
         0.00000E+00
         0.00000E+00
         0.00000E+00
         0.00000E+00
         0.00000E+00
         0.00000E+00
         0.00000E+00
         0.00000E+00
         0.00000E+00
         0.00000E+00
         0.00000E+00
         0.00000E+00
         0.00000E+00
         0.00000E+00
         0.00000E+00
         0.00000E+00
         0.00000E+00
         0.00000E+00
         0.00000E+00
         0.00000E+00
         0.00000E+00
         0.00000E+00
         0.00000E+00
         0.00000E+00
         0.00000E+00
         0.00000E+00
         0.00000E+00
         0.00000E+00
         0.00000E+00
         0.00000E+00
         0.00000E+00
         0.00000E+00
         0.00000E+00
         0.00000E+00
         0.00000E+00
         0.00000E+00
         0.00000E+00
         0.00000E+00
         0.00000E+00
         0.00000E+00
         0.00000E+00
         0.00000E+00
         0.00000E+00
         0.00000E+00
         0.00000E+00
         0.00000E+00
         0.00000E+00
         0.00000E+00
         0.00000E+00
         0.00000E+00
         0.00000E+00
         0.00000E+00
         0.00000E+00
         0.00000E+00
         0.00000E+00
         0.00000E+00
         0.00000E+00
         0.00000E+00
         0.00000E+00
         0.00000E+00
         0.00000E+00
         0.00000E+00
         0.00000E+00
         0.00000E+00
         0.00000E+00
         0.00000E+00
         0.00000E+00
         0.00000E+00
         0.00000E+00
         0.00000E+00
         0.00000E+00
         0.00000E+00
         0.00000E+00
         0.00000E+00
         0.00000E+00
         0.00000E+00
         0.00000E+00
         0.00000E+00
         0.00000E+00
         0.00000E+00
         0.00000E+00
         0.00000E+00
         0.00000E+00
         0.00000E+00
         0.00000E+00
         0.00000E+00
         0.00000E+00
         0.00000E+00
         0.00000E+00
         0.00000E+00
         0.00000E+00
         0.00000E+00
         0.00000E+00
         0.00000E+00
         0.00000E+00
         0.00000E+00
         0.00000E+00
         0.00000E+00
         0.00000E+00
         0.00000E+00
         0.00000E+00
         0.00000E+00
         0.00000E+00
         0.00000E+00
         0.00000E+00
         0.00000E+00
         0.00000E+00
         0.00000E+00
         0.00000E+00
         0.00000E+00
         0.00000E+00
         0.00000E+00
         0.00000E+00
         0.00000E+00
         0.00000E+00
         0.00000E+00
         0.00000E+00
         0.00000E+00
         0.00000E+00
         0.00000E+00
         0.00000E+00
         0.00000E+00
         0.00000E+00
         0.00000E+00
         0.00000E+00
         0.00000E+00
         0.00000E+00
         0.00000E+00
         0.00000E+00
         0.00000E+00
         0.00000E+00
         0.00000E+00
         0.00000E+00
         0.00000E+00
         0.00000E+00
         0.00000E+00
         0.00000E+00
         0.00000E+00
         0.00000E+00
         0.00000E+00
         0.00000E+00
         0.00000E+00
         0.00000E+00
         0.00000E+00
         0.00000E+00
         0.00000E+00
         0.00000E+00
         0.00000E+00
         0.00000E+00
         0.00000E+00
         0.00000E+00
         0.00000E+00
         0.00000E+00
         0.00000E+00
         0.00000E+00
         0.00000E+00
         0.00000E+00
         0.00000E+00
         0.00000E+00
         0.00000E+00
         0.00000E+00
         0.00000E+00
         0.00000E+00
         0.00000E+00
         0.00000E+00
         0.00000E+00
         0.00000E+00
         0.00000E+00
         0.00000E+00
         0.00000E+00
         0.00000E+00
         0.00000E+00
         0.00000E+00
         0.00000E+00
         0.00000E+00
         0.00000E+00
         0.00000E+00
         0.00000E+00
         0.00000E+00
         0.00000E+00
         0.00000E+00
         0.00000E+00
         0.00000E+00
         0.00000E+00
         0.00000E+00
         0.00000E+00
         0.00000E+00
         0.00000E+00
         0.00000E+00
         0.00000E+00
         0.00000E+00
         0.00000E+00
         0.00000E+00
         0.00000E+00
         0.00000E+00
         0.00000E+00
         0.00000E+00
         0.00000E+00
         0.00000E+00
         0.00000E+00
         0.00000E+00
         0.00000E+00
         0.00000E+00
         0.00000E+00
         0.00000E+00
         0.00000E+00
         0.00000E+00
         0.00000E+00
         0.00000E+00
         0.00000E+00
         0.00000E+00
         0.00000E+00
         0.00000E+00
         0.00000E+00
         0.00000E+00
         0.00000E+00
         0.00000E+00
         0.00000E+00
         0.00000E+00
         0.00000E+00
         0.00000E+00
         0.00000E+00
         0.00000E+00
         0.00000E+00
         0.00000E+00
         0.00000E+00
         0.00000E+00
         0.00000E+00
         0.00000E+00
         0.00000E+00
         0.00000E+00
         0.00000E+00
         0.00000E+00
         0.00000E+00
         0.00000E+00
         0.00000E+00
         0.00000E+00
         0.00000E+00
         0.00000E+00
         0.00000E+00
         0.00000E+00
         0.00000E+00
         0.00000E+00
         0.00000E+00
         0.00000E+00
         0.00000E+00
         0.00000E+00
         0.00000E+00
         0.00000E+00
         0.00000E+00
         0.00000E+00
         0.00000E+00
         0.00000E+00
         0.00000E+00
         0.00000E+00
         0.00000E+00
         0.00000E+00
         0.00000E+00
         0.00000E+00
         0.00000E+00
         0.00000E+00
         0.00000E+00
         0.00000E+00
         0.00000E+00
         0.00000E+00
         0.00000E+00
         0.00000E+00
         0.00000E+00
         0.00000E+00
         0.00000E+00
         0.00000E+00
         0.00000E+00
         0.00000E+00
         0.00000E+00
         0.00000E+00
         0.00000E+00
         0.00000E+00
         0.00000E+00
         0.00000E+00
         0.00000E+00
         0.00000E+00
         0.00000E+00
         0.00000E+00
         0.00000E+00
         0.00000E+00
         0.00000E+00
         0.00000E+00
         0.00000E+00
         0.00000E+00
         0.00000E+00
         0.00000E+00
         0.00000E+00
         0.00000E+00
         0.00000E+00
         0.00000E+00
         0.00000E+00
         0.00000E+00
         0.00000E+00
         0.00000E+00
         0.00000E+00
         0.00000E+00
         0.00000E+00
         0.00000E+00
         0.00000E+00
         0.00000E+00
         0.00000E+00
         0.00000E+00
         0.00000E+00
         0.00000E+00
         0.00000E+00
         0.00000E+00
         0.00000E+00
         0.00000E+00
         0.00000E+00
         0.00000E+00
         0.00000E+00
         0.00000E+00
         0.00000E+00
         0.00000E+00
         0.00000E+00
         0.00000E+00
         0.00000E+00
         0.00000E+00
         0.00000E+00
         0.00000E+00
         0.00000E+00
         0.00000E+00
         0.00000E+00
         0.00000E+00
         0.00000E+00
         0.00000E+00
         0.00000E+00
         0.00000E+00
         0.00000E+00
         0.00000E+00
         0.00000E+00
         0.00000E+00
         0.00000E+00
         0.00000E+00
         0.00000E+00
         0.00000E+00
         0.00000E+00
         0.00000E+00
         0.00000E+00
         0.00000E+00
         0.00000E+00
         0.00000E+00
         0.00000E+00
         0.00000E+00
         0.00000E+00
         0.00000E+00
         0.00000E+00
         0.00000E+00
         0.00000E+00
         0.00000E+00
         0.00000E+00
         0.00000E+00
         0.00000E+00
         0.00000E+00
         0.00000E+00
         0.00000E+00
         0.00000E+00
         0.00000E+00
         0.00000E+00
         0.00000E+00
         0.00000E+00
         0.00000E+00
         0.00000E+00
         0.00000E+00
         0.00000E+00
         0.00000E+00
         0.00000E+00
         0.00000E+00
         0.00000E+00
         0.00000E+00
         0.00000E+00
         0.00000E+00
         0.00000E+00
         0.00000E+00
         0.00000E+00
         0.00000E+00
         0.00000E+00
         0.00000E+00
         0.00000E+00
         0.00000E+00
         0.00000E+00
         0.00000E+00
         0.00000E+00
         0.00000E+00
         0.00000E+00
         0.00000E+00
         0.00000E+00
         0.00000E+00
         0.00000E+00
         0.00000E+00
         0.00000E+00
         0.00000E+00
         0.00000E+00
         0.00000E+00
         0.00000E+00
         0.00000E+00
         0.00000E+00
         0.00000E+00
         0.00000E+00
         0.00000E+00
         0.00000E+00
         0.00000E+00
         0.00000E+00
         0.00000E+00
         0.00000E+00
         0.00000E+00
         0.00000E+00
         0.00000E+00
         0.00000E+00
         0.00000E+00
         0.00000E+00
         0.00000E+00
         0.00000E+00
         0.00000E+00
         0.00000E+00
         0.00000E+00
         0.00000E+00
         0.00000E+00
         0.00000E+00
         0.00000E+00
         0.00000E+00
         0.00000E+00
         0.00000E+00
         0.00000E+00
         0.00000E+00
         0.00000E+00
         0.00000E+00
         0.00000E+00
         0.00000E+00
         0.00000E+00
         0.00000E+00
         0.00000E+00
         0.00000E+00
         0.00000E+00
         0.00000E+00
         0.00000E+00
         0.00000E+00
         0.00000E+00
         0.00000E+00
         0.00000E+00
         0.00000E+00
         0.00000E+00
         0.00000E+00
         0.00000E+00
         0.00000E+00
         0.00000E+00
         0.00000E+00
         0.00000E+00
         0.00000E+00
         0.00000E+00
         0.00000E+00
         0.00000E+00
         0.00000E+00
         0.00000E+00
         0.00000E+00
         0.00000E+00
         0.00000E+00
         0.00000E+00
         0.00000E+00
         0.00000E+00
         0.00000E+00
         0.00000E+00
         0.00000E+00
         0.00000E+00
         0.00000E+00
         0.00000E+00
         0.00000E+00
         0.00000E+00
         0.00000E+00
         0.00000E+00
         0.00000E+00
         0.00000E+00
         0.00000E+00
         0.00000E+00
         0.00000E+00
         0.00000E+00
         0.00000E+00
         0.00000E+00
         0.00000E+00
         0.00000E+00
         0.00000E+00
         0.00000E+00
         0.00000E+00
         0.00000E+00
         0.00000E+00
         0.00000E+00
         0.00000E+00
         0.00000E+00
         0.00000E+00
         0.00000E+00
         0.00000E+00
         0.00000E+00
         0.00000E+00
         0.00000E+00
         0.00000E+00
         0.00000E+00
         0.00000E+00
         0.00000E+00
         0.00000E+00
         0.00000E+00
         0.00000E+00
         0.00000E+00
         0.00000E+00
         0.00000E+00
         0.00000E+00
         0.00000E+00
         0.00000E+00
         0.00000E+00
         0.00000E+00
         0.00000E+00
         0.00000E+00
         0.00000E+00
         0.00000E+00
         0.00000E+00
         0.00000E+00
         0.00000E+00
         0.00000E+00
         0.00000E+00
         0.00000E+00
         0.00000E+00
         0.00000E+00
         0.00000E+00
         0.00000E+00
         0.00000E+00
         0.00000E+00
         0.00000E+00
         0.00000E+00
         0.00000E+00
         0.00000E+00
         0.00000E+00
         0.00000E+00
         0.00000E+00
         0.00000E+00
         0.00000E+00
         0.00000E+00
         0.00000E+00
         0.00000E+00
         0.00000E+00
         0.00000E+00
         0.00000E+00
         0.00000E+00
         0.00000E+00
         0.00000E+00
         0.00000E+00
         0.00000E+00
         0.00000E+00
         0.00000E+00
         0.00000E+00
         0.00000E+00
         0.00000E+00
         0.00000E+00
         0.00000E+00
         0.00000E+00
         0.00000E+00
         0.00000E+00
         0.00000E+00
         0.00000E+00
         0.00000E+00
         0.00000E+00
         0.00000E+00
         0.00000E+00
         0.00000E+00
         0.00000E+00
         0.00000E+00
         0.00000E+00
         0.00000E+00
         0.00000E+00
         0.00000E+00
         0.00000E+00
         0.00000E+00
         0.00000E+00
         0.00000E+00
         0.00000E+00
         0.00000E+00
         0.00000E+00
         0.00000E+00
         0.00000E+00
         0.00000E+00
         0.00000E+00
         0.00000E+00
         0.00000E+00
         0.00000E+00
         0.00000E+00
         0.00000E+00
         0.00000E+00
         0.00000E+00
         0.00000E+00
         0.00000E+00
         0.00000E+00
         0.00000E+00
         0.00000E+00
         0.00000E+00
         0.00000E+00
         0.00000E+00
         0.00000E+00
         0.00000E+00
         0.00000E+00
         0.00000E+00
         0.00000E+00
         0.00000E+00
         0.00000E+00
         0.00000E+00
         0.00000E+00
         0.00000E+00
         0.00000E+00
         0.00000E+00
         0.00000E+00
         0.00000E+00
         0.00000E+00
         0.00000E+00
         0.00000E+00
         0.00000E+00
         0.00000E+00
         0.00000E+00
         0.00000E+00
         0.00000E+00
         0.00000E+00
         0.00000E+00
         0.00000E+00
         0.00000E+00
         0.00000E+00
         0.00000E+00
         0.00000E+00
         0.00000E+00
         0.00000E+00
         0.00000E+00
         0.00000E+00
         0.00000E+00
         0.00000E+00
         0.00000E+00
         0.00000E+00
         0.00000E+00
         0.00000E+00
         0.00000E+00
         0.00000E+00
         0.00000E+00
         0.00000E+00
         0.00000E+00
         0.00000E+00
         0.00000E+00
         0.00000E+00
         0.00000E+00
         0.00000E+00
         0.00000E+00
         0.00000E+00
         0.00000E+00
         0.00000E+00
         0.00000E+00
         0.00000E+00
         0.00000E+00
         0.00000E+00
         0.00000E+00
         0.00000E+00
         0.00000E+00
         0.00000E+00
         0.00000E+00
         0.00000E+00
         0.00000E+00
         0.00000E+00
         0.00000E+00
         0.00000E+00
         0.00000E+00
         0.00000E+00
         0.00000E+00
         0.00000E+00
         0.00000E+00
         0.00000E+00
         0.00000E+00
         0.00000E+00
         0.00000E+00
         0.00000E+00
         0.00000E+00
         0.00000E+00
         0.00000E+00
         0.00000E+00
         0.00000E+00
         0.00000E+00
         0.00000E+00
         0.00000E+00
         0.00000E+00
         0.00000E+00
         0.00000E+00
         0.00000E+00
         0.00000E+00
         0.00000E+00
         0.00000E+00
         0.00000E+00
         0.00000E+00
         0.00000E+00
         0.00000E+00
         0.00000E+00
         0.00000E+00
         0.00000E+00
         0.00000E+00
         0.00000E+00
         0.00000E+00
         0.00000E+00
         0.00000E+00
         0.00000E+00
         0.00000E+00
         0.00000E+00
         0.00000E+00
         0.00000E+00
         0.00000E+00
         0.00000E+00
         0.00000E+00
         0.00000E+00
         0.00000E+00
         0.00000E+00
         0.00000E+00
         0.00000E+00
         0.00000E+00
         0.00000E+00
         0.00000E+00
         0.00000E+00
         0.00000E+00
         0.00000E+00
         0.00000E+00
         0.00000E+00
         0.00000E+00
         0.00000E+00
         0.00000E+00
         0.00000E+00
         0.00000E+00
         0.00000E+00
         0.00000E+00
         0.00000E+00
         0.00000E+00
         0.00000E+00
         0.00000E+00
         0.00000E+00
         0.00000E+00
         0.00000E+00
         0.00000E+00
         0.00000E+00
         0.00000E+00
         0.00000E+00
         0.00000E+00
         0.00000E+00
         0.00000E+00
         0.00000E+00
         0.00000E+00
         0.00000E+00
         0.00000E+00
         0.00000E+00
         0.00000E+00
         0.00000E+00
         0.00000E+00
         0.00000E+00
         0.00000E+00
         0.00000E+00
         0.00000E+00
         0.00000E+00
         0.00000E+00
         0.00000E+00
         0.00000E+00
         0.00000E+00
         0.00000E+00
         0.00000E+00
         0.00000E+00
         0.00000E+00
         0.00000E+00
         0.00000E+00
         0.00000E+00
         0.00000E+00
         0.00000E+00
         0.00000E+00
         0.00000E+00
         0.00000E+00
         0.00000E+00
         0.00000E+00
         0.00000E+00
         0.00000E+00
         0.00000E+00
         0.00000E+00
         0.00000E+00
         0.00000E+00
         0.00000E+00
         0.00000E+00
         0.00000E+00
         0.00000E+00
         0.00000E+00
         0.00000E+00
         0.00000E+00
         0.00000E+00
         0.00000E+00
         0.00000E+00
         0.00000E+00
         0.00000E+00
         0.00000E+00
         0.00000E+00
         0.00000E+00
         0.00000E+00
         0.00000E+00
         0.00000E+00
         0.00000E+00
         0.00000E+00
         0.00000E+00
         0.00000E+00
         0.00000E+00
         0.00000E+00
         0.00000E+00
         0.00000E+00
         0.00000E+00
         0.00000E+00
         0.00000E+00
         0.00000E+00
         0.00000E+00
         0.00000E+00
         0.00000E+00
         0.00000E+00
         0.00000E+00
         0.00000E+00
         0.00000E+00
         0.00000E+00
         0.00000E+00
         0.00000E+00
         0.00000E+00
         0.00000E+00
         0.00000E+00
         0.00000E+00
         0.00000E+00
         0.00000E+00
         0.00000E+00
         0.00000E+00
         0.00000E+00
         0.00000E+00
         0.00000E+00
         0.00000E+00
         0.00000E+00
         0.00000E+00
         0.00000E+00
         0.00000E+00
         0.00000E+00
         0.00000E+00
         0.00000E+00
         0.00000E+00
         0.00000E+00
         0.00000E+00
         0.00000E+00
         0.00000E+00
         0.00000E+00
         0.00000E+00
         0.00000E+00
         0.00000E+00
         0.00000E+00
         0.00000E+00
         0.00000E+00
         0.00000E+00
         0.00000E+00
         0.00000E+00
         0.00000E+00
         0.00000E+00
         0.00000E+00
         0.00000E+00
         0.00000E+00
         0.00000E+00
         0.00000E+00
         0.00000E+00
         0.00000E+00
         0.00000E+00
         0.00000E+00
         0.00000E+00
         0.00000E+00
         0.00000E+00
         0.00000E+00
         0.00000E+00
         0.00000E+00
         0.00000E+00
         0.00000E+00
         0.00000E+00
         0.00000E+00
         0.00000E+00
         0.00000E+00
         0.00000E+00
         0.00000E+00
         0.00000E+00
         0.00000E+00
         0.00000E+00
         0.00000E+00
         0.00000E+00
         0.00000E+00
         0.00000E+00
         0.00000E+00
         0.00000E+00
         0.00000E+00
         0.00000E+00
         0.00000E+00
         0.00000E+00
         0.00000E+00
         0.00000E+00
         0.00000E+00
         0.00000E+00
         0.00000E+00
         0.00000E+00
         0.00000E+00
         0.00000E+00
         0.00000E+00
         0.00000E+00
         0.00000E+00
         0.00000E+00
         0.00000E+00
         0.00000E+00
         0.00000E+00
         0.00000E+00
         0.00000E+00
         0.00000E+00
         0.00000E+00
         0.00000E+00
         0.00000E+00
         0.00000E+00
         0.00000E+00
         0.00000E+00
         0.00000E+00
         0.00000E+00
         0.00000E+00
         0.00000E+00
         0.00000E+00
         0.00000E+00
         0.00000E+00
         0.00000E+00
         0.00000E+00
         0.00000E+00
         0.00000E+00
         0.00000E+00
         0.00000E+00
         0.00000E+00
         0.00000E+00
         0.00000E+00
         0.00000E+00
         0.00000E+00
         0.00000E+00
         0.00000E+00
         0.00000E+00
         0.00000E+00
         0.00000E+00
         0.00000E+00
         0.00000E+00
         0.00000E+00
         0.00000E+00
         0.00000E+00
         0.00000E+00
         0.00000E+00
         0.00000E+00
         0.00000E+00
         0.00000E+00
         0.00000E+00
         0.00000E+00
         0.00000E+00
         0.00000E+00
         0.00000E+00
         0.00000E+00
         0.00000E+00
         0.00000E+00
         0.00000E+00
         0.00000E+00
         0.00000E+00
         0.00000E+00
         0.00000E+00
         0.00000E+00
         0.00000E+00
         0.00000E+00
         0.00000E+00
         0.00000E+00
         0.00000E+00
         0.00000E+00
         0.00000E+00
         0.00000E+00
         0.00000E+00
         0.00000E+00
         0.00000E+00
         0.00000E+00
         0.00000E+00
         0.00000E+00
         0.00000E+00
         0.00000E+00
         0.00000E+00
         0.00000E+00
         0.00000E+00
         0.00000E+00
         0.00000E+00
         0.00000E+00
         0.00000E+00
         0.00000E+00
         0.00000E+00
         0.00000E+00
         0.00000E+00
         0.00000E+00
         0.00000E+00
         0.00000E+00
         0.00000E+00
         0.00000E+00
         0.00000E+00
         0.00000E+00
         0.00000E+00
         0.00000E+00
         0.00000E+00
         0.00000E+00
         0.00000E+00
         0.00000E+00
         0.00000E+00
         0.00000E+00
         0.00000E+00
         0.00000E+00
         0.00000E+00
         0.00000E+00
         0.00000E+00
         0.00000E+00
         0.00000E+00
         0.00000E+00
         0.00000E+00
         0.00000E+00
         0.00000E+00
         0.00000E+00
         0.00000E+00
         0.00000E+00
  
SCALARS                 acceleration_y  double 1
LOOKUP_TABLE default
         0.00000E+00
         0.00000E+00
         0.00000E+00
         0.00000E+00
         0.00000E+00
         0.00000E+00
         0.00000E+00
         0.00000E+00
         0.00000E+00
         0.00000E+00
         0.00000E+00
         0.00000E+00
         0.00000E+00
         0.00000E+00
         0.00000E+00
         0.00000E+00
         0.00000E+00
         0.00000E+00
         0.00000E+00
         0.00000E+00
         0.00000E+00
         0.00000E+00
         0.00000E+00
         0.00000E+00
         0.00000E+00
         0.00000E+00
         0.00000E+00
         0.00000E+00
         0.00000E+00
         0.00000E+00
         0.00000E+00
         0.00000E+00
         0.00000E+00
         0.00000E+00
         0.00000E+00
         0.00000E+00
         0.00000E+00
         0.00000E+00
         0.00000E+00
         0.00000E+00
         0.00000E+00
         0.00000E+00
         0.00000E+00
         0.00000E+00
         0.00000E+00
         0.00000E+00
         0.00000E+00
         0.00000E+00
         0.00000E+00
         0.00000E+00
         0.00000E+00
         0.00000E+00
         0.00000E+00
         0.00000E+00
         0.00000E+00
         0.00000E+00
         0.00000E+00
         0.00000E+00
         0.00000E+00
         0.00000E+00
         0.00000E+00
         0.00000E+00
         0.00000E+00
         0.00000E+00
         0.00000E+00
         0.00000E+00
         0.00000E+00
         0.00000E+00
         0.00000E+00
         0.00000E+00
         0.00000E+00
         0.00000E+00
         0.00000E+00
         0.00000E+00
         0.00000E+00
         0.00000E+00
         0.00000E+00
         0.00000E+00
         0.00000E+00
         0.00000E+00
         0.00000E+00
         0.00000E+00
         0.00000E+00
         0.00000E+00
         0.00000E+00
         0.00000E+00
         0.00000E+00
         0.00000E+00
         0.00000E+00
         0.00000E+00
         0.00000E+00
         0.00000E+00
         0.00000E+00
         0.00000E+00
         0.00000E+00
         0.00000E+00
         0.00000E+00
         0.00000E+00
         0.00000E+00
         0.00000E+00
         0.00000E+00
         0.00000E+00
         0.00000E+00
         0.00000E+00
         0.00000E+00
         0.00000E+00
         0.00000E+00
         0.00000E+00
         0.00000E+00
         0.00000E+00
         0.00000E+00
         0.00000E+00
         0.00000E+00
         0.00000E+00
         0.00000E+00
         0.00000E+00
         0.00000E+00
         0.00000E+00
         0.00000E+00
         0.00000E+00
         0.00000E+00
         0.00000E+00
         0.00000E+00
         0.00000E+00
         0.00000E+00
         0.00000E+00
         0.00000E+00
         0.00000E+00
         0.00000E+00
         0.00000E+00
         0.00000E+00
         0.00000E+00
         0.00000E+00
         0.00000E+00
         0.00000E+00
         0.00000E+00
         0.00000E+00
         0.00000E+00
         0.00000E+00
         0.00000E+00
         0.00000E+00
         0.00000E+00
         0.00000E+00
         0.00000E+00
         0.00000E+00
         0.00000E+00
         0.00000E+00
         0.00000E+00
         0.00000E+00
         0.00000E+00
         0.00000E+00
         0.00000E+00
         0.00000E+00
         0.00000E+00
         0.00000E+00
         0.00000E+00
         0.00000E+00
         0.00000E+00
         0.00000E+00
         0.00000E+00
         0.00000E+00
         0.00000E+00
         0.00000E+00
         0.00000E+00
         0.00000E+00
         0.00000E+00
         0.00000E+00
         0.00000E+00
         0.00000E+00
         0.00000E+00
         0.00000E+00
         0.00000E+00
         0.00000E+00
         0.00000E+00
         0.00000E+00
         0.00000E+00
         0.00000E+00
         0.00000E+00
         0.00000E+00
         0.00000E+00
         0.00000E+00
         0.00000E+00
         0.00000E+00
         0.00000E+00
         0.00000E+00
         0.00000E+00
         0.00000E+00
         0.00000E+00
         0.00000E+00
         0.00000E+00
         0.00000E+00
         0.00000E+00
         0.00000E+00
         0.00000E+00
         0.00000E+00
         0.00000E+00
         0.00000E+00
         0.00000E+00
         0.00000E+00
         0.00000E+00
         0.00000E+00
         0.00000E+00
         0.00000E+00
         0.00000E+00
         0.00000E+00
         0.00000E+00
         0.00000E+00
         0.00000E+00
         0.00000E+00
         0.00000E+00
         0.00000E+00
         0.00000E+00
         0.00000E+00
         0.00000E+00
         0.00000E+00
         0.00000E+00
         0.00000E+00
         0.00000E+00
         0.00000E+00
         0.00000E+00
         0.00000E+00
         0.00000E+00
         0.00000E+00
         0.00000E+00
         0.00000E+00
         0.00000E+00
         0.00000E+00
         0.00000E+00
         0.00000E+00
         0.00000E+00
         0.00000E+00
         0.00000E+00
         0.00000E+00
         0.00000E+00
         0.00000E+00
         0.00000E+00
         0.00000E+00
         0.00000E+00
         0.00000E+00
         0.00000E+00
         0.00000E+00
         0.00000E+00
         0.00000E+00
         0.00000E+00
         0.00000E+00
         0.00000E+00
         0.00000E+00
         0.00000E+00
         0.00000E+00
         0.00000E+00
         0.00000E+00
         0.00000E+00
         0.00000E+00
         0.00000E+00
         0.00000E+00
         0.00000E+00
         0.00000E+00
         0.00000E+00
         0.00000E+00
         0.00000E+00
         0.00000E+00
         0.00000E+00
         0.00000E+00
         0.00000E+00
         0.00000E+00
         0.00000E+00
         0.00000E+00
         0.00000E+00
         0.00000E+00
         0.00000E+00
         0.00000E+00
         0.00000E+00
         0.00000E+00
         0.00000E+00
         0.00000E+00
         0.00000E+00
         0.00000E+00
         0.00000E+00
         0.00000E+00
         0.00000E+00
         0.00000E+00
         0.00000E+00
         0.00000E+00
         0.00000E+00
         0.00000E+00
         0.00000E+00
         0.00000E+00
         0.00000E+00
         0.00000E+00
         0.00000E+00
         0.00000E+00
         0.00000E+00
         0.00000E+00
         0.00000E+00
         0.00000E+00
         0.00000E+00
         0.00000E+00
         0.00000E+00
         0.00000E+00
         0.00000E+00
         0.00000E+00
         0.00000E+00
         0.00000E+00
         0.00000E+00
         0.00000E+00
         0.00000E+00
         0.00000E+00
         0.00000E+00
         0.00000E+00
         0.00000E+00
         0.00000E+00
         0.00000E+00
         0.00000E+00
         0.00000E+00
         0.00000E+00
         0.00000E+00
         0.00000E+00
         0.00000E+00
         0.00000E+00
         0.00000E+00
         0.00000E+00
         0.00000E+00
         0.00000E+00
         0.00000E+00
         0.00000E+00
         0.00000E+00
         0.00000E+00
         0.00000E+00
         0.00000E+00
         0.00000E+00
         0.00000E+00
         0.00000E+00
         0.00000E+00
         0.00000E+00
         0.00000E+00
         0.00000E+00
         0.00000E+00
         0.00000E+00
         0.00000E+00
         0.00000E+00
         0.00000E+00
         0.00000E+00
         0.00000E+00
         0.00000E+00
         0.00000E+00
         0.00000E+00
         0.00000E+00
         0.00000E+00
         0.00000E+00
         0.00000E+00
         0.00000E+00
         0.00000E+00
         0.00000E+00
         0.00000E+00
         0.00000E+00
         0.00000E+00
         0.00000E+00
         0.00000E+00
         0.00000E+00
         0.00000E+00
         0.00000E+00
         0.00000E+00
         0.00000E+00
         0.00000E+00
         0.00000E+00
         0.00000E+00
         0.00000E+00
         0.00000E+00
         0.00000E+00
         0.00000E+00
         0.00000E+00
         0.00000E+00
         0.00000E+00
         0.00000E+00
         0.00000E+00
         0.00000E+00
         0.00000E+00
         0.00000E+00
         0.00000E+00
         0.00000E+00
         0.00000E+00
         0.00000E+00
         0.00000E+00
         0.00000E+00
         0.00000E+00
         0.00000E+00
         0.00000E+00
         0.00000E+00
         0.00000E+00
         0.00000E+00
         0.00000E+00
         0.00000E+00
         0.00000E+00
         0.00000E+00
         0.00000E+00
         0.00000E+00
         0.00000E+00
         0.00000E+00
         0.00000E+00
         0.00000E+00
         0.00000E+00
         0.00000E+00
         0.00000E+00
         0.00000E+00
         0.00000E+00
         0.00000E+00
         0.00000E+00
         0.00000E+00
         0.00000E+00
         0.00000E+00
         0.00000E+00
         0.00000E+00
         0.00000E+00
         0.00000E+00
         0.00000E+00
         0.00000E+00
         0.00000E+00
         0.00000E+00
         0.00000E+00
         0.00000E+00
         0.00000E+00
         0.00000E+00
         0.00000E+00
         0.00000E+00
         0.00000E+00
         0.00000E+00
         0.00000E+00
         0.00000E+00
         0.00000E+00
         0.00000E+00
         0.00000E+00
         0.00000E+00
         0.00000E+00
         0.00000E+00
         0.00000E+00
         0.00000E+00
         0.00000E+00
         0.00000E+00
         0.00000E+00
         0.00000E+00
         0.00000E+00
         0.00000E+00
         0.00000E+00
         0.00000E+00
         0.00000E+00
         0.00000E+00
         0.00000E+00
         0.00000E+00
         0.00000E+00
         0.00000E+00
         0.00000E+00
         0.00000E+00
         0.00000E+00
         0.00000E+00
         0.00000E+00
         0.00000E+00
         0.00000E+00
         0.00000E+00
         0.00000E+00
         0.00000E+00
         0.00000E+00
         0.00000E+00
         0.00000E+00
         0.00000E+00
         0.00000E+00
         0.00000E+00
         0.00000E+00
         0.00000E+00
         0.00000E+00
         0.00000E+00
         0.00000E+00
         0.00000E+00
         0.00000E+00
         0.00000E+00
         0.00000E+00
         0.00000E+00
         0.00000E+00
         0.00000E+00
         0.00000E+00
         0.00000E+00
         0.00000E+00
         0.00000E+00
         0.00000E+00
         0.00000E+00
         0.00000E+00
         0.00000E+00
         0.00000E+00
         0.00000E+00
         0.00000E+00
         0.00000E+00
         0.00000E+00
         0.00000E+00
         0.00000E+00
         0.00000E+00
         0.00000E+00
         0.00000E+00
         0.00000E+00
         0.00000E+00
         0.00000E+00
         0.00000E+00
         0.00000E+00
         0.00000E+00
         0.00000E+00
         0.00000E+00
         0.00000E+00
         0.00000E+00
         0.00000E+00
         0.00000E+00
         0.00000E+00
         0.00000E+00
         0.00000E+00
         0.00000E+00
         0.00000E+00
         0.00000E+00
         0.00000E+00
         0.00000E+00
         0.00000E+00
         0.00000E+00
         0.00000E+00
         0.00000E+00
         0.00000E+00
         0.00000E+00
         0.00000E+00
         0.00000E+00
         0.00000E+00
         0.00000E+00
         0.00000E+00
         0.00000E+00
         0.00000E+00
         0.00000E+00
         0.00000E+00
         0.00000E+00
         0.00000E+00
         0.00000E+00
         0.00000E+00
         0.00000E+00
         0.00000E+00
         0.00000E+00
         0.00000E+00
         0.00000E+00
         0.00000E+00
         0.00000E+00
         0.00000E+00
         0.00000E+00
         0.00000E+00
         0.00000E+00
         0.00000E+00
         0.00000E+00
         0.00000E+00
         0.00000E+00
         0.00000E+00
         0.00000E+00
         0.00000E+00
         0.00000E+00
         0.00000E+00
         0.00000E+00
         0.00000E+00
         0.00000E+00
         0.00000E+00
         0.00000E+00
         0.00000E+00
         0.00000E+00
         0.00000E+00
         0.00000E+00
         0.00000E+00
         0.00000E+00
         0.00000E+00
         0.00000E+00
         0.00000E+00
         0.00000E+00
         0.00000E+00
         0.00000E+00
         0.00000E+00
         0.00000E+00
         0.00000E+00
         0.00000E+00
         0.00000E+00
         0.00000E+00
         0.00000E+00
         0.00000E+00
         0.00000E+00
         0.00000E+00
         0.00000E+00
         0.00000E+00
         0.00000E+00
         0.00000E+00
         0.00000E+00
         0.00000E+00
         0.00000E+00
         0.00000E+00
         0.00000E+00
         0.00000E+00
         0.00000E+00
         0.00000E+00
         0.00000E+00
         0.00000E+00
         0.00000E+00
         0.00000E+00
         0.00000E+00
         0.00000E+00
         0.00000E+00
         0.00000E+00
         0.00000E+00
         0.00000E+00
         0.00000E+00
         0.00000E+00
         0.00000E+00
         0.00000E+00
         0.00000E+00
         0.00000E+00
         0.00000E+00
         0.00000E+00
         0.00000E+00
         0.00000E+00
         0.00000E+00
         0.00000E+00
         0.00000E+00
         0.00000E+00
         0.00000E+00
         0.00000E+00
         0.00000E+00
         0.00000E+00
         0.00000E+00
         0.00000E+00
         0.00000E+00
         0.00000E+00
         0.00000E+00
         0.00000E+00
         0.00000E+00
         0.00000E+00
         0.00000E+00
         0.00000E+00
         0.00000E+00
         0.00000E+00
         0.00000E+00
         0.00000E+00
         0.00000E+00
         0.00000E+00
         0.00000E+00
         0.00000E+00
         0.00000E+00
         0.00000E+00
         0.00000E+00
         0.00000E+00
         0.00000E+00
         0.00000E+00
         0.00000E+00
         0.00000E+00
         0.00000E+00
         0.00000E+00
         0.00000E+00
         0.00000E+00
         0.00000E+00
         0.00000E+00
         0.00000E+00
         0.00000E+00
         0.00000E+00
         0.00000E+00
         0.00000E+00
         0.00000E+00
         0.00000E+00
         0.00000E+00
         0.00000E+00
         0.00000E+00
         0.00000E+00
         0.00000E+00
         0.00000E+00
         0.00000E+00
         0.00000E+00
         0.00000E+00
         0.00000E+00
         0.00000E+00
         0.00000E+00
         0.00000E+00
         0.00000E+00
         0.00000E+00
         0.00000E+00
         0.00000E+00
         0.00000E+00
         0.00000E+00
         0.00000E+00
         0.00000E+00
         0.00000E+00
         0.00000E+00
         0.00000E+00
         0.00000E+00
         0.00000E+00
         0.00000E+00
         0.00000E+00
         0.00000E+00
         0.00000E+00
         0.00000E+00
         0.00000E+00
         0.00000E+00
         0.00000E+00
         0.00000E+00
         0.00000E+00
         0.00000E+00
         0.00000E+00
         0.00000E+00
         0.00000E+00
         0.00000E+00
         0.00000E+00
         0.00000E+00
         0.00000E+00
         0.00000E+00
         0.00000E+00
         0.00000E+00
         0.00000E+00
         0.00000E+00
         0.00000E+00
         0.00000E+00
         0.00000E+00
         0.00000E+00
         0.00000E+00
         0.00000E+00
         0.00000E+00
         0.00000E+00
         0.00000E+00
         0.00000E+00
         0.00000E+00
         0.00000E+00
         0.00000E+00
         0.00000E+00
         0.00000E+00
         0.00000E+00
         0.00000E+00
         0.00000E+00
         0.00000E+00
         0.00000E+00
         0.00000E+00
         0.00000E+00
         0.00000E+00
         0.00000E+00
         0.00000E+00
         0.00000E+00
         0.00000E+00
         0.00000E+00
         0.00000E+00
         0.00000E+00
         0.00000E+00
         0.00000E+00
         0.00000E+00
         0.00000E+00
         0.00000E+00
         0.00000E+00
         0.00000E+00
         0.00000E+00
         0.00000E+00
         0.00000E+00
         0.00000E+00
         0.00000E+00
         0.00000E+00
         0.00000E+00
         0.00000E+00
         0.00000E+00
         0.00000E+00
         0.00000E+00
         0.00000E+00
         0.00000E+00
         0.00000E+00
         0.00000E+00
         0.00000E+00
         0.00000E+00
         0.00000E+00
         0.00000E+00
         0.00000E+00
         0.00000E+00
         0.00000E+00
         0.00000E+00
         0.00000E+00
         0.00000E+00
         0.00000E+00
         0.00000E+00
         0.00000E+00
         0.00000E+00
         0.00000E+00
         0.00000E+00
         0.00000E+00
         0.00000E+00
         0.00000E+00
         0.00000E+00
         0.00000E+00
         0.00000E+00
         0.00000E+00
         0.00000E+00
         0.00000E+00
         0.00000E+00
         0.00000E+00
         0.00000E+00
         0.00000E+00
         0.00000E+00
         0.00000E+00
         0.00000E+00
         0.00000E+00
         0.00000E+00
         0.00000E+00
         0.00000E+00
         0.00000E+00
         0.00000E+00
         0.00000E+00
         0.00000E+00
         0.00000E+00
         0.00000E+00
         0.00000E+00
         0.00000E+00
         0.00000E+00
         0.00000E+00
         0.00000E+00
         0.00000E+00
         0.00000E+00
         0.00000E+00
         0.00000E+00
         0.00000E+00
         0.00000E+00
         0.00000E+00
         0.00000E+00
         0.00000E+00
         0.00000E+00
         0.00000E+00
         0.00000E+00
         0.00000E+00
         0.00000E+00
         0.00000E+00
         0.00000E+00
         0.00000E+00
         0.00000E+00
         0.00000E+00
         0.00000E+00
         0.00000E+00
         0.00000E+00
         0.00000E+00
         0.00000E+00
         0.00000E+00
         0.00000E+00
         0.00000E+00
         0.00000E+00
         0.00000E+00
         0.00000E+00
         0.00000E+00
         0.00000E+00
         0.00000E+00
         0.00000E+00
         0.00000E+00
         0.00000E+00
         0.00000E+00
         0.00000E+00
         0.00000E+00
         0.00000E+00
         0.00000E+00
         0.00000E+00
         0.00000E+00
         0.00000E+00
         0.00000E+00
         0.00000E+00
         0.00000E+00
         0.00000E+00
         0.00000E+00
         0.00000E+00
         0.00000E+00
         0.00000E+00
         0.00000E+00
         0.00000E+00
         0.00000E+00
         0.00000E+00
         0.00000E+00
         0.00000E+00
         0.00000E+00
         0.00000E+00
         0.00000E+00
         0.00000E+00
         0.00000E+00
         0.00000E+00
         0.00000E+00
         0.00000E+00
         0.00000E+00
         0.00000E+00
         0.00000E+00
         0.00000E+00
         0.00000E+00
         0.00000E+00
         0.00000E+00
         0.00000E+00
         0.00000E+00
         0.00000E+00
         0.00000E+00
         0.00000E+00
         0.00000E+00
         0.00000E+00
         0.00000E+00
         0.00000E+00
         0.00000E+00
         0.00000E+00
         0.00000E+00
         0.00000E+00
         0.00000E+00
         0.00000E+00
         0.00000E+00
         0.00000E+00
         0.00000E+00
         0.00000E+00
         0.00000E+00
         0.00000E+00
         0.00000E+00
         0.00000E+00
         0.00000E+00
         0.00000E+00
         0.00000E+00
         0.00000E+00
         0.00000E+00
         0.00000E+00
         0.00000E+00
         0.00000E+00
         0.00000E+00
         0.00000E+00
         0.00000E+00
         0.00000E+00
         0.00000E+00
         0.00000E+00
         0.00000E+00
         0.00000E+00
         0.00000E+00
         0.00000E+00
         0.00000E+00
         0.00000E+00
         0.00000E+00
         0.00000E+00
         0.00000E+00
         0.00000E+00
         0.00000E+00
         0.00000E+00
         0.00000E+00
         0.00000E+00
         0.00000E+00
         0.00000E+00
         0.00000E+00
         0.00000E+00
         0.00000E+00
         0.00000E+00
         0.00000E+00
         0.00000E+00
         0.00000E+00
         0.00000E+00
         0.00000E+00
         0.00000E+00
         0.00000E+00
         0.00000E+00
         0.00000E+00
         0.00000E+00
         0.00000E+00
         0.00000E+00
         0.00000E+00
         0.00000E+00
         0.00000E+00
         0.00000E+00
         0.00000E+00
         0.00000E+00
         0.00000E+00
         0.00000E+00
         0.00000E+00
         0.00000E+00
         0.00000E+00
         0.00000E+00
         0.00000E+00
         0.00000E+00
         0.00000E+00
         0.00000E+00
         0.00000E+00
         0.00000E+00
         0.00000E+00
         0.00000E+00
         0.00000E+00
         0.00000E+00
         0.00000E+00
         0.00000E+00
         0.00000E+00
         0.00000E+00
         0.00000E+00
         0.00000E+00
         0.00000E+00
         0.00000E+00
         0.00000E+00
         0.00000E+00
         0.00000E+00
         0.00000E+00
         0.00000E+00
         0.00000E+00
         0.00000E+00
         0.00000E+00
         0.00000E+00
         0.00000E+00
         0.00000E+00
         0.00000E+00
         0.00000E+00
         0.00000E+00
         0.00000E+00
         0.00000E+00
         0.00000E+00
         0.00000E+00
         0.00000E+00
         0.00000E+00
         0.00000E+00
         0.00000E+00
         0.00000E+00
         0.00000E+00
         0.00000E+00
         0.00000E+00
         0.00000E+00
         0.00000E+00
         0.00000E+00
         0.00000E+00
         0.00000E+00
         0.00000E+00
         0.00000E+00
         0.00000E+00
         0.00000E+00
         0.00000E+00
         0.00000E+00
         0.00000E+00
         0.00000E+00
         0.00000E+00
         0.00000E+00
         0.00000E+00
         0.00000E+00
         0.00000E+00
         0.00000E+00
         0.00000E+00
         0.00000E+00
         0.00000E+00
         0.00000E+00
         0.00000E+00
         0.00000E+00
         0.00000E+00
         0.00000E+00
         0.00000E+00
         0.00000E+00
         0.00000E+00
         0.00000E+00
         0.00000E+00
         0.00000E+00
         0.00000E+00
         0.00000E+00
         0.00000E+00
         0.00000E+00
         0.00000E+00
         0.00000E+00
         0.00000E+00
         0.00000E+00
         0.00000E+00
         0.00000E+00
         0.00000E+00
         0.00000E+00
         0.00000E+00
         0.00000E+00
         0.00000E+00
         0.00000E+00
         0.00000E+00
         0.00000E+00
         0.00000E+00
         0.00000E+00
         0.00000E+00
         0.00000E+00
         0.00000E+00
         0.00000E+00
         0.00000E+00
         0.00000E+00
         0.00000E+00
         0.00000E+00
         0.00000E+00
         0.00000E+00
         0.00000E+00
         0.00000E+00
         0.00000E+00
         0.00000E+00
         0.00000E+00
         0.00000E+00
         0.00000E+00
         0.00000E+00
         0.00000E+00
         0.00000E+00
         0.00000E+00
         0.00000E+00
         0.00000E+00
         0.00000E+00
         0.00000E+00
         0.00000E+00
         0.00000E+00
         0.00000E+00
         0.00000E+00
         0.00000E+00
         0.00000E+00
         0.00000E+00
         0.00000E+00
         0.00000E+00
         0.00000E+00
         0.00000E+00
         0.00000E+00
         0.00000E+00
         0.00000E+00
         0.00000E+00
         0.00000E+00
         0.00000E+00
         0.00000E+00
         0.00000E+00
         0.00000E+00
         0.00000E+00
         0.00000E+00
         0.00000E+00
         0.00000E+00
         0.00000E+00
         0.00000E+00
         0.00000E+00
         0.00000E+00
         0.00000E+00
         0.00000E+00
         0.00000E+00
         0.00000E+00
         0.00000E+00
         0.00000E+00
         0.00000E+00
         0.00000E+00
         0.00000E+00
         0.00000E+00
         0.00000E+00
         0.00000E+00
         0.00000E+00
         0.00000E+00
         0.00000E+00
         0.00000E+00
         0.00000E+00
         0.00000E+00
         0.00000E+00
         0.00000E+00
         0.00000E+00
         0.00000E+00
         0.00000E+00
         0.00000E+00
         0.00000E+00
         0.00000E+00
         0.00000E+00
         0.00000E+00
         0.00000E+00
         0.00000E+00
         0.00000E+00
         0.00000E+00
         0.00000E+00
         0.00000E+00
         0.00000E+00
         0.00000E+00
         0.00000E+00
         0.00000E+00
         0.00000E+00
         0.00000E+00
         0.00000E+00
         0.00000E+00
         0.00000E+00
         0.00000E+00
         0.00000E+00
         0.00000E+00
         0.00000E+00
         0.00000E+00
         0.00000E+00
         0.00000E+00
         0.00000E+00
         0.00000E+00
         0.00000E+00
         0.00000E+00
         0.00000E+00
         0.00000E+00
         0.00000E+00
         0.00000E+00
         0.00000E+00
         0.00000E+00
         0.00000E+00
         0.00000E+00
         0.00000E+00
         0.00000E+00
         0.00000E+00
         0.00000E+00
         0.00000E+00
         0.00000E+00
         0.00000E+00
         0.00000E+00
         0.00000E+00
         0.00000E+00
         0.00000E+00
         0.00000E+00
         0.00000E+00
         0.00000E+00
         0.00000E+00
         0.00000E+00
         0.00000E+00
         0.00000E+00
         0.00000E+00
         0.00000E+00
         0.00000E+00
         0.00000E+00
         0.00000E+00
         0.00000E+00
         0.00000E+00
         0.00000E+00
         0.00000E+00
         0.00000E+00
         0.00000E+00
         0.00000E+00
         0.00000E+00
         0.00000E+00
         0.00000E+00
         0.00000E+00
         0.00000E+00
         0.00000E+00
         0.00000E+00
         0.00000E+00
         0.00000E+00
         0.00000E+00
         0.00000E+00
         0.00000E+00
         0.00000E+00
         0.00000E+00
         0.00000E+00
         0.00000E+00
         0.00000E+00
         0.00000E+00
         0.00000E+00
         0.00000E+00
         0.00000E+00
         0.00000E+00
         0.00000E+00
         0.00000E+00
         0.00000E+00
         0.00000E+00
         0.00000E+00
         0.00000E+00
         0.00000E+00
         0.00000E+00
         0.00000E+00
         0.00000E+00
         0.00000E+00
         0.00000E+00
         0.00000E+00
         0.00000E+00
         0.00000E+00
         0.00000E+00
         0.00000E+00
         0.00000E+00
         0.00000E+00
         0.00000E+00
         0.00000E+00
         0.00000E+00
         0.00000E+00
         0.00000E+00
         0.00000E+00
         0.00000E+00
         0.00000E+00
         0.00000E+00
         0.00000E+00
         0.00000E+00
         0.00000E+00
         0.00000E+00
         0.00000E+00
         0.00000E+00
         0.00000E+00
         0.00000E+00
         0.00000E+00
         0.00000E+00
         0.00000E+00
         0.00000E+00
         0.00000E+00
         0.00000E+00
         0.00000E+00
         0.00000E+00
         0.00000E+00
         0.00000E+00
         0.00000E+00
         0.00000E+00
         0.00000E+00
         0.00000E+00
         0.00000E+00
         0.00000E+00
         0.00000E+00
         0.00000E+00
         0.00000E+00
         0.00000E+00
         0.00000E+00
         0.00000E+00
         0.00000E+00
         0.00000E+00
         0.00000E+00
         0.00000E+00
         0.00000E+00
         0.00000E+00
         0.00000E+00
         0.00000E+00
         0.00000E+00
         0.00000E+00
         0.00000E+00
         0.00000E+00
         0.00000E+00
         0.00000E+00
         0.00000E+00
         0.00000E+00
         0.00000E+00
         0.00000E+00
         0.00000E+00
         0.00000E+00
         0.00000E+00
         0.00000E+00
         0.00000E+00
         0.00000E+00
         0.00000E+00
         0.00000E+00
         0.00000E+00
         0.00000E+00
         0.00000E+00
         0.00000E+00
         0.00000E+00
         0.00000E+00
         0.00000E+00
         0.00000E+00
         0.00000E+00
         0.00000E+00
         0.00000E+00
         0.00000E+00
         0.00000E+00
         0.00000E+00
         0.00000E+00
         0.00000E+00
         0.00000E+00
         0.00000E+00
         0.00000E+00
         0.00000E+00
         0.00000E+00
         0.00000E+00
         0.00000E+00
         0.00000E+00
         0.00000E+00
         0.00000E+00
         0.00000E+00
         0.00000E+00
         0.00000E+00
         0.00000E+00
         0.00000E+00
         0.00000E+00
         0.00000E+00
         0.00000E+00
         0.00000E+00
         0.00000E+00
         0.00000E+00
         0.00000E+00
         0.00000E+00
         0.00000E+00
         0.00000E+00
         0.00000E+00
         0.00000E+00
         0.00000E+00
         0.00000E+00
         0.00000E+00
         0.00000E+00
         0.00000E+00
         0.00000E+00
         0.00000E+00
         0.00000E+00
         0.00000E+00
         0.00000E+00
         0.00000E+00
         0.00000E+00
         0.00000E+00
         0.00000E+00
         0.00000E+00
         0.00000E+00
         0.00000E+00
         0.00000E+00
         0.00000E+00
         0.00000E+00
         0.00000E+00
         0.00000E+00
         0.00000E+00
         0.00000E+00
         0.00000E+00
         0.00000E+00
         0.00000E+00
         0.00000E+00
         0.00000E+00
         0.00000E+00
         0.00000E+00
         0.00000E+00
         0.00000E+00
         0.00000E+00
         0.00000E+00
         0.00000E+00
         0.00000E+00
         0.00000E+00
         0.00000E+00
         0.00000E+00
         0.00000E+00
         0.00000E+00
         0.00000E+00
         0.00000E+00
         0.00000E+00
         0.00000E+00
         0.00000E+00
         0.00000E+00
         0.00000E+00
         0.00000E+00
         0.00000E+00
         0.00000E+00
         0.00000E+00
         0.00000E+00
         0.00000E+00
         0.00000E+00
         0.00000E+00
         0.00000E+00
         0.00000E+00
         0.00000E+00
         0.00000E+00
         0.00000E+00
         0.00000E+00
         0.00000E+00
         0.00000E+00
         0.00000E+00
         0.00000E+00
         0.00000E+00
         0.00000E+00
         0.00000E+00
         0.00000E+00
         0.00000E+00
         0.00000E+00
         0.00000E+00
         0.00000E+00
         0.00000E+00
         0.00000E+00
         0.00000E+00
         0.00000E+00
         0.00000E+00
         0.00000E+00
         0.00000E+00
         0.00000E+00
         0.00000E+00
         0.00000E+00
         0.00000E+00
         0.00000E+00
         0.00000E+00
         0.00000E+00
         0.00000E+00
         0.00000E+00
         0.00000E+00
         0.00000E+00
         0.00000E+00
         0.00000E+00
         0.00000E+00
         0.00000E+00
         0.00000E+00
         0.00000E+00
         0.00000E+00
         0.00000E+00
         0.00000E+00
         0.00000E+00
         0.00000E+00
         0.00000E+00
         0.00000E+00
         0.00000E+00
         0.00000E+00
         0.00000E+00
         0.00000E+00
         0.00000E+00
         0.00000E+00
         0.00000E+00
         0.00000E+00
         0.00000E+00
         0.00000E+00
         0.00000E+00
         0.00000E+00
         0.00000E+00
         0.00000E+00
         0.00000E+00
         0.00000E+00
         0.00000E+00
         0.00000E+00
         0.00000E+00
         0.00000E+00
         0.00000E+00
         0.00000E+00
         0.00000E+00
         0.00000E+00
         0.00000E+00
         0.00000E+00
         0.00000E+00
         0.00000E+00
         0.00000E+00
         0.00000E+00
         0.00000E+00
         0.00000E+00
         0.00000E+00
         0.00000E+00
         0.00000E+00
         0.00000E+00
         0.00000E+00
         0.00000E+00
         0.00000E+00
         0.00000E+00
         0.00000E+00
         0.00000E+00
         0.00000E+00
         0.00000E+00
         0.00000E+00
         0.00000E+00
         0.00000E+00
         0.00000E+00
         0.00000E+00
         0.00000E+00
         0.00000E+00
         0.00000E+00
         0.00000E+00
         0.00000E+00
         0.00000E+00
         0.00000E+00
         0.00000E+00
         0.00000E+00
         0.00000E+00
         0.00000E+00
         0.00000E+00
         0.00000E+00
         0.00000E+00
         0.00000E+00
         0.00000E+00
         0.00000E+00
         0.00000E+00
         0.00000E+00
         0.00000E+00
         0.00000E+00
         0.00000E+00
         0.00000E+00
         0.00000E+00
         0.00000E+00
         0.00000E+00
         0.00000E+00
         0.00000E+00
         0.00000E+00
         0.00000E+00
         0.00000E+00
         0.00000E+00
         0.00000E+00
         0.00000E+00
         0.00000E+00
         0.00000E+00
         0.00000E+00
         0.00000E+00
         0.00000E+00
         0.00000E+00
         0.00000E+00
         0.00000E+00
         0.00000E+00
         0.00000E+00
         0.00000E+00
         0.00000E+00
         0.00000E+00
         0.00000E+00
         0.00000E+00
         0.00000E+00
         0.00000E+00
         0.00000E+00
         0.00000E+00
         0.00000E+00
         0.00000E+00
         0.00000E+00
         0.00000E+00
         0.00000E+00
         0.00000E+00
         0.00000E+00
         0.00000E+00
         0.00000E+00
         0.00000E+00
         0.00000E+00
         0.00000E+00
         0.00000E+00
         0.00000E+00
         0.00000E+00
         0.00000E+00
         0.00000E+00
         0.00000E+00
         0.00000E+00
         0.00000E+00
         0.00000E+00
         0.00000E+00
         0.00000E+00
         0.00000E+00
         0.00000E+00
         0.00000E+00
         0.00000E+00
         0.00000E+00
         0.00000E+00
         0.00000E+00
         0.00000E+00
         0.00000E+00
         0.00000E+00
         0.00000E+00
         0.00000E+00
         0.00000E+00
         0.00000E+00
         0.00000E+00
         0.00000E+00
         0.00000E+00
         0.00000E+00
         0.00000E+00
         0.00000E+00
         0.00000E+00
         0.00000E+00
         0.00000E+00
         0.00000E+00
         0.00000E+00
         0.00000E+00
         0.00000E+00
         0.00000E+00
         0.00000E+00
         0.00000E+00
         0.00000E+00
         0.00000E+00
         0.00000E+00
         0.00000E+00
         0.00000E+00
         0.00000E+00
         0.00000E+00
         0.00000E+00
         0.00000E+00
         0.00000E+00
         0.00000E+00
         0.00000E+00
         0.00000E+00
         0.00000E+00
         0.00000E+00
         0.00000E+00
         0.00000E+00
         0.00000E+00
         0.00000E+00
         0.00000E+00
         0.00000E+00
         0.00000E+00
         0.00000E+00
         0.00000E+00
         0.00000E+00
         0.00000E+00
         0.00000E+00
         0.00000E+00
         0.00000E+00
         0.00000E+00
         0.00000E+00
         0.00000E+00
         0.00000E+00
         0.00000E+00
         0.00000E+00
         0.00000E+00
         0.00000E+00
         0.00000E+00
         0.00000E+00
         0.00000E+00
         0.00000E+00
         0.00000E+00
         0.00000E+00
         0.00000E+00
         0.00000E+00
         0.00000E+00
         0.00000E+00
         0.00000E+00
         0.00000E+00
         0.00000E+00
         0.00000E+00
         0.00000E+00
         0.00000E+00
         0.00000E+00
         0.00000E+00
         0.00000E+00
         0.00000E+00
         0.00000E+00
         0.00000E+00
         0.00000E+00
         0.00000E+00
         0.00000E+00
         0.00000E+00
         0.00000E+00
         0.00000E+00
         0.00000E+00
         0.00000E+00
         0.00000E+00
         0.00000E+00
         0.00000E+00
         0.00000E+00
         0.00000E+00
         0.00000E+00
         0.00000E+00
         0.00000E+00
         0.00000E+00
         0.00000E+00
         0.00000E+00
         0.00000E+00
         0.00000E+00
         0.00000E+00
         0.00000E+00
         0.00000E+00
         0.00000E+00
         0.00000E+00
         0.00000E+00
         0.00000E+00
         0.00000E+00
         0.00000E+00
         0.00000E+00
         0.00000E+00
         0.00000E+00
         0.00000E+00
         0.00000E+00
         0.00000E+00
         0.00000E+00
         0.00000E+00
         0.00000E+00
         0.00000E+00
         0.00000E+00
         0.00000E+00
         0.00000E+00
         0.00000E+00
         0.00000E+00
         0.00000E+00
         0.00000E+00
         0.00000E+00
         0.00000E+00
         0.00000E+00
         0.00000E+00
         0.00000E+00
         0.00000E+00
         0.00000E+00
         0.00000E+00
         0.00000E+00
         0.00000E+00
         0.00000E+00
         0.00000E+00
         0.00000E+00
         0.00000E+00
         0.00000E+00
         0.00000E+00
         0.00000E+00
         0.00000E+00
         0.00000E+00
         0.00000E+00
         0.00000E+00
         0.00000E+00
         0.00000E+00
         0.00000E+00
         0.00000E+00
         0.00000E+00
         0.00000E+00
         0.00000E+00
         0.00000E+00
         0.00000E+00
         0.00000E+00
         0.00000E+00
         0.00000E+00
         0.00000E+00
         0.00000E+00
         0.00000E+00
         0.00000E+00
         0.00000E+00
         0.00000E+00
         0.00000E+00
         0.00000E+00
         0.00000E+00
         0.00000E+00
         0.00000E+00
         0.00000E+00
         0.00000E+00
         0.00000E+00
         0.00000E+00
         0.00000E+00
         0.00000E+00
         0.00000E+00
         0.00000E+00
         0.00000E+00
         0.00000E+00
         0.00000E+00
         0.00000E+00
         0.00000E+00
         0.00000E+00
         0.00000E+00
         0.00000E+00
         0.00000E+00
         0.00000E+00
         0.00000E+00
         0.00000E+00
         0.00000E+00
         0.00000E+00
         0.00000E+00
         0.00000E+00
         0.00000E+00
         0.00000E+00
         0.00000E+00
         0.00000E+00
         0.00000E+00
         0.00000E+00
         0.00000E+00
         0.00000E+00
         0.00000E+00
         0.00000E+00
         0.00000E+00
         0.00000E+00
         0.00000E+00
         0.00000E+00
         0.00000E+00
         0.00000E+00
         0.00000E+00
         0.00000E+00
         0.00000E+00
         0.00000E+00
         0.00000E+00
         0.00000E+00
         0.00000E+00
         0.00000E+00
         0.00000E+00
         0.00000E+00
         0.00000E+00
         0.00000E+00
         0.00000E+00
         0.00000E+00
         0.00000E+00
         0.00000E+00
         0.00000E+00
         0.00000E+00
         0.00000E+00
         0.00000E+00
         0.00000E+00
         0.00000E+00
         0.00000E+00
         0.00000E+00
         0.00000E+00
         0.00000E+00
         0.00000E+00
         0.00000E+00
         0.00000E+00
         0.00000E+00
         0.00000E+00
         0.00000E+00
         0.00000E+00
         0.00000E+00
         0.00000E+00
         0.00000E+00
         0.00000E+00
         0.00000E+00
         0.00000E+00
         0.00000E+00
         0.00000E+00
         0.00000E+00
         0.00000E+00
         0.00000E+00
         0.00000E+00
         0.00000E+00
         0.00000E+00
         0.00000E+00
         0.00000E+00
         0.00000E+00
         0.00000E+00
         0.00000E+00
         0.00000E+00
         0.00000E+00
         0.00000E+00
         0.00000E+00
         0.00000E+00
         0.00000E+00
         0.00000E+00
         0.00000E+00
         0.00000E+00
         0.00000E+00
         0.00000E+00
         0.00000E+00
         0.00000E+00
         0.00000E+00
         0.00000E+00
         0.00000E+00
         0.00000E+00
         0.00000E+00
         0.00000E+00
         0.00000E+00
         0.00000E+00
         0.00000E+00
         0.00000E+00
         0.00000E+00
         0.00000E+00
         0.00000E+00
         0.00000E+00
         0.00000E+00
         0.00000E+00
         0.00000E+00
         0.00000E+00
         0.00000E+00
         0.00000E+00
         0.00000E+00
         0.00000E+00
         0.00000E+00
         0.00000E+00
         0.00000E+00
         0.00000E+00
         0.00000E+00
         0.00000E+00
         0.00000E+00
         0.00000E+00
         0.00000E+00
         0.00000E+00
         0.00000E+00
         0.00000E+00
         0.00000E+00
         0.00000E+00
         0.00000E+00
         0.00000E+00
         0.00000E+00
         0.00000E+00
         0.00000E+00
         0.00000E+00
         0.00000E+00
         0.00000E+00
         0.00000E+00
         0.00000E+00
         0.00000E+00
         0.00000E+00
         0.00000E+00
         0.00000E+00
         0.00000E+00
         0.00000E+00
         0.00000E+00
         0.00000E+00
         0.00000E+00
         0.00000E+00
         0.00000E+00
         0.00000E+00
         0.00000E+00
         0.00000E+00
         0.00000E+00
         0.00000E+00
         0.00000E+00
         0.00000E+00
         0.00000E+00
         0.00000E+00
         0.00000E+00
         0.00000E+00
         0.00000E+00
         0.00000E+00
         0.00000E+00
         0.00000E+00
         0.00000E+00
         0.00000E+00
         0.00000E+00
         0.00000E+00
         0.00000E+00
         0.00000E+00
         0.00000E+00
         0.00000E+00
  
SCALARS                 acceleration_z  double 1
LOOKUP_TABLE default
         0.00000E+00
         0.00000E+00
         0.00000E+00
         0.00000E+00
         0.00000E+00
         0.00000E+00
         0.00000E+00
         0.00000E+00
         0.00000E+00
         0.00000E+00
         0.00000E+00
         0.00000E+00
         0.00000E+00
         0.00000E+00
         0.00000E+00
         0.00000E+00
         0.00000E+00
         0.00000E+00
         0.00000E+00
         0.00000E+00
         0.00000E+00
         0.00000E+00
         0.00000E+00
         0.00000E+00
         0.00000E+00
         0.00000E+00
         0.00000E+00
         0.00000E+00
         0.00000E+00
         0.00000E+00
         0.00000E+00
         0.00000E+00
         0.00000E+00
         0.00000E+00
         0.00000E+00
         0.00000E+00
         0.00000E+00
         0.00000E+00
         0.00000E+00
         0.00000E+00
         0.00000E+00
         0.00000E+00
         0.00000E+00
         0.00000E+00
         0.00000E+00
         0.00000E+00
         0.00000E+00
         0.00000E+00
         0.00000E+00
         0.00000E+00
         0.00000E+00
         0.00000E+00
         0.00000E+00
         0.00000E+00
         0.00000E+00
         0.00000E+00
         0.00000E+00
         0.00000E+00
         0.00000E+00
         0.00000E+00
         0.00000E+00
         0.00000E+00
         0.00000E+00
         0.00000E+00
         0.00000E+00
         0.00000E+00
         0.00000E+00
         0.00000E+00
         0.00000E+00
         0.00000E+00
         0.00000E+00
         0.00000E+00
         0.00000E+00
         0.00000E+00
         0.00000E+00
         0.00000E+00
         0.00000E+00
         0.00000E+00
         0.00000E+00
         0.00000E+00
         0.00000E+00
         0.00000E+00
         0.00000E+00
         0.00000E+00
         0.00000E+00
         0.00000E+00
         0.00000E+00
         0.00000E+00
         0.00000E+00
         0.00000E+00
         0.00000E+00
         0.00000E+00
         0.00000E+00
         0.00000E+00
         0.00000E+00
         0.00000E+00
         0.00000E+00
         0.00000E+00
         0.00000E+00
         0.00000E+00
         0.00000E+00
         0.00000E+00
         0.00000E+00
         0.00000E+00
         0.00000E+00
         0.00000E+00
         0.00000E+00
         0.00000E+00
         0.00000E+00
         0.00000E+00
         0.00000E+00
         0.00000E+00
         0.00000E+00
         0.00000E+00
         0.00000E+00
         0.00000E+00
         0.00000E+00
         0.00000E+00
         0.00000E+00
         0.00000E+00
         0.00000E+00
         0.00000E+00
         0.00000E+00
         0.00000E+00
         0.00000E+00
         0.00000E+00
         0.00000E+00
         0.00000E+00
         0.00000E+00
         0.00000E+00
         0.00000E+00
         0.00000E+00
         0.00000E+00
         0.00000E+00
         0.00000E+00
         0.00000E+00
         0.00000E+00
         0.00000E+00
         0.00000E+00
         0.00000E+00
         0.00000E+00
         0.00000E+00
         0.00000E+00
         0.00000E+00
         0.00000E+00
         0.00000E+00
         0.00000E+00
         0.00000E+00
         0.00000E+00
         0.00000E+00
         0.00000E+00
         0.00000E+00
         0.00000E+00
         0.00000E+00
         0.00000E+00
         0.00000E+00
         0.00000E+00
         0.00000E+00
         0.00000E+00
         0.00000E+00
         0.00000E+00
         0.00000E+00
         0.00000E+00
         0.00000E+00
         0.00000E+00
         0.00000E+00
         0.00000E+00
         0.00000E+00
         0.00000E+00
         0.00000E+00
         0.00000E+00
         0.00000E+00
         0.00000E+00
         0.00000E+00
         0.00000E+00
         0.00000E+00
         0.00000E+00
         0.00000E+00
         0.00000E+00
         0.00000E+00
         0.00000E+00
         0.00000E+00
         0.00000E+00
         0.00000E+00
         0.00000E+00
         0.00000E+00
         0.00000E+00
         0.00000E+00
         0.00000E+00
         0.00000E+00
         0.00000E+00
         0.00000E+00
         0.00000E+00
         0.00000E+00
         0.00000E+00
         0.00000E+00
         0.00000E+00
         0.00000E+00
         0.00000E+00
         0.00000E+00
         0.00000E+00
         0.00000E+00
         0.00000E+00
         0.00000E+00
         0.00000E+00
         0.00000E+00
         0.00000E+00
         0.00000E+00
         0.00000E+00
         0.00000E+00
         0.00000E+00
         0.00000E+00
         0.00000E+00
         0.00000E+00
         0.00000E+00
         0.00000E+00
         0.00000E+00
         0.00000E+00
         0.00000E+00
         0.00000E+00
         0.00000E+00
         0.00000E+00
         0.00000E+00
         0.00000E+00
         0.00000E+00
         0.00000E+00
         0.00000E+00
         0.00000E+00
         0.00000E+00
         0.00000E+00
         0.00000E+00
         0.00000E+00
         0.00000E+00
         0.00000E+00
         0.00000E+00
         0.00000E+00
         0.00000E+00
         0.00000E+00
         0.00000E+00
         0.00000E+00
         0.00000E+00
         0.00000E+00
         0.00000E+00
         0.00000E+00
         0.00000E+00
         0.00000E+00
         0.00000E+00
         0.00000E+00
         0.00000E+00
         0.00000E+00
         0.00000E+00
         0.00000E+00
         0.00000E+00
         0.00000E+00
         0.00000E+00
         0.00000E+00
         0.00000E+00
         0.00000E+00
         0.00000E+00
         0.00000E+00
         0.00000E+00
         0.00000E+00
         0.00000E+00
         0.00000E+00
         0.00000E+00
         0.00000E+00
         0.00000E+00
         0.00000E+00
         0.00000E+00
         0.00000E+00
         0.00000E+00
         0.00000E+00
         0.00000E+00
         0.00000E+00
         0.00000E+00
         0.00000E+00
         0.00000E+00
         0.00000E+00
         0.00000E+00
         0.00000E+00
         0.00000E+00
         0.00000E+00
         0.00000E+00
         0.00000E+00
         0.00000E+00
         0.00000E+00
         0.00000E+00
         0.00000E+00
         0.00000E+00
         0.00000E+00
         0.00000E+00
         0.00000E+00
         0.00000E+00
         0.00000E+00
         0.00000E+00
         0.00000E+00
         0.00000E+00
         0.00000E+00
         0.00000E+00
         0.00000E+00
         0.00000E+00
         0.00000E+00
         0.00000E+00
         0.00000E+00
         0.00000E+00
         0.00000E+00
         0.00000E+00
         0.00000E+00
         0.00000E+00
         0.00000E+00
         0.00000E+00
         0.00000E+00
         0.00000E+00
         0.00000E+00
         0.00000E+00
         0.00000E+00
         0.00000E+00
         0.00000E+00
         0.00000E+00
         0.00000E+00
         0.00000E+00
         0.00000E+00
         0.00000E+00
         0.00000E+00
         0.00000E+00
         0.00000E+00
         0.00000E+00
         0.00000E+00
         0.00000E+00
         0.00000E+00
         0.00000E+00
         0.00000E+00
         0.00000E+00
         0.00000E+00
         0.00000E+00
         0.00000E+00
         0.00000E+00
         0.00000E+00
         0.00000E+00
         0.00000E+00
         0.00000E+00
         0.00000E+00
         0.00000E+00
         0.00000E+00
         0.00000E+00
         0.00000E+00
         0.00000E+00
         0.00000E+00
         0.00000E+00
         0.00000E+00
         0.00000E+00
         0.00000E+00
         0.00000E+00
         0.00000E+00
         0.00000E+00
         0.00000E+00
         0.00000E+00
         0.00000E+00
         0.00000E+00
         0.00000E+00
         0.00000E+00
         0.00000E+00
         0.00000E+00
         0.00000E+00
         0.00000E+00
         0.00000E+00
         0.00000E+00
         0.00000E+00
         0.00000E+00
         0.00000E+00
         0.00000E+00
         0.00000E+00
         0.00000E+00
         0.00000E+00
         0.00000E+00
         0.00000E+00
         0.00000E+00
         0.00000E+00
         0.00000E+00
         0.00000E+00
         0.00000E+00
         0.00000E+00
         0.00000E+00
         0.00000E+00
         0.00000E+00
         0.00000E+00
         0.00000E+00
         0.00000E+00
         0.00000E+00
         0.00000E+00
         0.00000E+00
         0.00000E+00
         0.00000E+00
         0.00000E+00
         0.00000E+00
         0.00000E+00
         0.00000E+00
         0.00000E+00
         0.00000E+00
         0.00000E+00
         0.00000E+00
         0.00000E+00
         0.00000E+00
         0.00000E+00
         0.00000E+00
         0.00000E+00
         0.00000E+00
         0.00000E+00
         0.00000E+00
         0.00000E+00
         0.00000E+00
         0.00000E+00
         0.00000E+00
         0.00000E+00
         0.00000E+00
         0.00000E+00
         0.00000E+00
         0.00000E+00
         0.00000E+00
         0.00000E+00
         0.00000E+00
         0.00000E+00
         0.00000E+00
         0.00000E+00
         0.00000E+00
         0.00000E+00
         0.00000E+00
         0.00000E+00
         0.00000E+00
         0.00000E+00
         0.00000E+00
         0.00000E+00
         0.00000E+00
         0.00000E+00
         0.00000E+00
         0.00000E+00
         0.00000E+00
         0.00000E+00
         0.00000E+00
         0.00000E+00
         0.00000E+00
         0.00000E+00
         0.00000E+00
         0.00000E+00
         0.00000E+00
         0.00000E+00
         0.00000E+00
         0.00000E+00
         0.00000E+00
         0.00000E+00
         0.00000E+00
         0.00000E+00
         0.00000E+00
         0.00000E+00
         0.00000E+00
         0.00000E+00
         0.00000E+00
         0.00000E+00
         0.00000E+00
         0.00000E+00
         0.00000E+00
         0.00000E+00
         0.00000E+00
         0.00000E+00
         0.00000E+00
         0.00000E+00
         0.00000E+00
         0.00000E+00
         0.00000E+00
         0.00000E+00
         0.00000E+00
         0.00000E+00
         0.00000E+00
         0.00000E+00
         0.00000E+00
         0.00000E+00
         0.00000E+00
         0.00000E+00
         0.00000E+00
         0.00000E+00
         0.00000E+00
         0.00000E+00
         0.00000E+00
         0.00000E+00
         0.00000E+00
         0.00000E+00
         0.00000E+00
         0.00000E+00
         0.00000E+00
         0.00000E+00
         0.00000E+00
         0.00000E+00
         0.00000E+00
         0.00000E+00
         0.00000E+00
         0.00000E+00
         0.00000E+00
         0.00000E+00
         0.00000E+00
         0.00000E+00
         0.00000E+00
         0.00000E+00
         0.00000E+00
         0.00000E+00
         0.00000E+00
         0.00000E+00
         0.00000E+00
         0.00000E+00
         0.00000E+00
         0.00000E+00
         0.00000E+00
         0.00000E+00
         0.00000E+00
         0.00000E+00
         0.00000E+00
         0.00000E+00
         0.00000E+00
         0.00000E+00
         0.00000E+00
         0.00000E+00
         0.00000E+00
         0.00000E+00
         0.00000E+00
         0.00000E+00
         0.00000E+00
         0.00000E+00
         0.00000E+00
         0.00000E+00
         0.00000E+00
         0.00000E+00
         0.00000E+00
         0.00000E+00
         0.00000E+00
         0.00000E+00
         0.00000E+00
         0.00000E+00
         0.00000E+00
         0.00000E+00
         0.00000E+00
         0.00000E+00
         0.00000E+00
         0.00000E+00
         0.00000E+00
         0.00000E+00
         0.00000E+00
         0.00000E+00
         0.00000E+00
         0.00000E+00
         0.00000E+00
         0.00000E+00
         0.00000E+00
         0.00000E+00
         0.00000E+00
         0.00000E+00
         0.00000E+00
         0.00000E+00
         0.00000E+00
         0.00000E+00
         0.00000E+00
         0.00000E+00
         0.00000E+00
         0.00000E+00
         0.00000E+00
         0.00000E+00
         0.00000E+00
         0.00000E+00
         0.00000E+00
         0.00000E+00
         0.00000E+00
         0.00000E+00
         0.00000E+00
         0.00000E+00
         0.00000E+00
         0.00000E+00
         0.00000E+00
         0.00000E+00
         0.00000E+00
         0.00000E+00
         0.00000E+00
         0.00000E+00
         0.00000E+00
         0.00000E+00
         0.00000E+00
         0.00000E+00
         0.00000E+00
         0.00000E+00
         0.00000E+00
         0.00000E+00
         0.00000E+00
         0.00000E+00
         0.00000E+00
         0.00000E+00
         0.00000E+00
         0.00000E+00
         0.00000E+00
         0.00000E+00
         0.00000E+00
         0.00000E+00
         0.00000E+00
         0.00000E+00
         0.00000E+00
         0.00000E+00
         0.00000E+00
         0.00000E+00
         0.00000E+00
         0.00000E+00
         0.00000E+00
         0.00000E+00
         0.00000E+00
         0.00000E+00
         0.00000E+00
         0.00000E+00
         0.00000E+00
         0.00000E+00
         0.00000E+00
         0.00000E+00
         0.00000E+00
         0.00000E+00
         0.00000E+00
         0.00000E+00
         0.00000E+00
         0.00000E+00
         0.00000E+00
         0.00000E+00
         0.00000E+00
         0.00000E+00
         0.00000E+00
         0.00000E+00
         0.00000E+00
         0.00000E+00
         0.00000E+00
         0.00000E+00
         0.00000E+00
         0.00000E+00
         0.00000E+00
         0.00000E+00
         0.00000E+00
         0.00000E+00
         0.00000E+00
         0.00000E+00
         0.00000E+00
         0.00000E+00
         0.00000E+00
         0.00000E+00
         0.00000E+00
         0.00000E+00
         0.00000E+00
         0.00000E+00
         0.00000E+00
         0.00000E+00
         0.00000E+00
         0.00000E+00
         0.00000E+00
         0.00000E+00
         0.00000E+00
         0.00000E+00
         0.00000E+00
         0.00000E+00
         0.00000E+00
         0.00000E+00
         0.00000E+00
         0.00000E+00
         0.00000E+00
         0.00000E+00
         0.00000E+00
         0.00000E+00
         0.00000E+00
         0.00000E+00
         0.00000E+00
         0.00000E+00
         0.00000E+00
         0.00000E+00
         0.00000E+00
         0.00000E+00
         0.00000E+00
         0.00000E+00
         0.00000E+00
         0.00000E+00
         0.00000E+00
         0.00000E+00
         0.00000E+00
         0.00000E+00
         0.00000E+00
         0.00000E+00
         0.00000E+00
         0.00000E+00
         0.00000E+00
         0.00000E+00
         0.00000E+00
         0.00000E+00
         0.00000E+00
         0.00000E+00
         0.00000E+00
         0.00000E+00
         0.00000E+00
         0.00000E+00
         0.00000E+00
         0.00000E+00
         0.00000E+00
         0.00000E+00
         0.00000E+00
         0.00000E+00
         0.00000E+00
         0.00000E+00
         0.00000E+00
         0.00000E+00
         0.00000E+00
         0.00000E+00
         0.00000E+00
         0.00000E+00
         0.00000E+00
         0.00000E+00
         0.00000E+00
         0.00000E+00
         0.00000E+00
         0.00000E+00
         0.00000E+00
         0.00000E+00
         0.00000E+00
         0.00000E+00
         0.00000E+00
         0.00000E+00
         0.00000E+00
         0.00000E+00
         0.00000E+00
         0.00000E+00
         0.00000E+00
         0.00000E+00
         0.00000E+00
         0.00000E+00
         0.00000E+00
         0.00000E+00
         0.00000E+00
         0.00000E+00
         0.00000E+00
         0.00000E+00
         0.00000E+00
         0.00000E+00
         0.00000E+00
         0.00000E+00
         0.00000E+00
         0.00000E+00
         0.00000E+00
         0.00000E+00
         0.00000E+00
         0.00000E+00
         0.00000E+00
         0.00000E+00
         0.00000E+00
         0.00000E+00
         0.00000E+00
         0.00000E+00
         0.00000E+00
         0.00000E+00
         0.00000E+00
         0.00000E+00
         0.00000E+00
         0.00000E+00
         0.00000E+00
         0.00000E+00
         0.00000E+00
         0.00000E+00
         0.00000E+00
         0.00000E+00
         0.00000E+00
         0.00000E+00
         0.00000E+00
         0.00000E+00
         0.00000E+00
         0.00000E+00
         0.00000E+00
         0.00000E+00
         0.00000E+00
         0.00000E+00
         0.00000E+00
         0.00000E+00
         0.00000E+00
         0.00000E+00
         0.00000E+00
         0.00000E+00
         0.00000E+00
         0.00000E+00
         0.00000E+00
         0.00000E+00
         0.00000E+00
         0.00000E+00
         0.00000E+00
         0.00000E+00
         0.00000E+00
         0.00000E+00
         0.00000E+00
         0.00000E+00
         0.00000E+00
         0.00000E+00
         0.00000E+00
         0.00000E+00
         0.00000E+00
         0.00000E+00
         0.00000E+00
         0.00000E+00
         0.00000E+00
         0.00000E+00
         0.00000E+00
         0.00000E+00
         0.00000E+00
         0.00000E+00
         0.00000E+00
         0.00000E+00
         0.00000E+00
         0.00000E+00
         0.00000E+00
         0.00000E+00
         0.00000E+00
         0.00000E+00
         0.00000E+00
         0.00000E+00
         0.00000E+00
         0.00000E+00
         0.00000E+00
         0.00000E+00
         0.00000E+00
         0.00000E+00
         0.00000E+00
         0.00000E+00
         0.00000E+00
         0.00000E+00
         0.00000E+00
         0.00000E+00
         0.00000E+00
         0.00000E+00
         0.00000E+00
         0.00000E+00
         0.00000E+00
         0.00000E+00
         0.00000E+00
         0.00000E+00
         0.00000E+00
         0.00000E+00
         0.00000E+00
         0.00000E+00
         0.00000E+00
         0.00000E+00
         0.00000E+00
         0.00000E+00
         0.00000E+00
         0.00000E+00
         0.00000E+00
         0.00000E+00
         0.00000E+00
         0.00000E+00
         0.00000E+00
         0.00000E+00
         0.00000E+00
         0.00000E+00
         0.00000E+00
         0.00000E+00
         0.00000E+00
         0.00000E+00
         0.00000E+00
         0.00000E+00
         0.00000E+00
         0.00000E+00
         0.00000E+00
         0.00000E+00
         0.00000E+00
         0.00000E+00
         0.00000E+00
         0.00000E+00
         0.00000E+00
         0.00000E+00
         0.00000E+00
         0.00000E+00
         0.00000E+00
         0.00000E+00
         0.00000E+00
         0.00000E+00
         0.00000E+00
         0.00000E+00
         0.00000E+00
         0.00000E+00
         0.00000E+00
         0.00000E+00
         0.00000E+00
         0.00000E+00
         0.00000E+00
         0.00000E+00
         0.00000E+00
         0.00000E+00
         0.00000E+00
         0.00000E+00
         0.00000E+00
         0.00000E+00
         0.00000E+00
         0.00000E+00
         0.00000E+00
         0.00000E+00
         0.00000E+00
         0.00000E+00
         0.00000E+00
         0.00000E+00
         0.00000E+00
         0.00000E+00
         0.00000E+00
         0.00000E+00
         0.00000E+00
         0.00000E+00
         0.00000E+00
         0.00000E+00
         0.00000E+00
         0.00000E+00
         0.00000E+00
         0.00000E+00
         0.00000E+00
         0.00000E+00
         0.00000E+00
         0.00000E+00
         0.00000E+00
         0.00000E+00
         0.00000E+00
         0.00000E+00
         0.00000E+00
         0.00000E+00
         0.00000E+00
         0.00000E+00
         0.00000E+00
         0.00000E+00
         0.00000E+00
         0.00000E+00
         0.00000E+00
         0.00000E+00
         0.00000E+00
         0.00000E+00
         0.00000E+00
         0.00000E+00
         0.00000E+00
         0.00000E+00
         0.00000E+00
         0.00000E+00
         0.00000E+00
         0.00000E+00
         0.00000E+00
         0.00000E+00
         0.00000E+00
         0.00000E+00
         0.00000E+00
         0.00000E+00
         0.00000E+00
         0.00000E+00
         0.00000E+00
         0.00000E+00
         0.00000E+00
         0.00000E+00
         0.00000E+00
         0.00000E+00
         0.00000E+00
         0.00000E+00
         0.00000E+00
         0.00000E+00
         0.00000E+00
         0.00000E+00
         0.00000E+00
         0.00000E+00
         0.00000E+00
         0.00000E+00
         0.00000E+00
         0.00000E+00
         0.00000E+00
         0.00000E+00
         0.00000E+00
         0.00000E+00
         0.00000E+00
         0.00000E+00
         0.00000E+00
         0.00000E+00
         0.00000E+00
         0.00000E+00
         0.00000E+00
         0.00000E+00
         0.00000E+00
         0.00000E+00
         0.00000E+00
         0.00000E+00
         0.00000E+00
         0.00000E+00
         0.00000E+00
         0.00000E+00
         0.00000E+00
         0.00000E+00
         0.00000E+00
         0.00000E+00
         0.00000E+00
         0.00000E+00
         0.00000E+00
         0.00000E+00
         0.00000E+00
         0.00000E+00
         0.00000E+00
         0.00000E+00
         0.00000E+00
         0.00000E+00
         0.00000E+00
         0.00000E+00
         0.00000E+00
         0.00000E+00
         0.00000E+00
         0.00000E+00
         0.00000E+00
         0.00000E+00
         0.00000E+00
         0.00000E+00
         0.00000E+00
         0.00000E+00
         0.00000E+00
         0.00000E+00
         0.00000E+00
         0.00000E+00
         0.00000E+00
         0.00000E+00
         0.00000E+00
         0.00000E+00
         0.00000E+00
         0.00000E+00
         0.00000E+00
         0.00000E+00
         0.00000E+00
         0.00000E+00
         0.00000E+00
         0.00000E+00
         0.00000E+00
         0.00000E+00
         0.00000E+00
         0.00000E+00
         0.00000E+00
         0.00000E+00
         0.00000E+00
         0.00000E+00
         0.00000E+00
         0.00000E+00
         0.00000E+00
         0.00000E+00
         0.00000E+00
         0.00000E+00
         0.00000E+00
         0.00000E+00
         0.00000E+00
         0.00000E+00
         0.00000E+00
         0.00000E+00
         0.00000E+00
         0.00000E+00
         0.00000E+00
         0.00000E+00
         0.00000E+00
         0.00000E+00
         0.00000E+00
         0.00000E+00
         0.00000E+00
         0.00000E+00
         0.00000E+00
         0.00000E+00
         0.00000E+00
         0.00000E+00
         0.00000E+00
         0.00000E+00
         0.00000E+00
         0.00000E+00
         0.00000E+00
         0.00000E+00
         0.00000E+00
         0.00000E+00
         0.00000E+00
         0.00000E+00
         0.00000E+00
         0.00000E+00
         0.00000E+00
         0.00000E+00
         0.00000E+00
         0.00000E+00
         0.00000E+00
         0.00000E+00
         0.00000E+00
         0.00000E+00
         0.00000E+00
         0.00000E+00
         0.00000E+00
         0.00000E+00
         0.00000E+00
         0.00000E+00
         0.00000E+00
         0.00000E+00
         0.00000E+00
         0.00000E+00
         0.00000E+00
         0.00000E+00
         0.00000E+00
         0.00000E+00
         0.00000E+00
         0.00000E+00
         0.00000E+00
         0.00000E+00
         0.00000E+00
         0.00000E+00
         0.00000E+00
         0.00000E+00
         0.00000E+00
         0.00000E+00
         0.00000E+00
         0.00000E+00
         0.00000E+00
         0.00000E+00
         0.00000E+00
         0.00000E+00
         0.00000E+00
         0.00000E+00
         0.00000E+00
         0.00000E+00
         0.00000E+00
         0.00000E+00
         0.00000E+00
         0.00000E+00
         0.00000E+00
         0.00000E+00
         0.00000E+00
         0.00000E+00
         0.00000E+00
         0.00000E+00
         0.00000E+00
         0.00000E+00
         0.00000E+00
         0.00000E+00
         0.00000E+00
         0.00000E+00
         0.00000E+00
         0.00000E+00
         0.00000E+00
         0.00000E+00
         0.00000E+00
         0.00000E+00
         0.00000E+00
         0.00000E+00
         0.00000E+00
         0.00000E+00
         0.00000E+00
         0.00000E+00
         0.00000E+00
         0.00000E+00
         0.00000E+00
         0.00000E+00
         0.00000E+00
         0.00000E+00
         0.00000E+00
         0.00000E+00
         0.00000E+00
         0.00000E+00
         0.00000E+00
         0.00000E+00
         0.00000E+00
         0.00000E+00
         0.00000E+00
         0.00000E+00
         0.00000E+00
         0.00000E+00
         0.00000E+00
         0.00000E+00
         0.00000E+00
         0.00000E+00
         0.00000E+00
         0.00000E+00
         0.00000E+00
         0.00000E+00
         0.00000E+00
         0.00000E+00
         0.00000E+00
         0.00000E+00
         0.00000E+00
         0.00000E+00
         0.00000E+00
         0.00000E+00
         0.00000E+00
         0.00000E+00
         0.00000E+00
         0.00000E+00
         0.00000E+00
         0.00000E+00
         0.00000E+00
         0.00000E+00
         0.00000E+00
         0.00000E+00
         0.00000E+00
         0.00000E+00
         0.00000E+00
         0.00000E+00
         0.00000E+00
         0.00000E+00
         0.00000E+00
         0.00000E+00
         0.00000E+00
         0.00000E+00
         0.00000E+00
         0.00000E+00
         0.00000E+00
         0.00000E+00
         0.00000E+00
         0.00000E+00
         0.00000E+00
         0.00000E+00
         0.00000E+00
         0.00000E+00
         0.00000E+00
         0.00000E+00
         0.00000E+00
         0.00000E+00
         0.00000E+00
         0.00000E+00
         0.00000E+00
         0.00000E+00
         0.00000E+00
         0.00000E+00
         0.00000E+00
         0.00000E+00
         0.00000E+00
         0.00000E+00
         0.00000E+00
         0.00000E+00
         0.00000E+00
         0.00000E+00
         0.00000E+00
         0.00000E+00
         0.00000E+00
         0.00000E+00
         0.00000E+00
         0.00000E+00
         0.00000E+00
         0.00000E+00
         0.00000E+00
         0.00000E+00
         0.00000E+00
         0.00000E+00
         0.00000E+00
         0.00000E+00
         0.00000E+00
         0.00000E+00
         0.00000E+00
         0.00000E+00
         0.00000E+00
         0.00000E+00
         0.00000E+00
         0.00000E+00
         0.00000E+00
         0.00000E+00
         0.00000E+00
         0.00000E+00
         0.00000E+00
         0.00000E+00
         0.00000E+00
         0.00000E+00
         0.00000E+00
         0.00000E+00
         0.00000E+00
         0.00000E+00
         0.00000E+00
         0.00000E+00
         0.00000E+00
         0.00000E+00
         0.00000E+00
         0.00000E+00
         0.00000E+00
         0.00000E+00
         0.00000E+00
         0.00000E+00
         0.00000E+00
         0.00000E+00
         0.00000E+00
         0.00000E+00
         0.00000E+00
         0.00000E+00
         0.00000E+00
         0.00000E+00
         0.00000E+00
         0.00000E+00
         0.00000E+00
         0.00000E+00
         0.00000E+00
         0.00000E+00
         0.00000E+00
         0.00000E+00
         0.00000E+00
         0.00000E+00
         0.00000E+00
         0.00000E+00
         0.00000E+00
         0.00000E+00
         0.00000E+00
         0.00000E+00
         0.00000E+00
         0.00000E+00
         0.00000E+00
         0.00000E+00
         0.00000E+00
         0.00000E+00
         0.00000E+00
         0.00000E+00
         0.00000E+00
         0.00000E+00
         0.00000E+00
         0.00000E+00
         0.00000E+00
         0.00000E+00
         0.00000E+00
         0.00000E+00
         0.00000E+00
         0.00000E+00
         0.00000E+00
         0.00000E+00
         0.00000E+00
         0.00000E+00
         0.00000E+00
         0.00000E+00
         0.00000E+00
         0.00000E+00
         0.00000E+00
         0.00000E+00
         0.00000E+00
         0.00000E+00
         0.00000E+00
         0.00000E+00
         0.00000E+00
         0.00000E+00
         0.00000E+00
         0.00000E+00
         0.00000E+00
         0.00000E+00
         0.00000E+00
         0.00000E+00
         0.00000E+00
         0.00000E+00
         0.00000E+00
         0.00000E+00
         0.00000E+00
         0.00000E+00
         0.00000E+00
         0.00000E+00
         0.00000E+00
         0.00000E+00
         0.00000E+00
         0.00000E+00
         0.00000E+00
         0.00000E+00
         0.00000E+00
         0.00000E+00
         0.00000E+00
         0.00000E+00
         0.00000E+00
         0.00000E+00
         0.00000E+00
         0.00000E+00
         0.00000E+00
         0.00000E+00
         0.00000E+00
         0.00000E+00
         0.00000E+00
         0.00000E+00
         0.00000E+00
         0.00000E+00
         0.00000E+00
         0.00000E+00
         0.00000E+00
         0.00000E+00
         0.00000E+00
         0.00000E+00
         0.00000E+00
         0.00000E+00
         0.00000E+00
         0.00000E+00
         0.00000E+00
         0.00000E+00
         0.00000E+00
         0.00000E+00
         0.00000E+00
         0.00000E+00
         0.00000E+00
         0.00000E+00
         0.00000E+00
         0.00000E+00
         0.00000E+00
         0.00000E+00
         0.00000E+00
         0.00000E+00
         0.00000E+00
         0.00000E+00
         0.00000E+00
         0.00000E+00
         0.00000E+00
         0.00000E+00
         0.00000E+00
         0.00000E+00
         0.00000E+00
         0.00000E+00
         0.00000E+00
         0.00000E+00
         0.00000E+00
         0.00000E+00
         0.00000E+00
         0.00000E+00
         0.00000E+00
         0.00000E+00
         0.00000E+00
         0.00000E+00
         0.00000E+00
         0.00000E+00
         0.00000E+00
         0.00000E+00
         0.00000E+00
         0.00000E+00
         0.00000E+00
         0.00000E+00
         0.00000E+00
         0.00000E+00
         0.00000E+00
         0.00000E+00
         0.00000E+00
         0.00000E+00
         0.00000E+00
         0.00000E+00
         0.00000E+00
         0.00000E+00
         0.00000E+00
         0.00000E+00
         0.00000E+00
         0.00000E+00
         0.00000E+00
         0.00000E+00
         0.00000E+00
         0.00000E+00
         0.00000E+00
         0.00000E+00
         0.00000E+00
         0.00000E+00
         0.00000E+00
         0.00000E+00
         0.00000E+00
         0.00000E+00
         0.00000E+00
         0.00000E+00
         0.00000E+00
         0.00000E+00
         0.00000E+00
         0.00000E+00
         0.00000E+00
         0.00000E+00
         0.00000E+00
         0.00000E+00
         0.00000E+00
         0.00000E+00
         0.00000E+00
         0.00000E+00
         0.00000E+00
         0.00000E+00
         0.00000E+00
         0.00000E+00
         0.00000E+00
         0.00000E+00
         0.00000E+00
         0.00000E+00
         0.00000E+00
         0.00000E+00
         0.00000E+00
         0.00000E+00
         0.00000E+00
         0.00000E+00
         0.00000E+00
         0.00000E+00
         0.00000E+00
         0.00000E+00
         0.00000E+00
         0.00000E+00
         0.00000E+00
         0.00000E+00
         0.00000E+00
         0.00000E+00
         0.00000E+00
         0.00000E+00
         0.00000E+00
         0.00000E+00
         0.00000E+00
         0.00000E+00
         0.00000E+00
         0.00000E+00
         0.00000E+00
         0.00000E+00
         0.00000E+00
         0.00000E+00
         0.00000E+00
         0.00000E+00
         0.00000E+00
         0.00000E+00
         0.00000E+00
         0.00000E+00
         0.00000E+00
         0.00000E+00
         0.00000E+00
         0.00000E+00
         0.00000E+00
         0.00000E+00
         0.00000E+00
         0.00000E+00
         0.00000E+00
         0.00000E+00
         0.00000E+00
         0.00000E+00
         0.00000E+00
         0.00000E+00
         0.00000E+00
         0.00000E+00
         0.00000E+00
         0.00000E+00
         0.00000E+00
         0.00000E+00
         0.00000E+00
         0.00000E+00
         0.00000E+00
         0.00000E+00
         0.00000E+00
         0.00000E+00
         0.00000E+00
         0.00000E+00
         0.00000E+00
         0.00000E+00
         0.00000E+00
         0.00000E+00
         0.00000E+00
         0.00000E+00
         0.00000E+00
         0.00000E+00
         0.00000E+00
         0.00000E+00
         0.00000E+00
         0.00000E+00
         0.00000E+00
         0.00000E+00
         0.00000E+00
         0.00000E+00
         0.00000E+00
         0.00000E+00
         0.00000E+00
         0.00000E+00
         0.00000E+00
         0.00000E+00
         0.00000E+00
         0.00000E+00
         0.00000E+00
         0.00000E+00
         0.00000E+00
         0.00000E+00
         0.00000E+00
         0.00000E+00
         0.00000E+00
         0.00000E+00
         0.00000E+00
         0.00000E+00
         0.00000E+00
         0.00000E+00
         0.00000E+00
         0.00000E+00
         0.00000E+00
         0.00000E+00
         0.00000E+00
         0.00000E+00
         0.00000E+00
         0.00000E+00
         0.00000E+00
         0.00000E+00
         0.00000E+00
         0.00000E+00
         0.00000E+00
         0.00000E+00
         0.00000E+00
         0.00000E+00
         0.00000E+00
         0.00000E+00
         0.00000E+00
         0.00000E+00
         0.00000E+00
         0.00000E+00
         0.00000E+00
         0.00000E+00
         0.00000E+00
         0.00000E+00
         0.00000E+00
         0.00000E+00
         0.00000E+00
         0.00000E+00
         0.00000E+00
         0.00000E+00
         0.00000E+00
         0.00000E+00
         0.00000E+00
         0.00000E+00
         0.00000E+00
         0.00000E+00
         0.00000E+00
         0.00000E+00
         0.00000E+00
         0.00000E+00
         0.00000E+00
         0.00000E+00
         0.00000E+00
         0.00000E+00
         0.00000E+00
         0.00000E+00
         0.00000E+00
         0.00000E+00
         0.00000E+00
         0.00000E+00
         0.00000E+00
         0.00000E+00
         0.00000E+00
         0.00000E+00
         0.00000E+00
         0.00000E+00
         0.00000E+00
         0.00000E+00
         0.00000E+00
         0.00000E+00
         0.00000E+00
         0.00000E+00
         0.00000E+00
         0.00000E+00
         0.00000E+00
         0.00000E+00
         0.00000E+00
         0.00000E+00
         0.00000E+00
         0.00000E+00
         0.00000E+00
         0.00000E+00
         0.00000E+00
         0.00000E+00
         0.00000E+00
         0.00000E+00
         0.00000E+00
         0.00000E+00
         0.00000E+00
         0.00000E+00
         0.00000E+00
         0.00000E+00
         0.00000E+00
         0.00000E+00
         0.00000E+00
         0.00000E+00
         0.00000E+00
         0.00000E+00
         0.00000E+00
         0.00000E+00
         0.00000E+00
         0.00000E+00
         0.00000E+00
         0.00000E+00
         0.00000E+00
         0.00000E+00
         0.00000E+00
         0.00000E+00
         0.00000E+00
         0.00000E+00
         0.00000E+00
         0.00000E+00
         0.00000E+00
         0.00000E+00
         0.00000E+00
         0.00000E+00
         0.00000E+00
         0.00000E+00
         0.00000E+00
         0.00000E+00
         0.00000E+00
         0.00000E+00
         0.00000E+00
         0.00000E+00
         0.00000E+00
         0.00000E+00
         0.00000E+00
         0.00000E+00
         0.00000E+00
         0.00000E+00
         0.00000E+00
         0.00000E+00
         0.00000E+00
         0.00000E+00
         0.00000E+00
         0.00000E+00
         0.00000E+00
         0.00000E+00
         0.00000E+00
         0.00000E+00
         0.00000E+00
         0.00000E+00
         0.00000E+00
         0.00000E+00
         0.00000E+00
         0.00000E+00
         0.00000E+00
         0.00000E+00
         0.00000E+00
         0.00000E+00
         0.00000E+00
         0.00000E+00
         0.00000E+00
         0.00000E+00
         0.00000E+00
         0.00000E+00
         0.00000E+00
         0.00000E+00
         0.00000E+00
         0.00000E+00
         0.00000E+00
         0.00000E+00
         0.00000E+00
         0.00000E+00
         0.00000E+00
         0.00000E+00
         0.00000E+00
         0.00000E+00
         0.00000E+00
         0.00000E+00
         0.00000E+00
         0.00000E+00
         0.00000E+00
         0.00000E+00
         0.00000E+00
         0.00000E+00
         0.00000E+00
         0.00000E+00
         0.00000E+00
         0.00000E+00
         0.00000E+00
         0.00000E+00
         0.00000E+00
         0.00000E+00
         0.00000E+00
         0.00000E+00
         0.00000E+00
         0.00000E+00
         0.00000E+00
         0.00000E+00
         0.00000E+00
         0.00000E+00
         0.00000E+00
         0.00000E+00
         0.00000E+00
         0.00000E+00
         0.00000E+00
         0.00000E+00
         0.00000E+00
         0.00000E+00
         0.00000E+00
         0.00000E+00
         0.00000E+00
         0.00000E+00
         0.00000E+00
         0.00000E+00
         0.00000E+00
         0.00000E+00
         0.00000E+00
         0.00000E+00
         0.00000E+00
         0.00000E+00
         0.00000E+00
         0.00000E+00
         0.00000E+00
         0.00000E+00
         0.00000E+00
         0.00000E+00
         0.00000E+00
         0.00000E+00
         0.00000E+00
         0.00000E+00
         0.00000E+00
         0.00000E+00
         0.00000E+00
         0.00000E+00
         0.00000E+00
         0.00000E+00
         0.00000E+00
         0.00000E+00
         0.00000E+00
         0.00000E+00
         0.00000E+00
         0.00000E+00
         0.00000E+00
         0.00000E+00
         0.00000E+00
         0.00000E+00
         0.00000E+00
         0.00000E+00
         0.00000E+00
         0.00000E+00
         0.00000E+00
         0.00000E+00
         0.00000E+00
         0.00000E+00
         0.00000E+00
         0.00000E+00
         0.00000E+00
         0.00000E+00
         0.00000E+00
         0.00000E+00
         0.00000E+00
         0.00000E+00
         0.00000E+00
         0.00000E+00
         0.00000E+00
         0.00000E+00
         0.00000E+00
         0.00000E+00
         0.00000E+00
         0.00000E+00
         0.00000E+00
         0.00000E+00
         0.00000E+00
         0.00000E+00
         0.00000E+00
         0.00000E+00
         0.00000E+00
         0.00000E+00
         0.00000E+00
         0.00000E+00
         0.00000E+00
         0.00000E+00
         0.00000E+00
         0.00000E+00
         0.00000E+00
         0.00000E+00
         0.00000E+00
         0.00000E+00
         0.00000E+00
         0.00000E+00
         0.00000E+00
         0.00000E+00
         0.00000E+00
         0.00000E+00
         0.00000E+00
         0.00000E+00
         0.00000E+00
         0.00000E+00
         0.00000E+00
         0.00000E+00
         0.00000E+00
         0.00000E+00
         0.00000E+00
         0.00000E+00
         0.00000E+00
         0.00000E+00
         0.00000E+00
         0.00000E+00
         0.00000E+00
         0.00000E+00
         0.00000E+00
         0.00000E+00
         0.00000E+00
         0.00000E+00
         0.00000E+00
         0.00000E+00
         0.00000E+00
         0.00000E+00
         0.00000E+00
         0.00000E+00
         0.00000E+00
         0.00000E+00
         0.00000E+00
         0.00000E+00
         0.00000E+00
         0.00000E+00
         0.00000E+00
         0.00000E+00
         0.00000E+00
         0.00000E+00
         0.00000E+00
         0.00000E+00
         0.00000E+00
         0.00000E+00
         0.00000E+00
         0.00000E+00
         0.00000E+00
         0.00000E+00
         0.00000E+00
         0.00000E+00
         0.00000E+00
         0.00000E+00
         0.00000E+00
         0.00000E+00
         0.00000E+00
         0.00000E+00
         0.00000E+00
         0.00000E+00
         0.00000E+00
         0.00000E+00
         0.00000E+00
         0.00000E+00
         0.00000E+00
         0.00000E+00
         0.00000E+00
         0.00000E+00
         0.00000E+00
         0.00000E+00
         0.00000E+00
         0.00000E+00
         0.00000E+00
         0.00000E+00
         0.00000E+00
         0.00000E+00
         0.00000E+00
         0.00000E+00
         0.00000E+00
         0.00000E+00
         0.00000E+00
         0.00000E+00
         0.00000E+00
         0.00000E+00
         0.00000E+00
         0.00000E+00
         0.00000E+00
         0.00000E+00
         0.00000E+00
         0.00000E+00
         0.00000E+00
         0.00000E+00
         0.00000E+00
         0.00000E+00
         0.00000E+00
         0.00000E+00
         0.00000E+00
         0.00000E+00
         0.00000E+00
         0.00000E+00
         0.00000E+00
         0.00000E+00
         0.00000E+00
         0.00000E+00
         0.00000E+00
         0.00000E+00
         0.00000E+00
         0.00000E+00
         0.00000E+00
         0.00000E+00
         0.00000E+00
         0.00000E+00
         0.00000E+00
         0.00000E+00
         0.00000E+00
         0.00000E+00
  
SCALARS                         fint_x  double 1
LOOKUP_TABLE default
         0.00000E+00
         0.00000E+00
         0.00000E+00
         0.00000E+00
         0.00000E+00
         0.00000E+00
         0.00000E+00
         0.00000E+00
         0.00000E+00
         0.00000E+00
         0.00000E+00
         0.00000E+00
         0.00000E+00
         0.00000E+00
         0.00000E+00
         0.00000E+00
         0.00000E+00
         0.00000E+00
         0.00000E+00
         0.00000E+00
         0.00000E+00
         0.00000E+00
         0.00000E+00
         0.00000E+00
         0.00000E+00
         0.00000E+00
         0.00000E+00
         0.00000E+00
         0.00000E+00
         0.00000E+00
         0.00000E+00
         0.00000E+00
         0.00000E+00
         0.00000E+00
         0.00000E+00
         0.00000E+00
         0.00000E+00
         0.00000E+00
         0.00000E+00
         0.00000E+00
         0.00000E+00
         0.00000E+00
         0.00000E+00
         0.00000E+00
         0.00000E+00
         0.00000E+00
         0.00000E+00
         0.00000E+00
         0.00000E+00
         0.00000E+00
         0.00000E+00
         0.00000E+00
         0.00000E+00
         0.00000E+00
         0.00000E+00
         0.00000E+00
         0.00000E+00
         0.00000E+00
         0.00000E+00
         0.00000E+00
         0.00000E+00
         0.00000E+00
         0.00000E+00
         0.00000E+00
         0.00000E+00
         0.00000E+00
         0.00000E+00
         0.00000E+00
         0.00000E+00
         0.00000E+00
         0.00000E+00
         0.00000E+00
         0.00000E+00
         0.00000E+00
         0.00000E+00
         0.00000E+00
         0.00000E+00
         0.00000E+00
         0.00000E+00
         0.00000E+00
         0.00000E+00
         0.00000E+00
         0.00000E+00
         0.00000E+00
         0.00000E+00
         0.00000E+00
         0.00000E+00
         0.00000E+00
         0.00000E+00
         0.00000E+00
         0.00000E+00
         0.00000E+00
         0.00000E+00
         0.00000E+00
         0.00000E+00
         0.00000E+00
         0.00000E+00
         0.00000E+00
         0.00000E+00
         0.00000E+00
         0.00000E+00
         0.00000E+00
         0.00000E+00
         0.00000E+00
         0.00000E+00
         0.00000E+00
         0.00000E+00
         0.00000E+00
         0.00000E+00
         0.00000E+00
         0.00000E+00
         0.00000E+00
         0.00000E+00
         0.00000E+00
         0.00000E+00
         0.00000E+00
         0.00000E+00
         0.00000E+00
         0.00000E+00
         0.00000E+00
         0.00000E+00
         0.00000E+00
         0.00000E+00
         0.00000E+00
         0.00000E+00
         0.00000E+00
         0.00000E+00
         0.00000E+00
         0.00000E+00
         0.00000E+00
         0.00000E+00
         0.00000E+00
         0.00000E+00
         0.00000E+00
         0.00000E+00
         0.00000E+00
         0.00000E+00
         0.00000E+00
         0.00000E+00
         0.00000E+00
         0.00000E+00
         0.00000E+00
         0.00000E+00
         0.00000E+00
         0.00000E+00
         0.00000E+00
         0.00000E+00
         0.00000E+00
         0.00000E+00
         0.00000E+00
         0.00000E+00
         0.00000E+00
         0.00000E+00
         0.00000E+00
         0.00000E+00
         0.00000E+00
         0.00000E+00
         0.00000E+00
         0.00000E+00
         0.00000E+00
         0.00000E+00
         0.00000E+00
         0.00000E+00
         0.00000E+00
         0.00000E+00
         0.00000E+00
         0.00000E+00
         0.00000E+00
         0.00000E+00
         0.00000E+00
         0.00000E+00
         0.00000E+00
         0.00000E+00
         0.00000E+00
         0.00000E+00
         0.00000E+00
         0.00000E+00
         0.00000E+00
         0.00000E+00
         0.00000E+00
         0.00000E+00
         0.00000E+00
         0.00000E+00
         0.00000E+00
         0.00000E+00
         0.00000E+00
         0.00000E+00
         0.00000E+00
         0.00000E+00
         0.00000E+00
         0.00000E+00
         0.00000E+00
         0.00000E+00
         0.00000E+00
         0.00000E+00
         0.00000E+00
         0.00000E+00
         0.00000E+00
         0.00000E+00
         0.00000E+00
         0.00000E+00
         0.00000E+00
         0.00000E+00
         0.00000E+00
         0.00000E+00
         0.00000E+00
         0.00000E+00
         0.00000E+00
         0.00000E+00
         0.00000E+00
         0.00000E+00
         0.00000E+00
         0.00000E+00
         0.00000E+00
         0.00000E+00
         0.00000E+00
         0.00000E+00
         0.00000E+00
         0.00000E+00
         0.00000E+00
         0.00000E+00
         0.00000E+00
         0.00000E+00
         0.00000E+00
         0.00000E+00
         0.00000E+00
         0.00000E+00
         0.00000E+00
         0.00000E+00
         0.00000E+00
         0.00000E+00
         0.00000E+00
         0.00000E+00
         0.00000E+00
         0.00000E+00
         0.00000E+00
         0.00000E+00
         0.00000E+00
         0.00000E+00
         0.00000E+00
         0.00000E+00
         0.00000E+00
         0.00000E+00
         0.00000E+00
         0.00000E+00
         0.00000E+00
         0.00000E+00
         0.00000E+00
         0.00000E+00
         0.00000E+00
         0.00000E+00
         0.00000E+00
         0.00000E+00
         0.00000E+00
         0.00000E+00
         0.00000E+00
         0.00000E+00
         0.00000E+00
         0.00000E+00
         0.00000E+00
         0.00000E+00
         0.00000E+00
         0.00000E+00
         0.00000E+00
         0.00000E+00
         0.00000E+00
         0.00000E+00
         0.00000E+00
         0.00000E+00
         0.00000E+00
         0.00000E+00
         0.00000E+00
         0.00000E+00
         0.00000E+00
         0.00000E+00
         0.00000E+00
         0.00000E+00
         0.00000E+00
         0.00000E+00
         0.00000E+00
         0.00000E+00
         0.00000E+00
         0.00000E+00
         0.00000E+00
         0.00000E+00
         0.00000E+00
         0.00000E+00
         0.00000E+00
         0.00000E+00
         0.00000E+00
         0.00000E+00
         0.00000E+00
         0.00000E+00
         0.00000E+00
         0.00000E+00
         0.00000E+00
         0.00000E+00
         0.00000E+00
         0.00000E+00
         0.00000E+00
         0.00000E+00
         0.00000E+00
         0.00000E+00
         0.00000E+00
         0.00000E+00
         0.00000E+00
         0.00000E+00
         0.00000E+00
         0.00000E+00
         0.00000E+00
         0.00000E+00
         0.00000E+00
         0.00000E+00
         0.00000E+00
         0.00000E+00
         0.00000E+00
         0.00000E+00
         0.00000E+00
         0.00000E+00
         0.00000E+00
         0.00000E+00
         0.00000E+00
         0.00000E+00
         0.00000E+00
         0.00000E+00
         0.00000E+00
         0.00000E+00
         0.00000E+00
         0.00000E+00
         0.00000E+00
         0.00000E+00
         0.00000E+00
         0.00000E+00
         0.00000E+00
         0.00000E+00
         0.00000E+00
         0.00000E+00
         0.00000E+00
         0.00000E+00
         0.00000E+00
         0.00000E+00
         0.00000E+00
         0.00000E+00
         0.00000E+00
         0.00000E+00
         0.00000E+00
         0.00000E+00
         0.00000E+00
         0.00000E+00
         0.00000E+00
         0.00000E+00
         0.00000E+00
         0.00000E+00
         0.00000E+00
         0.00000E+00
         0.00000E+00
         0.00000E+00
         0.00000E+00
         0.00000E+00
         0.00000E+00
         0.00000E+00
         0.00000E+00
         0.00000E+00
         0.00000E+00
         0.00000E+00
         0.00000E+00
         0.00000E+00
         0.00000E+00
         0.00000E+00
         0.00000E+00
         0.00000E+00
         0.00000E+00
         0.00000E+00
         0.00000E+00
         0.00000E+00
         0.00000E+00
         0.00000E+00
         0.00000E+00
         0.00000E+00
         0.00000E+00
         0.00000E+00
         0.00000E+00
         0.00000E+00
         0.00000E+00
         0.00000E+00
         0.00000E+00
         0.00000E+00
         0.00000E+00
         0.00000E+00
         0.00000E+00
         0.00000E+00
         0.00000E+00
         0.00000E+00
         0.00000E+00
         0.00000E+00
         0.00000E+00
         0.00000E+00
         0.00000E+00
         0.00000E+00
         0.00000E+00
         0.00000E+00
         0.00000E+00
         0.00000E+00
         0.00000E+00
         0.00000E+00
         0.00000E+00
         0.00000E+00
         0.00000E+00
         0.00000E+00
         0.00000E+00
         0.00000E+00
         0.00000E+00
         0.00000E+00
         0.00000E+00
         0.00000E+00
         0.00000E+00
         0.00000E+00
         0.00000E+00
         0.00000E+00
         0.00000E+00
         0.00000E+00
         0.00000E+00
         0.00000E+00
         0.00000E+00
         0.00000E+00
         0.00000E+00
         0.00000E+00
         0.00000E+00
         0.00000E+00
         0.00000E+00
         0.00000E+00
         0.00000E+00
         0.00000E+00
         0.00000E+00
         0.00000E+00
         0.00000E+00
         0.00000E+00
         0.00000E+00
         0.00000E+00
         0.00000E+00
         0.00000E+00
         0.00000E+00
         0.00000E+00
         0.00000E+00
         0.00000E+00
         0.00000E+00
         0.00000E+00
         0.00000E+00
         0.00000E+00
         0.00000E+00
         0.00000E+00
         0.00000E+00
         0.00000E+00
         0.00000E+00
         0.00000E+00
         0.00000E+00
         0.00000E+00
         0.00000E+00
         0.00000E+00
         0.00000E+00
         0.00000E+00
         0.00000E+00
         0.00000E+00
         0.00000E+00
         0.00000E+00
         0.00000E+00
         0.00000E+00
         0.00000E+00
         0.00000E+00
         0.00000E+00
         0.00000E+00
         0.00000E+00
         0.00000E+00
         0.00000E+00
         0.00000E+00
         0.00000E+00
         0.00000E+00
         0.00000E+00
         0.00000E+00
         0.00000E+00
         0.00000E+00
         0.00000E+00
         0.00000E+00
         0.00000E+00
         0.00000E+00
         0.00000E+00
         0.00000E+00
         0.00000E+00
         0.00000E+00
         0.00000E+00
         0.00000E+00
         0.00000E+00
         0.00000E+00
         0.00000E+00
         0.00000E+00
         0.00000E+00
         0.00000E+00
         0.00000E+00
         0.00000E+00
         0.00000E+00
         0.00000E+00
         0.00000E+00
         0.00000E+00
         0.00000E+00
         0.00000E+00
         0.00000E+00
         0.00000E+00
         0.00000E+00
         0.00000E+00
         0.00000E+00
         0.00000E+00
         0.00000E+00
         0.00000E+00
         0.00000E+00
         0.00000E+00
         0.00000E+00
         0.00000E+00
         0.00000E+00
         0.00000E+00
         0.00000E+00
         0.00000E+00
         0.00000E+00
         0.00000E+00
         0.00000E+00
         0.00000E+00
         0.00000E+00
         0.00000E+00
         0.00000E+00
         0.00000E+00
         0.00000E+00
         0.00000E+00
         0.00000E+00
         0.00000E+00
         0.00000E+00
         0.00000E+00
         0.00000E+00
         0.00000E+00
         0.00000E+00
         0.00000E+00
         0.00000E+00
         0.00000E+00
         0.00000E+00
         0.00000E+00
         0.00000E+00
         0.00000E+00
         0.00000E+00
         0.00000E+00
         0.00000E+00
         0.00000E+00
         0.00000E+00
         0.00000E+00
         0.00000E+00
         0.00000E+00
         0.00000E+00
         0.00000E+00
         0.00000E+00
         0.00000E+00
         0.00000E+00
         0.00000E+00
         0.00000E+00
         0.00000E+00
         0.00000E+00
         0.00000E+00
         0.00000E+00
         0.00000E+00
         0.00000E+00
         0.00000E+00
         0.00000E+00
         0.00000E+00
         0.00000E+00
         0.00000E+00
         0.00000E+00
         0.00000E+00
         0.00000E+00
         0.00000E+00
         0.00000E+00
         0.00000E+00
         0.00000E+00
         0.00000E+00
         0.00000E+00
         0.00000E+00
         0.00000E+00
         0.00000E+00
         0.00000E+00
         0.00000E+00
         0.00000E+00
         0.00000E+00
         0.00000E+00
         0.00000E+00
         0.00000E+00
         0.00000E+00
         0.00000E+00
         0.00000E+00
         0.00000E+00
         0.00000E+00
         0.00000E+00
         0.00000E+00
         0.00000E+00
         0.00000E+00
         0.00000E+00
         0.00000E+00
         0.00000E+00
         0.00000E+00
         0.00000E+00
         0.00000E+00
         0.00000E+00
         0.00000E+00
         0.00000E+00
         0.00000E+00
         0.00000E+00
         0.00000E+00
         0.00000E+00
         0.00000E+00
         0.00000E+00
         0.00000E+00
         0.00000E+00
         0.00000E+00
         0.00000E+00
         0.00000E+00
         0.00000E+00
         0.00000E+00
         0.00000E+00
         0.00000E+00
         0.00000E+00
         0.00000E+00
         0.00000E+00
         0.00000E+00
         0.00000E+00
         0.00000E+00
         0.00000E+00
         0.00000E+00
         0.00000E+00
         0.00000E+00
         0.00000E+00
         0.00000E+00
         0.00000E+00
         0.00000E+00
         0.00000E+00
         0.00000E+00
         0.00000E+00
         0.00000E+00
         0.00000E+00
         0.00000E+00
         0.00000E+00
         0.00000E+00
         0.00000E+00
         0.00000E+00
         0.00000E+00
         0.00000E+00
         0.00000E+00
         0.00000E+00
         0.00000E+00
         0.00000E+00
         0.00000E+00
         0.00000E+00
         0.00000E+00
         0.00000E+00
         0.00000E+00
         0.00000E+00
         0.00000E+00
         0.00000E+00
         0.00000E+00
         0.00000E+00
         0.00000E+00
         0.00000E+00
         0.00000E+00
         0.00000E+00
         0.00000E+00
         0.00000E+00
         0.00000E+00
         0.00000E+00
         0.00000E+00
         0.00000E+00
         0.00000E+00
         0.00000E+00
         0.00000E+00
         0.00000E+00
         0.00000E+00
         0.00000E+00
         0.00000E+00
         0.00000E+00
         0.00000E+00
         0.00000E+00
         0.00000E+00
         0.00000E+00
         0.00000E+00
         0.00000E+00
         0.00000E+00
         0.00000E+00
         0.00000E+00
         0.00000E+00
         0.00000E+00
         0.00000E+00
         0.00000E+00
         0.00000E+00
         0.00000E+00
         0.00000E+00
         0.00000E+00
         0.00000E+00
         0.00000E+00
         0.00000E+00
         0.00000E+00
         0.00000E+00
         0.00000E+00
         0.00000E+00
         0.00000E+00
         0.00000E+00
         0.00000E+00
         0.00000E+00
         0.00000E+00
         0.00000E+00
         0.00000E+00
         0.00000E+00
         0.00000E+00
         0.00000E+00
         0.00000E+00
         0.00000E+00
         0.00000E+00
         0.00000E+00
         0.00000E+00
         0.00000E+00
         0.00000E+00
         0.00000E+00
         0.00000E+00
         0.00000E+00
         0.00000E+00
         0.00000E+00
         0.00000E+00
         0.00000E+00
         0.00000E+00
         0.00000E+00
         0.00000E+00
         0.00000E+00
         0.00000E+00
         0.00000E+00
         0.00000E+00
         0.00000E+00
         0.00000E+00
         0.00000E+00
         0.00000E+00
         0.00000E+00
         0.00000E+00
         0.00000E+00
         0.00000E+00
         0.00000E+00
         0.00000E+00
         0.00000E+00
         0.00000E+00
         0.00000E+00
         0.00000E+00
         0.00000E+00
         0.00000E+00
         0.00000E+00
         0.00000E+00
         0.00000E+00
         0.00000E+00
         0.00000E+00
         0.00000E+00
         0.00000E+00
         0.00000E+00
         0.00000E+00
         0.00000E+00
         0.00000E+00
         0.00000E+00
         0.00000E+00
         0.00000E+00
         0.00000E+00
         0.00000E+00
         0.00000E+00
         0.00000E+00
         0.00000E+00
         0.00000E+00
         0.00000E+00
         0.00000E+00
         0.00000E+00
         0.00000E+00
         0.00000E+00
         0.00000E+00
         0.00000E+00
         0.00000E+00
         0.00000E+00
         0.00000E+00
         0.00000E+00
         0.00000E+00
         0.00000E+00
         0.00000E+00
         0.00000E+00
         0.00000E+00
         0.00000E+00
         0.00000E+00
         0.00000E+00
         0.00000E+00
         0.00000E+00
         0.00000E+00
         0.00000E+00
         0.00000E+00
         0.00000E+00
         0.00000E+00
         0.00000E+00
         0.00000E+00
         0.00000E+00
         0.00000E+00
         0.00000E+00
         0.00000E+00
         0.00000E+00
         0.00000E+00
         0.00000E+00
         0.00000E+00
         0.00000E+00
         0.00000E+00
         0.00000E+00
         0.00000E+00
         0.00000E+00
         0.00000E+00
         0.00000E+00
         0.00000E+00
         0.00000E+00
         0.00000E+00
         0.00000E+00
         0.00000E+00
         0.00000E+00
         0.00000E+00
         0.00000E+00
         0.00000E+00
         0.00000E+00
         0.00000E+00
         0.00000E+00
         0.00000E+00
         0.00000E+00
         0.00000E+00
         0.00000E+00
         0.00000E+00
         0.00000E+00
         0.00000E+00
         0.00000E+00
         0.00000E+00
         0.00000E+00
         0.00000E+00
         0.00000E+00
         0.00000E+00
         0.00000E+00
         0.00000E+00
         0.00000E+00
         0.00000E+00
         0.00000E+00
         0.00000E+00
         0.00000E+00
         0.00000E+00
         0.00000E+00
         0.00000E+00
         0.00000E+00
         0.00000E+00
         0.00000E+00
         0.00000E+00
         0.00000E+00
         0.00000E+00
         0.00000E+00
         0.00000E+00
         0.00000E+00
         0.00000E+00
         0.00000E+00
         0.00000E+00
         0.00000E+00
         0.00000E+00
         0.00000E+00
         0.00000E+00
         0.00000E+00
         0.00000E+00
         0.00000E+00
         0.00000E+00
         0.00000E+00
         0.00000E+00
         0.00000E+00
         0.00000E+00
         0.00000E+00
         0.00000E+00
         0.00000E+00
         0.00000E+00
         0.00000E+00
         0.00000E+00
         0.00000E+00
         0.00000E+00
         0.00000E+00
         0.00000E+00
         0.00000E+00
         0.00000E+00
         0.00000E+00
         0.00000E+00
         0.00000E+00
         0.00000E+00
         0.00000E+00
         0.00000E+00
         0.00000E+00
         0.00000E+00
         0.00000E+00
         0.00000E+00
         0.00000E+00
         0.00000E+00
         0.00000E+00
         0.00000E+00
         0.00000E+00
         0.00000E+00
         0.00000E+00
         0.00000E+00
         0.00000E+00
         0.00000E+00
         0.00000E+00
         0.00000E+00
         0.00000E+00
         0.00000E+00
         0.00000E+00
         0.00000E+00
         0.00000E+00
         0.00000E+00
         0.00000E+00
         0.00000E+00
         0.00000E+00
         0.00000E+00
         0.00000E+00
         0.00000E+00
         0.00000E+00
         0.00000E+00
         0.00000E+00
         0.00000E+00
         0.00000E+00
         0.00000E+00
         0.00000E+00
         0.00000E+00
         0.00000E+00
         0.00000E+00
         0.00000E+00
         0.00000E+00
         0.00000E+00
         0.00000E+00
         0.00000E+00
         0.00000E+00
         0.00000E+00
         0.00000E+00
         0.00000E+00
         0.00000E+00
         0.00000E+00
         0.00000E+00
         0.00000E+00
         0.00000E+00
         0.00000E+00
         0.00000E+00
         0.00000E+00
         0.00000E+00
         0.00000E+00
         0.00000E+00
         0.00000E+00
         0.00000E+00
         0.00000E+00
         0.00000E+00
         0.00000E+00
         0.00000E+00
         0.00000E+00
         0.00000E+00
         0.00000E+00
         0.00000E+00
         0.00000E+00
         0.00000E+00
         0.00000E+00
         0.00000E+00
         0.00000E+00
         0.00000E+00
         0.00000E+00
         0.00000E+00
         0.00000E+00
         0.00000E+00
         0.00000E+00
         0.00000E+00
         0.00000E+00
         0.00000E+00
         0.00000E+00
         0.00000E+00
         0.00000E+00
         0.00000E+00
         0.00000E+00
         0.00000E+00
         0.00000E+00
         0.00000E+00
         0.00000E+00
         0.00000E+00
         0.00000E+00
         0.00000E+00
         0.00000E+00
         0.00000E+00
         0.00000E+00
         0.00000E+00
         0.00000E+00
         0.00000E+00
         0.00000E+00
         0.00000E+00
         0.00000E+00
         0.00000E+00
         0.00000E+00
         0.00000E+00
         0.00000E+00
         0.00000E+00
         0.00000E+00
         0.00000E+00
         0.00000E+00
         0.00000E+00
         0.00000E+00
         0.00000E+00
         0.00000E+00
         0.00000E+00
         0.00000E+00
         0.00000E+00
         0.00000E+00
         0.00000E+00
         0.00000E+00
         0.00000E+00
         0.00000E+00
         0.00000E+00
         0.00000E+00
         0.00000E+00
         0.00000E+00
         0.00000E+00
         0.00000E+00
         0.00000E+00
         0.00000E+00
         0.00000E+00
         0.00000E+00
         0.00000E+00
         0.00000E+00
         0.00000E+00
         0.00000E+00
         0.00000E+00
         0.00000E+00
         0.00000E+00
         0.00000E+00
         0.00000E+00
         0.00000E+00
         0.00000E+00
         0.00000E+00
         0.00000E+00
         0.00000E+00
         0.00000E+00
         0.00000E+00
         0.00000E+00
         0.00000E+00
         0.00000E+00
         0.00000E+00
         0.00000E+00
         0.00000E+00
         0.00000E+00
         0.00000E+00
         0.00000E+00
         0.00000E+00
         0.00000E+00
         0.00000E+00
         0.00000E+00
         0.00000E+00
         0.00000E+00
         0.00000E+00
         0.00000E+00
         0.00000E+00
         0.00000E+00
         0.00000E+00
         0.00000E+00
         0.00000E+00
         0.00000E+00
         0.00000E+00
         0.00000E+00
         0.00000E+00
         0.00000E+00
         0.00000E+00
         0.00000E+00
         0.00000E+00
         0.00000E+00
         0.00000E+00
         0.00000E+00
         0.00000E+00
         0.00000E+00
         0.00000E+00
         0.00000E+00
         0.00000E+00
         0.00000E+00
         0.00000E+00
         0.00000E+00
         0.00000E+00
         0.00000E+00
         0.00000E+00
         0.00000E+00
         0.00000E+00
         0.00000E+00
         0.00000E+00
         0.00000E+00
         0.00000E+00
         0.00000E+00
         0.00000E+00
         0.00000E+00
         0.00000E+00
         0.00000E+00
         0.00000E+00
         0.00000E+00
         0.00000E+00
         0.00000E+00
         0.00000E+00
         0.00000E+00
         0.00000E+00
         0.00000E+00
         0.00000E+00
         0.00000E+00
         0.00000E+00
         0.00000E+00
         0.00000E+00
         0.00000E+00
         0.00000E+00
         0.00000E+00
         0.00000E+00
         0.00000E+00
         0.00000E+00
         0.00000E+00
         0.00000E+00
         0.00000E+00
         0.00000E+00
         0.00000E+00
         0.00000E+00
         0.00000E+00
         0.00000E+00
         0.00000E+00
         0.00000E+00
         0.00000E+00
         0.00000E+00
         0.00000E+00
         0.00000E+00
         0.00000E+00
         0.00000E+00
         0.00000E+00
         0.00000E+00
         0.00000E+00
         0.00000E+00
         0.00000E+00
         0.00000E+00
         0.00000E+00
         0.00000E+00
         0.00000E+00
         0.00000E+00
         0.00000E+00
         0.00000E+00
         0.00000E+00
         0.00000E+00
         0.00000E+00
         0.00000E+00
         0.00000E+00
         0.00000E+00
         0.00000E+00
         0.00000E+00
         0.00000E+00
         0.00000E+00
         0.00000E+00
         0.00000E+00
         0.00000E+00
         0.00000E+00
         0.00000E+00
         0.00000E+00
         0.00000E+00
         0.00000E+00
         0.00000E+00
         0.00000E+00
         0.00000E+00
         0.00000E+00
         0.00000E+00
         0.00000E+00
         0.00000E+00
         0.00000E+00
         0.00000E+00
         0.00000E+00
         0.00000E+00
         0.00000E+00
         0.00000E+00
         0.00000E+00
         0.00000E+00
         0.00000E+00
         0.00000E+00
         0.00000E+00
         0.00000E+00
         0.00000E+00
         0.00000E+00
         0.00000E+00
         0.00000E+00
         0.00000E+00
         0.00000E+00
         0.00000E+00
         0.00000E+00
         0.00000E+00
         0.00000E+00
         0.00000E+00
         0.00000E+00
         0.00000E+00
         0.00000E+00
         0.00000E+00
         0.00000E+00
         0.00000E+00
         0.00000E+00
         0.00000E+00
         0.00000E+00
         0.00000E+00
         0.00000E+00
         0.00000E+00
         0.00000E+00
         0.00000E+00
         0.00000E+00
         0.00000E+00
         0.00000E+00
         0.00000E+00
         0.00000E+00
         0.00000E+00
         0.00000E+00
         0.00000E+00
         0.00000E+00
         0.00000E+00
         0.00000E+00
         0.00000E+00
         0.00000E+00
         0.00000E+00
         0.00000E+00
         0.00000E+00
         0.00000E+00
         0.00000E+00
         0.00000E+00
         0.00000E+00
         0.00000E+00
         0.00000E+00
         0.00000E+00
         0.00000E+00
         0.00000E+00
         0.00000E+00
         0.00000E+00
         0.00000E+00
         0.00000E+00
         0.00000E+00
         0.00000E+00
         0.00000E+00
         0.00000E+00
         0.00000E+00
         0.00000E+00
         0.00000E+00
         0.00000E+00
         0.00000E+00
         0.00000E+00
         0.00000E+00
         0.00000E+00
         0.00000E+00
         0.00000E+00
         0.00000E+00
         0.00000E+00
         0.00000E+00
         0.00000E+00
         0.00000E+00
         0.00000E+00
         0.00000E+00
         0.00000E+00
         0.00000E+00
         0.00000E+00
         0.00000E+00
         0.00000E+00
         0.00000E+00
         0.00000E+00
         0.00000E+00
         0.00000E+00
         0.00000E+00
         0.00000E+00
         0.00000E+00
         0.00000E+00
         0.00000E+00
         0.00000E+00
         0.00000E+00
         0.00000E+00
         0.00000E+00
         0.00000E+00
         0.00000E+00
         0.00000E+00
         0.00000E+00
         0.00000E+00
         0.00000E+00
         0.00000E+00
         0.00000E+00
         0.00000E+00
         0.00000E+00
         0.00000E+00
         0.00000E+00
         0.00000E+00
         0.00000E+00
         0.00000E+00
         0.00000E+00
         0.00000E+00
         0.00000E+00
         0.00000E+00
         0.00000E+00
         0.00000E+00
         0.00000E+00
         0.00000E+00
         0.00000E+00
         0.00000E+00
         0.00000E+00
         0.00000E+00
         0.00000E+00
         0.00000E+00
         0.00000E+00
         0.00000E+00
         0.00000E+00
         0.00000E+00
         0.00000E+00
         0.00000E+00
         0.00000E+00
         0.00000E+00
         0.00000E+00
         0.00000E+00
         0.00000E+00
         0.00000E+00
         0.00000E+00
         0.00000E+00
         0.00000E+00
         0.00000E+00
         0.00000E+00
         0.00000E+00
         0.00000E+00
         0.00000E+00
         0.00000E+00
         0.00000E+00
         0.00000E+00
         0.00000E+00
         0.00000E+00
         0.00000E+00
         0.00000E+00
         0.00000E+00
         0.00000E+00
         0.00000E+00
         0.00000E+00
         0.00000E+00
         0.00000E+00
         0.00000E+00
         0.00000E+00
         0.00000E+00
         0.00000E+00
         0.00000E+00
         0.00000E+00
         0.00000E+00
         0.00000E+00
         0.00000E+00
         0.00000E+00
         0.00000E+00
         0.00000E+00
         0.00000E+00
         0.00000E+00
         0.00000E+00
         0.00000E+00
         0.00000E+00
         0.00000E+00
         0.00000E+00
         0.00000E+00
         0.00000E+00
         0.00000E+00
         0.00000E+00
         0.00000E+00
         0.00000E+00
         0.00000E+00
         0.00000E+00
         0.00000E+00
         0.00000E+00
         0.00000E+00
         0.00000E+00
         0.00000E+00
         0.00000E+00
         0.00000E+00
         0.00000E+00
         0.00000E+00
         0.00000E+00
         0.00000E+00
         0.00000E+00
         0.00000E+00
         0.00000E+00
         0.00000E+00
         0.00000E+00
         0.00000E+00
         0.00000E+00
         0.00000E+00
         0.00000E+00
         0.00000E+00
         0.00000E+00
         0.00000E+00
         0.00000E+00
         0.00000E+00
         0.00000E+00
         0.00000E+00
         0.00000E+00
         0.00000E+00
         0.00000E+00
         0.00000E+00
         0.00000E+00
         0.00000E+00
         0.00000E+00
         0.00000E+00
         0.00000E+00
         0.00000E+00
         0.00000E+00
         0.00000E+00
         0.00000E+00
         0.00000E+00
         0.00000E+00
         0.00000E+00
         0.00000E+00
         0.00000E+00
         0.00000E+00
         0.00000E+00
         0.00000E+00
         0.00000E+00
         0.00000E+00
         0.00000E+00
         0.00000E+00
         0.00000E+00
         0.00000E+00
         0.00000E+00
         0.00000E+00
         0.00000E+00
         0.00000E+00
         0.00000E+00
         0.00000E+00
         0.00000E+00
         0.00000E+00
         0.00000E+00
         0.00000E+00
         0.00000E+00
         0.00000E+00
         0.00000E+00
         0.00000E+00
         0.00000E+00
         0.00000E+00
         0.00000E+00
         0.00000E+00
         0.00000E+00
         0.00000E+00
         0.00000E+00
         0.00000E+00
         0.00000E+00
         0.00000E+00
         0.00000E+00
         0.00000E+00
         0.00000E+00
         0.00000E+00
         0.00000E+00
         0.00000E+00
         0.00000E+00
         0.00000E+00
         0.00000E+00
         0.00000E+00
         0.00000E+00
         0.00000E+00
         0.00000E+00
         0.00000E+00
         0.00000E+00
         0.00000E+00
         0.00000E+00
         0.00000E+00
         0.00000E+00
         0.00000E+00
         0.00000E+00
         0.00000E+00
         0.00000E+00
         0.00000E+00
         0.00000E+00
         0.00000E+00
         0.00000E+00
         0.00000E+00
         0.00000E+00
         0.00000E+00
         0.00000E+00
         0.00000E+00
         0.00000E+00
         0.00000E+00
         0.00000E+00
         0.00000E+00
         0.00000E+00
         0.00000E+00
         0.00000E+00
         0.00000E+00
         0.00000E+00
         0.00000E+00
         0.00000E+00
         0.00000E+00
         0.00000E+00
         0.00000E+00
         0.00000E+00
         0.00000E+00
         0.00000E+00
         0.00000E+00
         0.00000E+00
         0.00000E+00
         0.00000E+00
         0.00000E+00
         0.00000E+00
         0.00000E+00
         0.00000E+00
         0.00000E+00
         0.00000E+00
         0.00000E+00
         0.00000E+00
         0.00000E+00
         0.00000E+00
         0.00000E+00
         0.00000E+00
         0.00000E+00
         0.00000E+00
         0.00000E+00
         0.00000E+00
         0.00000E+00
         0.00000E+00
         0.00000E+00
         0.00000E+00
         0.00000E+00
         0.00000E+00
         0.00000E+00
         0.00000E+00
         0.00000E+00
         0.00000E+00
         0.00000E+00
         0.00000E+00
         0.00000E+00
         0.00000E+00
         0.00000E+00
         0.00000E+00
         0.00000E+00
         0.00000E+00
         0.00000E+00
         0.00000E+00
         0.00000E+00
         0.00000E+00
         0.00000E+00
         0.00000E+00
         0.00000E+00
         0.00000E+00
         0.00000E+00
         0.00000E+00
         0.00000E+00
         0.00000E+00
         0.00000E+00
         0.00000E+00
         0.00000E+00
         0.00000E+00
         0.00000E+00
         0.00000E+00
         0.00000E+00
         0.00000E+00
         0.00000E+00
         0.00000E+00
         0.00000E+00
         0.00000E+00
         0.00000E+00
         0.00000E+00
         0.00000E+00
         0.00000E+00
         0.00000E+00
         0.00000E+00
         0.00000E+00
         0.00000E+00
         0.00000E+00
         0.00000E+00
         0.00000E+00
         0.00000E+00
         0.00000E+00
         0.00000E+00
         0.00000E+00
         0.00000E+00
         0.00000E+00
         0.00000E+00
         0.00000E+00
         0.00000E+00
         0.00000E+00
         0.00000E+00
         0.00000E+00
         0.00000E+00
         0.00000E+00
         0.00000E+00
         0.00000E+00
         0.00000E+00
         0.00000E+00
         0.00000E+00
         0.00000E+00
         0.00000E+00
         0.00000E+00
         0.00000E+00
         0.00000E+00
         0.00000E+00
         0.00000E+00
         0.00000E+00
         0.00000E+00
         0.00000E+00
         0.00000E+00
         0.00000E+00
         0.00000E+00
         0.00000E+00
         0.00000E+00
         0.00000E+00
         0.00000E+00
         0.00000E+00
         0.00000E+00
         0.00000E+00
         0.00000E+00
         0.00000E+00
         0.00000E+00
         0.00000E+00
         0.00000E+00
         0.00000E+00
         0.00000E+00
         0.00000E+00
         0.00000E+00
         0.00000E+00
         0.00000E+00
         0.00000E+00
         0.00000E+00
         0.00000E+00
         0.00000E+00
         0.00000E+00
         0.00000E+00
         0.00000E+00
         0.00000E+00
         0.00000E+00
         0.00000E+00
         0.00000E+00
         0.00000E+00
         0.00000E+00
         0.00000E+00
         0.00000E+00
         0.00000E+00
         0.00000E+00
         0.00000E+00
         0.00000E+00
         0.00000E+00
         0.00000E+00
         0.00000E+00
         0.00000E+00
         0.00000E+00
         0.00000E+00
         0.00000E+00
         0.00000E+00
         0.00000E+00
         0.00000E+00
         0.00000E+00
         0.00000E+00
         0.00000E+00
         0.00000E+00
         0.00000E+00
         0.00000E+00
         0.00000E+00
         0.00000E+00
         0.00000E+00
         0.00000E+00
         0.00000E+00
         0.00000E+00
         0.00000E+00
         0.00000E+00
         0.00000E+00
         0.00000E+00
         0.00000E+00
         0.00000E+00
         0.00000E+00
         0.00000E+00
         0.00000E+00
         0.00000E+00
         0.00000E+00
         0.00000E+00
         0.00000E+00
         0.00000E+00
         0.00000E+00
         0.00000E+00
         0.00000E+00
         0.00000E+00
         0.00000E+00
         0.00000E+00
         0.00000E+00
         0.00000E+00
         0.00000E+00
         0.00000E+00
         0.00000E+00
         0.00000E+00
         0.00000E+00
         0.00000E+00
         0.00000E+00
         0.00000E+00
         0.00000E+00
         0.00000E+00
         0.00000E+00
         0.00000E+00
         0.00000E+00
         0.00000E+00
         0.00000E+00
         0.00000E+00
         0.00000E+00
         0.00000E+00
         0.00000E+00
         0.00000E+00
         0.00000E+00
         0.00000E+00
         0.00000E+00
         0.00000E+00
         0.00000E+00
         0.00000E+00
         0.00000E+00
         0.00000E+00
         0.00000E+00
         0.00000E+00
         0.00000E+00
         0.00000E+00
         0.00000E+00
         0.00000E+00
         0.00000E+00
         0.00000E+00
         0.00000E+00
         0.00000E+00
         0.00000E+00
         0.00000E+00
         0.00000E+00
         0.00000E+00
         0.00000E+00
         0.00000E+00
         0.00000E+00
         0.00000E+00
         0.00000E+00
         0.00000E+00
         0.00000E+00
         0.00000E+00
         0.00000E+00
         0.00000E+00
         0.00000E+00
         0.00000E+00
         0.00000E+00
         0.00000E+00
         0.00000E+00
         0.00000E+00
         0.00000E+00
         0.00000E+00
         0.00000E+00
         0.00000E+00
         0.00000E+00
         0.00000E+00
         0.00000E+00
         0.00000E+00
         0.00000E+00
         0.00000E+00
         0.00000E+00
         0.00000E+00
         0.00000E+00
         0.00000E+00
         0.00000E+00
         0.00000E+00
         0.00000E+00
         0.00000E+00
         0.00000E+00
         0.00000E+00
         0.00000E+00
         0.00000E+00
         0.00000E+00
         0.00000E+00
         0.00000E+00
         0.00000E+00
         0.00000E+00
         0.00000E+00
         0.00000E+00
         0.00000E+00
         0.00000E+00
         0.00000E+00
         0.00000E+00
         0.00000E+00
         0.00000E+00
         0.00000E+00
         0.00000E+00
         0.00000E+00
         0.00000E+00
         0.00000E+00
         0.00000E+00
         0.00000E+00
         0.00000E+00
         0.00000E+00
         0.00000E+00
         0.00000E+00
         0.00000E+00
         0.00000E+00
         0.00000E+00
         0.00000E+00
         0.00000E+00
         0.00000E+00
         0.00000E+00
         0.00000E+00
         0.00000E+00
         0.00000E+00
         0.00000E+00
         0.00000E+00
         0.00000E+00
         0.00000E+00
         0.00000E+00
         0.00000E+00
         0.00000E+00
         0.00000E+00
         0.00000E+00
         0.00000E+00
         0.00000E+00
         0.00000E+00
         0.00000E+00
         0.00000E+00
         0.00000E+00
         0.00000E+00
         0.00000E+00
         0.00000E+00
         0.00000E+00
         0.00000E+00
         0.00000E+00
         0.00000E+00
         0.00000E+00
         0.00000E+00
         0.00000E+00
         0.00000E+00
         0.00000E+00
         0.00000E+00
         0.00000E+00
         0.00000E+00
         0.00000E+00
         0.00000E+00
         0.00000E+00
         0.00000E+00
         0.00000E+00
         0.00000E+00
         0.00000E+00
         0.00000E+00
         0.00000E+00
         0.00000E+00
         0.00000E+00
         0.00000E+00
         0.00000E+00
         0.00000E+00
         0.00000E+00
         0.00000E+00
         0.00000E+00
         0.00000E+00
         0.00000E+00
         0.00000E+00
         0.00000E+00
         0.00000E+00
         0.00000E+00
         0.00000E+00
         0.00000E+00
         0.00000E+00
         0.00000E+00
         0.00000E+00
         0.00000E+00
         0.00000E+00
         0.00000E+00
         0.00000E+00
         0.00000E+00
         0.00000E+00
         0.00000E+00
         0.00000E+00
         0.00000E+00
         0.00000E+00
         0.00000E+00
         0.00000E+00
         0.00000E+00
         0.00000E+00
         0.00000E+00
         0.00000E+00
         0.00000E+00
         0.00000E+00
         0.00000E+00
         0.00000E+00
         0.00000E+00
         0.00000E+00
         0.00000E+00
         0.00000E+00
         0.00000E+00
         0.00000E+00
         0.00000E+00
         0.00000E+00
         0.00000E+00
         0.00000E+00
         0.00000E+00
         0.00000E+00
         0.00000E+00
         0.00000E+00
         0.00000E+00
         0.00000E+00
         0.00000E+00
         0.00000E+00
         0.00000E+00
         0.00000E+00
         0.00000E+00
         0.00000E+00
         0.00000E+00
         0.00000E+00
         0.00000E+00
         0.00000E+00
         0.00000E+00
         0.00000E+00
         0.00000E+00
         0.00000E+00
         0.00000E+00
         0.00000E+00
         0.00000E+00
         0.00000E+00
         0.00000E+00
         0.00000E+00
         0.00000E+00
         0.00000E+00
         0.00000E+00
         0.00000E+00
         0.00000E+00
         0.00000E+00
         0.00000E+00
         0.00000E+00
         0.00000E+00
         0.00000E+00
         0.00000E+00
         0.00000E+00
         0.00000E+00
         0.00000E+00
         0.00000E+00
         0.00000E+00
         0.00000E+00
         0.00000E+00
         0.00000E+00
         0.00000E+00
         0.00000E+00
         0.00000E+00
         0.00000E+00
         0.00000E+00
         0.00000E+00
         0.00000E+00
         0.00000E+00
         0.00000E+00
         0.00000E+00
         0.00000E+00
         0.00000E+00
         0.00000E+00
         0.00000E+00
         0.00000E+00
         0.00000E+00
         0.00000E+00
         0.00000E+00
         0.00000E+00
         0.00000E+00
         0.00000E+00
         0.00000E+00
         0.00000E+00
         0.00000E+00
         0.00000E+00
         0.00000E+00
         0.00000E+00
         0.00000E+00
  
SCALARS                         fint_y  double 1
LOOKUP_TABLE default
         0.00000E+00
         0.00000E+00
         0.00000E+00
         0.00000E+00
         0.00000E+00
         0.00000E+00
         0.00000E+00
         0.00000E+00
         0.00000E+00
         0.00000E+00
         0.00000E+00
         0.00000E+00
         0.00000E+00
         0.00000E+00
         0.00000E+00
         0.00000E+00
         0.00000E+00
         0.00000E+00
         0.00000E+00
         0.00000E+00
         0.00000E+00
         0.00000E+00
         0.00000E+00
         0.00000E+00
         0.00000E+00
         0.00000E+00
         0.00000E+00
         0.00000E+00
         0.00000E+00
         0.00000E+00
         0.00000E+00
         0.00000E+00
         0.00000E+00
         0.00000E+00
         0.00000E+00
         0.00000E+00
         0.00000E+00
         0.00000E+00
         0.00000E+00
         0.00000E+00
         0.00000E+00
         0.00000E+00
         0.00000E+00
         0.00000E+00
         0.00000E+00
         0.00000E+00
         0.00000E+00
         0.00000E+00
         0.00000E+00
         0.00000E+00
         0.00000E+00
         0.00000E+00
         0.00000E+00
         0.00000E+00
         0.00000E+00
         0.00000E+00
         0.00000E+00
         0.00000E+00
         0.00000E+00
         0.00000E+00
         0.00000E+00
         0.00000E+00
         0.00000E+00
         0.00000E+00
         0.00000E+00
         0.00000E+00
         0.00000E+00
         0.00000E+00
         0.00000E+00
         0.00000E+00
         0.00000E+00
         0.00000E+00
         0.00000E+00
         0.00000E+00
         0.00000E+00
         0.00000E+00
         0.00000E+00
         0.00000E+00
         0.00000E+00
         0.00000E+00
         0.00000E+00
         0.00000E+00
         0.00000E+00
         0.00000E+00
         0.00000E+00
         0.00000E+00
         0.00000E+00
         0.00000E+00
         0.00000E+00
         0.00000E+00
         0.00000E+00
         0.00000E+00
         0.00000E+00
         0.00000E+00
         0.00000E+00
         0.00000E+00
         0.00000E+00
         0.00000E+00
         0.00000E+00
         0.00000E+00
         0.00000E+00
         0.00000E+00
         0.00000E+00
         0.00000E+00
         0.00000E+00
         0.00000E+00
         0.00000E+00
         0.00000E+00
         0.00000E+00
         0.00000E+00
         0.00000E+00
         0.00000E+00
         0.00000E+00
         0.00000E+00
         0.00000E+00
         0.00000E+00
         0.00000E+00
         0.00000E+00
         0.00000E+00
         0.00000E+00
         0.00000E+00
         0.00000E+00
         0.00000E+00
         0.00000E+00
         0.00000E+00
         0.00000E+00
         0.00000E+00
         0.00000E+00
         0.00000E+00
         0.00000E+00
         0.00000E+00
         0.00000E+00
         0.00000E+00
         0.00000E+00
         0.00000E+00
         0.00000E+00
         0.00000E+00
         0.00000E+00
         0.00000E+00
         0.00000E+00
         0.00000E+00
         0.00000E+00
         0.00000E+00
         0.00000E+00
         0.00000E+00
         0.00000E+00
         0.00000E+00
         0.00000E+00
         0.00000E+00
         0.00000E+00
         0.00000E+00
         0.00000E+00
         0.00000E+00
         0.00000E+00
         0.00000E+00
         0.00000E+00
         0.00000E+00
         0.00000E+00
         0.00000E+00
         0.00000E+00
         0.00000E+00
         0.00000E+00
         0.00000E+00
         0.00000E+00
         0.00000E+00
         0.00000E+00
         0.00000E+00
         0.00000E+00
         0.00000E+00
         0.00000E+00
         0.00000E+00
         0.00000E+00
         0.00000E+00
         0.00000E+00
         0.00000E+00
         0.00000E+00
         0.00000E+00
         0.00000E+00
         0.00000E+00
         0.00000E+00
         0.00000E+00
         0.00000E+00
         0.00000E+00
         0.00000E+00
         0.00000E+00
         0.00000E+00
         0.00000E+00
         0.00000E+00
         0.00000E+00
         0.00000E+00
         0.00000E+00
         0.00000E+00
         0.00000E+00
         0.00000E+00
         0.00000E+00
         0.00000E+00
         0.00000E+00
         0.00000E+00
         0.00000E+00
         0.00000E+00
         0.00000E+00
         0.00000E+00
         0.00000E+00
         0.00000E+00
         0.00000E+00
         0.00000E+00
         0.00000E+00
         0.00000E+00
         0.00000E+00
         0.00000E+00
         0.00000E+00
         0.00000E+00
         0.00000E+00
         0.00000E+00
         0.00000E+00
         0.00000E+00
         0.00000E+00
         0.00000E+00
         0.00000E+00
         0.00000E+00
         0.00000E+00
         0.00000E+00
         0.00000E+00
         0.00000E+00
         0.00000E+00
         0.00000E+00
         0.00000E+00
         0.00000E+00
         0.00000E+00
         0.00000E+00
         0.00000E+00
         0.00000E+00
         0.00000E+00
         0.00000E+00
         0.00000E+00
         0.00000E+00
         0.00000E+00
         0.00000E+00
         0.00000E+00
         0.00000E+00
         0.00000E+00
         0.00000E+00
         0.00000E+00
         0.00000E+00
         0.00000E+00
         0.00000E+00
         0.00000E+00
         0.00000E+00
         0.00000E+00
         0.00000E+00
         0.00000E+00
         0.00000E+00
         0.00000E+00
         0.00000E+00
         0.00000E+00
         0.00000E+00
         0.00000E+00
         0.00000E+00
         0.00000E+00
         0.00000E+00
         0.00000E+00
         0.00000E+00
         0.00000E+00
         0.00000E+00
         0.00000E+00
         0.00000E+00
         0.00000E+00
         0.00000E+00
         0.00000E+00
         0.00000E+00
         0.00000E+00
         0.00000E+00
         0.00000E+00
         0.00000E+00
         0.00000E+00
         0.00000E+00
         0.00000E+00
         0.00000E+00
         0.00000E+00
         0.00000E+00
         0.00000E+00
         0.00000E+00
         0.00000E+00
         0.00000E+00
         0.00000E+00
         0.00000E+00
         0.00000E+00
         0.00000E+00
         0.00000E+00
         0.00000E+00
         0.00000E+00
         0.00000E+00
         0.00000E+00
         0.00000E+00
         0.00000E+00
         0.00000E+00
         0.00000E+00
         0.00000E+00
         0.00000E+00
         0.00000E+00
         0.00000E+00
         0.00000E+00
         0.00000E+00
         0.00000E+00
         0.00000E+00
         0.00000E+00
         0.00000E+00
         0.00000E+00
         0.00000E+00
         0.00000E+00
         0.00000E+00
         0.00000E+00
         0.00000E+00
         0.00000E+00
         0.00000E+00
         0.00000E+00
         0.00000E+00
         0.00000E+00
         0.00000E+00
         0.00000E+00
         0.00000E+00
         0.00000E+00
         0.00000E+00
         0.00000E+00
         0.00000E+00
         0.00000E+00
         0.00000E+00
         0.00000E+00
         0.00000E+00
         0.00000E+00
         0.00000E+00
         0.00000E+00
         0.00000E+00
         0.00000E+00
         0.00000E+00
         0.00000E+00
         0.00000E+00
         0.00000E+00
         0.00000E+00
         0.00000E+00
         0.00000E+00
         0.00000E+00
         0.00000E+00
         0.00000E+00
         0.00000E+00
         0.00000E+00
         0.00000E+00
         0.00000E+00
         0.00000E+00
         0.00000E+00
         0.00000E+00
         0.00000E+00
         0.00000E+00
         0.00000E+00
         0.00000E+00
         0.00000E+00
         0.00000E+00
         0.00000E+00
         0.00000E+00
         0.00000E+00
         0.00000E+00
         0.00000E+00
         0.00000E+00
         0.00000E+00
         0.00000E+00
         0.00000E+00
         0.00000E+00
         0.00000E+00
         0.00000E+00
         0.00000E+00
         0.00000E+00
         0.00000E+00
         0.00000E+00
         0.00000E+00
         0.00000E+00
         0.00000E+00
         0.00000E+00
         0.00000E+00
         0.00000E+00
         0.00000E+00
         0.00000E+00
         0.00000E+00
         0.00000E+00
         0.00000E+00
         0.00000E+00
         0.00000E+00
         0.00000E+00
         0.00000E+00
         0.00000E+00
         0.00000E+00
         0.00000E+00
         0.00000E+00
         0.00000E+00
         0.00000E+00
         0.00000E+00
         0.00000E+00
         0.00000E+00
         0.00000E+00
         0.00000E+00
         0.00000E+00
         0.00000E+00
         0.00000E+00
         0.00000E+00
         0.00000E+00
         0.00000E+00
         0.00000E+00
         0.00000E+00
         0.00000E+00
         0.00000E+00
         0.00000E+00
         0.00000E+00
         0.00000E+00
         0.00000E+00
         0.00000E+00
         0.00000E+00
         0.00000E+00
         0.00000E+00
         0.00000E+00
         0.00000E+00
         0.00000E+00
         0.00000E+00
         0.00000E+00
         0.00000E+00
         0.00000E+00
         0.00000E+00
         0.00000E+00
         0.00000E+00
         0.00000E+00
         0.00000E+00
         0.00000E+00
         0.00000E+00
         0.00000E+00
         0.00000E+00
         0.00000E+00
         0.00000E+00
         0.00000E+00
         0.00000E+00
         0.00000E+00
         0.00000E+00
         0.00000E+00
         0.00000E+00
         0.00000E+00
         0.00000E+00
         0.00000E+00
         0.00000E+00
         0.00000E+00
         0.00000E+00
         0.00000E+00
         0.00000E+00
         0.00000E+00
         0.00000E+00
         0.00000E+00
         0.00000E+00
         0.00000E+00
         0.00000E+00
         0.00000E+00
         0.00000E+00
         0.00000E+00
         0.00000E+00
         0.00000E+00
         0.00000E+00
         0.00000E+00
         0.00000E+00
         0.00000E+00
         0.00000E+00
         0.00000E+00
         0.00000E+00
         0.00000E+00
         0.00000E+00
         0.00000E+00
         0.00000E+00
         0.00000E+00
         0.00000E+00
         0.00000E+00
         0.00000E+00
         0.00000E+00
         0.00000E+00
         0.00000E+00
         0.00000E+00
         0.00000E+00
         0.00000E+00
         0.00000E+00
         0.00000E+00
         0.00000E+00
         0.00000E+00
         0.00000E+00
         0.00000E+00
         0.00000E+00
         0.00000E+00
         0.00000E+00
         0.00000E+00
         0.00000E+00
         0.00000E+00
         0.00000E+00
         0.00000E+00
         0.00000E+00
         0.00000E+00
         0.00000E+00
         0.00000E+00
         0.00000E+00
         0.00000E+00
         0.00000E+00
         0.00000E+00
         0.00000E+00
         0.00000E+00
         0.00000E+00
         0.00000E+00
         0.00000E+00
         0.00000E+00
         0.00000E+00
         0.00000E+00
         0.00000E+00
         0.00000E+00
         0.00000E+00
         0.00000E+00
         0.00000E+00
         0.00000E+00
         0.00000E+00
         0.00000E+00
         0.00000E+00
         0.00000E+00
         0.00000E+00
         0.00000E+00
         0.00000E+00
         0.00000E+00
         0.00000E+00
         0.00000E+00
         0.00000E+00
         0.00000E+00
         0.00000E+00
         0.00000E+00
         0.00000E+00
         0.00000E+00
         0.00000E+00
         0.00000E+00
         0.00000E+00
         0.00000E+00
         0.00000E+00
         0.00000E+00
         0.00000E+00
         0.00000E+00
         0.00000E+00
         0.00000E+00
         0.00000E+00
         0.00000E+00
         0.00000E+00
         0.00000E+00
         0.00000E+00
         0.00000E+00
         0.00000E+00
         0.00000E+00
         0.00000E+00
         0.00000E+00
         0.00000E+00
         0.00000E+00
         0.00000E+00
         0.00000E+00
         0.00000E+00
         0.00000E+00
         0.00000E+00
         0.00000E+00
         0.00000E+00
         0.00000E+00
         0.00000E+00
         0.00000E+00
         0.00000E+00
         0.00000E+00
         0.00000E+00
         0.00000E+00
         0.00000E+00
         0.00000E+00
         0.00000E+00
         0.00000E+00
         0.00000E+00
         0.00000E+00
         0.00000E+00
         0.00000E+00
         0.00000E+00
         0.00000E+00
         0.00000E+00
         0.00000E+00
         0.00000E+00
         0.00000E+00
         0.00000E+00
         0.00000E+00
         0.00000E+00
         0.00000E+00
         0.00000E+00
         0.00000E+00
         0.00000E+00
         0.00000E+00
         0.00000E+00
         0.00000E+00
         0.00000E+00
         0.00000E+00
         0.00000E+00
         0.00000E+00
         0.00000E+00
         0.00000E+00
         0.00000E+00
         0.00000E+00
         0.00000E+00
         0.00000E+00
         0.00000E+00
         0.00000E+00
         0.00000E+00
         0.00000E+00
         0.00000E+00
         0.00000E+00
         0.00000E+00
         0.00000E+00
         0.00000E+00
         0.00000E+00
         0.00000E+00
         0.00000E+00
         0.00000E+00
         0.00000E+00
         0.00000E+00
         0.00000E+00
         0.00000E+00
         0.00000E+00
         0.00000E+00
         0.00000E+00
         0.00000E+00
         0.00000E+00
         0.00000E+00
         0.00000E+00
         0.00000E+00
         0.00000E+00
         0.00000E+00
         0.00000E+00
         0.00000E+00
         0.00000E+00
         0.00000E+00
         0.00000E+00
         0.00000E+00
         0.00000E+00
         0.00000E+00
         0.00000E+00
         0.00000E+00
         0.00000E+00
         0.00000E+00
         0.00000E+00
         0.00000E+00
         0.00000E+00
         0.00000E+00
         0.00000E+00
         0.00000E+00
         0.00000E+00
         0.00000E+00
         0.00000E+00
         0.00000E+00
         0.00000E+00
         0.00000E+00
         0.00000E+00
         0.00000E+00
         0.00000E+00
         0.00000E+00
         0.00000E+00
         0.00000E+00
         0.00000E+00
         0.00000E+00
         0.00000E+00
         0.00000E+00
         0.00000E+00
         0.00000E+00
         0.00000E+00
         0.00000E+00
         0.00000E+00
         0.00000E+00
         0.00000E+00
         0.00000E+00
         0.00000E+00
         0.00000E+00
         0.00000E+00
         0.00000E+00
         0.00000E+00
         0.00000E+00
         0.00000E+00
         0.00000E+00
         0.00000E+00
         0.00000E+00
         0.00000E+00
         0.00000E+00
         0.00000E+00
         0.00000E+00
         0.00000E+00
         0.00000E+00
         0.00000E+00
         0.00000E+00
         0.00000E+00
         0.00000E+00
         0.00000E+00
         0.00000E+00
         0.00000E+00
         0.00000E+00
         0.00000E+00
         0.00000E+00
         0.00000E+00
         0.00000E+00
         0.00000E+00
         0.00000E+00
         0.00000E+00
         0.00000E+00
         0.00000E+00
         0.00000E+00
         0.00000E+00
         0.00000E+00
         0.00000E+00
         0.00000E+00
         0.00000E+00
         0.00000E+00
         0.00000E+00
         0.00000E+00
         0.00000E+00
         0.00000E+00
         0.00000E+00
         0.00000E+00
         0.00000E+00
         0.00000E+00
         0.00000E+00
         0.00000E+00
         0.00000E+00
         0.00000E+00
         0.00000E+00
         0.00000E+00
         0.00000E+00
         0.00000E+00
         0.00000E+00
         0.00000E+00
         0.00000E+00
         0.00000E+00
         0.00000E+00
         0.00000E+00
         0.00000E+00
         0.00000E+00
         0.00000E+00
         0.00000E+00
         0.00000E+00
         0.00000E+00
         0.00000E+00
         0.00000E+00
         0.00000E+00
         0.00000E+00
         0.00000E+00
         0.00000E+00
         0.00000E+00
         0.00000E+00
         0.00000E+00
         0.00000E+00
         0.00000E+00
         0.00000E+00
         0.00000E+00
         0.00000E+00
         0.00000E+00
         0.00000E+00
         0.00000E+00
         0.00000E+00
         0.00000E+00
         0.00000E+00
         0.00000E+00
         0.00000E+00
         0.00000E+00
         0.00000E+00
         0.00000E+00
         0.00000E+00
         0.00000E+00
         0.00000E+00
         0.00000E+00
         0.00000E+00
         0.00000E+00
         0.00000E+00
         0.00000E+00
         0.00000E+00
         0.00000E+00
         0.00000E+00
         0.00000E+00
         0.00000E+00
         0.00000E+00
         0.00000E+00
         0.00000E+00
         0.00000E+00
         0.00000E+00
         0.00000E+00
         0.00000E+00
         0.00000E+00
         0.00000E+00
         0.00000E+00
         0.00000E+00
         0.00000E+00
         0.00000E+00
         0.00000E+00
         0.00000E+00
         0.00000E+00
         0.00000E+00
         0.00000E+00
         0.00000E+00
         0.00000E+00
         0.00000E+00
         0.00000E+00
         0.00000E+00
         0.00000E+00
         0.00000E+00
         0.00000E+00
         0.00000E+00
         0.00000E+00
         0.00000E+00
         0.00000E+00
         0.00000E+00
         0.00000E+00
         0.00000E+00
         0.00000E+00
         0.00000E+00
         0.00000E+00
         0.00000E+00
         0.00000E+00
         0.00000E+00
         0.00000E+00
         0.00000E+00
         0.00000E+00
         0.00000E+00
         0.00000E+00
         0.00000E+00
         0.00000E+00
         0.00000E+00
         0.00000E+00
         0.00000E+00
         0.00000E+00
         0.00000E+00
         0.00000E+00
         0.00000E+00
         0.00000E+00
         0.00000E+00
         0.00000E+00
         0.00000E+00
         0.00000E+00
         0.00000E+00
         0.00000E+00
         0.00000E+00
         0.00000E+00
         0.00000E+00
         0.00000E+00
         0.00000E+00
         0.00000E+00
         0.00000E+00
         0.00000E+00
         0.00000E+00
         0.00000E+00
         0.00000E+00
         0.00000E+00
         0.00000E+00
         0.00000E+00
         0.00000E+00
         0.00000E+00
         0.00000E+00
         0.00000E+00
         0.00000E+00
         0.00000E+00
         0.00000E+00
         0.00000E+00
         0.00000E+00
         0.00000E+00
         0.00000E+00
         0.00000E+00
         0.00000E+00
         0.00000E+00
         0.00000E+00
         0.00000E+00
         0.00000E+00
         0.00000E+00
         0.00000E+00
         0.00000E+00
         0.00000E+00
         0.00000E+00
         0.00000E+00
         0.00000E+00
         0.00000E+00
         0.00000E+00
         0.00000E+00
         0.00000E+00
         0.00000E+00
         0.00000E+00
         0.00000E+00
         0.00000E+00
         0.00000E+00
         0.00000E+00
         0.00000E+00
         0.00000E+00
         0.00000E+00
         0.00000E+00
         0.00000E+00
         0.00000E+00
         0.00000E+00
         0.00000E+00
         0.00000E+00
         0.00000E+00
         0.00000E+00
         0.00000E+00
         0.00000E+00
         0.00000E+00
         0.00000E+00
         0.00000E+00
         0.00000E+00
         0.00000E+00
         0.00000E+00
         0.00000E+00
         0.00000E+00
         0.00000E+00
         0.00000E+00
         0.00000E+00
         0.00000E+00
         0.00000E+00
         0.00000E+00
         0.00000E+00
         0.00000E+00
         0.00000E+00
         0.00000E+00
         0.00000E+00
         0.00000E+00
         0.00000E+00
         0.00000E+00
         0.00000E+00
         0.00000E+00
         0.00000E+00
         0.00000E+00
         0.00000E+00
         0.00000E+00
         0.00000E+00
         0.00000E+00
         0.00000E+00
         0.00000E+00
         0.00000E+00
         0.00000E+00
         0.00000E+00
         0.00000E+00
         0.00000E+00
         0.00000E+00
         0.00000E+00
         0.00000E+00
         0.00000E+00
         0.00000E+00
         0.00000E+00
         0.00000E+00
         0.00000E+00
         0.00000E+00
         0.00000E+00
         0.00000E+00
         0.00000E+00
         0.00000E+00
         0.00000E+00
         0.00000E+00
         0.00000E+00
         0.00000E+00
         0.00000E+00
         0.00000E+00
         0.00000E+00
         0.00000E+00
         0.00000E+00
         0.00000E+00
         0.00000E+00
         0.00000E+00
         0.00000E+00
         0.00000E+00
         0.00000E+00
         0.00000E+00
         0.00000E+00
         0.00000E+00
         0.00000E+00
         0.00000E+00
         0.00000E+00
         0.00000E+00
         0.00000E+00
         0.00000E+00
         0.00000E+00
         0.00000E+00
         0.00000E+00
         0.00000E+00
         0.00000E+00
         0.00000E+00
         0.00000E+00
         0.00000E+00
         0.00000E+00
         0.00000E+00
         0.00000E+00
         0.00000E+00
         0.00000E+00
         0.00000E+00
         0.00000E+00
         0.00000E+00
         0.00000E+00
         0.00000E+00
         0.00000E+00
         0.00000E+00
         0.00000E+00
         0.00000E+00
         0.00000E+00
         0.00000E+00
         0.00000E+00
         0.00000E+00
         0.00000E+00
         0.00000E+00
         0.00000E+00
         0.00000E+00
         0.00000E+00
         0.00000E+00
         0.00000E+00
         0.00000E+00
         0.00000E+00
         0.00000E+00
         0.00000E+00
         0.00000E+00
         0.00000E+00
         0.00000E+00
         0.00000E+00
         0.00000E+00
         0.00000E+00
         0.00000E+00
         0.00000E+00
         0.00000E+00
         0.00000E+00
         0.00000E+00
         0.00000E+00
         0.00000E+00
         0.00000E+00
         0.00000E+00
         0.00000E+00
         0.00000E+00
         0.00000E+00
         0.00000E+00
         0.00000E+00
         0.00000E+00
         0.00000E+00
         0.00000E+00
         0.00000E+00
         0.00000E+00
         0.00000E+00
         0.00000E+00
         0.00000E+00
         0.00000E+00
         0.00000E+00
         0.00000E+00
         0.00000E+00
         0.00000E+00
         0.00000E+00
         0.00000E+00
         0.00000E+00
         0.00000E+00
         0.00000E+00
         0.00000E+00
         0.00000E+00
         0.00000E+00
         0.00000E+00
         0.00000E+00
         0.00000E+00
         0.00000E+00
         0.00000E+00
         0.00000E+00
         0.00000E+00
         0.00000E+00
         0.00000E+00
         0.00000E+00
         0.00000E+00
         0.00000E+00
         0.00000E+00
         0.00000E+00
         0.00000E+00
         0.00000E+00
         0.00000E+00
         0.00000E+00
         0.00000E+00
         0.00000E+00
         0.00000E+00
         0.00000E+00
         0.00000E+00
         0.00000E+00
         0.00000E+00
         0.00000E+00
         0.00000E+00
         0.00000E+00
         0.00000E+00
         0.00000E+00
         0.00000E+00
         0.00000E+00
         0.00000E+00
         0.00000E+00
         0.00000E+00
         0.00000E+00
         0.00000E+00
         0.00000E+00
         0.00000E+00
         0.00000E+00
         0.00000E+00
         0.00000E+00
         0.00000E+00
         0.00000E+00
         0.00000E+00
         0.00000E+00
         0.00000E+00
         0.00000E+00
         0.00000E+00
         0.00000E+00
         0.00000E+00
         0.00000E+00
         0.00000E+00
         0.00000E+00
         0.00000E+00
         0.00000E+00
         0.00000E+00
         0.00000E+00
         0.00000E+00
         0.00000E+00
         0.00000E+00
         0.00000E+00
         0.00000E+00
         0.00000E+00
         0.00000E+00
         0.00000E+00
         0.00000E+00
         0.00000E+00
         0.00000E+00
         0.00000E+00
         0.00000E+00
         0.00000E+00
         0.00000E+00
         0.00000E+00
         0.00000E+00
         0.00000E+00
         0.00000E+00
         0.00000E+00
         0.00000E+00
         0.00000E+00
         0.00000E+00
         0.00000E+00
         0.00000E+00
         0.00000E+00
         0.00000E+00
         0.00000E+00
         0.00000E+00
         0.00000E+00
         0.00000E+00
         0.00000E+00
         0.00000E+00
         0.00000E+00
         0.00000E+00
         0.00000E+00
         0.00000E+00
         0.00000E+00
         0.00000E+00
         0.00000E+00
         0.00000E+00
         0.00000E+00
         0.00000E+00
         0.00000E+00
         0.00000E+00
         0.00000E+00
         0.00000E+00
         0.00000E+00
         0.00000E+00
         0.00000E+00
         0.00000E+00
         0.00000E+00
         0.00000E+00
         0.00000E+00
         0.00000E+00
         0.00000E+00
         0.00000E+00
         0.00000E+00
         0.00000E+00
         0.00000E+00
         0.00000E+00
         0.00000E+00
         0.00000E+00
         0.00000E+00
         0.00000E+00
         0.00000E+00
         0.00000E+00
         0.00000E+00
         0.00000E+00
         0.00000E+00
         0.00000E+00
         0.00000E+00
         0.00000E+00
         0.00000E+00
         0.00000E+00
         0.00000E+00
         0.00000E+00
         0.00000E+00
         0.00000E+00
         0.00000E+00
         0.00000E+00
         0.00000E+00
         0.00000E+00
         0.00000E+00
         0.00000E+00
         0.00000E+00
         0.00000E+00
         0.00000E+00
         0.00000E+00
         0.00000E+00
         0.00000E+00
         0.00000E+00
         0.00000E+00
         0.00000E+00
         0.00000E+00
         0.00000E+00
         0.00000E+00
         0.00000E+00
         0.00000E+00
         0.00000E+00
         0.00000E+00
         0.00000E+00
         0.00000E+00
         0.00000E+00
         0.00000E+00
         0.00000E+00
         0.00000E+00
         0.00000E+00
         0.00000E+00
         0.00000E+00
         0.00000E+00
         0.00000E+00
         0.00000E+00
         0.00000E+00
         0.00000E+00
         0.00000E+00
         0.00000E+00
         0.00000E+00
         0.00000E+00
         0.00000E+00
         0.00000E+00
         0.00000E+00
         0.00000E+00
         0.00000E+00
         0.00000E+00
         0.00000E+00
         0.00000E+00
         0.00000E+00
         0.00000E+00
         0.00000E+00
         0.00000E+00
         0.00000E+00
         0.00000E+00
         0.00000E+00
         0.00000E+00
         0.00000E+00
         0.00000E+00
         0.00000E+00
         0.00000E+00
         0.00000E+00
         0.00000E+00
         0.00000E+00
         0.00000E+00
         0.00000E+00
         0.00000E+00
         0.00000E+00
         0.00000E+00
         0.00000E+00
         0.00000E+00
         0.00000E+00
         0.00000E+00
         0.00000E+00
         0.00000E+00
         0.00000E+00
         0.00000E+00
         0.00000E+00
         0.00000E+00
         0.00000E+00
         0.00000E+00
         0.00000E+00
         0.00000E+00
         0.00000E+00
         0.00000E+00
         0.00000E+00
         0.00000E+00
         0.00000E+00
         0.00000E+00
         0.00000E+00
         0.00000E+00
         0.00000E+00
         0.00000E+00
         0.00000E+00
         0.00000E+00
         0.00000E+00
         0.00000E+00
         0.00000E+00
         0.00000E+00
         0.00000E+00
         0.00000E+00
         0.00000E+00
         0.00000E+00
         0.00000E+00
         0.00000E+00
         0.00000E+00
         0.00000E+00
         0.00000E+00
         0.00000E+00
         0.00000E+00
         0.00000E+00
         0.00000E+00
         0.00000E+00
         0.00000E+00
         0.00000E+00
         0.00000E+00
         0.00000E+00
         0.00000E+00
         0.00000E+00
         0.00000E+00
         0.00000E+00
         0.00000E+00
         0.00000E+00
         0.00000E+00
         0.00000E+00
         0.00000E+00
         0.00000E+00
         0.00000E+00
         0.00000E+00
         0.00000E+00
         0.00000E+00
         0.00000E+00
         0.00000E+00
         0.00000E+00
         0.00000E+00
         0.00000E+00
         0.00000E+00
         0.00000E+00
         0.00000E+00
         0.00000E+00
         0.00000E+00
         0.00000E+00
         0.00000E+00
         0.00000E+00
         0.00000E+00
         0.00000E+00
         0.00000E+00
         0.00000E+00
         0.00000E+00
         0.00000E+00
         0.00000E+00
         0.00000E+00
         0.00000E+00
         0.00000E+00
         0.00000E+00
         0.00000E+00
         0.00000E+00
         0.00000E+00
         0.00000E+00
         0.00000E+00
         0.00000E+00
         0.00000E+00
         0.00000E+00
         0.00000E+00
         0.00000E+00
         0.00000E+00
         0.00000E+00
         0.00000E+00
         0.00000E+00
         0.00000E+00
         0.00000E+00
         0.00000E+00
         0.00000E+00
         0.00000E+00
         0.00000E+00
         0.00000E+00
         0.00000E+00
         0.00000E+00
         0.00000E+00
         0.00000E+00
         0.00000E+00
         0.00000E+00
         0.00000E+00
         0.00000E+00
         0.00000E+00
         0.00000E+00
         0.00000E+00
         0.00000E+00
         0.00000E+00
         0.00000E+00
         0.00000E+00
         0.00000E+00
         0.00000E+00
         0.00000E+00
         0.00000E+00
         0.00000E+00
         0.00000E+00
         0.00000E+00
         0.00000E+00
         0.00000E+00
         0.00000E+00
         0.00000E+00
         0.00000E+00
         0.00000E+00
         0.00000E+00
         0.00000E+00
         0.00000E+00
         0.00000E+00
         0.00000E+00
         0.00000E+00
         0.00000E+00
         0.00000E+00
         0.00000E+00
         0.00000E+00
         0.00000E+00
         0.00000E+00
         0.00000E+00
         0.00000E+00
         0.00000E+00
         0.00000E+00
         0.00000E+00
         0.00000E+00
         0.00000E+00
         0.00000E+00
         0.00000E+00
         0.00000E+00
         0.00000E+00
         0.00000E+00
         0.00000E+00
         0.00000E+00
         0.00000E+00
         0.00000E+00
         0.00000E+00
         0.00000E+00
         0.00000E+00
         0.00000E+00
         0.00000E+00
         0.00000E+00
         0.00000E+00
         0.00000E+00
         0.00000E+00
         0.00000E+00
         0.00000E+00
         0.00000E+00
         0.00000E+00
         0.00000E+00
         0.00000E+00
         0.00000E+00
         0.00000E+00
         0.00000E+00
         0.00000E+00
         0.00000E+00
         0.00000E+00
         0.00000E+00
         0.00000E+00
         0.00000E+00
         0.00000E+00
         0.00000E+00
         0.00000E+00
         0.00000E+00
         0.00000E+00
         0.00000E+00
         0.00000E+00
         0.00000E+00
         0.00000E+00
         0.00000E+00
         0.00000E+00
         0.00000E+00
         0.00000E+00
         0.00000E+00
         0.00000E+00
         0.00000E+00
         0.00000E+00
         0.00000E+00
         0.00000E+00
         0.00000E+00
         0.00000E+00
         0.00000E+00
         0.00000E+00
         0.00000E+00
         0.00000E+00
         0.00000E+00
         0.00000E+00
         0.00000E+00
         0.00000E+00
         0.00000E+00
         0.00000E+00
         0.00000E+00
         0.00000E+00
         0.00000E+00
         0.00000E+00
         0.00000E+00
         0.00000E+00
         0.00000E+00
         0.00000E+00
         0.00000E+00
         0.00000E+00
         0.00000E+00
         0.00000E+00
         0.00000E+00
         0.00000E+00
         0.00000E+00
         0.00000E+00
         0.00000E+00
         0.00000E+00
         0.00000E+00
         0.00000E+00
         0.00000E+00
         0.00000E+00
         0.00000E+00
         0.00000E+00
         0.00000E+00
         0.00000E+00
         0.00000E+00
         0.00000E+00
         0.00000E+00
         0.00000E+00
         0.00000E+00
         0.00000E+00
         0.00000E+00
         0.00000E+00
         0.00000E+00
         0.00000E+00
         0.00000E+00
         0.00000E+00
         0.00000E+00
         0.00000E+00
         0.00000E+00
         0.00000E+00
         0.00000E+00
         0.00000E+00
         0.00000E+00
         0.00000E+00
         0.00000E+00
         0.00000E+00
         0.00000E+00
         0.00000E+00
         0.00000E+00
         0.00000E+00
         0.00000E+00
         0.00000E+00
         0.00000E+00
         0.00000E+00
         0.00000E+00
         0.00000E+00
         0.00000E+00
         0.00000E+00
         0.00000E+00
         0.00000E+00
         0.00000E+00
         0.00000E+00
         0.00000E+00
         0.00000E+00
         0.00000E+00
         0.00000E+00
         0.00000E+00
         0.00000E+00
         0.00000E+00
         0.00000E+00
         0.00000E+00
         0.00000E+00
         0.00000E+00
         0.00000E+00
         0.00000E+00
         0.00000E+00
         0.00000E+00
         0.00000E+00
         0.00000E+00
         0.00000E+00
         0.00000E+00
         0.00000E+00
         0.00000E+00
         0.00000E+00
         0.00000E+00
         0.00000E+00
         0.00000E+00
         0.00000E+00
         0.00000E+00
         0.00000E+00
         0.00000E+00
         0.00000E+00
         0.00000E+00
         0.00000E+00
         0.00000E+00
         0.00000E+00
         0.00000E+00
         0.00000E+00
         0.00000E+00
         0.00000E+00
         0.00000E+00
         0.00000E+00
         0.00000E+00
         0.00000E+00
         0.00000E+00
         0.00000E+00
         0.00000E+00
         0.00000E+00
         0.00000E+00
         0.00000E+00
         0.00000E+00
         0.00000E+00
         0.00000E+00
         0.00000E+00
         0.00000E+00
         0.00000E+00
         0.00000E+00
         0.00000E+00
         0.00000E+00
         0.00000E+00
         0.00000E+00
         0.00000E+00
         0.00000E+00
         0.00000E+00
         0.00000E+00
         0.00000E+00
         0.00000E+00
         0.00000E+00
         0.00000E+00
         0.00000E+00
         0.00000E+00
         0.00000E+00
         0.00000E+00
         0.00000E+00
         0.00000E+00
         0.00000E+00
         0.00000E+00
         0.00000E+00
         0.00000E+00
         0.00000E+00
         0.00000E+00
         0.00000E+00
         0.00000E+00
         0.00000E+00
         0.00000E+00
         0.00000E+00
         0.00000E+00
         0.00000E+00
         0.00000E+00
         0.00000E+00
         0.00000E+00
         0.00000E+00
         0.00000E+00
         0.00000E+00
         0.00000E+00
         0.00000E+00
         0.00000E+00
         0.00000E+00
         0.00000E+00
         0.00000E+00
         0.00000E+00
         0.00000E+00
         0.00000E+00
         0.00000E+00
         0.00000E+00
         0.00000E+00
         0.00000E+00
         0.00000E+00
         0.00000E+00
         0.00000E+00
         0.00000E+00
         0.00000E+00
         0.00000E+00
         0.00000E+00
         0.00000E+00
         0.00000E+00
         0.00000E+00
         0.00000E+00
         0.00000E+00
         0.00000E+00
         0.00000E+00
         0.00000E+00
         0.00000E+00
         0.00000E+00
         0.00000E+00
         0.00000E+00
         0.00000E+00
         0.00000E+00
         0.00000E+00
         0.00000E+00
         0.00000E+00
         0.00000E+00
         0.00000E+00
         0.00000E+00
         0.00000E+00
         0.00000E+00
         0.00000E+00
         0.00000E+00
         0.00000E+00
         0.00000E+00
         0.00000E+00
         0.00000E+00
         0.00000E+00
         0.00000E+00
         0.00000E+00
         0.00000E+00
         0.00000E+00
         0.00000E+00
         0.00000E+00
         0.00000E+00
         0.00000E+00
         0.00000E+00
         0.00000E+00
         0.00000E+00
         0.00000E+00
         0.00000E+00
         0.00000E+00
         0.00000E+00
         0.00000E+00
         0.00000E+00
         0.00000E+00
         0.00000E+00
         0.00000E+00
         0.00000E+00
         0.00000E+00
         0.00000E+00
         0.00000E+00
         0.00000E+00
         0.00000E+00
         0.00000E+00
         0.00000E+00
         0.00000E+00
         0.00000E+00
         0.00000E+00
         0.00000E+00
         0.00000E+00
         0.00000E+00
         0.00000E+00
         0.00000E+00
         0.00000E+00
         0.00000E+00
         0.00000E+00
         0.00000E+00
         0.00000E+00
         0.00000E+00
         0.00000E+00
         0.00000E+00
         0.00000E+00
         0.00000E+00
         0.00000E+00
         0.00000E+00
         0.00000E+00
         0.00000E+00
         0.00000E+00
         0.00000E+00
         0.00000E+00
         0.00000E+00
         0.00000E+00
         0.00000E+00
         0.00000E+00
         0.00000E+00
         0.00000E+00
         0.00000E+00
         0.00000E+00
         0.00000E+00
         0.00000E+00
         0.00000E+00
         0.00000E+00
         0.00000E+00
         0.00000E+00
         0.00000E+00
         0.00000E+00
         0.00000E+00
         0.00000E+00
         0.00000E+00
         0.00000E+00
         0.00000E+00
         0.00000E+00
         0.00000E+00
         0.00000E+00
         0.00000E+00
         0.00000E+00
         0.00000E+00
         0.00000E+00
         0.00000E+00
         0.00000E+00
         0.00000E+00
         0.00000E+00
         0.00000E+00
         0.00000E+00
         0.00000E+00
         0.00000E+00
         0.00000E+00
         0.00000E+00
         0.00000E+00
         0.00000E+00
         0.00000E+00
         0.00000E+00
         0.00000E+00
         0.00000E+00
         0.00000E+00
         0.00000E+00
         0.00000E+00
         0.00000E+00
         0.00000E+00
         0.00000E+00
         0.00000E+00
         0.00000E+00
         0.00000E+00
         0.00000E+00
         0.00000E+00
         0.00000E+00
         0.00000E+00
         0.00000E+00
         0.00000E+00
         0.00000E+00
         0.00000E+00
         0.00000E+00
         0.00000E+00
         0.00000E+00
         0.00000E+00
         0.00000E+00
         0.00000E+00
         0.00000E+00
         0.00000E+00
         0.00000E+00
         0.00000E+00
         0.00000E+00
         0.00000E+00
         0.00000E+00
         0.00000E+00
         0.00000E+00
         0.00000E+00
         0.00000E+00
         0.00000E+00
         0.00000E+00
         0.00000E+00
         0.00000E+00
         0.00000E+00
         0.00000E+00
         0.00000E+00
         0.00000E+00
         0.00000E+00
         0.00000E+00
         0.00000E+00
         0.00000E+00
         0.00000E+00
         0.00000E+00
         0.00000E+00
         0.00000E+00
         0.00000E+00
         0.00000E+00
         0.00000E+00
         0.00000E+00
         0.00000E+00
         0.00000E+00
         0.00000E+00
         0.00000E+00
         0.00000E+00
         0.00000E+00
         0.00000E+00
         0.00000E+00
         0.00000E+00
         0.00000E+00
         0.00000E+00
         0.00000E+00
         0.00000E+00
         0.00000E+00
         0.00000E+00
         0.00000E+00
         0.00000E+00
         0.00000E+00
         0.00000E+00
         0.00000E+00
         0.00000E+00
         0.00000E+00
         0.00000E+00
         0.00000E+00
         0.00000E+00
         0.00000E+00
         0.00000E+00
         0.00000E+00
         0.00000E+00
         0.00000E+00
         0.00000E+00
         0.00000E+00
         0.00000E+00
         0.00000E+00
         0.00000E+00
         0.00000E+00
         0.00000E+00
         0.00000E+00
         0.00000E+00
         0.00000E+00
         0.00000E+00
         0.00000E+00
         0.00000E+00
         0.00000E+00
         0.00000E+00
         0.00000E+00
         0.00000E+00
         0.00000E+00
         0.00000E+00
         0.00000E+00
         0.00000E+00
         0.00000E+00
         0.00000E+00
         0.00000E+00
         0.00000E+00
         0.00000E+00
         0.00000E+00
         0.00000E+00
         0.00000E+00
         0.00000E+00
         0.00000E+00
         0.00000E+00
         0.00000E+00
         0.00000E+00
         0.00000E+00
         0.00000E+00
         0.00000E+00
         0.00000E+00
         0.00000E+00
         0.00000E+00
         0.00000E+00
         0.00000E+00
         0.00000E+00
         0.00000E+00
         0.00000E+00
         0.00000E+00
         0.00000E+00
         0.00000E+00
         0.00000E+00
         0.00000E+00
         0.00000E+00
         0.00000E+00
         0.00000E+00
         0.00000E+00
         0.00000E+00
         0.00000E+00
         0.00000E+00
         0.00000E+00
         0.00000E+00
         0.00000E+00
         0.00000E+00
         0.00000E+00
         0.00000E+00
         0.00000E+00
         0.00000E+00
         0.00000E+00
         0.00000E+00
         0.00000E+00
         0.00000E+00
         0.00000E+00
         0.00000E+00
         0.00000E+00
         0.00000E+00
         0.00000E+00
         0.00000E+00
         0.00000E+00
         0.00000E+00
         0.00000E+00
         0.00000E+00
         0.00000E+00
         0.00000E+00
         0.00000E+00
         0.00000E+00
         0.00000E+00
         0.00000E+00
         0.00000E+00
         0.00000E+00
         0.00000E+00
         0.00000E+00
         0.00000E+00
  
SCALARS                         fint_z  double 1
LOOKUP_TABLE default
         0.00000E+00
         0.00000E+00
         0.00000E+00
         0.00000E+00
         0.00000E+00
         0.00000E+00
         0.00000E+00
         0.00000E+00
         0.00000E+00
         0.00000E+00
         0.00000E+00
         0.00000E+00
         0.00000E+00
         0.00000E+00
         0.00000E+00
         0.00000E+00
         0.00000E+00
         0.00000E+00
         0.00000E+00
         0.00000E+00
         0.00000E+00
         0.00000E+00
         0.00000E+00
         0.00000E+00
         0.00000E+00
         0.00000E+00
         0.00000E+00
         0.00000E+00
         0.00000E+00
         0.00000E+00
         0.00000E+00
         0.00000E+00
         0.00000E+00
         0.00000E+00
         0.00000E+00
         0.00000E+00
         0.00000E+00
         0.00000E+00
         0.00000E+00
         0.00000E+00
         0.00000E+00
         0.00000E+00
         0.00000E+00
         0.00000E+00
         0.00000E+00
         0.00000E+00
         0.00000E+00
         0.00000E+00
         0.00000E+00
         0.00000E+00
         0.00000E+00
         0.00000E+00
         0.00000E+00
         0.00000E+00
         0.00000E+00
         0.00000E+00
         0.00000E+00
         0.00000E+00
         0.00000E+00
         0.00000E+00
         0.00000E+00
         0.00000E+00
         0.00000E+00
         0.00000E+00
         0.00000E+00
         0.00000E+00
         0.00000E+00
         0.00000E+00
         0.00000E+00
         0.00000E+00
         0.00000E+00
         0.00000E+00
         0.00000E+00
         0.00000E+00
         0.00000E+00
         0.00000E+00
         0.00000E+00
         0.00000E+00
         0.00000E+00
         0.00000E+00
         0.00000E+00
         0.00000E+00
         0.00000E+00
         0.00000E+00
         0.00000E+00
         0.00000E+00
         0.00000E+00
         0.00000E+00
         0.00000E+00
         0.00000E+00
         0.00000E+00
         0.00000E+00
         0.00000E+00
         0.00000E+00
         0.00000E+00
         0.00000E+00
         0.00000E+00
         0.00000E+00
         0.00000E+00
         0.00000E+00
         0.00000E+00
         0.00000E+00
         0.00000E+00
         0.00000E+00
         0.00000E+00
         0.00000E+00
         0.00000E+00
         0.00000E+00
         0.00000E+00
         0.00000E+00
         0.00000E+00
         0.00000E+00
         0.00000E+00
         0.00000E+00
         0.00000E+00
         0.00000E+00
         0.00000E+00
         0.00000E+00
         0.00000E+00
         0.00000E+00
         0.00000E+00
         0.00000E+00
         0.00000E+00
         0.00000E+00
         0.00000E+00
         0.00000E+00
         0.00000E+00
         0.00000E+00
         0.00000E+00
         0.00000E+00
         0.00000E+00
         0.00000E+00
         0.00000E+00
         0.00000E+00
         0.00000E+00
         0.00000E+00
         0.00000E+00
         0.00000E+00
         0.00000E+00
         0.00000E+00
         0.00000E+00
         0.00000E+00
         0.00000E+00
         0.00000E+00
         0.00000E+00
         0.00000E+00
         0.00000E+00
         0.00000E+00
         0.00000E+00
         0.00000E+00
         0.00000E+00
         0.00000E+00
         0.00000E+00
         0.00000E+00
         0.00000E+00
         0.00000E+00
         0.00000E+00
         0.00000E+00
         0.00000E+00
         0.00000E+00
         0.00000E+00
         0.00000E+00
         0.00000E+00
         0.00000E+00
         0.00000E+00
         0.00000E+00
         0.00000E+00
         0.00000E+00
         0.00000E+00
         0.00000E+00
         0.00000E+00
         0.00000E+00
         0.00000E+00
         0.00000E+00
         0.00000E+00
         0.00000E+00
         0.00000E+00
         0.00000E+00
         0.00000E+00
         0.00000E+00
         0.00000E+00
         0.00000E+00
         0.00000E+00
         0.00000E+00
         0.00000E+00
         0.00000E+00
         0.00000E+00
         0.00000E+00
         0.00000E+00
         0.00000E+00
         0.00000E+00
         0.00000E+00
         0.00000E+00
         0.00000E+00
         0.00000E+00
         0.00000E+00
         0.00000E+00
         0.00000E+00
         0.00000E+00
         0.00000E+00
         0.00000E+00
         0.00000E+00
         0.00000E+00
         0.00000E+00
         0.00000E+00
         0.00000E+00
         0.00000E+00
         0.00000E+00
         0.00000E+00
         0.00000E+00
         0.00000E+00
         0.00000E+00
         0.00000E+00
         0.00000E+00
         0.00000E+00
         0.00000E+00
         0.00000E+00
         0.00000E+00
         0.00000E+00
         0.00000E+00
         0.00000E+00
         0.00000E+00
         0.00000E+00
         0.00000E+00
         0.00000E+00
         0.00000E+00
         0.00000E+00
         0.00000E+00
         0.00000E+00
         0.00000E+00
         0.00000E+00
         0.00000E+00
         0.00000E+00
         0.00000E+00
         0.00000E+00
         0.00000E+00
         0.00000E+00
         0.00000E+00
         0.00000E+00
         0.00000E+00
         0.00000E+00
         0.00000E+00
         0.00000E+00
         0.00000E+00
         0.00000E+00
         0.00000E+00
         0.00000E+00
         0.00000E+00
         0.00000E+00
         0.00000E+00
         0.00000E+00
         0.00000E+00
         0.00000E+00
         0.00000E+00
         0.00000E+00
         0.00000E+00
         0.00000E+00
         0.00000E+00
         0.00000E+00
         0.00000E+00
         0.00000E+00
         0.00000E+00
         0.00000E+00
         0.00000E+00
         0.00000E+00
         0.00000E+00
         0.00000E+00
         0.00000E+00
         0.00000E+00
         0.00000E+00
         0.00000E+00
         0.00000E+00
         0.00000E+00
         0.00000E+00
         0.00000E+00
         0.00000E+00
         0.00000E+00
         0.00000E+00
         0.00000E+00
         0.00000E+00
         0.00000E+00
         0.00000E+00
         0.00000E+00
         0.00000E+00
         0.00000E+00
         0.00000E+00
         0.00000E+00
         0.00000E+00
         0.00000E+00
         0.00000E+00
         0.00000E+00
         0.00000E+00
         0.00000E+00
         0.00000E+00
         0.00000E+00
         0.00000E+00
         0.00000E+00
         0.00000E+00
         0.00000E+00
         0.00000E+00
         0.00000E+00
         0.00000E+00
         0.00000E+00
         0.00000E+00
         0.00000E+00
         0.00000E+00
         0.00000E+00
         0.00000E+00
         0.00000E+00
         0.00000E+00
         0.00000E+00
         0.00000E+00
         0.00000E+00
         0.00000E+00
         0.00000E+00
         0.00000E+00
         0.00000E+00
         0.00000E+00
         0.00000E+00
         0.00000E+00
         0.00000E+00
         0.00000E+00
         0.00000E+00
         0.00000E+00
         0.00000E+00
         0.00000E+00
         0.00000E+00
         0.00000E+00
         0.00000E+00
         0.00000E+00
         0.00000E+00
         0.00000E+00
         0.00000E+00
         0.00000E+00
         0.00000E+00
         0.00000E+00
         0.00000E+00
         0.00000E+00
         0.00000E+00
         0.00000E+00
         0.00000E+00
         0.00000E+00
         0.00000E+00
         0.00000E+00
         0.00000E+00
         0.00000E+00
         0.00000E+00
         0.00000E+00
         0.00000E+00
         0.00000E+00
         0.00000E+00
         0.00000E+00
         0.00000E+00
         0.00000E+00
         0.00000E+00
         0.00000E+00
         0.00000E+00
         0.00000E+00
         0.00000E+00
         0.00000E+00
         0.00000E+00
         0.00000E+00
         0.00000E+00
         0.00000E+00
         0.00000E+00
         0.00000E+00
         0.00000E+00
         0.00000E+00
         0.00000E+00
         0.00000E+00
         0.00000E+00
         0.00000E+00
         0.00000E+00
         0.00000E+00
         0.00000E+00
         0.00000E+00
         0.00000E+00
         0.00000E+00
         0.00000E+00
         0.00000E+00
         0.00000E+00
         0.00000E+00
         0.00000E+00
         0.00000E+00
         0.00000E+00
         0.00000E+00
         0.00000E+00
         0.00000E+00
         0.00000E+00
         0.00000E+00
         0.00000E+00
         0.00000E+00
         0.00000E+00
         0.00000E+00
         0.00000E+00
         0.00000E+00
         0.00000E+00
         0.00000E+00
         0.00000E+00
         0.00000E+00
         0.00000E+00
         0.00000E+00
         0.00000E+00
         0.00000E+00
         0.00000E+00
         0.00000E+00
         0.00000E+00
         0.00000E+00
         0.00000E+00
         0.00000E+00
         0.00000E+00
         0.00000E+00
         0.00000E+00
         0.00000E+00
         0.00000E+00
         0.00000E+00
         0.00000E+00
         0.00000E+00
         0.00000E+00
         0.00000E+00
         0.00000E+00
         0.00000E+00
         0.00000E+00
         0.00000E+00
         0.00000E+00
         0.00000E+00
         0.00000E+00
         0.00000E+00
         0.00000E+00
         0.00000E+00
         0.00000E+00
         0.00000E+00
         0.00000E+00
         0.00000E+00
         0.00000E+00
         0.00000E+00
         0.00000E+00
         0.00000E+00
         0.00000E+00
         0.00000E+00
         0.00000E+00
         0.00000E+00
         0.00000E+00
         0.00000E+00
         0.00000E+00
         0.00000E+00
         0.00000E+00
         0.00000E+00
         0.00000E+00
         0.00000E+00
         0.00000E+00
         0.00000E+00
         0.00000E+00
         0.00000E+00
         0.00000E+00
         0.00000E+00
         0.00000E+00
         0.00000E+00
         0.00000E+00
         0.00000E+00
         0.00000E+00
         0.00000E+00
         0.00000E+00
         0.00000E+00
         0.00000E+00
         0.00000E+00
         0.00000E+00
         0.00000E+00
         0.00000E+00
         0.00000E+00
         0.00000E+00
         0.00000E+00
         0.00000E+00
         0.00000E+00
         0.00000E+00
         0.00000E+00
         0.00000E+00
         0.00000E+00
         0.00000E+00
         0.00000E+00
         0.00000E+00
         0.00000E+00
         0.00000E+00
         0.00000E+00
         0.00000E+00
         0.00000E+00
         0.00000E+00
         0.00000E+00
         0.00000E+00
         0.00000E+00
         0.00000E+00
         0.00000E+00
         0.00000E+00
         0.00000E+00
         0.00000E+00
         0.00000E+00
         0.00000E+00
         0.00000E+00
         0.00000E+00
         0.00000E+00
         0.00000E+00
         0.00000E+00
         0.00000E+00
         0.00000E+00
         0.00000E+00
         0.00000E+00
         0.00000E+00
         0.00000E+00
         0.00000E+00
         0.00000E+00
         0.00000E+00
         0.00000E+00
         0.00000E+00
         0.00000E+00
         0.00000E+00
         0.00000E+00
         0.00000E+00
         0.00000E+00
         0.00000E+00
         0.00000E+00
         0.00000E+00
         0.00000E+00
         0.00000E+00
         0.00000E+00
         0.00000E+00
         0.00000E+00
         0.00000E+00
         0.00000E+00
         0.00000E+00
         0.00000E+00
         0.00000E+00
         0.00000E+00
         0.00000E+00
         0.00000E+00
         0.00000E+00
         0.00000E+00
         0.00000E+00
         0.00000E+00
         0.00000E+00
         0.00000E+00
         0.00000E+00
         0.00000E+00
         0.00000E+00
         0.00000E+00
         0.00000E+00
         0.00000E+00
         0.00000E+00
         0.00000E+00
         0.00000E+00
         0.00000E+00
         0.00000E+00
         0.00000E+00
         0.00000E+00
         0.00000E+00
         0.00000E+00
         0.00000E+00
         0.00000E+00
         0.00000E+00
         0.00000E+00
         0.00000E+00
         0.00000E+00
         0.00000E+00
         0.00000E+00
         0.00000E+00
         0.00000E+00
         0.00000E+00
         0.00000E+00
         0.00000E+00
         0.00000E+00
         0.00000E+00
         0.00000E+00
         0.00000E+00
         0.00000E+00
         0.00000E+00
         0.00000E+00
         0.00000E+00
         0.00000E+00
         0.00000E+00
         0.00000E+00
         0.00000E+00
         0.00000E+00
         0.00000E+00
         0.00000E+00
         0.00000E+00
         0.00000E+00
         0.00000E+00
         0.00000E+00
         0.00000E+00
         0.00000E+00
         0.00000E+00
         0.00000E+00
         0.00000E+00
         0.00000E+00
         0.00000E+00
         0.00000E+00
         0.00000E+00
         0.00000E+00
         0.00000E+00
         0.00000E+00
         0.00000E+00
         0.00000E+00
         0.00000E+00
         0.00000E+00
         0.00000E+00
         0.00000E+00
         0.00000E+00
         0.00000E+00
         0.00000E+00
         0.00000E+00
         0.00000E+00
         0.00000E+00
         0.00000E+00
         0.00000E+00
         0.00000E+00
         0.00000E+00
         0.00000E+00
         0.00000E+00
         0.00000E+00
         0.00000E+00
         0.00000E+00
         0.00000E+00
         0.00000E+00
         0.00000E+00
         0.00000E+00
         0.00000E+00
         0.00000E+00
         0.00000E+00
         0.00000E+00
         0.00000E+00
         0.00000E+00
         0.00000E+00
         0.00000E+00
         0.00000E+00
         0.00000E+00
         0.00000E+00
         0.00000E+00
         0.00000E+00
         0.00000E+00
         0.00000E+00
         0.00000E+00
         0.00000E+00
         0.00000E+00
         0.00000E+00
         0.00000E+00
         0.00000E+00
         0.00000E+00
         0.00000E+00
         0.00000E+00
         0.00000E+00
         0.00000E+00
         0.00000E+00
         0.00000E+00
         0.00000E+00
         0.00000E+00
         0.00000E+00
         0.00000E+00
         0.00000E+00
         0.00000E+00
         0.00000E+00
         0.00000E+00
         0.00000E+00
         0.00000E+00
         0.00000E+00
         0.00000E+00
         0.00000E+00
         0.00000E+00
         0.00000E+00
         0.00000E+00
         0.00000E+00
         0.00000E+00
         0.00000E+00
         0.00000E+00
         0.00000E+00
         0.00000E+00
         0.00000E+00
         0.00000E+00
         0.00000E+00
         0.00000E+00
         0.00000E+00
         0.00000E+00
         0.00000E+00
         0.00000E+00
         0.00000E+00
         0.00000E+00
         0.00000E+00
         0.00000E+00
         0.00000E+00
         0.00000E+00
         0.00000E+00
         0.00000E+00
         0.00000E+00
         0.00000E+00
         0.00000E+00
         0.00000E+00
         0.00000E+00
         0.00000E+00
         0.00000E+00
         0.00000E+00
         0.00000E+00
         0.00000E+00
         0.00000E+00
         0.00000E+00
         0.00000E+00
         0.00000E+00
         0.00000E+00
         0.00000E+00
         0.00000E+00
         0.00000E+00
         0.00000E+00
         0.00000E+00
         0.00000E+00
         0.00000E+00
         0.00000E+00
         0.00000E+00
         0.00000E+00
         0.00000E+00
         0.00000E+00
         0.00000E+00
         0.00000E+00
         0.00000E+00
         0.00000E+00
         0.00000E+00
         0.00000E+00
         0.00000E+00
         0.00000E+00
         0.00000E+00
         0.00000E+00
         0.00000E+00
         0.00000E+00
         0.00000E+00
         0.00000E+00
         0.00000E+00
         0.00000E+00
         0.00000E+00
         0.00000E+00
         0.00000E+00
         0.00000E+00
         0.00000E+00
         0.00000E+00
         0.00000E+00
         0.00000E+00
         0.00000E+00
         0.00000E+00
         0.00000E+00
         0.00000E+00
         0.00000E+00
         0.00000E+00
         0.00000E+00
         0.00000E+00
         0.00000E+00
         0.00000E+00
         0.00000E+00
         0.00000E+00
         0.00000E+00
         0.00000E+00
         0.00000E+00
         0.00000E+00
         0.00000E+00
         0.00000E+00
         0.00000E+00
         0.00000E+00
         0.00000E+00
         0.00000E+00
         0.00000E+00
         0.00000E+00
         0.00000E+00
         0.00000E+00
         0.00000E+00
         0.00000E+00
         0.00000E+00
         0.00000E+00
         0.00000E+00
         0.00000E+00
         0.00000E+00
         0.00000E+00
         0.00000E+00
         0.00000E+00
         0.00000E+00
         0.00000E+00
         0.00000E+00
         0.00000E+00
         0.00000E+00
         0.00000E+00
         0.00000E+00
         0.00000E+00
         0.00000E+00
         0.00000E+00
         0.00000E+00
         0.00000E+00
         0.00000E+00
         0.00000E+00
         0.00000E+00
         0.00000E+00
         0.00000E+00
         0.00000E+00
         0.00000E+00
         0.00000E+00
         0.00000E+00
         0.00000E+00
         0.00000E+00
         0.00000E+00
         0.00000E+00
         0.00000E+00
         0.00000E+00
         0.00000E+00
         0.00000E+00
         0.00000E+00
         0.00000E+00
         0.00000E+00
         0.00000E+00
         0.00000E+00
         0.00000E+00
         0.00000E+00
         0.00000E+00
         0.00000E+00
         0.00000E+00
         0.00000E+00
         0.00000E+00
         0.00000E+00
         0.00000E+00
         0.00000E+00
         0.00000E+00
         0.00000E+00
         0.00000E+00
         0.00000E+00
         0.00000E+00
         0.00000E+00
         0.00000E+00
         0.00000E+00
         0.00000E+00
         0.00000E+00
         0.00000E+00
         0.00000E+00
         0.00000E+00
         0.00000E+00
         0.00000E+00
         0.00000E+00
         0.00000E+00
         0.00000E+00
         0.00000E+00
         0.00000E+00
         0.00000E+00
         0.00000E+00
         0.00000E+00
         0.00000E+00
         0.00000E+00
         0.00000E+00
         0.00000E+00
         0.00000E+00
         0.00000E+00
         0.00000E+00
         0.00000E+00
         0.00000E+00
         0.00000E+00
         0.00000E+00
         0.00000E+00
         0.00000E+00
         0.00000E+00
         0.00000E+00
         0.00000E+00
         0.00000E+00
         0.00000E+00
         0.00000E+00
         0.00000E+00
         0.00000E+00
         0.00000E+00
         0.00000E+00
         0.00000E+00
         0.00000E+00
         0.00000E+00
         0.00000E+00
         0.00000E+00
         0.00000E+00
         0.00000E+00
         0.00000E+00
         0.00000E+00
         0.00000E+00
         0.00000E+00
         0.00000E+00
         0.00000E+00
         0.00000E+00
         0.00000E+00
         0.00000E+00
         0.00000E+00
         0.00000E+00
         0.00000E+00
         0.00000E+00
         0.00000E+00
         0.00000E+00
         0.00000E+00
         0.00000E+00
         0.00000E+00
         0.00000E+00
         0.00000E+00
         0.00000E+00
         0.00000E+00
         0.00000E+00
         0.00000E+00
         0.00000E+00
         0.00000E+00
         0.00000E+00
         0.00000E+00
         0.00000E+00
         0.00000E+00
         0.00000E+00
         0.00000E+00
         0.00000E+00
         0.00000E+00
         0.00000E+00
         0.00000E+00
         0.00000E+00
         0.00000E+00
         0.00000E+00
         0.00000E+00
         0.00000E+00
         0.00000E+00
         0.00000E+00
         0.00000E+00
         0.00000E+00
         0.00000E+00
         0.00000E+00
         0.00000E+00
         0.00000E+00
         0.00000E+00
         0.00000E+00
         0.00000E+00
         0.00000E+00
         0.00000E+00
         0.00000E+00
         0.00000E+00
         0.00000E+00
         0.00000E+00
         0.00000E+00
         0.00000E+00
         0.00000E+00
         0.00000E+00
         0.00000E+00
         0.00000E+00
         0.00000E+00
         0.00000E+00
         0.00000E+00
         0.00000E+00
         0.00000E+00
         0.00000E+00
         0.00000E+00
         0.00000E+00
         0.00000E+00
         0.00000E+00
         0.00000E+00
         0.00000E+00
         0.00000E+00
         0.00000E+00
         0.00000E+00
         0.00000E+00
         0.00000E+00
         0.00000E+00
         0.00000E+00
         0.00000E+00
         0.00000E+00
         0.00000E+00
         0.00000E+00
         0.00000E+00
         0.00000E+00
         0.00000E+00
         0.00000E+00
         0.00000E+00
         0.00000E+00
         0.00000E+00
         0.00000E+00
         0.00000E+00
         0.00000E+00
         0.00000E+00
         0.00000E+00
         0.00000E+00
         0.00000E+00
         0.00000E+00
         0.00000E+00
         0.00000E+00
         0.00000E+00
         0.00000E+00
         0.00000E+00
         0.00000E+00
         0.00000E+00
         0.00000E+00
         0.00000E+00
         0.00000E+00
         0.00000E+00
         0.00000E+00
         0.00000E+00
         0.00000E+00
         0.00000E+00
         0.00000E+00
         0.00000E+00
         0.00000E+00
         0.00000E+00
         0.00000E+00
         0.00000E+00
         0.00000E+00
         0.00000E+00
         0.00000E+00
         0.00000E+00
         0.00000E+00
         0.00000E+00
         0.00000E+00
         0.00000E+00
         0.00000E+00
         0.00000E+00
         0.00000E+00
         0.00000E+00
         0.00000E+00
         0.00000E+00
         0.00000E+00
         0.00000E+00
         0.00000E+00
         0.00000E+00
         0.00000E+00
         0.00000E+00
         0.00000E+00
         0.00000E+00
         0.00000E+00
         0.00000E+00
         0.00000E+00
         0.00000E+00
         0.00000E+00
         0.00000E+00
         0.00000E+00
         0.00000E+00
         0.00000E+00
         0.00000E+00
         0.00000E+00
         0.00000E+00
         0.00000E+00
         0.00000E+00
         0.00000E+00
         0.00000E+00
         0.00000E+00
         0.00000E+00
         0.00000E+00
         0.00000E+00
         0.00000E+00
         0.00000E+00
         0.00000E+00
         0.00000E+00
         0.00000E+00
         0.00000E+00
         0.00000E+00
         0.00000E+00
         0.00000E+00
         0.00000E+00
         0.00000E+00
         0.00000E+00
         0.00000E+00
         0.00000E+00
         0.00000E+00
         0.00000E+00
         0.00000E+00
         0.00000E+00
         0.00000E+00
         0.00000E+00
         0.00000E+00
         0.00000E+00
         0.00000E+00
         0.00000E+00
         0.00000E+00
         0.00000E+00
         0.00000E+00
         0.00000E+00
         0.00000E+00
         0.00000E+00
         0.00000E+00
         0.00000E+00
         0.00000E+00
         0.00000E+00
         0.00000E+00
         0.00000E+00
         0.00000E+00
         0.00000E+00
         0.00000E+00
         0.00000E+00
         0.00000E+00
         0.00000E+00
         0.00000E+00
         0.00000E+00
         0.00000E+00
         0.00000E+00
         0.00000E+00
         0.00000E+00
         0.00000E+00
         0.00000E+00
         0.00000E+00
         0.00000E+00
         0.00000E+00
         0.00000E+00
         0.00000E+00
         0.00000E+00
         0.00000E+00
         0.00000E+00
         0.00000E+00
         0.00000E+00
         0.00000E+00
         0.00000E+00
         0.00000E+00
         0.00000E+00
         0.00000E+00
         0.00000E+00
         0.00000E+00
         0.00000E+00
         0.00000E+00
         0.00000E+00
         0.00000E+00
         0.00000E+00
         0.00000E+00
         0.00000E+00
         0.00000E+00
         0.00000E+00
         0.00000E+00
         0.00000E+00
         0.00000E+00
         0.00000E+00
         0.00000E+00
         0.00000E+00
         0.00000E+00
         0.00000E+00
         0.00000E+00
         0.00000E+00
         0.00000E+00
         0.00000E+00
         0.00000E+00
         0.00000E+00
         0.00000E+00
         0.00000E+00
         0.00000E+00
         0.00000E+00
         0.00000E+00
         0.00000E+00
         0.00000E+00
         0.00000E+00
         0.00000E+00
         0.00000E+00
         0.00000E+00
         0.00000E+00
         0.00000E+00
         0.00000E+00
         0.00000E+00
         0.00000E+00
         0.00000E+00
         0.00000E+00
         0.00000E+00
         0.00000E+00
         0.00000E+00
         0.00000E+00
         0.00000E+00
         0.00000E+00
         0.00000E+00
         0.00000E+00
         0.00000E+00
         0.00000E+00
         0.00000E+00
         0.00000E+00
         0.00000E+00
         0.00000E+00
         0.00000E+00
         0.00000E+00
         0.00000E+00
         0.00000E+00
         0.00000E+00
         0.00000E+00
         0.00000E+00
         0.00000E+00
         0.00000E+00
         0.00000E+00
         0.00000E+00
         0.00000E+00
         0.00000E+00
         0.00000E+00
         0.00000E+00
         0.00000E+00
         0.00000E+00
         0.00000E+00
         0.00000E+00
         0.00000E+00
         0.00000E+00
         0.00000E+00
         0.00000E+00
         0.00000E+00
         0.00000E+00
         0.00000E+00
         0.00000E+00
         0.00000E+00
         0.00000E+00
         0.00000E+00
         0.00000E+00
         0.00000E+00
         0.00000E+00
         0.00000E+00
         0.00000E+00
         0.00000E+00
         0.00000E+00
         0.00000E+00
         0.00000E+00
         0.00000E+00
         0.00000E+00
         0.00000E+00
         0.00000E+00
         0.00000E+00
         0.00000E+00
         0.00000E+00
         0.00000E+00
         0.00000E+00
         0.00000E+00
         0.00000E+00
         0.00000E+00
         0.00000E+00
         0.00000E+00
         0.00000E+00
         0.00000E+00
         0.00000E+00
         0.00000E+00
         0.00000E+00
         0.00000E+00
         0.00000E+00
         0.00000E+00
         0.00000E+00
         0.00000E+00
         0.00000E+00
         0.00000E+00
         0.00000E+00
         0.00000E+00
         0.00000E+00
         0.00000E+00
         0.00000E+00
         0.00000E+00
         0.00000E+00
         0.00000E+00
         0.00000E+00
         0.00000E+00
         0.00000E+00
         0.00000E+00
         0.00000E+00
         0.00000E+00
         0.00000E+00
         0.00000E+00
         0.00000E+00
         0.00000E+00
         0.00000E+00
         0.00000E+00
         0.00000E+00
         0.00000E+00
         0.00000E+00
         0.00000E+00
         0.00000E+00
         0.00000E+00
         0.00000E+00
         0.00000E+00
         0.00000E+00
         0.00000E+00
         0.00000E+00
         0.00000E+00
         0.00000E+00
         0.00000E+00
         0.00000E+00
         0.00000E+00
         0.00000E+00
         0.00000E+00
         0.00000E+00
         0.00000E+00
         0.00000E+00
         0.00000E+00
         0.00000E+00
         0.00000E+00
         0.00000E+00
         0.00000E+00
         0.00000E+00
         0.00000E+00
         0.00000E+00
         0.00000E+00
         0.00000E+00
         0.00000E+00
         0.00000E+00
         0.00000E+00
         0.00000E+00
         0.00000E+00
         0.00000E+00
         0.00000E+00
         0.00000E+00
         0.00000E+00
         0.00000E+00
         0.00000E+00
         0.00000E+00
         0.00000E+00
         0.00000E+00
         0.00000E+00
         0.00000E+00
         0.00000E+00
         0.00000E+00
         0.00000E+00
         0.00000E+00
         0.00000E+00
         0.00000E+00
         0.00000E+00
         0.00000E+00
         0.00000E+00
         0.00000E+00
         0.00000E+00
         0.00000E+00
         0.00000E+00
         0.00000E+00
         0.00000E+00
         0.00000E+00
         0.00000E+00
         0.00000E+00
         0.00000E+00
         0.00000E+00
         0.00000E+00
         0.00000E+00
         0.00000E+00
         0.00000E+00
         0.00000E+00
         0.00000E+00
         0.00000E+00
         0.00000E+00
         0.00000E+00
         0.00000E+00
         0.00000E+00
         0.00000E+00
         0.00000E+00
         0.00000E+00
         0.00000E+00
         0.00000E+00
         0.00000E+00
         0.00000E+00
         0.00000E+00
         0.00000E+00
         0.00000E+00
         0.00000E+00
         0.00000E+00
         0.00000E+00
         0.00000E+00
         0.00000E+00
         0.00000E+00
         0.00000E+00
         0.00000E+00
         0.00000E+00
         0.00000E+00
         0.00000E+00
         0.00000E+00
         0.00000E+00
         0.00000E+00
         0.00000E+00
         0.00000E+00
         0.00000E+00
         0.00000E+00
         0.00000E+00
         0.00000E+00
         0.00000E+00
         0.00000E+00
         0.00000E+00
         0.00000E+00
         0.00000E+00
         0.00000E+00
         0.00000E+00
         0.00000E+00
         0.00000E+00
         0.00000E+00
         0.00000E+00
         0.00000E+00
         0.00000E+00
         0.00000E+00
         0.00000E+00
         0.00000E+00
         0.00000E+00
         0.00000E+00
         0.00000E+00
         0.00000E+00
         0.00000E+00
         0.00000E+00
         0.00000E+00
         0.00000E+00
         0.00000E+00
         0.00000E+00
         0.00000E+00
         0.00000E+00
         0.00000E+00
         0.00000E+00
         0.00000E+00
         0.00000E+00
         0.00000E+00
         0.00000E+00
         0.00000E+00
         0.00000E+00
         0.00000E+00
         0.00000E+00
         0.00000E+00
         0.00000E+00
         0.00000E+00
         0.00000E+00
         0.00000E+00
         0.00000E+00
         0.00000E+00
         0.00000E+00
         0.00000E+00
         0.00000E+00
         0.00000E+00
         0.00000E+00
         0.00000E+00
         0.00000E+00
         0.00000E+00
         0.00000E+00
         0.00000E+00
         0.00000E+00
         0.00000E+00
         0.00000E+00
         0.00000E+00
         0.00000E+00
         0.00000E+00
         0.00000E+00
         0.00000E+00
         0.00000E+00
         0.00000E+00
         0.00000E+00
         0.00000E+00
         0.00000E+00
         0.00000E+00
         0.00000E+00
         0.00000E+00
         0.00000E+00
         0.00000E+00
         0.00000E+00
         0.00000E+00
         0.00000E+00
         0.00000E+00
         0.00000E+00
         0.00000E+00
         0.00000E+00
         0.00000E+00
         0.00000E+00
         0.00000E+00
         0.00000E+00
         0.00000E+00
         0.00000E+00
         0.00000E+00
         0.00000E+00
         0.00000E+00
         0.00000E+00
         0.00000E+00
         0.00000E+00
         0.00000E+00
         0.00000E+00
         0.00000E+00
         0.00000E+00
         0.00000E+00
         0.00000E+00
         0.00000E+00
         0.00000E+00
         0.00000E+00
         0.00000E+00
         0.00000E+00
         0.00000E+00
         0.00000E+00
         0.00000E+00
         0.00000E+00
         0.00000E+00
         0.00000E+00
         0.00000E+00
         0.00000E+00
         0.00000E+00
         0.00000E+00
         0.00000E+00
         0.00000E+00
         0.00000E+00
         0.00000E+00
         0.00000E+00
         0.00000E+00
         0.00000E+00
         0.00000E+00
         0.00000E+00
         0.00000E+00
         0.00000E+00
         0.00000E+00
         0.00000E+00
         0.00000E+00
         0.00000E+00
         0.00000E+00
         0.00000E+00
         0.00000E+00
         0.00000E+00
         0.00000E+00
         0.00000E+00
         0.00000E+00
         0.00000E+00
         0.00000E+00
         0.00000E+00
         0.00000E+00
         0.00000E+00
         0.00000E+00
         0.00000E+00
         0.00000E+00
         0.00000E+00
         0.00000E+00
         0.00000E+00
         0.00000E+00
         0.00000E+00
         0.00000E+00
         0.00000E+00
         0.00000E+00
         0.00000E+00
         0.00000E+00
         0.00000E+00
         0.00000E+00
         0.00000E+00
         0.00000E+00
         0.00000E+00
         0.00000E+00
         0.00000E+00
         0.00000E+00
         0.00000E+00
         0.00000E+00
         0.00000E+00
         0.00000E+00
         0.00000E+00
         0.00000E+00
         0.00000E+00
         0.00000E+00
         0.00000E+00
         0.00000E+00
         0.00000E+00
         0.00000E+00
         0.00000E+00
         0.00000E+00
         0.00000E+00
         0.00000E+00
         0.00000E+00
         0.00000E+00
         0.00000E+00
         0.00000E+00
         0.00000E+00
         0.00000E+00
         0.00000E+00
         0.00000E+00
         0.00000E+00
         0.00000E+00
         0.00000E+00
         0.00000E+00
         0.00000E+00
         0.00000E+00
         0.00000E+00
         0.00000E+00
         0.00000E+00
         0.00000E+00
         0.00000E+00
         0.00000E+00
         0.00000E+00
         0.00000E+00
         0.00000E+00
         0.00000E+00
         0.00000E+00
         0.00000E+00
         0.00000E+00
         0.00000E+00
         0.00000E+00
         0.00000E+00
         0.00000E+00
         0.00000E+00
         0.00000E+00
         0.00000E+00
         0.00000E+00
         0.00000E+00
         0.00000E+00
         0.00000E+00
         0.00000E+00
         0.00000E+00
         0.00000E+00
         0.00000E+00
         0.00000E+00
         0.00000E+00
         0.00000E+00
         0.00000E+00
         0.00000E+00
         0.00000E+00
         0.00000E+00
         0.00000E+00
         0.00000E+00
         0.00000E+00
         0.00000E+00
         0.00000E+00
         0.00000E+00
         0.00000E+00
         0.00000E+00
         0.00000E+00
         0.00000E+00
         0.00000E+00
         0.00000E+00
         0.00000E+00
         0.00000E+00
         0.00000E+00
         0.00000E+00
         0.00000E+00
         0.00000E+00
         0.00000E+00
         0.00000E+00
         0.00000E+00
         0.00000E+00
         0.00000E+00
         0.00000E+00
         0.00000E+00
         0.00000E+00
         0.00000E+00
         0.00000E+00
         0.00000E+00
         0.00000E+00
         0.00000E+00
         0.00000E+00
         0.00000E+00
         0.00000E+00
         0.00000E+00
         0.00000E+00
         0.00000E+00
         0.00000E+00
         0.00000E+00
         0.00000E+00
         0.00000E+00
         0.00000E+00
         0.00000E+00
         0.00000E+00
         0.00000E+00
         0.00000E+00
         0.00000E+00
         0.00000E+00
         0.00000E+00
         0.00000E+00
         0.00000E+00
         0.00000E+00
         0.00000E+00
         0.00000E+00
         0.00000E+00
         0.00000E+00
         0.00000E+00
         0.00000E+00
         0.00000E+00
         0.00000E+00
         0.00000E+00
         0.00000E+00
         0.00000E+00
         0.00000E+00
         0.00000E+00
         0.00000E+00
         0.00000E+00
         0.00000E+00
         0.00000E+00
         0.00000E+00
         0.00000E+00
         0.00000E+00
         0.00000E+00
         0.00000E+00
         0.00000E+00
         0.00000E+00
         0.00000E+00
         0.00000E+00
         0.00000E+00
         0.00000E+00
         0.00000E+00
         0.00000E+00
         0.00000E+00
         0.00000E+00
         0.00000E+00
         0.00000E+00
         0.00000E+00
         0.00000E+00
         0.00000E+00
         0.00000E+00
         0.00000E+00
         0.00000E+00
         0.00000E+00
         0.00000E+00
         0.00000E+00
         0.00000E+00
         0.00000E+00
         0.00000E+00
         0.00000E+00
         0.00000E+00
         0.00000E+00
         0.00000E+00
         0.00000E+00
         0.00000E+00
         0.00000E+00
         0.00000E+00
         0.00000E+00
         0.00000E+00
         0.00000E+00
         0.00000E+00
         0.00000E+00
         0.00000E+00
         0.00000E+00
         0.00000E+00
         0.00000E+00
         0.00000E+00
         0.00000E+00
         0.00000E+00
         0.00000E+00
         0.00000E+00
         0.00000E+00
         0.00000E+00
         0.00000E+00
         0.00000E+00
         0.00000E+00
         0.00000E+00
         0.00000E+00
         0.00000E+00
         0.00000E+00
         0.00000E+00
         0.00000E+00
         0.00000E+00
         0.00000E+00
         0.00000E+00
         0.00000E+00
         0.00000E+00
         0.00000E+00
         0.00000E+00
         0.00000E+00
         0.00000E+00
         0.00000E+00
         0.00000E+00
         0.00000E+00
         0.00000E+00
         0.00000E+00
         0.00000E+00
         0.00000E+00
         0.00000E+00
         0.00000E+00
         0.00000E+00
         0.00000E+00
         0.00000E+00
         0.00000E+00
         0.00000E+00
         0.00000E+00
         0.00000E+00
         0.00000E+00
         0.00000E+00
         0.00000E+00
         0.00000E+00
         0.00000E+00
         0.00000E+00
         0.00000E+00
         0.00000E+00
         0.00000E+00
         0.00000E+00
         0.00000E+00
         0.00000E+00
         0.00000E+00
         0.00000E+00
         0.00000E+00
         0.00000E+00
         0.00000E+00
         0.00000E+00
         0.00000E+00
         0.00000E+00
         0.00000E+00
         0.00000E+00
         0.00000E+00
         0.00000E+00
         0.00000E+00
         0.00000E+00
         0.00000E+00
         0.00000E+00
         0.00000E+00
         0.00000E+00
         0.00000E+00
         0.00000E+00
         0.00000E+00
         0.00000E+00
         0.00000E+00
         0.00000E+00
         0.00000E+00
         0.00000E+00
         0.00000E+00
         0.00000E+00
         0.00000E+00
         0.00000E+00
         0.00000E+00
         0.00000E+00
         0.00000E+00
         0.00000E+00
         0.00000E+00
         0.00000E+00
         0.00000E+00
         0.00000E+00
         0.00000E+00
         0.00000E+00
         0.00000E+00
         0.00000E+00
         0.00000E+00
         0.00000E+00
         0.00000E+00
         0.00000E+00
         0.00000E+00
         0.00000E+00
         0.00000E+00
         0.00000E+00
         0.00000E+00
         0.00000E+00
         0.00000E+00
         0.00000E+00
         0.00000E+00
         0.00000E+00
         0.00000E+00
         0.00000E+00
         0.00000E+00
         0.00000E+00
         0.00000E+00
         0.00000E+00
         0.00000E+00
         0.00000E+00
         0.00000E+00
         0.00000E+00
         0.00000E+00
         0.00000E+00
         0.00000E+00
         0.00000E+00
         0.00000E+00
         0.00000E+00
         0.00000E+00
         0.00000E+00
         0.00000E+00
         0.00000E+00
         0.00000E+00
         0.00000E+00
         0.00000E+00
         0.00000E+00
         0.00000E+00
         0.00000E+00
         0.00000E+00
         0.00000E+00
         0.00000E+00
         0.00000E+00
         0.00000E+00
         0.00000E+00
         0.00000E+00
         0.00000E+00
         0.00000E+00
         0.00000E+00
         0.00000E+00
         0.00000E+00
         0.00000E+00
         0.00000E+00
         0.00000E+00
         0.00000E+00
         0.00000E+00
         0.00000E+00
         0.00000E+00
         0.00000E+00
         0.00000E+00
         0.00000E+00
         0.00000E+00
         0.00000E+00
         0.00000E+00
         0.00000E+00
         0.00000E+00
         0.00000E+00
         0.00000E+00
         0.00000E+00
         0.00000E+00
         0.00000E+00
         0.00000E+00
         0.00000E+00
         0.00000E+00
         0.00000E+00
         0.00000E+00
         0.00000E+00
         0.00000E+00
         0.00000E+00
         0.00000E+00
         0.00000E+00
         0.00000E+00
         0.00000E+00
         0.00000E+00
         0.00000E+00
         0.00000E+00
         0.00000E+00
         0.00000E+00
         0.00000E+00
         0.00000E+00
         0.00000E+00
         0.00000E+00
         0.00000E+00
         0.00000E+00
         0.00000E+00
         0.00000E+00
         0.00000E+00
         0.00000E+00
         0.00000E+00
         0.00000E+00
         0.00000E+00
         0.00000E+00
         0.00000E+00
         0.00000E+00
         0.00000E+00
         0.00000E+00
         0.00000E+00
         0.00000E+00
         0.00000E+00
         0.00000E+00
         0.00000E+00
         0.00000E+00
         0.00000E+00
         0.00000E+00
         0.00000E+00
         0.00000E+00
         0.00000E+00
         0.00000E+00
         0.00000E+00
         0.00000E+00
         0.00000E+00
         0.00000E+00
         0.00000E+00
         0.00000E+00
         0.00000E+00
         0.00000E+00
         0.00000E+00
         0.00000E+00
         0.00000E+00
         0.00000E+00
         0.00000E+00
         0.00000E+00
         0.00000E+00
         0.00000E+00
         0.00000E+00
         0.00000E+00
         0.00000E+00
         0.00000E+00
         0.00000E+00
         0.00000E+00
         0.00000E+00
         0.00000E+00
         0.00000E+00
         0.00000E+00
         0.00000E+00
         0.00000E+00
         0.00000E+00
         0.00000E+00
         0.00000E+00
         0.00000E+00
         0.00000E+00
         0.00000E+00
         0.00000E+00
         0.00000E+00
         0.00000E+00
         0.00000E+00
         0.00000E+00
         0.00000E+00
         0.00000E+00
  
SCALARS        characteristic_distance  double 1
LOOKUP_TABLE default
         0.00000E+00
         0.00000E+00
         0.00000E+00
         0.00000E+00
         0.00000E+00
         0.00000E+00
         0.00000E+00
         0.00000E+00
         0.00000E+00
         0.00000E+00
         0.00000E+00
         0.00000E+00
         0.00000E+00
         0.00000E+00
         0.00000E+00
         0.00000E+00
         0.00000E+00
         0.00000E+00
         0.00000E+00
         0.00000E+00
         0.00000E+00
         0.00000E+00
         0.00000E+00
         0.00000E+00
         0.00000E+00
         0.00000E+00
         0.00000E+00
         0.00000E+00
         0.00000E+00
         0.00000E+00
         0.00000E+00
         0.00000E+00
         0.00000E+00
         0.00000E+00
         0.00000E+00
         0.00000E+00
         0.00000E+00
         0.00000E+00
         0.00000E+00
         0.00000E+00
         0.00000E+00
         0.00000E+00
         0.00000E+00
         0.00000E+00
         0.00000E+00
         0.00000E+00
         0.00000E+00
         0.00000E+00
         0.00000E+00
         0.00000E+00
         0.00000E+00
         0.00000E+00
         0.00000E+00
         0.00000E+00
         0.00000E+00
         0.00000E+00
         0.00000E+00
         0.00000E+00
         0.00000E+00
         0.00000E+00
         0.00000E+00
         0.00000E+00
         0.00000E+00
         0.00000E+00
         0.00000E+00
         0.00000E+00
         0.00000E+00
         0.00000E+00
         0.00000E+00
         0.00000E+00
         0.00000E+00
         0.00000E+00
         0.00000E+00
         0.00000E+00
         0.00000E+00
         0.00000E+00
         0.00000E+00
         0.00000E+00
         0.00000E+00
         0.00000E+00
         0.00000E+00
         0.00000E+00
         0.00000E+00
         0.00000E+00
         0.00000E+00
         0.00000E+00
         0.00000E+00
         0.00000E+00
         0.00000E+00
         0.00000E+00
         0.00000E+00
         0.00000E+00
         0.00000E+00
         0.00000E+00
         0.00000E+00
         0.00000E+00
         0.00000E+00
         0.00000E+00
         0.00000E+00
         0.00000E+00
         0.00000E+00
         0.00000E+00
         0.00000E+00
         0.00000E+00
         0.00000E+00
         0.00000E+00
         0.00000E+00
         0.00000E+00
         0.00000E+00
         0.00000E+00
         0.00000E+00
         0.00000E+00
         0.00000E+00
         0.00000E+00
         0.00000E+00
         0.00000E+00
         0.00000E+00
         0.00000E+00
         0.00000E+00
         0.00000E+00
         0.00000E+00
         0.00000E+00
         0.00000E+00
         0.00000E+00
         0.00000E+00
         0.00000E+00
         0.00000E+00
         0.00000E+00
         0.00000E+00
         0.00000E+00
         0.00000E+00
         0.00000E+00
         0.00000E+00
         0.00000E+00
         0.00000E+00
         0.00000E+00
         0.00000E+00
         0.00000E+00
         0.00000E+00
         0.00000E+00
         0.00000E+00
         0.00000E+00
         0.00000E+00
         0.00000E+00
         0.00000E+00
         0.00000E+00
         0.00000E+00
         0.00000E+00
         0.00000E+00
         0.00000E+00
         0.00000E+00
         0.00000E+00
         0.00000E+00
         0.00000E+00
         0.00000E+00
         0.00000E+00
         0.00000E+00
         0.00000E+00
         0.00000E+00
         0.00000E+00
         0.00000E+00
         0.00000E+00
         0.00000E+00
         0.00000E+00
         0.00000E+00
         0.00000E+00
         0.00000E+00
         0.00000E+00
         0.00000E+00
         0.00000E+00
         0.00000E+00
         0.00000E+00
         0.00000E+00
         0.00000E+00
         0.00000E+00
         0.00000E+00
         0.00000E+00
         0.00000E+00
         0.00000E+00
         0.00000E+00
         0.00000E+00
         0.00000E+00
         0.00000E+00
         0.00000E+00
         0.00000E+00
         0.00000E+00
         0.00000E+00
         0.00000E+00
         0.00000E+00
         0.00000E+00
         0.00000E+00
         0.00000E+00
         0.00000E+00
         0.00000E+00
         0.00000E+00
         0.00000E+00
         0.00000E+00
         0.00000E+00
         0.00000E+00
         0.00000E+00
         0.00000E+00
         0.00000E+00
         0.00000E+00
         0.00000E+00
         0.00000E+00
         0.00000E+00
         0.00000E+00
         0.00000E+00
         0.00000E+00
         0.00000E+00
         0.00000E+00
         0.00000E+00
         0.00000E+00
         0.00000E+00
         0.00000E+00
         0.00000E+00
         0.00000E+00
         0.00000E+00
         0.00000E+00
         0.00000E+00
         0.00000E+00
         0.00000E+00
         0.00000E+00
         0.00000E+00
         0.00000E+00
         0.00000E+00
         0.00000E+00
         0.00000E+00
         0.00000E+00
         0.00000E+00
         0.00000E+00
         0.00000E+00
         0.00000E+00
         0.00000E+00
         0.00000E+00
         0.00000E+00
         0.00000E+00
         0.00000E+00
         0.00000E+00
         0.00000E+00
         0.00000E+00
         0.00000E+00
         0.00000E+00
         0.00000E+00
         0.00000E+00
         0.00000E+00
         0.00000E+00
         0.00000E+00
         0.00000E+00
         0.00000E+00
         0.00000E+00
         0.00000E+00
         0.00000E+00
         0.00000E+00
         0.00000E+00
         0.00000E+00
         0.00000E+00
         0.00000E+00
         0.00000E+00
         0.00000E+00
         0.00000E+00
         0.00000E+00
         0.00000E+00
         0.00000E+00
         0.00000E+00
         0.00000E+00
         0.00000E+00
         0.00000E+00
         0.00000E+00
         0.00000E+00
         0.00000E+00
         0.00000E+00
         0.00000E+00
         0.00000E+00
         0.00000E+00
         0.00000E+00
         0.00000E+00
         0.00000E+00
         0.00000E+00
         0.00000E+00
         0.00000E+00
         0.00000E+00
         0.00000E+00
         0.00000E+00
         0.00000E+00
         0.00000E+00
         0.00000E+00
         0.00000E+00
         0.00000E+00
         0.00000E+00
         0.00000E+00
         0.00000E+00
         0.00000E+00
         0.00000E+00
         0.00000E+00
         0.00000E+00
         0.00000E+00
         0.00000E+00
         0.00000E+00
         0.00000E+00
         0.00000E+00
         0.00000E+00
         0.00000E+00
         0.00000E+00
         0.00000E+00
         0.00000E+00
         0.00000E+00
         0.00000E+00
         0.00000E+00
         0.00000E+00
         0.00000E+00
         0.00000E+00
         0.00000E+00
         0.00000E+00
         0.00000E+00
         0.00000E+00
         0.00000E+00
         0.00000E+00
         0.00000E+00
         0.00000E+00
         0.00000E+00
         0.00000E+00
         0.00000E+00
         0.00000E+00
         0.00000E+00
         0.00000E+00
         0.00000E+00
         0.00000E+00
         0.00000E+00
         0.00000E+00
         0.00000E+00
         0.00000E+00
         0.00000E+00
         0.00000E+00
         0.00000E+00
         0.00000E+00
         0.00000E+00
         0.00000E+00
         0.00000E+00
         0.00000E+00
         0.00000E+00
         0.00000E+00
         0.00000E+00
         0.00000E+00
         0.00000E+00
         0.00000E+00
         0.00000E+00
         0.00000E+00
         0.00000E+00
         0.00000E+00
         0.00000E+00
         0.00000E+00
         0.00000E+00
         0.00000E+00
         0.00000E+00
         0.00000E+00
         0.00000E+00
         0.00000E+00
         0.00000E+00
         0.00000E+00
         0.00000E+00
         0.00000E+00
         0.00000E+00
         0.00000E+00
         0.00000E+00
         0.00000E+00
         0.00000E+00
         0.00000E+00
         0.00000E+00
         0.00000E+00
         0.00000E+00
         0.00000E+00
         0.00000E+00
         0.00000E+00
         0.00000E+00
         0.00000E+00
         0.00000E+00
         0.00000E+00
         0.00000E+00
         0.00000E+00
         0.00000E+00
         0.00000E+00
         0.00000E+00
         0.00000E+00
         0.00000E+00
         0.00000E+00
         0.00000E+00
         0.00000E+00
         0.00000E+00
         0.00000E+00
         0.00000E+00
         0.00000E+00
         0.00000E+00
         0.00000E+00
         0.00000E+00
         0.00000E+00
         0.00000E+00
         0.00000E+00
         0.00000E+00
         0.00000E+00
         0.00000E+00
         0.00000E+00
         0.00000E+00
         0.00000E+00
         0.00000E+00
         0.00000E+00
         0.00000E+00
         0.00000E+00
         0.00000E+00
         0.00000E+00
         0.00000E+00
         0.00000E+00
         0.00000E+00
         0.00000E+00
         0.00000E+00
         0.00000E+00
         0.00000E+00
         0.00000E+00
         0.00000E+00
         0.00000E+00
         0.00000E+00
         0.00000E+00
         0.00000E+00
         0.00000E+00
         0.00000E+00
         0.00000E+00
         0.00000E+00
         0.00000E+00
         0.00000E+00
         0.00000E+00
         0.00000E+00
         0.00000E+00
         0.00000E+00
         0.00000E+00
         0.00000E+00
         0.00000E+00
         0.00000E+00
         0.00000E+00
         0.00000E+00
         0.00000E+00
         0.00000E+00
         0.00000E+00
         0.00000E+00
         0.00000E+00
         0.00000E+00
         0.00000E+00
         0.00000E+00
         0.00000E+00
         0.00000E+00
         0.00000E+00
         0.00000E+00
         0.00000E+00
         0.00000E+00
         0.00000E+00
         0.00000E+00
         0.00000E+00
         0.00000E+00
         0.00000E+00
         0.00000E+00
         0.00000E+00
         0.00000E+00
         0.00000E+00
         0.00000E+00
         0.00000E+00
         0.00000E+00
         0.00000E+00
         0.00000E+00
         0.00000E+00
         0.00000E+00
         0.00000E+00
         0.00000E+00
         0.00000E+00
         0.00000E+00
         0.00000E+00
         0.00000E+00
         0.00000E+00
         0.00000E+00
         0.00000E+00
         0.00000E+00
         0.00000E+00
         0.00000E+00
         0.00000E+00
         0.00000E+00
         0.00000E+00
         0.00000E+00
         0.00000E+00
         0.00000E+00
         0.00000E+00
         0.00000E+00
         0.00000E+00
         0.00000E+00
         0.00000E+00
         0.00000E+00
         0.00000E+00
         0.00000E+00
         0.00000E+00
         0.00000E+00
         0.00000E+00
         0.00000E+00
         0.00000E+00
         0.00000E+00
         0.00000E+00
         0.00000E+00
         0.00000E+00
         0.00000E+00
         0.00000E+00
         0.00000E+00
         0.00000E+00
         0.00000E+00
         0.00000E+00
         0.00000E+00
         0.00000E+00
         0.00000E+00
         0.00000E+00
         0.00000E+00
         0.00000E+00
         0.00000E+00
         0.00000E+00
         0.00000E+00
         0.00000E+00
         0.00000E+00
         0.00000E+00
         0.00000E+00
         0.00000E+00
         0.00000E+00
         0.00000E+00
         0.00000E+00
         0.00000E+00
         0.00000E+00
         0.00000E+00
         0.00000E+00
         0.00000E+00
         0.00000E+00
         0.00000E+00
         0.00000E+00
         0.00000E+00
         0.00000E+00
         0.00000E+00
         0.00000E+00
         0.00000E+00
         0.00000E+00
         0.00000E+00
         0.00000E+00
         0.00000E+00
         0.00000E+00
         0.00000E+00
         0.00000E+00
         0.00000E+00
         0.00000E+00
         0.00000E+00
         0.00000E+00
         0.00000E+00
         0.00000E+00
         0.00000E+00
         0.00000E+00
         0.00000E+00
         0.00000E+00
         0.00000E+00
         0.00000E+00
         0.00000E+00
         0.00000E+00
         0.00000E+00
         0.00000E+00
         0.00000E+00
         0.00000E+00
         0.00000E+00
         0.00000E+00
         0.00000E+00
         0.00000E+00
         0.00000E+00
         0.00000E+00
         0.00000E+00
         0.00000E+00
         0.00000E+00
         0.00000E+00
         0.00000E+00
         0.00000E+00
         0.00000E+00
         0.00000E+00
         0.00000E+00
         0.00000E+00
         0.00000E+00
         0.00000E+00
         0.00000E+00
         0.00000E+00
         0.00000E+00
         0.00000E+00
         0.00000E+00
         0.00000E+00
         0.00000E+00
         0.00000E+00
         0.00000E+00
         0.00000E+00
         0.00000E+00
         0.00000E+00
         0.00000E+00
         0.00000E+00
         0.00000E+00
         0.00000E+00
         0.00000E+00
         0.00000E+00
         0.00000E+00
         0.00000E+00
         0.00000E+00
         0.00000E+00
         0.00000E+00
         0.00000E+00
         0.00000E+00
         0.00000E+00
         0.00000E+00
         0.00000E+00
         0.00000E+00
         0.00000E+00
         0.00000E+00
         0.00000E+00
         0.00000E+00
         0.00000E+00
         0.00000E+00
         0.00000E+00
         0.00000E+00
         0.00000E+00
         0.00000E+00
         0.00000E+00
         0.00000E+00
         0.00000E+00
         0.00000E+00
         0.00000E+00
         0.00000E+00
         0.00000E+00
         0.00000E+00
         0.00000E+00
         0.00000E+00
         0.00000E+00
         0.00000E+00
         0.00000E+00
         0.00000E+00
         0.00000E+00
         0.00000E+00
         0.00000E+00
         0.00000E+00
         0.00000E+00
         0.00000E+00
         0.00000E+00
         0.00000E+00
         0.00000E+00
         0.00000E+00
         0.00000E+00
         0.00000E+00
         0.00000E+00
         0.00000E+00
         0.00000E+00
         0.00000E+00
         0.00000E+00
         0.00000E+00
         0.00000E+00
         0.00000E+00
         0.00000E+00
         0.00000E+00
         0.00000E+00
         0.00000E+00
         0.00000E+00
         0.00000E+00
         0.00000E+00
         0.00000E+00
         0.00000E+00
         0.00000E+00
         0.00000E+00
         0.00000E+00
         0.00000E+00
         0.00000E+00
         0.00000E+00
         0.00000E+00
         0.00000E+00
         0.00000E+00
         0.00000E+00
         0.00000E+00
         0.00000E+00
         0.00000E+00
         0.00000E+00
         0.00000E+00
         0.00000E+00
         0.00000E+00
         0.00000E+00
         0.00000E+00
         0.00000E+00
         0.00000E+00
         0.00000E+00
         0.00000E+00
         0.00000E+00
         0.00000E+00
         0.00000E+00
         0.00000E+00
         0.00000E+00
         0.00000E+00
         0.00000E+00
         0.00000E+00
         0.00000E+00
         0.00000E+00
         0.00000E+00
         0.00000E+00
         0.00000E+00
         0.00000E+00
         0.00000E+00
         0.00000E+00
         0.00000E+00
         0.00000E+00
         0.00000E+00
         0.00000E+00
         0.00000E+00
         0.00000E+00
         0.00000E+00
         0.00000E+00
         0.00000E+00
         0.00000E+00
         0.00000E+00
         0.00000E+00
         0.00000E+00
         0.00000E+00
         0.00000E+00
         0.00000E+00
         0.00000E+00
         0.00000E+00
         0.00000E+00
         0.00000E+00
         0.00000E+00
         0.00000E+00
         0.00000E+00
         0.00000E+00
         0.00000E+00
         0.00000E+00
         0.00000E+00
         0.00000E+00
         0.00000E+00
         0.00000E+00
         0.00000E+00
         0.00000E+00
         0.00000E+00
         0.00000E+00
         0.00000E+00
         0.00000E+00
         0.00000E+00
         0.00000E+00
         0.00000E+00
         0.00000E+00
         0.00000E+00
         0.00000E+00
         0.00000E+00
         0.00000E+00
         0.00000E+00
         0.00000E+00
         0.00000E+00
         0.00000E+00
         0.00000E+00
         0.00000E+00
         0.00000E+00
         0.00000E+00
         0.00000E+00
         0.00000E+00
         0.00000E+00
         0.00000E+00
         0.00000E+00
         0.00000E+00
         0.00000E+00
         0.00000E+00
         0.00000E+00
         0.00000E+00
         0.00000E+00
         0.00000E+00
         0.00000E+00
         0.00000E+00
         0.00000E+00
         0.00000E+00
         0.00000E+00
         0.00000E+00
         0.00000E+00
         0.00000E+00
         0.00000E+00
         0.00000E+00
         0.00000E+00
         0.00000E+00
         0.00000E+00
         0.00000E+00
         0.00000E+00
         0.00000E+00
         0.00000E+00
         0.00000E+00
         0.00000E+00
         0.00000E+00
         0.00000E+00
         0.00000E+00
         0.00000E+00
         0.00000E+00
         0.00000E+00
         0.00000E+00
         0.00000E+00
         0.00000E+00
         0.00000E+00
         0.00000E+00
         0.00000E+00
         0.00000E+00
         0.00000E+00
         0.00000E+00
         0.00000E+00
         0.00000E+00
         0.00000E+00
         0.00000E+00
         0.00000E+00
         0.00000E+00
         0.00000E+00
         0.00000E+00
         0.00000E+00
         0.00000E+00
         0.00000E+00
         0.00000E+00
         0.00000E+00
         0.00000E+00
         0.00000E+00
         0.00000E+00
         0.00000E+00
         0.00000E+00
         0.00000E+00
         0.00000E+00
         0.00000E+00
         0.00000E+00
         0.00000E+00
         0.00000E+00
         0.00000E+00
         0.00000E+00
         0.00000E+00
         0.00000E+00
         0.00000E+00
         0.00000E+00
         0.00000E+00
         0.00000E+00
         0.00000E+00
         0.00000E+00
         0.00000E+00
         0.00000E+00
         0.00000E+00
         0.00000E+00
         0.00000E+00
         0.00000E+00
         0.00000E+00
         0.00000E+00
         0.00000E+00
         0.00000E+00
         0.00000E+00
         0.00000E+00
         0.00000E+00
         0.00000E+00
         0.00000E+00
         0.00000E+00
         0.00000E+00
         0.00000E+00
         0.00000E+00
         0.00000E+00
         0.00000E+00
         0.00000E+00
         0.00000E+00
         0.00000E+00
         0.00000E+00
         0.00000E+00
         0.00000E+00
         0.00000E+00
         0.00000E+00
         0.00000E+00
         0.00000E+00
         0.00000E+00
         0.00000E+00
         0.00000E+00
         0.00000E+00
         0.00000E+00
         0.00000E+00
         0.00000E+00
         0.00000E+00
         0.00000E+00
         0.00000E+00
         0.00000E+00
         0.00000E+00
         0.00000E+00
         0.00000E+00
         0.00000E+00
         0.00000E+00
         0.00000E+00
         0.00000E+00
         0.00000E+00
         0.00000E+00
         0.00000E+00
         0.00000E+00
         0.00000E+00
         0.00000E+00
         0.00000E+00
         0.00000E+00
         0.00000E+00
         0.00000E+00
         0.00000E+00
         0.00000E+00
         0.00000E+00
         0.00000E+00
         0.00000E+00
         0.00000E+00
         0.00000E+00
         0.00000E+00
         0.00000E+00
         0.00000E+00
         0.00000E+00
         0.00000E+00
         0.00000E+00
         0.00000E+00
         0.00000E+00
         0.00000E+00
         0.00000E+00
         0.00000E+00
         0.00000E+00
         0.00000E+00
         0.00000E+00
         0.00000E+00
         0.00000E+00
         0.00000E+00
         0.00000E+00
         0.00000E+00
         0.00000E+00
         0.00000E+00
         0.00000E+00
         0.00000E+00
         0.00000E+00
         0.00000E+00
         0.00000E+00
         0.00000E+00
         0.00000E+00
         0.00000E+00
         0.00000E+00
         0.00000E+00
         0.00000E+00
         0.00000E+00
         0.00000E+00
         0.00000E+00
         0.00000E+00
         0.00000E+00
         0.00000E+00
         0.00000E+00
         0.00000E+00
         0.00000E+00
         0.00000E+00
         0.00000E+00
         0.00000E+00
         0.00000E+00
         0.00000E+00
         0.00000E+00
         0.00000E+00
         0.00000E+00
         0.00000E+00
         0.00000E+00
         0.00000E+00
         0.00000E+00
         0.00000E+00
         0.00000E+00
         0.00000E+00
         0.00000E+00
         0.00000E+00
         0.00000E+00
         0.00000E+00
         0.00000E+00
         0.00000E+00
         0.00000E+00
         0.00000E+00
         0.00000E+00
         0.00000E+00
         0.00000E+00
         0.00000E+00
         0.00000E+00
         0.00000E+00
         0.00000E+00
         0.00000E+00
         0.00000E+00
         0.00000E+00
         0.00000E+00
         0.00000E+00
         0.00000E+00
         0.00000E+00
         0.00000E+00
         0.00000E+00
         0.00000E+00
         0.00000E+00
         0.00000E+00
         0.00000E+00
         0.00000E+00
         0.00000E+00
         0.00000E+00
         0.00000E+00
         0.00000E+00
         0.00000E+00
         0.00000E+00
         0.00000E+00
         0.00000E+00
         0.00000E+00
         0.00000E+00
         0.00000E+00
         0.00000E+00
         0.00000E+00
         0.00000E+00
         0.00000E+00
         0.00000E+00
         0.00000E+00
         0.00000E+00
         0.00000E+00
         0.00000E+00
         0.00000E+00
         0.00000E+00
         0.00000E+00
         0.00000E+00
         0.00000E+00
         0.00000E+00
         0.00000E+00
         0.00000E+00
         0.00000E+00
         0.00000E+00
         0.00000E+00
         0.00000E+00
         0.00000E+00
         0.00000E+00
         0.00000E+00
         0.00000E+00
         0.00000E+00
         0.00000E+00
         0.00000E+00
         0.00000E+00
         0.00000E+00
         0.00000E+00
         0.00000E+00
         0.00000E+00
         0.00000E+00
         0.00000E+00
         0.00000E+00
         0.00000E+00
         0.00000E+00
         0.00000E+00
         0.00000E+00
         0.00000E+00
         0.00000E+00
         0.00000E+00
         0.00000E+00
         0.00000E+00
         0.00000E+00
         0.00000E+00
         0.00000E+00
         0.00000E+00
         0.00000E+00
         0.00000E+00
         0.00000E+00
         0.00000E+00
         0.00000E+00
         0.00000E+00
         0.00000E+00
         0.00000E+00
         0.00000E+00
         0.00000E+00
         0.00000E+00
         0.00000E+00
         0.00000E+00
         0.00000E+00
         0.00000E+00
         0.00000E+00
         0.00000E+00
         0.00000E+00
         0.00000E+00
         0.00000E+00
         0.00000E+00
         0.00000E+00
         0.00000E+00
         0.00000E+00
         0.00000E+00
         0.00000E+00
         0.00000E+00
         0.00000E+00
         0.00000E+00
         0.00000E+00
         0.00000E+00
         0.00000E+00
         0.00000E+00
         0.00000E+00
         0.00000E+00
         0.00000E+00
         0.00000E+00
         0.00000E+00
         0.00000E+00
         0.00000E+00
         0.00000E+00
         0.00000E+00
         0.00000E+00
         0.00000E+00
         0.00000E+00
         0.00000E+00
         0.00000E+00
         0.00000E+00
         0.00000E+00
         0.00000E+00
         0.00000E+00
         0.00000E+00
         0.00000E+00
         0.00000E+00
         0.00000E+00
         0.00000E+00
         0.00000E+00
         0.00000E+00
         0.00000E+00
         0.00000E+00
         0.00000E+00
         0.00000E+00
         0.00000E+00
         0.00000E+00
         0.00000E+00
         0.00000E+00
         0.00000E+00
         0.00000E+00
         0.00000E+00
         0.00000E+00
         0.00000E+00
         0.00000E+00
         0.00000E+00
         0.00000E+00
         0.00000E+00
         0.00000E+00
         0.00000E+00
         0.00000E+00
         0.00000E+00
         0.00000E+00
         0.00000E+00
         0.00000E+00
         0.00000E+00
         0.00000E+00
         0.00000E+00
         0.00000E+00
         0.00000E+00
         0.00000E+00
         0.00000E+00
         0.00000E+00
         0.00000E+00
         0.00000E+00
         0.00000E+00
         0.00000E+00
         0.00000E+00
         0.00000E+00
         0.00000E+00
         0.00000E+00
         0.00000E+00
         0.00000E+00
         0.00000E+00
         0.00000E+00
         0.00000E+00
         0.00000E+00
         0.00000E+00
         0.00000E+00
         0.00000E+00
         0.00000E+00
         0.00000E+00
         0.00000E+00
         0.00000E+00
         0.00000E+00
         0.00000E+00
         0.00000E+00
         0.00000E+00
         0.00000E+00
         0.00000E+00
         0.00000E+00
         0.00000E+00
         0.00000E+00
         0.00000E+00
         0.00000E+00
         0.00000E+00
         0.00000E+00
         0.00000E+00
         0.00000E+00
         0.00000E+00
         0.00000E+00
         0.00000E+00
         0.00000E+00
         0.00000E+00
         0.00000E+00
         0.00000E+00
         0.00000E+00
         0.00000E+00
         0.00000E+00
         0.00000E+00
         0.00000E+00
         0.00000E+00
         0.00000E+00
         0.00000E+00
         0.00000E+00
         0.00000E+00
         0.00000E+00
         0.00000E+00
         0.00000E+00
         0.00000E+00
         0.00000E+00
         0.00000E+00
         0.00000E+00
         0.00000E+00
         0.00000E+00
         0.00000E+00
         0.00000E+00
         0.00000E+00
         0.00000E+00
         0.00000E+00
         0.00000E+00
         0.00000E+00
         0.00000E+00
         0.00000E+00
         0.00000E+00
         0.00000E+00
         0.00000E+00
         0.00000E+00
         0.00000E+00
         0.00000E+00
         0.00000E+00
         0.00000E+00
         0.00000E+00
         0.00000E+00
         0.00000E+00
         0.00000E+00
         0.00000E+00
         0.00000E+00
         0.00000E+00
         0.00000E+00
         0.00000E+00
         0.00000E+00
         0.00000E+00
         0.00000E+00
         0.00000E+00
         0.00000E+00
         0.00000E+00
         0.00000E+00
         0.00000E+00
         0.00000E+00
         0.00000E+00
         0.00000E+00
         0.00000E+00
         0.00000E+00
         0.00000E+00
         0.00000E+00
         0.00000E+00
         0.00000E+00
         0.00000E+00
         0.00000E+00
         0.00000E+00
         0.00000E+00
         0.00000E+00
         0.00000E+00
         0.00000E+00
         0.00000E+00
         0.00000E+00
         0.00000E+00
         0.00000E+00
         0.00000E+00
         0.00000E+00
         0.00000E+00
         0.00000E+00
         0.00000E+00
         0.00000E+00
         0.00000E+00
         0.00000E+00
         0.00000E+00
         0.00000E+00
         0.00000E+00
         0.00000E+00
         0.00000E+00
         0.00000E+00
         0.00000E+00
         0.00000E+00
         0.00000E+00
         0.00000E+00
         0.00000E+00
         0.00000E+00
         0.00000E+00
         0.00000E+00
         0.00000E+00
         0.00000E+00
         0.00000E+00
         0.00000E+00
         0.00000E+00
         0.00000E+00
         0.00000E+00
         0.00000E+00
         0.00000E+00
         0.00000E+00
         0.00000E+00
         0.00000E+00
         0.00000E+00
         0.00000E+00
         0.00000E+00
         0.00000E+00
         0.00000E+00
         0.00000E+00
         0.00000E+00
         0.00000E+00
         0.00000E+00
         0.00000E+00
         0.00000E+00
         0.00000E+00
         0.00000E+00
         0.00000E+00
         0.00000E+00
         0.00000E+00
         0.00000E+00
         0.00000E+00
         0.00000E+00
         0.00000E+00
         0.00000E+00
         0.00000E+00
         0.00000E+00
         0.00000E+00
         0.00000E+00
         0.00000E+00
         0.00000E+00
         0.00000E+00
         0.00000E+00
         0.00000E+00
         0.00000E+00
         0.00000E+00
         0.00000E+00
         0.00000E+00
         0.00000E+00
         0.00000E+00
         0.00000E+00
         0.00000E+00
         0.00000E+00
         0.00000E+00
         0.00000E+00
         0.00000E+00
         0.00000E+00
         0.00000E+00
         0.00000E+00
         0.00000E+00
         0.00000E+00
         0.00000E+00
         0.00000E+00
         0.00000E+00
         0.00000E+00
         0.00000E+00
         0.00000E+00
         0.00000E+00
         0.00000E+00
         0.00000E+00
         0.00000E+00
         0.00000E+00
         0.00000E+00
         0.00000E+00
         0.00000E+00
         0.00000E+00
         0.00000E+00
         0.00000E+00
         0.00000E+00
         0.00000E+00
         0.00000E+00
         0.00000E+00
         0.00000E+00
         0.00000E+00
         0.00000E+00
         0.00000E+00
         0.00000E+00
         0.00000E+00
         0.00000E+00
         0.00000E+00
         0.00000E+00
         0.00000E+00
         0.00000E+00
         0.00000E+00
         0.00000E+00
         0.00000E+00
         0.00000E+00
         0.00000E+00
         0.00000E+00
         0.00000E+00
         0.00000E+00
         0.00000E+00
         0.00000E+00
         0.00000E+00
         0.00000E+00
         0.00000E+00
         0.00000E+00
         0.00000E+00
         0.00000E+00
         0.00000E+00
         0.00000E+00
         0.00000E+00
         0.00000E+00
         0.00000E+00
         0.00000E+00
         0.00000E+00
         0.00000E+00
         0.00000E+00
         0.00000E+00
         0.00000E+00
         0.00000E+00
         0.00000E+00
         0.00000E+00
         0.00000E+00
         0.00000E+00
         0.00000E+00
         0.00000E+00
         0.00000E+00
         0.00000E+00
         0.00000E+00
         0.00000E+00
         0.00000E+00
         0.00000E+00
         0.00000E+00
         0.00000E+00
         0.00000E+00
         0.00000E+00
         0.00000E+00
         0.00000E+00
         0.00000E+00
         0.00000E+00
         0.00000E+00
         0.00000E+00
         0.00000E+00
         0.00000E+00
         0.00000E+00
         0.00000E+00
         0.00000E+00
         0.00000E+00
         0.00000E+00
         0.00000E+00
         0.00000E+00
         0.00000E+00
         0.00000E+00
         0.00000E+00
         0.00000E+00
         0.00000E+00
         0.00000E+00
         0.00000E+00
         0.00000E+00
         0.00000E+00
         0.00000E+00
         0.00000E+00
         0.00000E+00
         0.00000E+00
         0.00000E+00
         0.00000E+00
         0.00000E+00
         0.00000E+00
         0.00000E+00
         0.00000E+00
         0.00000E+00
         0.00000E+00
         0.00000E+00
         0.00000E+00
         0.00000E+00
         0.00000E+00
         0.00000E+00
         0.00000E+00
         0.00000E+00
         0.00000E+00
         0.00000E+00
         0.00000E+00
         0.00000E+00
         0.00000E+00
         0.00000E+00
         0.00000E+00
         0.00000E+00
         0.00000E+00
         0.00000E+00
         0.00000E+00
         0.00000E+00
         0.00000E+00
         0.00000E+00
         0.00000E+00
         0.00000E+00
         0.00000E+00
         0.00000E+00
         0.00000E+00
         0.00000E+00
         0.00000E+00
         0.00000E+00
         0.00000E+00
         0.00000E+00
         0.00000E+00
         0.00000E+00
         0.00000E+00
         0.00000E+00
         0.00000E+00
         0.00000E+00
         0.00000E+00
         0.00000E+00
         0.00000E+00
         0.00000E+00
         0.00000E+00
         0.00000E+00
         0.00000E+00
         0.00000E+00
         0.00000E+00
         0.00000E+00
         0.00000E+00
         0.00000E+00
         0.00000E+00
         0.00000E+00
         0.00000E+00
         0.00000E+00
         0.00000E+00
         0.00000E+00
         0.00000E+00
         0.00000E+00
         0.00000E+00
         0.00000E+00
         0.00000E+00
         0.00000E+00
         0.00000E+00
         0.00000E+00
         0.00000E+00
         0.00000E+00
         0.00000E+00
         0.00000E+00
         0.00000E+00
         0.00000E+00
         0.00000E+00
         0.00000E+00
         0.00000E+00
         0.00000E+00
         0.00000E+00
         0.00000E+00
         0.00000E+00
         0.00000E+00
         0.00000E+00
         0.00000E+00
         0.00000E+00
         0.00000E+00
         0.00000E+00
         0.00000E+00
         0.00000E+00
         0.00000E+00
         0.00000E+00
         0.00000E+00
         0.00000E+00
         0.00000E+00
         0.00000E+00
         0.00000E+00
         0.00000E+00
         0.00000E+00
         0.00000E+00
         0.00000E+00
         0.00000E+00
         0.00000E+00
         0.00000E+00
         0.00000E+00
         0.00000E+00
         0.00000E+00
         0.00000E+00
         0.00000E+00
         0.00000E+00
         0.00000E+00
         0.00000E+00
         0.00000E+00
         0.00000E+00
         0.00000E+00
         0.00000E+00
         0.00000E+00
         0.00000E+00
         0.00000E+00
         0.00000E+00
         0.00000E+00
         0.00000E+00
         0.00000E+00
         0.00000E+00
         0.00000E+00
         0.00000E+00
         0.00000E+00
         0.00000E+00
         0.00000E+00
         0.00000E+00
         0.00000E+00
         0.00000E+00
         0.00000E+00
         0.00000E+00
         0.00000E+00
         0.00000E+00
         0.00000E+00
         0.00000E+00
         0.00000E+00
         0.00000E+00
         0.00000E+00
         0.00000E+00
         0.00000E+00
         0.00000E+00
         0.00000E+00
         0.00000E+00
         0.00000E+00
         0.00000E+00
         0.00000E+00
         0.00000E+00
         0.00000E+00
         0.00000E+00
         0.00000E+00
         0.00000E+00
         0.00000E+00
         0.00000E+00
         0.00000E+00
         0.00000E+00
         0.00000E+00
         0.00000E+00
         0.00000E+00
         0.00000E+00
         0.00000E+00
         0.00000E+00
         0.00000E+00
         0.00000E+00
         0.00000E+00
         0.00000E+00
         0.00000E+00
         0.00000E+00
         0.00000E+00
         0.00000E+00
         0.00000E+00
         0.00000E+00
         0.00000E+00
         0.00000E+00
         0.00000E+00
         0.00000E+00
         0.00000E+00
         0.00000E+00
         0.00000E+00
         0.00000E+00
         0.00000E+00
         0.00000E+00
         0.00000E+00
         0.00000E+00
         0.00000E+00
         0.00000E+00
         0.00000E+00
         0.00000E+00
         0.00000E+00
         0.00000E+00
         0.00000E+00
         0.00000E+00
         0.00000E+00
         0.00000E+00
         0.00000E+00
         0.00000E+00
         0.00000E+00
         0.00000E+00
         0.00000E+00
         0.00000E+00
         0.00000E+00
         0.00000E+00
         0.00000E+00
         0.00000E+00
         0.00000E+00
         0.00000E+00
         0.00000E+00
         0.00000E+00
         0.00000E+00
         0.00000E+00
         0.00000E+00
         0.00000E+00
         0.00000E+00
         0.00000E+00
         0.00000E+00
         0.00000E+00
         0.00000E+00
         0.00000E+00
         0.00000E+00
         0.00000E+00
         0.00000E+00
         0.00000E+00
         0.00000E+00
         0.00000E+00
         0.00000E+00
         0.00000E+00
         0.00000E+00
         0.00000E+00
         0.00000E+00
         0.00000E+00
         0.00000E+00
         0.00000E+00
         0.00000E+00
         0.00000E+00
         0.00000E+00
         0.00000E+00
         0.00000E+00
         0.00000E+00
         0.00000E+00
         0.00000E+00
         0.00000E+00
         0.00000E+00
         0.00000E+00
         0.00000E+00
         0.00000E+00
         0.00000E+00
         0.00000E+00
         0.00000E+00
         0.00000E+00
         0.00000E+00
         0.00000E+00
         0.00000E+00
         0.00000E+00
         0.00000E+00
         0.00000E+00
         0.00000E+00
         0.00000E+00
         0.00000E+00
         0.00000E+00
         0.00000E+00
         0.00000E+00
         0.00000E+00
         0.00000E+00
         0.00000E+00
         0.00000E+00
         0.00000E+00
         0.00000E+00
         0.00000E+00
         0.00000E+00
         0.00000E+00
         0.00000E+00
         0.00000E+00
         0.00000E+00
         0.00000E+00
         0.00000E+00
         0.00000E+00
         0.00000E+00
         0.00000E+00
         0.00000E+00
         0.00000E+00
         0.00000E+00
         0.00000E+00
         0.00000E+00
         0.00000E+00
         0.00000E+00
         0.00000E+00
         0.00000E+00
         0.00000E+00
         0.00000E+00
         0.00000E+00
         0.00000E+00
         0.00000E+00
         0.00000E+00
         0.00000E+00
         0.00000E+00
         0.00000E+00
         0.00000E+00
         0.00000E+00
         0.00000E+00
         0.00000E+00
         0.00000E+00
         0.00000E+00
         0.00000E+00
         0.00000E+00
         0.00000E+00
         0.00000E+00
         0.00000E+00
         0.00000E+00
         0.00000E+00
         0.00000E+00
         0.00000E+00
         0.00000E+00
         0.00000E+00
         0.00000E+00
         0.00000E+00
         0.00000E+00
         0.00000E+00
         0.00000E+00
         0.00000E+00
         0.00000E+00
         0.00000E+00
         0.00000E+00
         0.00000E+00
         0.00000E+00
         0.00000E+00
         0.00000E+00
         0.00000E+00
         0.00000E+00
         0.00000E+00
         0.00000E+00
         0.00000E+00
         0.00000E+00
         0.00000E+00
         0.00000E+00
         0.00000E+00
         0.00000E+00
         0.00000E+00
         0.00000E+00
         0.00000E+00
         0.00000E+00
         0.00000E+00
         0.00000E+00
         0.00000E+00
         0.00000E+00
         0.00000E+00
         0.00000E+00
         0.00000E+00
         0.00000E+00
         0.00000E+00
         0.00000E+00
         0.00000E+00
         0.00000E+00
         0.00000E+00
         0.00000E+00
         0.00000E+00
         0.00000E+00
         0.00000E+00
         0.00000E+00
         0.00000E+00
         0.00000E+00
         0.00000E+00
         0.00000E+00
         0.00000E+00
         0.00000E+00
         0.00000E+00
         0.00000E+00
         0.00000E+00
         0.00000E+00
         0.00000E+00
         0.00000E+00
         0.00000E+00
         0.00000E+00
         0.00000E+00
         0.00000E+00
         0.00000E+00
         0.00000E+00
         0.00000E+00
         0.00000E+00
         0.00000E+00
         0.00000E+00
         0.00000E+00
         0.00000E+00
         0.00000E+00
         0.00000E+00
         0.00000E+00
         0.00000E+00
         0.00000E+00
         0.00000E+00
         0.00000E+00
         0.00000E+00
         0.00000E+00
         0.00000E+00
         0.00000E+00
         0.00000E+00
         0.00000E+00
         0.00000E+00
         0.00000E+00
         0.00000E+00
         0.00000E+00
         0.00000E+00
         0.00000E+00
         0.00000E+00
         0.00000E+00
         0.00000E+00
         0.00000E+00
         0.00000E+00
         0.00000E+00
         0.00000E+00
         0.00000E+00
         0.00000E+00
         0.00000E+00
         0.00000E+00
         0.00000E+00
         0.00000E+00
         0.00000E+00
         0.00000E+00
         0.00000E+00
         0.00000E+00
         0.00000E+00
         0.00000E+00
         0.00000E+00
         0.00000E+00
         0.00000E+00
         0.00000E+00
         0.00000E+00
         0.00000E+00
         0.00000E+00
         0.00000E+00
         0.00000E+00
         0.00000E+00
         0.00000E+00
         0.00000E+00
         0.00000E+00
         0.00000E+00
         0.00000E+00
         0.00000E+00
         0.00000E+00
         0.00000E+00
         0.00000E+00
         0.00000E+00
         0.00000E+00
         0.00000E+00
         0.00000E+00
         0.00000E+00
         0.00000E+00
         0.00000E+00
         0.00000E+00
         0.00000E+00
         0.00000E+00
         0.00000E+00
         0.00000E+00
         0.00000E+00
         0.00000E+00
         0.00000E+00
         0.00000E+00
         0.00000E+00
         0.00000E+00
         0.00000E+00
         0.00000E+00
         0.00000E+00
         0.00000E+00
         0.00000E+00
         0.00000E+00
         0.00000E+00
         0.00000E+00
         0.00000E+00
         0.00000E+00
         0.00000E+00
         0.00000E+00
         0.00000E+00
         0.00000E+00
         0.00000E+00
         0.00000E+00
         0.00000E+00
         0.00000E+00
         0.00000E+00
         0.00000E+00
         0.00000E+00
         0.00000E+00
         0.00000E+00
         0.00000E+00
         0.00000E+00
         0.00000E+00
         0.00000E+00
         0.00000E+00
         0.00000E+00
         0.00000E+00
         0.00000E+00
         0.00000E+00
         0.00000E+00
         0.00000E+00
         0.00000E+00
         0.00000E+00
         0.00000E+00
         0.00000E+00
         0.00000E+00
         0.00000E+00
         0.00000E+00
         0.00000E+00
         0.00000E+00
         0.00000E+00
         0.00000E+00
         0.00000E+00
         0.00000E+00
         0.00000E+00
         0.00000E+00
         0.00000E+00
         0.00000E+00
  
SCALARS                   max_wave_vel  double 1
LOOKUP_TABLE default
         0.00000E+00
         0.00000E+00
         0.00000E+00
         0.00000E+00
         0.00000E+00
         0.00000E+00
         0.00000E+00
         0.00000E+00
         0.00000E+00
         0.00000E+00
         0.00000E+00
         0.00000E+00
         0.00000E+00
         0.00000E+00
         0.00000E+00
         0.00000E+00
         0.00000E+00
         0.00000E+00
         0.00000E+00
         0.00000E+00
         0.00000E+00
         0.00000E+00
         0.00000E+00
         0.00000E+00
         0.00000E+00
         0.00000E+00
         0.00000E+00
         0.00000E+00
         0.00000E+00
         0.00000E+00
         0.00000E+00
         0.00000E+00
         0.00000E+00
         0.00000E+00
         0.00000E+00
         0.00000E+00
         0.00000E+00
         0.00000E+00
         0.00000E+00
         0.00000E+00
         0.00000E+00
         0.00000E+00
         0.00000E+00
         0.00000E+00
         0.00000E+00
         0.00000E+00
         0.00000E+00
         0.00000E+00
         0.00000E+00
         0.00000E+00
         0.00000E+00
         0.00000E+00
         0.00000E+00
         0.00000E+00
         0.00000E+00
         0.00000E+00
         0.00000E+00
         0.00000E+00
         0.00000E+00
         0.00000E+00
         0.00000E+00
         0.00000E+00
         0.00000E+00
         0.00000E+00
         0.00000E+00
         0.00000E+00
         0.00000E+00
         0.00000E+00
         0.00000E+00
         0.00000E+00
         0.00000E+00
         0.00000E+00
         0.00000E+00
         0.00000E+00
         0.00000E+00
         0.00000E+00
         0.00000E+00
         0.00000E+00
         0.00000E+00
         0.00000E+00
         0.00000E+00
         0.00000E+00
         0.00000E+00
         0.00000E+00
         0.00000E+00
         0.00000E+00
         0.00000E+00
         0.00000E+00
         0.00000E+00
         0.00000E+00
         0.00000E+00
         0.00000E+00
         0.00000E+00
         0.00000E+00
         0.00000E+00
         0.00000E+00
         0.00000E+00
         0.00000E+00
         0.00000E+00
         0.00000E+00
         0.00000E+00
         0.00000E+00
         0.00000E+00
         0.00000E+00
         0.00000E+00
         0.00000E+00
         0.00000E+00
         0.00000E+00
         0.00000E+00
         0.00000E+00
         0.00000E+00
         0.00000E+00
         0.00000E+00
         0.00000E+00
         0.00000E+00
         0.00000E+00
         0.00000E+00
         0.00000E+00
         0.00000E+00
         0.00000E+00
         0.00000E+00
         0.00000E+00
         0.00000E+00
         0.00000E+00
         0.00000E+00
         0.00000E+00
         0.00000E+00
         0.00000E+00
         0.00000E+00
         0.00000E+00
         0.00000E+00
         0.00000E+00
         0.00000E+00
         0.00000E+00
         0.00000E+00
         0.00000E+00
         0.00000E+00
         0.00000E+00
         0.00000E+00
         0.00000E+00
         0.00000E+00
         0.00000E+00
         0.00000E+00
         0.00000E+00
         0.00000E+00
         0.00000E+00
         0.00000E+00
         0.00000E+00
         0.00000E+00
         0.00000E+00
         0.00000E+00
         0.00000E+00
         0.00000E+00
         0.00000E+00
         0.00000E+00
         0.00000E+00
         0.00000E+00
         0.00000E+00
         0.00000E+00
         0.00000E+00
         0.00000E+00
         0.00000E+00
         0.00000E+00
         0.00000E+00
         0.00000E+00
         0.00000E+00
         0.00000E+00
         0.00000E+00
         0.00000E+00
         0.00000E+00
         0.00000E+00
         0.00000E+00
         0.00000E+00
         0.00000E+00
         0.00000E+00
         0.00000E+00
         0.00000E+00
         0.00000E+00
         0.00000E+00
         0.00000E+00
         0.00000E+00
         0.00000E+00
         0.00000E+00
         0.00000E+00
         0.00000E+00
         0.00000E+00
         0.00000E+00
         0.00000E+00
         0.00000E+00
         0.00000E+00
         0.00000E+00
         0.00000E+00
         0.00000E+00
         0.00000E+00
         0.00000E+00
         0.00000E+00
         0.00000E+00
         0.00000E+00
         0.00000E+00
         0.00000E+00
         0.00000E+00
         0.00000E+00
         0.00000E+00
         0.00000E+00
         0.00000E+00
         0.00000E+00
         0.00000E+00
         0.00000E+00
         0.00000E+00
         0.00000E+00
         0.00000E+00
         0.00000E+00
         0.00000E+00
         0.00000E+00
         0.00000E+00
         0.00000E+00
         0.00000E+00
         0.00000E+00
         0.00000E+00
         0.00000E+00
         0.00000E+00
         0.00000E+00
         0.00000E+00
         0.00000E+00
         0.00000E+00
         0.00000E+00
         0.00000E+00
         0.00000E+00
         0.00000E+00
         0.00000E+00
         0.00000E+00
         0.00000E+00
         0.00000E+00
         0.00000E+00
         0.00000E+00
         0.00000E+00
         0.00000E+00
         0.00000E+00
         0.00000E+00
         0.00000E+00
         0.00000E+00
         0.00000E+00
         0.00000E+00
         0.00000E+00
         0.00000E+00
         0.00000E+00
         0.00000E+00
         0.00000E+00
         0.00000E+00
         0.00000E+00
         0.00000E+00
         0.00000E+00
         0.00000E+00
         0.00000E+00
         0.00000E+00
         0.00000E+00
         0.00000E+00
         0.00000E+00
         0.00000E+00
         0.00000E+00
         0.00000E+00
         0.00000E+00
         0.00000E+00
         0.00000E+00
         0.00000E+00
         0.00000E+00
         0.00000E+00
         0.00000E+00
         0.00000E+00
         0.00000E+00
         0.00000E+00
         0.00000E+00
         0.00000E+00
         0.00000E+00
         0.00000E+00
         0.00000E+00
         0.00000E+00
         0.00000E+00
         0.00000E+00
         0.00000E+00
         0.00000E+00
         0.00000E+00
         0.00000E+00
         0.00000E+00
         0.00000E+00
         0.00000E+00
         0.00000E+00
         0.00000E+00
         0.00000E+00
         0.00000E+00
         0.00000E+00
         0.00000E+00
         0.00000E+00
         0.00000E+00
         0.00000E+00
         0.00000E+00
         0.00000E+00
         0.00000E+00
         0.00000E+00
         0.00000E+00
         0.00000E+00
         0.00000E+00
         0.00000E+00
         0.00000E+00
         0.00000E+00
         0.00000E+00
         0.00000E+00
         0.00000E+00
         0.00000E+00
         0.00000E+00
         0.00000E+00
         0.00000E+00
         0.00000E+00
         0.00000E+00
         0.00000E+00
         0.00000E+00
         0.00000E+00
         0.00000E+00
         0.00000E+00
         0.00000E+00
         0.00000E+00
         0.00000E+00
         0.00000E+00
         0.00000E+00
         0.00000E+00
         0.00000E+00
         0.00000E+00
         0.00000E+00
         0.00000E+00
         0.00000E+00
         0.00000E+00
         0.00000E+00
         0.00000E+00
         0.00000E+00
         0.00000E+00
         0.00000E+00
         0.00000E+00
         0.00000E+00
         0.00000E+00
         0.00000E+00
         0.00000E+00
         0.00000E+00
         0.00000E+00
         0.00000E+00
         0.00000E+00
         0.00000E+00
         0.00000E+00
         0.00000E+00
         0.00000E+00
         0.00000E+00
         0.00000E+00
         0.00000E+00
         0.00000E+00
         0.00000E+00
         0.00000E+00
         0.00000E+00
         0.00000E+00
         0.00000E+00
         0.00000E+00
         0.00000E+00
         0.00000E+00
         0.00000E+00
         0.00000E+00
         0.00000E+00
         0.00000E+00
         0.00000E+00
         0.00000E+00
         0.00000E+00
         0.00000E+00
         0.00000E+00
         0.00000E+00
         0.00000E+00
         0.00000E+00
         0.00000E+00
         0.00000E+00
         0.00000E+00
         0.00000E+00
         0.00000E+00
         0.00000E+00
         0.00000E+00
         0.00000E+00
         0.00000E+00
         0.00000E+00
         0.00000E+00
         0.00000E+00
         0.00000E+00
         0.00000E+00
         0.00000E+00
         0.00000E+00
         0.00000E+00
         0.00000E+00
         0.00000E+00
         0.00000E+00
         0.00000E+00
         0.00000E+00
         0.00000E+00
         0.00000E+00
         0.00000E+00
         0.00000E+00
         0.00000E+00
         0.00000E+00
         0.00000E+00
         0.00000E+00
         0.00000E+00
         0.00000E+00
         0.00000E+00
         0.00000E+00
         0.00000E+00
         0.00000E+00
         0.00000E+00
         0.00000E+00
         0.00000E+00
         0.00000E+00
         0.00000E+00
         0.00000E+00
         0.00000E+00
         0.00000E+00
         0.00000E+00
         0.00000E+00
         0.00000E+00
         0.00000E+00
         0.00000E+00
         0.00000E+00
         0.00000E+00
         0.00000E+00
         0.00000E+00
         0.00000E+00
         0.00000E+00
         0.00000E+00
         0.00000E+00
         0.00000E+00
         0.00000E+00
         0.00000E+00
         0.00000E+00
         0.00000E+00
         0.00000E+00
         0.00000E+00
         0.00000E+00
         0.00000E+00
         0.00000E+00
         0.00000E+00
         0.00000E+00
         0.00000E+00
         0.00000E+00
         0.00000E+00
         0.00000E+00
         0.00000E+00
         0.00000E+00
         0.00000E+00
         0.00000E+00
         0.00000E+00
         0.00000E+00
         0.00000E+00
         0.00000E+00
         0.00000E+00
         0.00000E+00
         0.00000E+00
         0.00000E+00
         0.00000E+00
         0.00000E+00
         0.00000E+00
         0.00000E+00
         0.00000E+00
         0.00000E+00
         0.00000E+00
         0.00000E+00
         0.00000E+00
         0.00000E+00
         0.00000E+00
         0.00000E+00
         0.00000E+00
         0.00000E+00
         0.00000E+00
         0.00000E+00
         0.00000E+00
         0.00000E+00
         0.00000E+00
         0.00000E+00
         0.00000E+00
         0.00000E+00
         0.00000E+00
         0.00000E+00
         0.00000E+00
         0.00000E+00
         0.00000E+00
         0.00000E+00
         0.00000E+00
         0.00000E+00
         0.00000E+00
         0.00000E+00
         0.00000E+00
         0.00000E+00
         0.00000E+00
         0.00000E+00
         0.00000E+00
         0.00000E+00
         0.00000E+00
         0.00000E+00
         0.00000E+00
         0.00000E+00
         0.00000E+00
         0.00000E+00
         0.00000E+00
         0.00000E+00
         0.00000E+00
         0.00000E+00
         0.00000E+00
         0.00000E+00
         0.00000E+00
         0.00000E+00
         0.00000E+00
         0.00000E+00
         0.00000E+00
         0.00000E+00
         0.00000E+00
         0.00000E+00
         0.00000E+00
         0.00000E+00
         0.00000E+00
         0.00000E+00
         0.00000E+00
         0.00000E+00
         0.00000E+00
         0.00000E+00
         0.00000E+00
         0.00000E+00
         0.00000E+00
         0.00000E+00
         0.00000E+00
         0.00000E+00
         0.00000E+00
         0.00000E+00
         0.00000E+00
         0.00000E+00
         0.00000E+00
         0.00000E+00
         0.00000E+00
         0.00000E+00
         0.00000E+00
         0.00000E+00
         0.00000E+00
         0.00000E+00
         0.00000E+00
         0.00000E+00
         0.00000E+00
         0.00000E+00
         0.00000E+00
         0.00000E+00
         0.00000E+00
         0.00000E+00
         0.00000E+00
         0.00000E+00
         0.00000E+00
         0.00000E+00
         0.00000E+00
         0.00000E+00
         0.00000E+00
         0.00000E+00
         0.00000E+00
         0.00000E+00
         0.00000E+00
         0.00000E+00
         0.00000E+00
         0.00000E+00
         0.00000E+00
         0.00000E+00
         0.00000E+00
         0.00000E+00
         0.00000E+00
         0.00000E+00
         0.00000E+00
         0.00000E+00
         0.00000E+00
         0.00000E+00
         0.00000E+00
         0.00000E+00
         0.00000E+00
         0.00000E+00
         0.00000E+00
         0.00000E+00
         0.00000E+00
         0.00000E+00
         0.00000E+00
         0.00000E+00
         0.00000E+00
         0.00000E+00
         0.00000E+00
         0.00000E+00
         0.00000E+00
         0.00000E+00
         0.00000E+00
         0.00000E+00
         0.00000E+00
         0.00000E+00
         0.00000E+00
         0.00000E+00
         0.00000E+00
         0.00000E+00
         0.00000E+00
         0.00000E+00
         0.00000E+00
         0.00000E+00
         0.00000E+00
         0.00000E+00
         0.00000E+00
         0.00000E+00
         0.00000E+00
         0.00000E+00
         0.00000E+00
         0.00000E+00
         0.00000E+00
         0.00000E+00
         0.00000E+00
         0.00000E+00
         0.00000E+00
         0.00000E+00
         0.00000E+00
         0.00000E+00
         0.00000E+00
         0.00000E+00
         0.00000E+00
         0.00000E+00
         0.00000E+00
         0.00000E+00
         0.00000E+00
         0.00000E+00
         0.00000E+00
         0.00000E+00
         0.00000E+00
         0.00000E+00
         0.00000E+00
         0.00000E+00
         0.00000E+00
         0.00000E+00
         0.00000E+00
         0.00000E+00
         0.00000E+00
         0.00000E+00
         0.00000E+00
         0.00000E+00
         0.00000E+00
         0.00000E+00
         0.00000E+00
         0.00000E+00
         0.00000E+00
         0.00000E+00
         0.00000E+00
         0.00000E+00
         0.00000E+00
         0.00000E+00
         0.00000E+00
         0.00000E+00
         0.00000E+00
         0.00000E+00
         0.00000E+00
         0.00000E+00
         0.00000E+00
         0.00000E+00
         0.00000E+00
         0.00000E+00
         0.00000E+00
         0.00000E+00
         0.00000E+00
         0.00000E+00
         0.00000E+00
         0.00000E+00
         0.00000E+00
         0.00000E+00
         0.00000E+00
         0.00000E+00
         0.00000E+00
         0.00000E+00
         0.00000E+00
         0.00000E+00
         0.00000E+00
         0.00000E+00
         0.00000E+00
         0.00000E+00
         0.00000E+00
         0.00000E+00
         0.00000E+00
         0.00000E+00
         0.00000E+00
         0.00000E+00
         0.00000E+00
         0.00000E+00
         0.00000E+00
         0.00000E+00
         0.00000E+00
         0.00000E+00
         0.00000E+00
         0.00000E+00
         0.00000E+00
         0.00000E+00
         0.00000E+00
         0.00000E+00
         0.00000E+00
         0.00000E+00
         0.00000E+00
         0.00000E+00
         0.00000E+00
         0.00000E+00
         0.00000E+00
         0.00000E+00
         0.00000E+00
         0.00000E+00
         0.00000E+00
         0.00000E+00
         0.00000E+00
         0.00000E+00
         0.00000E+00
         0.00000E+00
         0.00000E+00
         0.00000E+00
         0.00000E+00
         0.00000E+00
         0.00000E+00
         0.00000E+00
         0.00000E+00
         0.00000E+00
         0.00000E+00
         0.00000E+00
         0.00000E+00
         0.00000E+00
         0.00000E+00
         0.00000E+00
         0.00000E+00
         0.00000E+00
         0.00000E+00
         0.00000E+00
         0.00000E+00
         0.00000E+00
         0.00000E+00
         0.00000E+00
         0.00000E+00
         0.00000E+00
         0.00000E+00
         0.00000E+00
         0.00000E+00
         0.00000E+00
         0.00000E+00
         0.00000E+00
         0.00000E+00
         0.00000E+00
         0.00000E+00
         0.00000E+00
         0.00000E+00
         0.00000E+00
         0.00000E+00
         0.00000E+00
         0.00000E+00
         0.00000E+00
         0.00000E+00
         0.00000E+00
         0.00000E+00
         0.00000E+00
         0.00000E+00
         0.00000E+00
         0.00000E+00
         0.00000E+00
         0.00000E+00
         0.00000E+00
         0.00000E+00
         0.00000E+00
         0.00000E+00
         0.00000E+00
         0.00000E+00
         0.00000E+00
         0.00000E+00
         0.00000E+00
         0.00000E+00
         0.00000E+00
         0.00000E+00
         0.00000E+00
         0.00000E+00
         0.00000E+00
         0.00000E+00
         0.00000E+00
         0.00000E+00
         0.00000E+00
         0.00000E+00
         0.00000E+00
         0.00000E+00
         0.00000E+00
         0.00000E+00
         0.00000E+00
         0.00000E+00
         0.00000E+00
         0.00000E+00
         0.00000E+00
         0.00000E+00
         0.00000E+00
         0.00000E+00
         0.00000E+00
         0.00000E+00
         0.00000E+00
         0.00000E+00
         0.00000E+00
         0.00000E+00
         0.00000E+00
         0.00000E+00
         0.00000E+00
         0.00000E+00
         0.00000E+00
         0.00000E+00
         0.00000E+00
         0.00000E+00
         0.00000E+00
         0.00000E+00
         0.00000E+00
         0.00000E+00
         0.00000E+00
         0.00000E+00
         0.00000E+00
         0.00000E+00
         0.00000E+00
         0.00000E+00
         0.00000E+00
         0.00000E+00
         0.00000E+00
         0.00000E+00
         0.00000E+00
         0.00000E+00
         0.00000E+00
         0.00000E+00
         0.00000E+00
         0.00000E+00
         0.00000E+00
         0.00000E+00
         0.00000E+00
         0.00000E+00
         0.00000E+00
         0.00000E+00
         0.00000E+00
         0.00000E+00
         0.00000E+00
         0.00000E+00
         0.00000E+00
         0.00000E+00
         0.00000E+00
         0.00000E+00
         0.00000E+00
         0.00000E+00
         0.00000E+00
         0.00000E+00
         0.00000E+00
         0.00000E+00
         0.00000E+00
         0.00000E+00
         0.00000E+00
         0.00000E+00
         0.00000E+00
         0.00000E+00
         0.00000E+00
         0.00000E+00
         0.00000E+00
         0.00000E+00
         0.00000E+00
         0.00000E+00
         0.00000E+00
         0.00000E+00
         0.00000E+00
         0.00000E+00
         0.00000E+00
         0.00000E+00
         0.00000E+00
         0.00000E+00
         0.00000E+00
         0.00000E+00
         0.00000E+00
         0.00000E+00
         0.00000E+00
         0.00000E+00
         0.00000E+00
         0.00000E+00
         0.00000E+00
         0.00000E+00
         0.00000E+00
         0.00000E+00
         0.00000E+00
         0.00000E+00
         0.00000E+00
         0.00000E+00
         0.00000E+00
         0.00000E+00
         0.00000E+00
         0.00000E+00
         0.00000E+00
         0.00000E+00
         0.00000E+00
         0.00000E+00
         0.00000E+00
         0.00000E+00
         0.00000E+00
         0.00000E+00
         0.00000E+00
         0.00000E+00
         0.00000E+00
         0.00000E+00
         0.00000E+00
         0.00000E+00
         0.00000E+00
         0.00000E+00
         0.00000E+00
         0.00000E+00
         0.00000E+00
         0.00000E+00
         0.00000E+00
         0.00000E+00
         0.00000E+00
         0.00000E+00
         0.00000E+00
         0.00000E+00
         0.00000E+00
         0.00000E+00
         0.00000E+00
         0.00000E+00
         0.00000E+00
         0.00000E+00
         0.00000E+00
         0.00000E+00
         0.00000E+00
         0.00000E+00
         0.00000E+00
         0.00000E+00
         0.00000E+00
         0.00000E+00
         0.00000E+00
         0.00000E+00
         0.00000E+00
         0.00000E+00
         0.00000E+00
         0.00000E+00
         0.00000E+00
         0.00000E+00
         0.00000E+00
         0.00000E+00
         0.00000E+00
         0.00000E+00
         0.00000E+00
         0.00000E+00
         0.00000E+00
         0.00000E+00
         0.00000E+00
         0.00000E+00
         0.00000E+00
         0.00000E+00
         0.00000E+00
         0.00000E+00
         0.00000E+00
         0.00000E+00
         0.00000E+00
         0.00000E+00
         0.00000E+00
         0.00000E+00
         0.00000E+00
         0.00000E+00
         0.00000E+00
         0.00000E+00
         0.00000E+00
         0.00000E+00
         0.00000E+00
         0.00000E+00
         0.00000E+00
         0.00000E+00
         0.00000E+00
         0.00000E+00
         0.00000E+00
         0.00000E+00
         0.00000E+00
         0.00000E+00
         0.00000E+00
         0.00000E+00
         0.00000E+00
         0.00000E+00
         0.00000E+00
         0.00000E+00
         0.00000E+00
         0.00000E+00
         0.00000E+00
         0.00000E+00
         0.00000E+00
         0.00000E+00
         0.00000E+00
         0.00000E+00
         0.00000E+00
         0.00000E+00
         0.00000E+00
         0.00000E+00
         0.00000E+00
         0.00000E+00
         0.00000E+00
         0.00000E+00
         0.00000E+00
         0.00000E+00
         0.00000E+00
         0.00000E+00
         0.00000E+00
         0.00000E+00
         0.00000E+00
         0.00000E+00
         0.00000E+00
         0.00000E+00
         0.00000E+00
         0.00000E+00
         0.00000E+00
         0.00000E+00
         0.00000E+00
         0.00000E+00
         0.00000E+00
         0.00000E+00
         0.00000E+00
         0.00000E+00
         0.00000E+00
         0.00000E+00
         0.00000E+00
         0.00000E+00
         0.00000E+00
         0.00000E+00
         0.00000E+00
         0.00000E+00
         0.00000E+00
         0.00000E+00
         0.00000E+00
         0.00000E+00
         0.00000E+00
         0.00000E+00
         0.00000E+00
         0.00000E+00
         0.00000E+00
         0.00000E+00
         0.00000E+00
         0.00000E+00
         0.00000E+00
         0.00000E+00
         0.00000E+00
         0.00000E+00
         0.00000E+00
         0.00000E+00
         0.00000E+00
         0.00000E+00
         0.00000E+00
         0.00000E+00
         0.00000E+00
         0.00000E+00
         0.00000E+00
         0.00000E+00
         0.00000E+00
         0.00000E+00
         0.00000E+00
         0.00000E+00
         0.00000E+00
         0.00000E+00
         0.00000E+00
         0.00000E+00
         0.00000E+00
         0.00000E+00
         0.00000E+00
         0.00000E+00
         0.00000E+00
         0.00000E+00
         0.00000E+00
         0.00000E+00
         0.00000E+00
         0.00000E+00
         0.00000E+00
         0.00000E+00
         0.00000E+00
         0.00000E+00
         0.00000E+00
         0.00000E+00
         0.00000E+00
         0.00000E+00
         0.00000E+00
         0.00000E+00
         0.00000E+00
         0.00000E+00
         0.00000E+00
         0.00000E+00
         0.00000E+00
         0.00000E+00
         0.00000E+00
         0.00000E+00
         0.00000E+00
         0.00000E+00
         0.00000E+00
         0.00000E+00
         0.00000E+00
         0.00000E+00
         0.00000E+00
         0.00000E+00
         0.00000E+00
         0.00000E+00
         0.00000E+00
         0.00000E+00
         0.00000E+00
         0.00000E+00
         0.00000E+00
         0.00000E+00
         0.00000E+00
         0.00000E+00
         0.00000E+00
         0.00000E+00
         0.00000E+00
         0.00000E+00
         0.00000E+00
         0.00000E+00
         0.00000E+00
         0.00000E+00
         0.00000E+00
         0.00000E+00
         0.00000E+00
         0.00000E+00
         0.00000E+00
         0.00000E+00
         0.00000E+00
         0.00000E+00
         0.00000E+00
         0.00000E+00
         0.00000E+00
         0.00000E+00
         0.00000E+00
         0.00000E+00
         0.00000E+00
         0.00000E+00
         0.00000E+00
         0.00000E+00
         0.00000E+00
         0.00000E+00
         0.00000E+00
         0.00000E+00
         0.00000E+00
         0.00000E+00
         0.00000E+00
         0.00000E+00
         0.00000E+00
         0.00000E+00
         0.00000E+00
         0.00000E+00
         0.00000E+00
         0.00000E+00
         0.00000E+00
         0.00000E+00
         0.00000E+00
         0.00000E+00
         0.00000E+00
         0.00000E+00
         0.00000E+00
         0.00000E+00
         0.00000E+00
         0.00000E+00
         0.00000E+00
         0.00000E+00
         0.00000E+00
         0.00000E+00
         0.00000E+00
         0.00000E+00
         0.00000E+00
         0.00000E+00
         0.00000E+00
         0.00000E+00
         0.00000E+00
         0.00000E+00
         0.00000E+00
         0.00000E+00
         0.00000E+00
         0.00000E+00
         0.00000E+00
         0.00000E+00
         0.00000E+00
         0.00000E+00
         0.00000E+00
         0.00000E+00
         0.00000E+00
         0.00000E+00
         0.00000E+00
         0.00000E+00
         0.00000E+00
         0.00000E+00
         0.00000E+00
         0.00000E+00
         0.00000E+00
         0.00000E+00
         0.00000E+00
         0.00000E+00
         0.00000E+00
         0.00000E+00
         0.00000E+00
         0.00000E+00
         0.00000E+00
         0.00000E+00
         0.00000E+00
         0.00000E+00
         0.00000E+00
         0.00000E+00
         0.00000E+00
         0.00000E+00
         0.00000E+00
         0.00000E+00
         0.00000E+00
         0.00000E+00
         0.00000E+00
         0.00000E+00
         0.00000E+00
         0.00000E+00
         0.00000E+00
         0.00000E+00
         0.00000E+00
         0.00000E+00
         0.00000E+00
         0.00000E+00
         0.00000E+00
         0.00000E+00
         0.00000E+00
         0.00000E+00
         0.00000E+00
         0.00000E+00
         0.00000E+00
         0.00000E+00
         0.00000E+00
         0.00000E+00
         0.00000E+00
         0.00000E+00
         0.00000E+00
         0.00000E+00
         0.00000E+00
         0.00000E+00
         0.00000E+00
         0.00000E+00
         0.00000E+00
         0.00000E+00
         0.00000E+00
         0.00000E+00
         0.00000E+00
         0.00000E+00
         0.00000E+00
         0.00000E+00
         0.00000E+00
         0.00000E+00
         0.00000E+00
         0.00000E+00
         0.00000E+00
         0.00000E+00
         0.00000E+00
         0.00000E+00
         0.00000E+00
         0.00000E+00
         0.00000E+00
         0.00000E+00
         0.00000E+00
         0.00000E+00
         0.00000E+00
         0.00000E+00
         0.00000E+00
         0.00000E+00
         0.00000E+00
         0.00000E+00
         0.00000E+00
         0.00000E+00
         0.00000E+00
         0.00000E+00
         0.00000E+00
         0.00000E+00
         0.00000E+00
         0.00000E+00
         0.00000E+00
         0.00000E+00
         0.00000E+00
         0.00000E+00
         0.00000E+00
         0.00000E+00
         0.00000E+00
         0.00000E+00
         0.00000E+00
         0.00000E+00
         0.00000E+00
         0.00000E+00
         0.00000E+00
         0.00000E+00
         0.00000E+00
         0.00000E+00
         0.00000E+00
         0.00000E+00
         0.00000E+00
         0.00000E+00
         0.00000E+00
         0.00000E+00
         0.00000E+00
         0.00000E+00
         0.00000E+00
         0.00000E+00
         0.00000E+00
         0.00000E+00
         0.00000E+00
         0.00000E+00
         0.00000E+00
         0.00000E+00
         0.00000E+00
         0.00000E+00
         0.00000E+00
         0.00000E+00
         0.00000E+00
         0.00000E+00
         0.00000E+00
         0.00000E+00
         0.00000E+00
         0.00000E+00
         0.00000E+00
         0.00000E+00
         0.00000E+00
         0.00000E+00
         0.00000E+00
         0.00000E+00
         0.00000E+00
         0.00000E+00
         0.00000E+00
         0.00000E+00
         0.00000E+00
         0.00000E+00
         0.00000E+00
         0.00000E+00
         0.00000E+00
         0.00000E+00
         0.00000E+00
         0.00000E+00
         0.00000E+00
         0.00000E+00
         0.00000E+00
         0.00000E+00
         0.00000E+00
         0.00000E+00
         0.00000E+00
         0.00000E+00
         0.00000E+00
         0.00000E+00
         0.00000E+00
         0.00000E+00
         0.00000E+00
         0.00000E+00
         0.00000E+00
         0.00000E+00
         0.00000E+00
         0.00000E+00
         0.00000E+00
         0.00000E+00
         0.00000E+00
         0.00000E+00
         0.00000E+00
         0.00000E+00
         0.00000E+00
         0.00000E+00
         0.00000E+00
         0.00000E+00
         0.00000E+00
         0.00000E+00
         0.00000E+00
         0.00000E+00
         0.00000E+00
         0.00000E+00
         0.00000E+00
         0.00000E+00
         0.00000E+00
         0.00000E+00
         0.00000E+00
         0.00000E+00
         0.00000E+00
         0.00000E+00
         0.00000E+00
         0.00000E+00
         0.00000E+00
         0.00000E+00
         0.00000E+00
         0.00000E+00
         0.00000E+00
         0.00000E+00
         0.00000E+00
         0.00000E+00
         0.00000E+00
         0.00000E+00
         0.00000E+00
         0.00000E+00
         0.00000E+00
         0.00000E+00
         0.00000E+00
         0.00000E+00
         0.00000E+00
         0.00000E+00
         0.00000E+00
         0.00000E+00
         0.00000E+00
         0.00000E+00
         0.00000E+00
         0.00000E+00
         0.00000E+00
         0.00000E+00
         0.00000E+00
         0.00000E+00
         0.00000E+00
         0.00000E+00
         0.00000E+00
         0.00000E+00
         0.00000E+00
         0.00000E+00
         0.00000E+00
         0.00000E+00
         0.00000E+00
         0.00000E+00
         0.00000E+00
         0.00000E+00
         0.00000E+00
         0.00000E+00
         0.00000E+00
         0.00000E+00
         0.00000E+00
         0.00000E+00
         0.00000E+00
         0.00000E+00
         0.00000E+00
         0.00000E+00
         0.00000E+00
         0.00000E+00
         0.00000E+00
         0.00000E+00
         0.00000E+00
         0.00000E+00
         0.00000E+00
         0.00000E+00
         0.00000E+00
         0.00000E+00
         0.00000E+00
         0.00000E+00
         0.00000E+00
         0.00000E+00
         0.00000E+00
         0.00000E+00
         0.00000E+00
         0.00000E+00
         0.00000E+00
         0.00000E+00
         0.00000E+00
         0.00000E+00
         0.00000E+00
         0.00000E+00
         0.00000E+00
         0.00000E+00
         0.00000E+00
         0.00000E+00
         0.00000E+00
         0.00000E+00
         0.00000E+00
         0.00000E+00
         0.00000E+00
         0.00000E+00
         0.00000E+00
         0.00000E+00
         0.00000E+00
         0.00000E+00
         0.00000E+00
         0.00000E+00
         0.00000E+00
         0.00000E+00
         0.00000E+00
         0.00000E+00
         0.00000E+00
         0.00000E+00
         0.00000E+00
         0.00000E+00
         0.00000E+00
         0.00000E+00
         0.00000E+00
         0.00000E+00
         0.00000E+00
         0.00000E+00
         0.00000E+00
         0.00000E+00
         0.00000E+00
         0.00000E+00
         0.00000E+00
         0.00000E+00
         0.00000E+00
         0.00000E+00
         0.00000E+00
         0.00000E+00
         0.00000E+00
         0.00000E+00
         0.00000E+00
         0.00000E+00
         0.00000E+00
         0.00000E+00
         0.00000E+00
         0.00000E+00
         0.00000E+00
         0.00000E+00
         0.00000E+00
         0.00000E+00
         0.00000E+00
         0.00000E+00
         0.00000E+00
         0.00000E+00
         0.00000E+00
         0.00000E+00
         0.00000E+00
         0.00000E+00
         0.00000E+00
         0.00000E+00
         0.00000E+00
         0.00000E+00
         0.00000E+00
         0.00000E+00
         0.00000E+00
         0.00000E+00
         0.00000E+00
         0.00000E+00
         0.00000E+00
         0.00000E+00
         0.00000E+00
         0.00000E+00
         0.00000E+00
         0.00000E+00
         0.00000E+00
         0.00000E+00
         0.00000E+00
         0.00000E+00
         0.00000E+00
         0.00000E+00
         0.00000E+00
         0.00000E+00
         0.00000E+00
         0.00000E+00
         0.00000E+00
         0.00000E+00
         0.00000E+00
         0.00000E+00
         0.00000E+00
         0.00000E+00
         0.00000E+00
         0.00000E+00
         0.00000E+00
         0.00000E+00
         0.00000E+00
         0.00000E+00
         0.00000E+00
         0.00000E+00
         0.00000E+00
         0.00000E+00
         0.00000E+00
         0.00000E+00
         0.00000E+00
         0.00000E+00
         0.00000E+00
         0.00000E+00
         0.00000E+00
         0.00000E+00
         0.00000E+00
         0.00000E+00
         0.00000E+00
         0.00000E+00
         0.00000E+00
         0.00000E+00
         0.00000E+00
         0.00000E+00
         0.00000E+00
         0.00000E+00
         0.00000E+00
         0.00000E+00
         0.00000E+00
         0.00000E+00
         0.00000E+00
         0.00000E+00
         0.00000E+00
         0.00000E+00
         0.00000E+00
         0.00000E+00
         0.00000E+00
         0.00000E+00
         0.00000E+00
         0.00000E+00
         0.00000E+00
         0.00000E+00
         0.00000E+00
         0.00000E+00
         0.00000E+00
         0.00000E+00
         0.00000E+00
         0.00000E+00
         0.00000E+00
         0.00000E+00
         0.00000E+00
         0.00000E+00
         0.00000E+00
         0.00000E+00
         0.00000E+00
         0.00000E+00
         0.00000E+00
         0.00000E+00
         0.00000E+00
         0.00000E+00
         0.00000E+00
         0.00000E+00
         0.00000E+00
         0.00000E+00
         0.00000E+00
         0.00000E+00
         0.00000E+00
         0.00000E+00
         0.00000E+00
         0.00000E+00
         0.00000E+00
         0.00000E+00
         0.00000E+00
         0.00000E+00
         0.00000E+00
         0.00000E+00
         0.00000E+00
         0.00000E+00
         0.00000E+00
         0.00000E+00
         0.00000E+00
         0.00000E+00
         0.00000E+00
         0.00000E+00
         0.00000E+00
         0.00000E+00
         0.00000E+00
         0.00000E+00
         0.00000E+00
         0.00000E+00
         0.00000E+00
         0.00000E+00
         0.00000E+00
         0.00000E+00
         0.00000E+00
         0.00000E+00
         0.00000E+00
         0.00000E+00
         0.00000E+00
         0.00000E+00
         0.00000E+00
         0.00000E+00
         0.00000E+00
         0.00000E+00
         0.00000E+00
         0.00000E+00
         0.00000E+00
         0.00000E+00
         0.00000E+00
         0.00000E+00
         0.00000E+00
         0.00000E+00
         0.00000E+00
         0.00000E+00
         0.00000E+00
         0.00000E+00
         0.00000E+00
         0.00000E+00
         0.00000E+00
         0.00000E+00
         0.00000E+00
         0.00000E+00
         0.00000E+00
         0.00000E+00
         0.00000E+00
         0.00000E+00
         0.00000E+00
         0.00000E+00
         0.00000E+00
         0.00000E+00
         0.00000E+00
         0.00000E+00
         0.00000E+00
         0.00000E+00
         0.00000E+00
         0.00000E+00
         0.00000E+00
         0.00000E+00
         0.00000E+00
         0.00000E+00
         0.00000E+00
         0.00000E+00
         0.00000E+00
         0.00000E+00
         0.00000E+00
         0.00000E+00
         0.00000E+00
         0.00000E+00
         0.00000E+00
         0.00000E+00
         0.00000E+00
         0.00000E+00
         0.00000E+00
         0.00000E+00
         0.00000E+00
         0.00000E+00
         0.00000E+00
         0.00000E+00
         0.00000E+00
         0.00000E+00
         0.00000E+00
         0.00000E+00
         0.00000E+00
         0.00000E+00
         0.00000E+00
         0.00000E+00
         0.00000E+00
         0.00000E+00
         0.00000E+00
         0.00000E+00
         0.00000E+00
         0.00000E+00
         0.00000E+00
         0.00000E+00
         0.00000E+00
         0.00000E+00
         0.00000E+00
         0.00000E+00
         0.00000E+00
         0.00000E+00
         0.00000E+00
         0.00000E+00
         0.00000E+00
         0.00000E+00
         0.00000E+00
         0.00000E+00
         0.00000E+00
         0.00000E+00
         0.00000E+00
         0.00000E+00
         0.00000E+00
         0.00000E+00
         0.00000E+00
         0.00000E+00
         0.00000E+00
         0.00000E+00
         0.00000E+00
         0.00000E+00
         0.00000E+00
         0.00000E+00
         0.00000E+00
         0.00000E+00
         0.00000E+00
         0.00000E+00
         0.00000E+00
         0.00000E+00
         0.00000E+00
         0.00000E+00
         0.00000E+00
         0.00000E+00
         0.00000E+00
         0.00000E+00
         0.00000E+00
         0.00000E+00
         0.00000E+00
         0.00000E+00
         0.00000E+00
         0.00000E+00
         0.00000E+00
         0.00000E+00
         0.00000E+00
         0.00000E+00
         0.00000E+00
         0.00000E+00
         0.00000E+00
         0.00000E+00
         0.00000E+00
         0.00000E+00
         0.00000E+00
         0.00000E+00
         0.00000E+00
         0.00000E+00
         0.00000E+00
         0.00000E+00
         0.00000E+00
         0.00000E+00
         0.00000E+00
         0.00000E+00
         0.00000E+00
         0.00000E+00
         0.00000E+00
         0.00000E+00
         0.00000E+00
         0.00000E+00
         0.00000E+00
         0.00000E+00
         0.00000E+00
         0.00000E+00
         0.00000E+00
         0.00000E+00
         0.00000E+00
         0.00000E+00
         0.00000E+00
         0.00000E+00
         0.00000E+00
         0.00000E+00
         0.00000E+00
         0.00000E+00
         0.00000E+00
         0.00000E+00
         0.00000E+00
         0.00000E+00
         0.00000E+00
         0.00000E+00
         0.00000E+00
         0.00000E+00
         0.00000E+00
         0.00000E+00
         0.00000E+00
         0.00000E+00
         0.00000E+00
         0.00000E+00
         0.00000E+00
         0.00000E+00
         0.00000E+00
         0.00000E+00
         0.00000E+00
         0.00000E+00
         0.00000E+00
         0.00000E+00
         0.00000E+00
         0.00000E+00
         0.00000E+00
         0.00000E+00
         0.00000E+00
         0.00000E+00
         0.00000E+00
         0.00000E+00
         0.00000E+00
         0.00000E+00
         0.00000E+00
         0.00000E+00
         0.00000E+00
         0.00000E+00
         0.00000E+00
         0.00000E+00
         0.00000E+00
         0.00000E+00
         0.00000E+00
         0.00000E+00
         0.00000E+00
         0.00000E+00
         0.00000E+00
         0.00000E+00
         0.00000E+00
         0.00000E+00
         0.00000E+00
         0.00000E+00
         0.00000E+00
         0.00000E+00
         0.00000E+00
         0.00000E+00
         0.00000E+00
         0.00000E+00
         0.00000E+00
         0.00000E+00
         0.00000E+00
         0.00000E+00
         0.00000E+00
         0.00000E+00
         0.00000E+00
         0.00000E+00
         0.00000E+00
         0.00000E+00
         0.00000E+00
         0.00000E+00
         0.00000E+00
         0.00000E+00
         0.00000E+00
         0.00000E+00
         0.00000E+00
         0.00000E+00
         0.00000E+00
         0.00000E+00
         0.00000E+00
         0.00000E+00
         0.00000E+00
         0.00000E+00
         0.00000E+00
         0.00000E+00
         0.00000E+00
         0.00000E+00
         0.00000E+00
         0.00000E+00
         0.00000E+00
         0.00000E+00
         0.00000E+00
         0.00000E+00
         0.00000E+00
         0.00000E+00
         0.00000E+00
         0.00000E+00
         0.00000E+00
         0.00000E+00
         0.00000E+00
         0.00000E+00
         0.00000E+00
         0.00000E+00
         0.00000E+00
         0.00000E+00
         0.00000E+00
         0.00000E+00
         0.00000E+00
         0.00000E+00
         0.00000E+00
         0.00000E+00
         0.00000E+00
         0.00000E+00
         0.00000E+00
         0.00000E+00
         0.00000E+00
         0.00000E+00
         0.00000E+00
         0.00000E+00
         0.00000E+00
         0.00000E+00
         0.00000E+00
         0.00000E+00
         0.00000E+00
         0.00000E+00
         0.00000E+00
         0.00000E+00
         0.00000E+00
         0.00000E+00
         0.00000E+00
         0.00000E+00
         0.00000E+00
         0.00000E+00
         0.00000E+00
         0.00000E+00
         0.00000E+00
         0.00000E+00
         0.00000E+00
         0.00000E+00
         0.00000E+00
         0.00000E+00
         0.00000E+00
         0.00000E+00
         0.00000E+00
         0.00000E+00
         0.00000E+00
         0.00000E+00
         0.00000E+00
         0.00000E+00
         0.00000E+00
         0.00000E+00
         0.00000E+00
         0.00000E+00
         0.00000E+00
         0.00000E+00
         0.00000E+00
         0.00000E+00
         0.00000E+00
  
SCALARS                      eps_shear  double 1
LOOKUP_TABLE default
         0.00000E+00
         0.00000E+00
         0.00000E+00
         0.00000E+00
         0.00000E+00
         0.00000E+00
         0.00000E+00
         0.00000E+00
         0.00000E+00
         0.00000E+00
         0.00000E+00
         0.00000E+00
         0.00000E+00
         0.00000E+00
         0.00000E+00
         0.00000E+00
         0.00000E+00
         0.00000E+00
         0.00000E+00
         0.00000E+00
         0.00000E+00
         0.00000E+00
         0.00000E+00
         0.00000E+00
         0.00000E+00
         0.00000E+00
         0.00000E+00
         0.00000E+00
         0.00000E+00
         0.00000E+00
         0.00000E+00
         0.00000E+00
         0.00000E+00
         0.00000E+00
         0.00000E+00
         0.00000E+00
         0.00000E+00
         0.00000E+00
         0.00000E+00
         0.00000E+00
         0.00000E+00
         0.00000E+00
         0.00000E+00
         0.00000E+00
         0.00000E+00
         0.00000E+00
         0.00000E+00
         0.00000E+00
         0.00000E+00
         0.00000E+00
         0.00000E+00
         0.00000E+00
         0.00000E+00
         0.00000E+00
         0.00000E+00
         0.00000E+00
         0.00000E+00
         0.00000E+00
         0.00000E+00
         0.00000E+00
         0.00000E+00
         0.00000E+00
         0.00000E+00
         0.00000E+00
         0.00000E+00
         0.00000E+00
         0.00000E+00
         0.00000E+00
         0.00000E+00
         0.00000E+00
         0.00000E+00
         0.00000E+00
         0.00000E+00
         0.00000E+00
         0.00000E+00
         0.00000E+00
         0.00000E+00
         0.00000E+00
         0.00000E+00
         0.00000E+00
         0.00000E+00
         0.00000E+00
         0.00000E+00
         0.00000E+00
         0.00000E+00
         0.00000E+00
         0.00000E+00
         0.00000E+00
         0.00000E+00
         0.00000E+00
         0.00000E+00
         0.00000E+00
         0.00000E+00
         0.00000E+00
         0.00000E+00
         0.00000E+00
         0.00000E+00
         0.00000E+00
         0.00000E+00
         0.00000E+00
         0.00000E+00
         0.00000E+00
         0.00000E+00
         0.00000E+00
         0.00000E+00
         0.00000E+00
         0.00000E+00
         0.00000E+00
         0.00000E+00
         0.00000E+00
         0.00000E+00
         0.00000E+00
         0.00000E+00
         0.00000E+00
         0.00000E+00
         0.00000E+00
         0.00000E+00
         0.00000E+00
         0.00000E+00
         0.00000E+00
         0.00000E+00
         0.00000E+00
         0.00000E+00
         0.00000E+00
         0.00000E+00
         0.00000E+00
         0.00000E+00
         0.00000E+00
         0.00000E+00
         0.00000E+00
         0.00000E+00
         0.00000E+00
         0.00000E+00
         0.00000E+00
         0.00000E+00
         0.00000E+00
         0.00000E+00
         0.00000E+00
         0.00000E+00
         0.00000E+00
         0.00000E+00
         0.00000E+00
         0.00000E+00
         0.00000E+00
         0.00000E+00
         0.00000E+00
         0.00000E+00
         0.00000E+00
         0.00000E+00
         0.00000E+00
         0.00000E+00
         0.00000E+00
         0.00000E+00
         0.00000E+00
         0.00000E+00
         0.00000E+00
         0.00000E+00
         0.00000E+00
         0.00000E+00
         0.00000E+00
         0.00000E+00
         0.00000E+00
         0.00000E+00
         0.00000E+00
         0.00000E+00
         0.00000E+00
         0.00000E+00
         0.00000E+00
         0.00000E+00
         0.00000E+00
         0.00000E+00
         0.00000E+00
         0.00000E+00
         0.00000E+00
         0.00000E+00
         0.00000E+00
         0.00000E+00
         0.00000E+00
         0.00000E+00
         0.00000E+00
         0.00000E+00
         0.00000E+00
         0.00000E+00
         0.00000E+00
         0.00000E+00
         0.00000E+00
         0.00000E+00
         0.00000E+00
         0.00000E+00
         0.00000E+00
         0.00000E+00
         0.00000E+00
         0.00000E+00
         0.00000E+00
         0.00000E+00
         0.00000E+00
         0.00000E+00
         0.00000E+00
         0.00000E+00
         0.00000E+00
         0.00000E+00
         0.00000E+00
         0.00000E+00
         0.00000E+00
         0.00000E+00
         0.00000E+00
         0.00000E+00
         0.00000E+00
         0.00000E+00
         0.00000E+00
         0.00000E+00
         0.00000E+00
         0.00000E+00
         0.00000E+00
         0.00000E+00
         0.00000E+00
         0.00000E+00
         0.00000E+00
         0.00000E+00
         0.00000E+00
         0.00000E+00
         0.00000E+00
         0.00000E+00
         0.00000E+00
         0.00000E+00
         0.00000E+00
         0.00000E+00
         0.00000E+00
         0.00000E+00
         0.00000E+00
         0.00000E+00
         0.00000E+00
         0.00000E+00
         0.00000E+00
         0.00000E+00
         0.00000E+00
         0.00000E+00
         0.00000E+00
         0.00000E+00
         0.00000E+00
         0.00000E+00
         0.00000E+00
         0.00000E+00
         0.00000E+00
         0.00000E+00
         0.00000E+00
         0.00000E+00
         0.00000E+00
         0.00000E+00
         0.00000E+00
         0.00000E+00
         0.00000E+00
         0.00000E+00
         0.00000E+00
         0.00000E+00
         0.00000E+00
         0.00000E+00
         0.00000E+00
         0.00000E+00
         0.00000E+00
         0.00000E+00
         0.00000E+00
         0.00000E+00
         0.00000E+00
         0.00000E+00
         0.00000E+00
         0.00000E+00
         0.00000E+00
         0.00000E+00
         0.00000E+00
         0.00000E+00
         0.00000E+00
         0.00000E+00
         0.00000E+00
         0.00000E+00
         0.00000E+00
         0.00000E+00
         0.00000E+00
         0.00000E+00
         0.00000E+00
         0.00000E+00
         0.00000E+00
         0.00000E+00
         0.00000E+00
         0.00000E+00
         0.00000E+00
         0.00000E+00
         0.00000E+00
         0.00000E+00
         0.00000E+00
         0.00000E+00
         0.00000E+00
         0.00000E+00
         0.00000E+00
         0.00000E+00
         0.00000E+00
         0.00000E+00
         0.00000E+00
         0.00000E+00
         0.00000E+00
         0.00000E+00
         0.00000E+00
         0.00000E+00
         0.00000E+00
         0.00000E+00
         0.00000E+00
         0.00000E+00
         0.00000E+00
         0.00000E+00
         0.00000E+00
         0.00000E+00
         0.00000E+00
         0.00000E+00
         0.00000E+00
         0.00000E+00
         0.00000E+00
         0.00000E+00
         0.00000E+00
         0.00000E+00
         0.00000E+00
         0.00000E+00
         0.00000E+00
         0.00000E+00
         0.00000E+00
         0.00000E+00
         0.00000E+00
         0.00000E+00
         0.00000E+00
         0.00000E+00
         0.00000E+00
         0.00000E+00
         0.00000E+00
         0.00000E+00
         0.00000E+00
         0.00000E+00
         0.00000E+00
         0.00000E+00
         0.00000E+00
         0.00000E+00
         0.00000E+00
         0.00000E+00
         0.00000E+00
         0.00000E+00
         0.00000E+00
         0.00000E+00
         0.00000E+00
         0.00000E+00
         0.00000E+00
         0.00000E+00
         0.00000E+00
         0.00000E+00
         0.00000E+00
         0.00000E+00
         0.00000E+00
         0.00000E+00
         0.00000E+00
         0.00000E+00
         0.00000E+00
         0.00000E+00
         0.00000E+00
         0.00000E+00
         0.00000E+00
         0.00000E+00
         0.00000E+00
         0.00000E+00
         0.00000E+00
         0.00000E+00
         0.00000E+00
         0.00000E+00
         0.00000E+00
         0.00000E+00
         0.00000E+00
         0.00000E+00
         0.00000E+00
         0.00000E+00
         0.00000E+00
         0.00000E+00
         0.00000E+00
         0.00000E+00
         0.00000E+00
         0.00000E+00
         0.00000E+00
         0.00000E+00
         0.00000E+00
         0.00000E+00
         0.00000E+00
         0.00000E+00
         0.00000E+00
         0.00000E+00
         0.00000E+00
         0.00000E+00
         0.00000E+00
         0.00000E+00
         0.00000E+00
         0.00000E+00
         0.00000E+00
         0.00000E+00
         0.00000E+00
         0.00000E+00
         0.00000E+00
         0.00000E+00
         0.00000E+00
         0.00000E+00
         0.00000E+00
         0.00000E+00
         0.00000E+00
         0.00000E+00
         0.00000E+00
         0.00000E+00
         0.00000E+00
         0.00000E+00
         0.00000E+00
         0.00000E+00
         0.00000E+00
         0.00000E+00
         0.00000E+00
         0.00000E+00
         0.00000E+00
         0.00000E+00
         0.00000E+00
         0.00000E+00
         0.00000E+00
         0.00000E+00
         0.00000E+00
         0.00000E+00
         0.00000E+00
         0.00000E+00
         0.00000E+00
         0.00000E+00
         0.00000E+00
         0.00000E+00
         0.00000E+00
         0.00000E+00
         0.00000E+00
         0.00000E+00
         0.00000E+00
         0.00000E+00
         0.00000E+00
         0.00000E+00
         0.00000E+00
         0.00000E+00
         0.00000E+00
         0.00000E+00
         0.00000E+00
         0.00000E+00
         0.00000E+00
         0.00000E+00
         0.00000E+00
         0.00000E+00
         0.00000E+00
         0.00000E+00
         0.00000E+00
         0.00000E+00
         0.00000E+00
         0.00000E+00
         0.00000E+00
         0.00000E+00
         0.00000E+00
         0.00000E+00
         0.00000E+00
         0.00000E+00
         0.00000E+00
         0.00000E+00
         0.00000E+00
         0.00000E+00
         0.00000E+00
         0.00000E+00
         0.00000E+00
         0.00000E+00
         0.00000E+00
         0.00000E+00
         0.00000E+00
         0.00000E+00
         0.00000E+00
         0.00000E+00
         0.00000E+00
         0.00000E+00
         0.00000E+00
         0.00000E+00
         0.00000E+00
         0.00000E+00
         0.00000E+00
         0.00000E+00
         0.00000E+00
         0.00000E+00
         0.00000E+00
         0.00000E+00
         0.00000E+00
         0.00000E+00
         0.00000E+00
         0.00000E+00
         0.00000E+00
         0.00000E+00
         0.00000E+00
         0.00000E+00
         0.00000E+00
         0.00000E+00
         0.00000E+00
         0.00000E+00
         0.00000E+00
         0.00000E+00
         0.00000E+00
         0.00000E+00
         0.00000E+00
         0.00000E+00
         0.00000E+00
         0.00000E+00
         0.00000E+00
         0.00000E+00
         0.00000E+00
         0.00000E+00
         0.00000E+00
         0.00000E+00
         0.00000E+00
         0.00000E+00
         0.00000E+00
         0.00000E+00
         0.00000E+00
         0.00000E+00
         0.00000E+00
         0.00000E+00
         0.00000E+00
         0.00000E+00
         0.00000E+00
         0.00000E+00
         0.00000E+00
         0.00000E+00
         0.00000E+00
         0.00000E+00
         0.00000E+00
         0.00000E+00
         0.00000E+00
         0.00000E+00
         0.00000E+00
         0.00000E+00
         0.00000E+00
         0.00000E+00
         0.00000E+00
         0.00000E+00
         0.00000E+00
         0.00000E+00
         0.00000E+00
         0.00000E+00
         0.00000E+00
         0.00000E+00
         0.00000E+00
         0.00000E+00
         0.00000E+00
         0.00000E+00
         0.00000E+00
         0.00000E+00
         0.00000E+00
         0.00000E+00
         0.00000E+00
         0.00000E+00
         0.00000E+00
         0.00000E+00
         0.00000E+00
         0.00000E+00
         0.00000E+00
         0.00000E+00
         0.00000E+00
         0.00000E+00
         0.00000E+00
         0.00000E+00
         0.00000E+00
         0.00000E+00
         0.00000E+00
         0.00000E+00
         0.00000E+00
         0.00000E+00
         0.00000E+00
         0.00000E+00
         0.00000E+00
         0.00000E+00
         0.00000E+00
         0.00000E+00
         0.00000E+00
         0.00000E+00
         0.00000E+00
         0.00000E+00
         0.00000E+00
         0.00000E+00
         0.00000E+00
         0.00000E+00
         0.00000E+00
         0.00000E+00
         0.00000E+00
         0.00000E+00
         0.00000E+00
         0.00000E+00
         0.00000E+00
         0.00000E+00
         0.00000E+00
         0.00000E+00
         0.00000E+00
         0.00000E+00
         0.00000E+00
         0.00000E+00
         0.00000E+00
         0.00000E+00
         0.00000E+00
         0.00000E+00
         0.00000E+00
         0.00000E+00
         0.00000E+00
         0.00000E+00
         0.00000E+00
         0.00000E+00
         0.00000E+00
         0.00000E+00
         0.00000E+00
         0.00000E+00
         0.00000E+00
         0.00000E+00
         0.00000E+00
         0.00000E+00
         0.00000E+00
         0.00000E+00
         0.00000E+00
         0.00000E+00
         0.00000E+00
         0.00000E+00
         0.00000E+00
         0.00000E+00
         0.00000E+00
         0.00000E+00
         0.00000E+00
         0.00000E+00
         0.00000E+00
         0.00000E+00
         0.00000E+00
         0.00000E+00
         0.00000E+00
         0.00000E+00
         0.00000E+00
         0.00000E+00
         0.00000E+00
         0.00000E+00
         0.00000E+00
         0.00000E+00
         0.00000E+00
         0.00000E+00
         0.00000E+00
         0.00000E+00
         0.00000E+00
         0.00000E+00
         0.00000E+00
         0.00000E+00
         0.00000E+00
         0.00000E+00
         0.00000E+00
         0.00000E+00
         0.00000E+00
         0.00000E+00
         0.00000E+00
         0.00000E+00
         0.00000E+00
         0.00000E+00
         0.00000E+00
         0.00000E+00
         0.00000E+00
         0.00000E+00
         0.00000E+00
         0.00000E+00
         0.00000E+00
         0.00000E+00
         0.00000E+00
         0.00000E+00
         0.00000E+00
         0.00000E+00
         0.00000E+00
         0.00000E+00
         0.00000E+00
         0.00000E+00
         0.00000E+00
         0.00000E+00
         0.00000E+00
         0.00000E+00
         0.00000E+00
         0.00000E+00
         0.00000E+00
         0.00000E+00
         0.00000E+00
         0.00000E+00
         0.00000E+00
         0.00000E+00
         0.00000E+00
         0.00000E+00
         0.00000E+00
         0.00000E+00
         0.00000E+00
         0.00000E+00
         0.00000E+00
         0.00000E+00
         0.00000E+00
         0.00000E+00
         0.00000E+00
         0.00000E+00
         0.00000E+00
         0.00000E+00
         0.00000E+00
         0.00000E+00
         0.00000E+00
         0.00000E+00
         0.00000E+00
         0.00000E+00
         0.00000E+00
         0.00000E+00
         0.00000E+00
         0.00000E+00
         0.00000E+00
         0.00000E+00
         0.00000E+00
         0.00000E+00
         0.00000E+00
         0.00000E+00
         0.00000E+00
         0.00000E+00
         0.00000E+00
         0.00000E+00
         0.00000E+00
         0.00000E+00
         0.00000E+00
         0.00000E+00
         0.00000E+00
         0.00000E+00
         0.00000E+00
         0.00000E+00
         0.00000E+00
         0.00000E+00
         0.00000E+00
         0.00000E+00
         0.00000E+00
         0.00000E+00
         0.00000E+00
         0.00000E+00
         0.00000E+00
         0.00000E+00
         0.00000E+00
         0.00000E+00
         0.00000E+00
         0.00000E+00
         0.00000E+00
         0.00000E+00
         0.00000E+00
         0.00000E+00
         0.00000E+00
         0.00000E+00
         0.00000E+00
         0.00000E+00
         0.00000E+00
         0.00000E+00
         0.00000E+00
         0.00000E+00
         0.00000E+00
         0.00000E+00
         0.00000E+00
         0.00000E+00
         0.00000E+00
         0.00000E+00
         0.00000E+00
         0.00000E+00
         0.00000E+00
         0.00000E+00
         0.00000E+00
         0.00000E+00
         0.00000E+00
         0.00000E+00
         0.00000E+00
         0.00000E+00
         0.00000E+00
         0.00000E+00
         0.00000E+00
         0.00000E+00
         0.00000E+00
         0.00000E+00
         0.00000E+00
         0.00000E+00
         0.00000E+00
         0.00000E+00
         0.00000E+00
         0.00000E+00
         0.00000E+00
         0.00000E+00
         0.00000E+00
         0.00000E+00
         0.00000E+00
         0.00000E+00
         0.00000E+00
         0.00000E+00
         0.00000E+00
         0.00000E+00
         0.00000E+00
         0.00000E+00
         0.00000E+00
         0.00000E+00
         0.00000E+00
         0.00000E+00
         0.00000E+00
         0.00000E+00
         0.00000E+00
         0.00000E+00
         0.00000E+00
         0.00000E+00
         0.00000E+00
         0.00000E+00
         0.00000E+00
         0.00000E+00
         0.00000E+00
         0.00000E+00
         0.00000E+00
         0.00000E+00
         0.00000E+00
         0.00000E+00
         0.00000E+00
         0.00000E+00
         0.00000E+00
         0.00000E+00
         0.00000E+00
         0.00000E+00
         0.00000E+00
         0.00000E+00
         0.00000E+00
         0.00000E+00
         0.00000E+00
         0.00000E+00
         0.00000E+00
         0.00000E+00
         0.00000E+00
         0.00000E+00
         0.00000E+00
         0.00000E+00
         0.00000E+00
         0.00000E+00
         0.00000E+00
         0.00000E+00
         0.00000E+00
         0.00000E+00
         0.00000E+00
         0.00000E+00
         0.00000E+00
         0.00000E+00
         0.00000E+00
         0.00000E+00
         0.00000E+00
         0.00000E+00
         0.00000E+00
         0.00000E+00
         0.00000E+00
         0.00000E+00
         0.00000E+00
         0.00000E+00
         0.00000E+00
         0.00000E+00
         0.00000E+00
         0.00000E+00
         0.00000E+00
         0.00000E+00
         0.00000E+00
         0.00000E+00
         0.00000E+00
         0.00000E+00
         0.00000E+00
         0.00000E+00
         0.00000E+00
         0.00000E+00
         0.00000E+00
         0.00000E+00
         0.00000E+00
         0.00000E+00
         0.00000E+00
         0.00000E+00
         0.00000E+00
         0.00000E+00
         0.00000E+00
         0.00000E+00
         0.00000E+00
         0.00000E+00
         0.00000E+00
         0.00000E+00
         0.00000E+00
         0.00000E+00
         0.00000E+00
         0.00000E+00
         0.00000E+00
         0.00000E+00
         0.00000E+00
         0.00000E+00
         0.00000E+00
         0.00000E+00
         0.00000E+00
         0.00000E+00
         0.00000E+00
         0.00000E+00
         0.00000E+00
         0.00000E+00
         0.00000E+00
         0.00000E+00
         0.00000E+00
         0.00000E+00
         0.00000E+00
         0.00000E+00
         0.00000E+00
         0.00000E+00
         0.00000E+00
         0.00000E+00
         0.00000E+00
         0.00000E+00
         0.00000E+00
         0.00000E+00
         0.00000E+00
         0.00000E+00
         0.00000E+00
         0.00000E+00
         0.00000E+00
         0.00000E+00
         0.00000E+00
         0.00000E+00
         0.00000E+00
         0.00000E+00
         0.00000E+00
         0.00000E+00
         0.00000E+00
         0.00000E+00
         0.00000E+00
         0.00000E+00
         0.00000E+00
         0.00000E+00
         0.00000E+00
         0.00000E+00
         0.00000E+00
         0.00000E+00
         0.00000E+00
         0.00000E+00
         0.00000E+00
         0.00000E+00
         0.00000E+00
         0.00000E+00
         0.00000E+00
         0.00000E+00
         0.00000E+00
         0.00000E+00
         0.00000E+00
         0.00000E+00
         0.00000E+00
         0.00000E+00
         0.00000E+00
         0.00000E+00
         0.00000E+00
         0.00000E+00
         0.00000E+00
         0.00000E+00
         0.00000E+00
         0.00000E+00
         0.00000E+00
         0.00000E+00
         0.00000E+00
         0.00000E+00
         0.00000E+00
         0.00000E+00
         0.00000E+00
         0.00000E+00
         0.00000E+00
         0.00000E+00
         0.00000E+00
         0.00000E+00
         0.00000E+00
         0.00000E+00
         0.00000E+00
         0.00000E+00
         0.00000E+00
         0.00000E+00
         0.00000E+00
         0.00000E+00
         0.00000E+00
         0.00000E+00
         0.00000E+00
         0.00000E+00
         0.00000E+00
         0.00000E+00
         0.00000E+00
         0.00000E+00
         0.00000E+00
         0.00000E+00
         0.00000E+00
         0.00000E+00
         0.00000E+00
         0.00000E+00
         0.00000E+00
         0.00000E+00
         0.00000E+00
         0.00000E+00
         0.00000E+00
         0.00000E+00
         0.00000E+00
         0.00000E+00
         0.00000E+00
         0.00000E+00
         0.00000E+00
         0.00000E+00
         0.00000E+00
         0.00000E+00
         0.00000E+00
         0.00000E+00
         0.00000E+00
         0.00000E+00
         0.00000E+00
         0.00000E+00
         0.00000E+00
         0.00000E+00
         0.00000E+00
         0.00000E+00
         0.00000E+00
         0.00000E+00
         0.00000E+00
         0.00000E+00
         0.00000E+00
         0.00000E+00
         0.00000E+00
         0.00000E+00
         0.00000E+00
         0.00000E+00
         0.00000E+00
         0.00000E+00
         0.00000E+00
         0.00000E+00
         0.00000E+00
         0.00000E+00
         0.00000E+00
         0.00000E+00
         0.00000E+00
         0.00000E+00
         0.00000E+00
         0.00000E+00
         0.00000E+00
         0.00000E+00
         0.00000E+00
         0.00000E+00
         0.00000E+00
         0.00000E+00
         0.00000E+00
         0.00000E+00
         0.00000E+00
         0.00000E+00
         0.00000E+00
         0.00000E+00
         0.00000E+00
         0.00000E+00
         0.00000E+00
         0.00000E+00
         0.00000E+00
         0.00000E+00
         0.00000E+00
         0.00000E+00
         0.00000E+00
         0.00000E+00
         0.00000E+00
         0.00000E+00
         0.00000E+00
         0.00000E+00
         0.00000E+00
         0.00000E+00
         0.00000E+00
         0.00000E+00
         0.00000E+00
         0.00000E+00
         0.00000E+00
         0.00000E+00
         0.00000E+00
         0.00000E+00
         0.00000E+00
         0.00000E+00
         0.00000E+00
         0.00000E+00
         0.00000E+00
         0.00000E+00
         0.00000E+00
         0.00000E+00
         0.00000E+00
         0.00000E+00
         0.00000E+00
         0.00000E+00
         0.00000E+00
         0.00000E+00
         0.00000E+00
         0.00000E+00
         0.00000E+00
         0.00000E+00
         0.00000E+00
         0.00000E+00
         0.00000E+00
         0.00000E+00
         0.00000E+00
         0.00000E+00
         0.00000E+00
         0.00000E+00
         0.00000E+00
         0.00000E+00
         0.00000E+00
         0.00000E+00
         0.00000E+00
         0.00000E+00
         0.00000E+00
         0.00000E+00
         0.00000E+00
         0.00000E+00
         0.00000E+00
         0.00000E+00
         0.00000E+00
         0.00000E+00
         0.00000E+00
         0.00000E+00
         0.00000E+00
         0.00000E+00
         0.00000E+00
         0.00000E+00
         0.00000E+00
         0.00000E+00
         0.00000E+00
         0.00000E+00
         0.00000E+00
         0.00000E+00
         0.00000E+00
         0.00000E+00
         0.00000E+00
         0.00000E+00
         0.00000E+00
         0.00000E+00
         0.00000E+00
         0.00000E+00
         0.00000E+00
         0.00000E+00
         0.00000E+00
         0.00000E+00
         0.00000E+00
         0.00000E+00
         0.00000E+00
         0.00000E+00
         0.00000E+00
         0.00000E+00
         0.00000E+00
         0.00000E+00
         0.00000E+00
         0.00000E+00
         0.00000E+00
         0.00000E+00
         0.00000E+00
         0.00000E+00
         0.00000E+00
         0.00000E+00
         0.00000E+00
         0.00000E+00
         0.00000E+00
         0.00000E+00
         0.00000E+00
         0.00000E+00
         0.00000E+00
         0.00000E+00
         0.00000E+00
         0.00000E+00
         0.00000E+00
         0.00000E+00
         0.00000E+00
         0.00000E+00
         0.00000E+00
         0.00000E+00
         0.00000E+00
         0.00000E+00
         0.00000E+00
         0.00000E+00
         0.00000E+00
         0.00000E+00
         0.00000E+00
         0.00000E+00
         0.00000E+00
         0.00000E+00
         0.00000E+00
         0.00000E+00
         0.00000E+00
         0.00000E+00
         0.00000E+00
         0.00000E+00
         0.00000E+00
         0.00000E+00
         0.00000E+00
         0.00000E+00
         0.00000E+00
         0.00000E+00
         0.00000E+00
         0.00000E+00
         0.00000E+00
         0.00000E+00
         0.00000E+00
         0.00000E+00
         0.00000E+00
         0.00000E+00
         0.00000E+00
         0.00000E+00
         0.00000E+00
         0.00000E+00
         0.00000E+00
         0.00000E+00
         0.00000E+00
         0.00000E+00
         0.00000E+00
         0.00000E+00
         0.00000E+00
         0.00000E+00
         0.00000E+00
         0.00000E+00
         0.00000E+00
         0.00000E+00
         0.00000E+00
         0.00000E+00
         0.00000E+00
         0.00000E+00
         0.00000E+00
         0.00000E+00
         0.00000E+00
         0.00000E+00
         0.00000E+00
         0.00000E+00
         0.00000E+00
         0.00000E+00
         0.00000E+00
         0.00000E+00
         0.00000E+00
         0.00000E+00
         0.00000E+00
         0.00000E+00
         0.00000E+00
         0.00000E+00
         0.00000E+00
         0.00000E+00
         0.00000E+00
         0.00000E+00
         0.00000E+00
         0.00000E+00
         0.00000E+00
         0.00000E+00
         0.00000E+00
         0.00000E+00
         0.00000E+00
         0.00000E+00
         0.00000E+00
         0.00000E+00
         0.00000E+00
         0.00000E+00
         0.00000E+00
         0.00000E+00
         0.00000E+00
         0.00000E+00
         0.00000E+00
         0.00000E+00
         0.00000E+00
         0.00000E+00
         0.00000E+00
         0.00000E+00
         0.00000E+00
         0.00000E+00
         0.00000E+00
         0.00000E+00
         0.00000E+00
         0.00000E+00
         0.00000E+00
         0.00000E+00
         0.00000E+00
         0.00000E+00
         0.00000E+00
         0.00000E+00
         0.00000E+00
         0.00000E+00
         0.00000E+00
         0.00000E+00
         0.00000E+00
         0.00000E+00
         0.00000E+00
         0.00000E+00
         0.00000E+00
         0.00000E+00
         0.00000E+00
         0.00000E+00
         0.00000E+00
         0.00000E+00
         0.00000E+00
         0.00000E+00
         0.00000E+00
         0.00000E+00
         0.00000E+00
         0.00000E+00
         0.00000E+00
         0.00000E+00
         0.00000E+00
         0.00000E+00
         0.00000E+00
         0.00000E+00
         0.00000E+00
         0.00000E+00
         0.00000E+00
         0.00000E+00
         0.00000E+00
         0.00000E+00
         0.00000E+00
         0.00000E+00
         0.00000E+00
         0.00000E+00
         0.00000E+00
         0.00000E+00
         0.00000E+00
         0.00000E+00
         0.00000E+00
         0.00000E+00
         0.00000E+00
         0.00000E+00
         0.00000E+00
         0.00000E+00
         0.00000E+00
         0.00000E+00
         0.00000E+00
         0.00000E+00
         0.00000E+00
         0.00000E+00
         0.00000E+00
         0.00000E+00
         0.00000E+00
         0.00000E+00
         0.00000E+00
         0.00000E+00
         0.00000E+00
         0.00000E+00
         0.00000E+00
         0.00000E+00
         0.00000E+00
         0.00000E+00
         0.00000E+00
         0.00000E+00
         0.00000E+00
         0.00000E+00
         0.00000E+00
         0.00000E+00
         0.00000E+00
         0.00000E+00
         0.00000E+00
         0.00000E+00
         0.00000E+00
         0.00000E+00
         0.00000E+00
         0.00000E+00
         0.00000E+00
         0.00000E+00
         0.00000E+00
         0.00000E+00
         0.00000E+00
         0.00000E+00
         0.00000E+00
         0.00000E+00
         0.00000E+00
         0.00000E+00
         0.00000E+00
         0.00000E+00
         0.00000E+00
         0.00000E+00
         0.00000E+00
         0.00000E+00
         0.00000E+00
         0.00000E+00
         0.00000E+00
         0.00000E+00
         0.00000E+00
         0.00000E+00
         0.00000E+00
         0.00000E+00
         0.00000E+00
         0.00000E+00
         0.00000E+00
         0.00000E+00
         0.00000E+00
         0.00000E+00
         0.00000E+00
         0.00000E+00
         0.00000E+00
         0.00000E+00
         0.00000E+00
         0.00000E+00
         0.00000E+00
         0.00000E+00
         0.00000E+00
         0.00000E+00
         0.00000E+00
         0.00000E+00
         0.00000E+00
         0.00000E+00
         0.00000E+00
         0.00000E+00
         0.00000E+00
         0.00000E+00
         0.00000E+00
         0.00000E+00
         0.00000E+00
         0.00000E+00
         0.00000E+00
         0.00000E+00
         0.00000E+00
         0.00000E+00
         0.00000E+00
         0.00000E+00
         0.00000E+00
         0.00000E+00
         0.00000E+00
         0.00000E+00
         0.00000E+00
         0.00000E+00
         0.00000E+00
         0.00000E+00
         0.00000E+00
         0.00000E+00
         0.00000E+00
         0.00000E+00
         0.00000E+00
         0.00000E+00
         0.00000E+00
         0.00000E+00
         0.00000E+00
         0.00000E+00
         0.00000E+00
         0.00000E+00
         0.00000E+00
         0.00000E+00
         0.00000E+00
         0.00000E+00
         0.00000E+00
         0.00000E+00
         0.00000E+00
         0.00000E+00
         0.00000E+00
         0.00000E+00
         0.00000E+00
         0.00000E+00
         0.00000E+00
         0.00000E+00
         0.00000E+00
         0.00000E+00
         0.00000E+00
         0.00000E+00
         0.00000E+00
         0.00000E+00
         0.00000E+00
         0.00000E+00
         0.00000E+00
         0.00000E+00
         0.00000E+00
         0.00000E+00
         0.00000E+00
         0.00000E+00
         0.00000E+00
         0.00000E+00
         0.00000E+00
         0.00000E+00
         0.00000E+00
         0.00000E+00
         0.00000E+00
         0.00000E+00
         0.00000E+00
         0.00000E+00
         0.00000E+00
         0.00000E+00
         0.00000E+00
         0.00000E+00
         0.00000E+00
         0.00000E+00
         0.00000E+00
         0.00000E+00
         0.00000E+00
         0.00000E+00
         0.00000E+00
         0.00000E+00
         0.00000E+00
         0.00000E+00
         0.00000E+00
         0.00000E+00
         0.00000E+00
         0.00000E+00
         0.00000E+00
         0.00000E+00
         0.00000E+00
         0.00000E+00
         0.00000E+00
         0.00000E+00
         0.00000E+00
         0.00000E+00
         0.00000E+00
         0.00000E+00
         0.00000E+00
         0.00000E+00
         0.00000E+00
         0.00000E+00
         0.00000E+00
         0.00000E+00
         0.00000E+00
         0.00000E+00
         0.00000E+00
         0.00000E+00
         0.00000E+00
         0.00000E+00
         0.00000E+00
         0.00000E+00
         0.00000E+00
         0.00000E+00
         0.00000E+00
         0.00000E+00
         0.00000E+00
         0.00000E+00
         0.00000E+00
         0.00000E+00
         0.00000E+00
         0.00000E+00
         0.00000E+00
         0.00000E+00
         0.00000E+00
         0.00000E+00
         0.00000E+00
         0.00000E+00
         0.00000E+00
         0.00000E+00
         0.00000E+00
         0.00000E+00
         0.00000E+00
         0.00000E+00
         0.00000E+00
         0.00000E+00
         0.00000E+00
         0.00000E+00
         0.00000E+00
         0.00000E+00
         0.00000E+00
         0.00000E+00
         0.00000E+00
         0.00000E+00
         0.00000E+00
         0.00000E+00
         0.00000E+00
         0.00000E+00
         0.00000E+00
         0.00000E+00
         0.00000E+00
         0.00000E+00
         0.00000E+00
         0.00000E+00
         0.00000E+00
         0.00000E+00
         0.00000E+00
         0.00000E+00
         0.00000E+00
         0.00000E+00
         0.00000E+00
         0.00000E+00
         0.00000E+00
         0.00000E+00
         0.00000E+00
         0.00000E+00
         0.00000E+00
         0.00000E+00
         0.00000E+00
         0.00000E+00
         0.00000E+00
         0.00000E+00
         0.00000E+00
         0.00000E+00
         0.00000E+00
         0.00000E+00
         0.00000E+00
         0.00000E+00
         0.00000E+00
         0.00000E+00
         0.00000E+00
         0.00000E+00
         0.00000E+00
         0.00000E+00
         0.00000E+00
         0.00000E+00
         0.00000E+00
         0.00000E+00
         0.00000E+00
         0.00000E+00
         0.00000E+00
         0.00000E+00
         0.00000E+00
         0.00000E+00
         0.00000E+00
         0.00000E+00
         0.00000E+00
         0.00000E+00
         0.00000E+00
         0.00000E+00
         0.00000E+00
         0.00000E+00
         0.00000E+00
         0.00000E+00
         0.00000E+00
         0.00000E+00
         0.00000E+00
         0.00000E+00
         0.00000E+00
         0.00000E+00
         0.00000E+00
         0.00000E+00
         0.00000E+00
         0.00000E+00
         0.00000E+00
         0.00000E+00
         0.00000E+00
         0.00000E+00
         0.00000E+00
         0.00000E+00
         0.00000E+00
         0.00000E+00
         0.00000E+00
         0.00000E+00
         0.00000E+00
         0.00000E+00
         0.00000E+00
         0.00000E+00
         0.00000E+00
         0.00000E+00
         0.00000E+00
         0.00000E+00
         0.00000E+00
         0.00000E+00
         0.00000E+00
         0.00000E+00
         0.00000E+00
         0.00000E+00
         0.00000E+00
         0.00000E+00
         0.00000E+00
         0.00000E+00
         0.00000E+00
         0.00000E+00
         0.00000E+00
         0.00000E+00
         0.00000E+00
         0.00000E+00
         0.00000E+00
         0.00000E+00
         0.00000E+00
         0.00000E+00
         0.00000E+00
         0.00000E+00
         0.00000E+00
         0.00000E+00
         0.00000E+00
         0.00000E+00
         0.00000E+00
         0.00000E+00
         0.00000E+00
         0.00000E+00
         0.00000E+00
         0.00000E+00
         0.00000E+00
         0.00000E+00
         0.00000E+00
         0.00000E+00
         0.00000E+00
         0.00000E+00
         0.00000E+00
         0.00000E+00
         0.00000E+00
         0.00000E+00
         0.00000E+00
         0.00000E+00
         0.00000E+00
         0.00000E+00
         0.00000E+00
         0.00000E+00
         0.00000E+00
         0.00000E+00
         0.00000E+00
         0.00000E+00
         0.00000E+00
         0.00000E+00
         0.00000E+00
         0.00000E+00
         0.00000E+00
         0.00000E+00
         0.00000E+00
         0.00000E+00
         0.00000E+00
         0.00000E+00
         0.00000E+00
         0.00000E+00
         0.00000E+00
         0.00000E+00
         0.00000E+00
         0.00000E+00
         0.00000E+00
         0.00000E+00
         0.00000E+00
         0.00000E+00
         0.00000E+00
         0.00000E+00
         0.00000E+00
         0.00000E+00
         0.00000E+00
         0.00000E+00
         0.00000E+00
         0.00000E+00
         0.00000E+00
         0.00000E+00
         0.00000E+00
         0.00000E+00
         0.00000E+00
         0.00000E+00
         0.00000E+00
         0.00000E+00
         0.00000E+00
         0.00000E+00
         0.00000E+00
         0.00000E+00
         0.00000E+00
         0.00000E+00
         0.00000E+00
         0.00000E+00
         0.00000E+00
         0.00000E+00
         0.00000E+00
         0.00000E+00
         0.00000E+00
         0.00000E+00
         0.00000E+00
         0.00000E+00
         0.00000E+00
         0.00000E+00
         0.00000E+00
         0.00000E+00
         0.00000E+00
         0.00000E+00
         0.00000E+00
         0.00000E+00
         0.00000E+00
         0.00000E+00
         0.00000E+00
         0.00000E+00
         0.00000E+00
         0.00000E+00
         0.00000E+00
         0.00000E+00
         0.00000E+00
         0.00000E+00
         0.00000E+00
         0.00000E+00
         0.00000E+00
         0.00000E+00
         0.00000E+00
         0.00000E+00
         0.00000E+00
         0.00000E+00
         0.00000E+00
         0.00000E+00
         0.00000E+00
         0.00000E+00
         0.00000E+00
         0.00000E+00
         0.00000E+00
         0.00000E+00
         0.00000E+00
         0.00000E+00
         0.00000E+00
         0.00000E+00
         0.00000E+00
         0.00000E+00
         0.00000E+00
         0.00000E+00
         0.00000E+00
         0.00000E+00
         0.00000E+00
         0.00000E+00
         0.00000E+00
         0.00000E+00
         0.00000E+00
         0.00000E+00
         0.00000E+00
         0.00000E+00
         0.00000E+00
         0.00000E+00
         0.00000E+00
         0.00000E+00
         0.00000E+00
         0.00000E+00
         0.00000E+00
         0.00000E+00
         0.00000E+00
         0.00000E+00
         0.00000E+00
         0.00000E+00
         0.00000E+00
         0.00000E+00
         0.00000E+00
         0.00000E+00
         0.00000E+00
         0.00000E+00
         0.00000E+00
         0.00000E+00
         0.00000E+00
         0.00000E+00
         0.00000E+00
         0.00000E+00
         0.00000E+00
         0.00000E+00
         0.00000E+00
         0.00000E+00
         0.00000E+00
         0.00000E+00
         0.00000E+00
         0.00000E+00
         0.00000E+00
         0.00000E+00
         0.00000E+00
         0.00000E+00
         0.00000E+00
         0.00000E+00
         0.00000E+00
         0.00000E+00
         0.00000E+00
         0.00000E+00
         0.00000E+00
         0.00000E+00
         0.00000E+00
         0.00000E+00
         0.00000E+00
         0.00000E+00
         0.00000E+00
         0.00000E+00
         0.00000E+00
         0.00000E+00
         0.00000E+00
         0.00000E+00
         0.00000E+00
         0.00000E+00
         0.00000E+00
         0.00000E+00
         0.00000E+00
         0.00000E+00
         0.00000E+00
         0.00000E+00
         0.00000E+00
         0.00000E+00
         0.00000E+00
         0.00000E+00
         0.00000E+00
         0.00000E+00
         0.00000E+00
         0.00000E+00
         0.00000E+00
         0.00000E+00
         0.00000E+00
         0.00000E+00
         0.00000E+00
         0.00000E+00
         0.00000E+00
         0.00000E+00
         0.00000E+00
         0.00000E+00
         0.00000E+00
         0.00000E+00
         0.00000E+00
         0.00000E+00
         0.00000E+00
         0.00000E+00
         0.00000E+00
         0.00000E+00
         0.00000E+00
         0.00000E+00
         0.00000E+00
         0.00000E+00
         0.00000E+00
         0.00000E+00
         0.00000E+00
         0.00000E+00
         0.00000E+00
         0.00000E+00
         0.00000E+00
         0.00000E+00
         0.00000E+00
         0.00000E+00
         0.00000E+00
         0.00000E+00
         0.00000E+00
         0.00000E+00
         0.00000E+00
         0.00000E+00
         0.00000E+00
         0.00000E+00
         0.00000E+00
         0.00000E+00
         0.00000E+00
         0.00000E+00
         0.00000E+00
         0.00000E+00
         0.00000E+00
         0.00000E+00
         0.00000E+00
         0.00000E+00
         0.00000E+00
         0.00000E+00
         0.00000E+00
         0.00000E+00
         0.00000E+00
         0.00000E+00
         0.00000E+00
         0.00000E+00
         0.00000E+00
         0.00000E+00
         0.00000E+00
         0.00000E+00
         0.00000E+00
         0.00000E+00
         0.00000E+00
         0.00000E+00
         0.00000E+00
         0.00000E+00
         0.00000E+00
         0.00000E+00
         0.00000E+00
         0.00000E+00
         0.00000E+00
         0.00000E+00
         0.00000E+00
         0.00000E+00
         0.00000E+00
         0.00000E+00
         0.00000E+00
         0.00000E+00
         0.00000E+00
         0.00000E+00
         0.00000E+00
         0.00000E+00
         0.00000E+00
         0.00000E+00
         0.00000E+00
         0.00000E+00
         0.00000E+00
         0.00000E+00
         0.00000E+00
         0.00000E+00
         0.00000E+00
         0.00000E+00
         0.00000E+00
         0.00000E+00
         0.00000E+00
  
SCALARS                        eps_vol  double 1
LOOKUP_TABLE default
         0.00000E+00
         0.00000E+00
         0.00000E+00
         0.00000E+00
         0.00000E+00
         0.00000E+00
         0.00000E+00
         0.00000E+00
         0.00000E+00
         0.00000E+00
         0.00000E+00
         0.00000E+00
         0.00000E+00
         0.00000E+00
         0.00000E+00
         0.00000E+00
         0.00000E+00
         0.00000E+00
         0.00000E+00
         0.00000E+00
         0.00000E+00
         0.00000E+00
         0.00000E+00
         0.00000E+00
         0.00000E+00
         0.00000E+00
         0.00000E+00
         0.00000E+00
         0.00000E+00
         0.00000E+00
         0.00000E+00
         0.00000E+00
         0.00000E+00
         0.00000E+00
         0.00000E+00
         0.00000E+00
         0.00000E+00
         0.00000E+00
         0.00000E+00
         0.00000E+00
         0.00000E+00
         0.00000E+00
         0.00000E+00
         0.00000E+00
         0.00000E+00
         0.00000E+00
         0.00000E+00
         0.00000E+00
         0.00000E+00
         0.00000E+00
         0.00000E+00
         0.00000E+00
         0.00000E+00
         0.00000E+00
         0.00000E+00
         0.00000E+00
         0.00000E+00
         0.00000E+00
         0.00000E+00
         0.00000E+00
         0.00000E+00
         0.00000E+00
         0.00000E+00
         0.00000E+00
         0.00000E+00
         0.00000E+00
         0.00000E+00
         0.00000E+00
         0.00000E+00
         0.00000E+00
         0.00000E+00
         0.00000E+00
         0.00000E+00
         0.00000E+00
         0.00000E+00
         0.00000E+00
         0.00000E+00
         0.00000E+00
         0.00000E+00
         0.00000E+00
         0.00000E+00
         0.00000E+00
         0.00000E+00
         0.00000E+00
         0.00000E+00
         0.00000E+00
         0.00000E+00
         0.00000E+00
         0.00000E+00
         0.00000E+00
         0.00000E+00
         0.00000E+00
         0.00000E+00
         0.00000E+00
         0.00000E+00
         0.00000E+00
         0.00000E+00
         0.00000E+00
         0.00000E+00
         0.00000E+00
         0.00000E+00
         0.00000E+00
         0.00000E+00
         0.00000E+00
         0.00000E+00
         0.00000E+00
         0.00000E+00
         0.00000E+00
         0.00000E+00
         0.00000E+00
         0.00000E+00
         0.00000E+00
         0.00000E+00
         0.00000E+00
         0.00000E+00
         0.00000E+00
         0.00000E+00
         0.00000E+00
         0.00000E+00
         0.00000E+00
         0.00000E+00
         0.00000E+00
         0.00000E+00
         0.00000E+00
         0.00000E+00
         0.00000E+00
         0.00000E+00
         0.00000E+00
         0.00000E+00
         0.00000E+00
         0.00000E+00
         0.00000E+00
         0.00000E+00
         0.00000E+00
         0.00000E+00
         0.00000E+00
         0.00000E+00
         0.00000E+00
         0.00000E+00
         0.00000E+00
         0.00000E+00
         0.00000E+00
         0.00000E+00
         0.00000E+00
         0.00000E+00
         0.00000E+00
         0.00000E+00
         0.00000E+00
         0.00000E+00
         0.00000E+00
         0.00000E+00
         0.00000E+00
         0.00000E+00
         0.00000E+00
         0.00000E+00
         0.00000E+00
         0.00000E+00
         0.00000E+00
         0.00000E+00
         0.00000E+00
         0.00000E+00
         0.00000E+00
         0.00000E+00
         0.00000E+00
         0.00000E+00
         0.00000E+00
         0.00000E+00
         0.00000E+00
         0.00000E+00
         0.00000E+00
         0.00000E+00
         0.00000E+00
         0.00000E+00
         0.00000E+00
         0.00000E+00
         0.00000E+00
         0.00000E+00
         0.00000E+00
         0.00000E+00
         0.00000E+00
         0.00000E+00
         0.00000E+00
         0.00000E+00
         0.00000E+00
         0.00000E+00
         0.00000E+00
         0.00000E+00
         0.00000E+00
         0.00000E+00
         0.00000E+00
         0.00000E+00
         0.00000E+00
         0.00000E+00
         0.00000E+00
         0.00000E+00
         0.00000E+00
         0.00000E+00
         0.00000E+00
         0.00000E+00
         0.00000E+00
         0.00000E+00
         0.00000E+00
         0.00000E+00
         0.00000E+00
         0.00000E+00
         0.00000E+00
         0.00000E+00
         0.00000E+00
         0.00000E+00
         0.00000E+00
         0.00000E+00
         0.00000E+00
         0.00000E+00
         0.00000E+00
         0.00000E+00
         0.00000E+00
         0.00000E+00
         0.00000E+00
         0.00000E+00
         0.00000E+00
         0.00000E+00
         0.00000E+00
         0.00000E+00
         0.00000E+00
         0.00000E+00
         0.00000E+00
         0.00000E+00
         0.00000E+00
         0.00000E+00
         0.00000E+00
         0.00000E+00
         0.00000E+00
         0.00000E+00
         0.00000E+00
         0.00000E+00
         0.00000E+00
         0.00000E+00
         0.00000E+00
         0.00000E+00
         0.00000E+00
         0.00000E+00
         0.00000E+00
         0.00000E+00
         0.00000E+00
         0.00000E+00
         0.00000E+00
         0.00000E+00
         0.00000E+00
         0.00000E+00
         0.00000E+00
         0.00000E+00
         0.00000E+00
         0.00000E+00
         0.00000E+00
         0.00000E+00
         0.00000E+00
         0.00000E+00
         0.00000E+00
         0.00000E+00
         0.00000E+00
         0.00000E+00
         0.00000E+00
         0.00000E+00
         0.00000E+00
         0.00000E+00
         0.00000E+00
         0.00000E+00
         0.00000E+00
         0.00000E+00
         0.00000E+00
         0.00000E+00
         0.00000E+00
         0.00000E+00
         0.00000E+00
         0.00000E+00
         0.00000E+00
         0.00000E+00
         0.00000E+00
         0.00000E+00
         0.00000E+00
         0.00000E+00
         0.00000E+00
         0.00000E+00
         0.00000E+00
         0.00000E+00
         0.00000E+00
         0.00000E+00
         0.00000E+00
         0.00000E+00
         0.00000E+00
         0.00000E+00
         0.00000E+00
         0.00000E+00
         0.00000E+00
         0.00000E+00
         0.00000E+00
         0.00000E+00
         0.00000E+00
         0.00000E+00
         0.00000E+00
         0.00000E+00
         0.00000E+00
         0.00000E+00
         0.00000E+00
         0.00000E+00
         0.00000E+00
         0.00000E+00
         0.00000E+00
         0.00000E+00
         0.00000E+00
         0.00000E+00
         0.00000E+00
         0.00000E+00
         0.00000E+00
         0.00000E+00
         0.00000E+00
         0.00000E+00
         0.00000E+00
         0.00000E+00
         0.00000E+00
         0.00000E+00
         0.00000E+00
         0.00000E+00
         0.00000E+00
         0.00000E+00
         0.00000E+00
         0.00000E+00
         0.00000E+00
         0.00000E+00
         0.00000E+00
         0.00000E+00
         0.00000E+00
         0.00000E+00
         0.00000E+00
         0.00000E+00
         0.00000E+00
         0.00000E+00
         0.00000E+00
         0.00000E+00
         0.00000E+00
         0.00000E+00
         0.00000E+00
         0.00000E+00
         0.00000E+00
         0.00000E+00
         0.00000E+00
         0.00000E+00
         0.00000E+00
         0.00000E+00
         0.00000E+00
         0.00000E+00
         0.00000E+00
         0.00000E+00
         0.00000E+00
         0.00000E+00
         0.00000E+00
         0.00000E+00
         0.00000E+00
         0.00000E+00
         0.00000E+00
         0.00000E+00
         0.00000E+00
         0.00000E+00
         0.00000E+00
         0.00000E+00
         0.00000E+00
         0.00000E+00
         0.00000E+00
         0.00000E+00
         0.00000E+00
         0.00000E+00
         0.00000E+00
         0.00000E+00
         0.00000E+00
         0.00000E+00
         0.00000E+00
         0.00000E+00
         0.00000E+00
         0.00000E+00
         0.00000E+00
         0.00000E+00
         0.00000E+00
         0.00000E+00
         0.00000E+00
         0.00000E+00
         0.00000E+00
         0.00000E+00
         0.00000E+00
         0.00000E+00
         0.00000E+00
         0.00000E+00
         0.00000E+00
         0.00000E+00
         0.00000E+00
         0.00000E+00
         0.00000E+00
         0.00000E+00
         0.00000E+00
         0.00000E+00
         0.00000E+00
         0.00000E+00
         0.00000E+00
         0.00000E+00
         0.00000E+00
         0.00000E+00
         0.00000E+00
         0.00000E+00
         0.00000E+00
         0.00000E+00
         0.00000E+00
         0.00000E+00
         0.00000E+00
         0.00000E+00
         0.00000E+00
         0.00000E+00
         0.00000E+00
         0.00000E+00
         0.00000E+00
         0.00000E+00
         0.00000E+00
         0.00000E+00
         0.00000E+00
         0.00000E+00
         0.00000E+00
         0.00000E+00
         0.00000E+00
         0.00000E+00
         0.00000E+00
         0.00000E+00
         0.00000E+00
         0.00000E+00
         0.00000E+00
         0.00000E+00
         0.00000E+00
         0.00000E+00
         0.00000E+00
         0.00000E+00
         0.00000E+00
         0.00000E+00
         0.00000E+00
         0.00000E+00
         0.00000E+00
         0.00000E+00
         0.00000E+00
         0.00000E+00
         0.00000E+00
         0.00000E+00
         0.00000E+00
         0.00000E+00
         0.00000E+00
         0.00000E+00
         0.00000E+00
         0.00000E+00
         0.00000E+00
         0.00000E+00
         0.00000E+00
         0.00000E+00
         0.00000E+00
         0.00000E+00
         0.00000E+00
         0.00000E+00
         0.00000E+00
         0.00000E+00
         0.00000E+00
         0.00000E+00
         0.00000E+00
         0.00000E+00
         0.00000E+00
         0.00000E+00
         0.00000E+00
         0.00000E+00
         0.00000E+00
         0.00000E+00
         0.00000E+00
         0.00000E+00
         0.00000E+00
         0.00000E+00
         0.00000E+00
         0.00000E+00
         0.00000E+00
         0.00000E+00
         0.00000E+00
         0.00000E+00
         0.00000E+00
         0.00000E+00
         0.00000E+00
         0.00000E+00
         0.00000E+00
         0.00000E+00
         0.00000E+00
         0.00000E+00
         0.00000E+00
         0.00000E+00
         0.00000E+00
         0.00000E+00
         0.00000E+00
         0.00000E+00
         0.00000E+00
         0.00000E+00
         0.00000E+00
         0.00000E+00
         0.00000E+00
         0.00000E+00
         0.00000E+00
         0.00000E+00
         0.00000E+00
         0.00000E+00
         0.00000E+00
         0.00000E+00
         0.00000E+00
         0.00000E+00
         0.00000E+00
         0.00000E+00
         0.00000E+00
         0.00000E+00
         0.00000E+00
         0.00000E+00
         0.00000E+00
         0.00000E+00
         0.00000E+00
         0.00000E+00
         0.00000E+00
         0.00000E+00
         0.00000E+00
         0.00000E+00
         0.00000E+00
         0.00000E+00
         0.00000E+00
         0.00000E+00
         0.00000E+00
         0.00000E+00
         0.00000E+00
         0.00000E+00
         0.00000E+00
         0.00000E+00
         0.00000E+00
         0.00000E+00
         0.00000E+00
         0.00000E+00
         0.00000E+00
         0.00000E+00
         0.00000E+00
         0.00000E+00
         0.00000E+00
         0.00000E+00
         0.00000E+00
         0.00000E+00
         0.00000E+00
         0.00000E+00
         0.00000E+00
         0.00000E+00
         0.00000E+00
         0.00000E+00
         0.00000E+00
         0.00000E+00
         0.00000E+00
         0.00000E+00
         0.00000E+00
         0.00000E+00
         0.00000E+00
         0.00000E+00
         0.00000E+00
         0.00000E+00
         0.00000E+00
         0.00000E+00
         0.00000E+00
         0.00000E+00
         0.00000E+00
         0.00000E+00
         0.00000E+00
         0.00000E+00
         0.00000E+00
         0.00000E+00
         0.00000E+00
         0.00000E+00
         0.00000E+00
         0.00000E+00
         0.00000E+00
         0.00000E+00
         0.00000E+00
         0.00000E+00
         0.00000E+00
         0.00000E+00
         0.00000E+00
         0.00000E+00
         0.00000E+00
         0.00000E+00
         0.00000E+00
         0.00000E+00
         0.00000E+00
         0.00000E+00
         0.00000E+00
         0.00000E+00
         0.00000E+00
         0.00000E+00
         0.00000E+00
         0.00000E+00
         0.00000E+00
         0.00000E+00
         0.00000E+00
         0.00000E+00
         0.00000E+00
         0.00000E+00
         0.00000E+00
         0.00000E+00
         0.00000E+00
         0.00000E+00
         0.00000E+00
         0.00000E+00
         0.00000E+00
         0.00000E+00
         0.00000E+00
         0.00000E+00
         0.00000E+00
         0.00000E+00
         0.00000E+00
         0.00000E+00
         0.00000E+00
         0.00000E+00
         0.00000E+00
         0.00000E+00
         0.00000E+00
         0.00000E+00
         0.00000E+00
         0.00000E+00
         0.00000E+00
         0.00000E+00
         0.00000E+00
         0.00000E+00
         0.00000E+00
         0.00000E+00
         0.00000E+00
         0.00000E+00
         0.00000E+00
         0.00000E+00
         0.00000E+00
         0.00000E+00
         0.00000E+00
         0.00000E+00
         0.00000E+00
         0.00000E+00
         0.00000E+00
         0.00000E+00
         0.00000E+00
         0.00000E+00
         0.00000E+00
         0.00000E+00
         0.00000E+00
         0.00000E+00
         0.00000E+00
         0.00000E+00
         0.00000E+00
         0.00000E+00
         0.00000E+00
         0.00000E+00
         0.00000E+00
         0.00000E+00
         0.00000E+00
         0.00000E+00
         0.00000E+00
         0.00000E+00
         0.00000E+00
         0.00000E+00
         0.00000E+00
         0.00000E+00
         0.00000E+00
         0.00000E+00
         0.00000E+00
         0.00000E+00
         0.00000E+00
         0.00000E+00
         0.00000E+00
         0.00000E+00
         0.00000E+00
         0.00000E+00
         0.00000E+00
         0.00000E+00
         0.00000E+00
         0.00000E+00
         0.00000E+00
         0.00000E+00
         0.00000E+00
         0.00000E+00
         0.00000E+00
         0.00000E+00
         0.00000E+00
         0.00000E+00
         0.00000E+00
         0.00000E+00
         0.00000E+00
         0.00000E+00
         0.00000E+00
         0.00000E+00
         0.00000E+00
         0.00000E+00
         0.00000E+00
         0.00000E+00
         0.00000E+00
         0.00000E+00
         0.00000E+00
         0.00000E+00
         0.00000E+00
         0.00000E+00
         0.00000E+00
         0.00000E+00
         0.00000E+00
         0.00000E+00
         0.00000E+00
         0.00000E+00
         0.00000E+00
         0.00000E+00
         0.00000E+00
         0.00000E+00
         0.00000E+00
         0.00000E+00
         0.00000E+00
         0.00000E+00
         0.00000E+00
         0.00000E+00
         0.00000E+00
         0.00000E+00
         0.00000E+00
         0.00000E+00
         0.00000E+00
         0.00000E+00
         0.00000E+00
         0.00000E+00
         0.00000E+00
         0.00000E+00
         0.00000E+00
         0.00000E+00
         0.00000E+00
         0.00000E+00
         0.00000E+00
         0.00000E+00
         0.00000E+00
         0.00000E+00
         0.00000E+00
         0.00000E+00
         0.00000E+00
         0.00000E+00
         0.00000E+00
         0.00000E+00
         0.00000E+00
         0.00000E+00
         0.00000E+00
         0.00000E+00
         0.00000E+00
         0.00000E+00
         0.00000E+00
         0.00000E+00
         0.00000E+00
         0.00000E+00
         0.00000E+00
         0.00000E+00
         0.00000E+00
         0.00000E+00
         0.00000E+00
         0.00000E+00
         0.00000E+00
         0.00000E+00
         0.00000E+00
         0.00000E+00
         0.00000E+00
         0.00000E+00
         0.00000E+00
         0.00000E+00
         0.00000E+00
         0.00000E+00
         0.00000E+00
         0.00000E+00
         0.00000E+00
         0.00000E+00
         0.00000E+00
         0.00000E+00
         0.00000E+00
         0.00000E+00
         0.00000E+00
         0.00000E+00
         0.00000E+00
         0.00000E+00
         0.00000E+00
         0.00000E+00
         0.00000E+00
         0.00000E+00
         0.00000E+00
         0.00000E+00
         0.00000E+00
         0.00000E+00
         0.00000E+00
         0.00000E+00
         0.00000E+00
         0.00000E+00
         0.00000E+00
         0.00000E+00
         0.00000E+00
         0.00000E+00
         0.00000E+00
         0.00000E+00
         0.00000E+00
         0.00000E+00
         0.00000E+00
         0.00000E+00
         0.00000E+00
         0.00000E+00
         0.00000E+00
         0.00000E+00
         0.00000E+00
         0.00000E+00
         0.00000E+00
         0.00000E+00
         0.00000E+00
         0.00000E+00
         0.00000E+00
         0.00000E+00
         0.00000E+00
         0.00000E+00
         0.00000E+00
         0.00000E+00
         0.00000E+00
         0.00000E+00
         0.00000E+00
         0.00000E+00
         0.00000E+00
         0.00000E+00
         0.00000E+00
         0.00000E+00
         0.00000E+00
         0.00000E+00
         0.00000E+00
         0.00000E+00
         0.00000E+00
         0.00000E+00
         0.00000E+00
         0.00000E+00
         0.00000E+00
         0.00000E+00
         0.00000E+00
         0.00000E+00
         0.00000E+00
         0.00000E+00
         0.00000E+00
         0.00000E+00
         0.00000E+00
         0.00000E+00
         0.00000E+00
         0.00000E+00
         0.00000E+00
         0.00000E+00
         0.00000E+00
         0.00000E+00
         0.00000E+00
         0.00000E+00
         0.00000E+00
         0.00000E+00
         0.00000E+00
         0.00000E+00
         0.00000E+00
         0.00000E+00
         0.00000E+00
         0.00000E+00
         0.00000E+00
         0.00000E+00
         0.00000E+00
         0.00000E+00
         0.00000E+00
         0.00000E+00
         0.00000E+00
         0.00000E+00
         0.00000E+00
         0.00000E+00
         0.00000E+00
         0.00000E+00
         0.00000E+00
         0.00000E+00
         0.00000E+00
         0.00000E+00
         0.00000E+00
         0.00000E+00
         0.00000E+00
         0.00000E+00
         0.00000E+00
         0.00000E+00
         0.00000E+00
         0.00000E+00
         0.00000E+00
         0.00000E+00
         0.00000E+00
         0.00000E+00
         0.00000E+00
         0.00000E+00
         0.00000E+00
         0.00000E+00
         0.00000E+00
         0.00000E+00
         0.00000E+00
         0.00000E+00
         0.00000E+00
         0.00000E+00
         0.00000E+00
         0.00000E+00
         0.00000E+00
         0.00000E+00
         0.00000E+00
         0.00000E+00
         0.00000E+00
         0.00000E+00
         0.00000E+00
         0.00000E+00
         0.00000E+00
         0.00000E+00
         0.00000E+00
         0.00000E+00
         0.00000E+00
         0.00000E+00
         0.00000E+00
         0.00000E+00
         0.00000E+00
         0.00000E+00
         0.00000E+00
         0.00000E+00
         0.00000E+00
         0.00000E+00
         0.00000E+00
         0.00000E+00
         0.00000E+00
         0.00000E+00
         0.00000E+00
         0.00000E+00
         0.00000E+00
         0.00000E+00
         0.00000E+00
         0.00000E+00
         0.00000E+00
         0.00000E+00
         0.00000E+00
         0.00000E+00
         0.00000E+00
         0.00000E+00
         0.00000E+00
         0.00000E+00
         0.00000E+00
         0.00000E+00
         0.00000E+00
         0.00000E+00
         0.00000E+00
         0.00000E+00
         0.00000E+00
         0.00000E+00
         0.00000E+00
         0.00000E+00
         0.00000E+00
         0.00000E+00
         0.00000E+00
         0.00000E+00
         0.00000E+00
         0.00000E+00
         0.00000E+00
         0.00000E+00
         0.00000E+00
         0.00000E+00
         0.00000E+00
         0.00000E+00
         0.00000E+00
         0.00000E+00
         0.00000E+00
         0.00000E+00
         0.00000E+00
         0.00000E+00
         0.00000E+00
         0.00000E+00
         0.00000E+00
         0.00000E+00
         0.00000E+00
         0.00000E+00
         0.00000E+00
         0.00000E+00
         0.00000E+00
         0.00000E+00
         0.00000E+00
         0.00000E+00
         0.00000E+00
         0.00000E+00
         0.00000E+00
         0.00000E+00
         0.00000E+00
         0.00000E+00
         0.00000E+00
         0.00000E+00
         0.00000E+00
         0.00000E+00
         0.00000E+00
         0.00000E+00
         0.00000E+00
         0.00000E+00
         0.00000E+00
         0.00000E+00
         0.00000E+00
         0.00000E+00
         0.00000E+00
         0.00000E+00
         0.00000E+00
         0.00000E+00
         0.00000E+00
         0.00000E+00
         0.00000E+00
         0.00000E+00
         0.00000E+00
         0.00000E+00
         0.00000E+00
         0.00000E+00
         0.00000E+00
         0.00000E+00
         0.00000E+00
         0.00000E+00
         0.00000E+00
         0.00000E+00
         0.00000E+00
         0.00000E+00
         0.00000E+00
         0.00000E+00
         0.00000E+00
         0.00000E+00
         0.00000E+00
         0.00000E+00
         0.00000E+00
         0.00000E+00
         0.00000E+00
         0.00000E+00
         0.00000E+00
         0.00000E+00
         0.00000E+00
         0.00000E+00
         0.00000E+00
         0.00000E+00
         0.00000E+00
         0.00000E+00
         0.00000E+00
         0.00000E+00
         0.00000E+00
         0.00000E+00
         0.00000E+00
         0.00000E+00
         0.00000E+00
         0.00000E+00
         0.00000E+00
         0.00000E+00
         0.00000E+00
         0.00000E+00
         0.00000E+00
         0.00000E+00
         0.00000E+00
         0.00000E+00
         0.00000E+00
         0.00000E+00
         0.00000E+00
         0.00000E+00
         0.00000E+00
         0.00000E+00
         0.00000E+00
         0.00000E+00
         0.00000E+00
         0.00000E+00
         0.00000E+00
         0.00000E+00
         0.00000E+00
         0.00000E+00
         0.00000E+00
         0.00000E+00
         0.00000E+00
         0.00000E+00
         0.00000E+00
         0.00000E+00
         0.00000E+00
         0.00000E+00
         0.00000E+00
         0.00000E+00
         0.00000E+00
         0.00000E+00
         0.00000E+00
         0.00000E+00
         0.00000E+00
         0.00000E+00
         0.00000E+00
         0.00000E+00
         0.00000E+00
         0.00000E+00
         0.00000E+00
         0.00000E+00
         0.00000E+00
         0.00000E+00
         0.00000E+00
         0.00000E+00
         0.00000E+00
         0.00000E+00
         0.00000E+00
         0.00000E+00
         0.00000E+00
         0.00000E+00
         0.00000E+00
         0.00000E+00
         0.00000E+00
         0.00000E+00
         0.00000E+00
         0.00000E+00
         0.00000E+00
         0.00000E+00
         0.00000E+00
         0.00000E+00
         0.00000E+00
         0.00000E+00
         0.00000E+00
         0.00000E+00
         0.00000E+00
         0.00000E+00
         0.00000E+00
         0.00000E+00
         0.00000E+00
         0.00000E+00
         0.00000E+00
         0.00000E+00
         0.00000E+00
         0.00000E+00
         0.00000E+00
         0.00000E+00
         0.00000E+00
         0.00000E+00
         0.00000E+00
         0.00000E+00
         0.00000E+00
         0.00000E+00
         0.00000E+00
         0.00000E+00
         0.00000E+00
         0.00000E+00
         0.00000E+00
         0.00000E+00
         0.00000E+00
         0.00000E+00
         0.00000E+00
         0.00000E+00
         0.00000E+00
         0.00000E+00
         0.00000E+00
         0.00000E+00
         0.00000E+00
         0.00000E+00
         0.00000E+00
         0.00000E+00
         0.00000E+00
         0.00000E+00
         0.00000E+00
         0.00000E+00
         0.00000E+00
         0.00000E+00
         0.00000E+00
         0.00000E+00
         0.00000E+00
         0.00000E+00
         0.00000E+00
         0.00000E+00
         0.00000E+00
         0.00000E+00
         0.00000E+00
         0.00000E+00
         0.00000E+00
         0.00000E+00
         0.00000E+00
         0.00000E+00
         0.00000E+00
         0.00000E+00
         0.00000E+00
         0.00000E+00
         0.00000E+00
         0.00000E+00
         0.00000E+00
         0.00000E+00
         0.00000E+00
         0.00000E+00
         0.00000E+00
         0.00000E+00
         0.00000E+00
         0.00000E+00
         0.00000E+00
         0.00000E+00
         0.00000E+00
         0.00000E+00
         0.00000E+00
         0.00000E+00
         0.00000E+00
         0.00000E+00
         0.00000E+00
         0.00000E+00
         0.00000E+00
         0.00000E+00
         0.00000E+00
         0.00000E+00
         0.00000E+00
         0.00000E+00
         0.00000E+00
         0.00000E+00
         0.00000E+00
         0.00000E+00
         0.00000E+00
         0.00000E+00
         0.00000E+00
         0.00000E+00
         0.00000E+00
         0.00000E+00
         0.00000E+00
         0.00000E+00
         0.00000E+00
         0.00000E+00
         0.00000E+00
         0.00000E+00
         0.00000E+00
         0.00000E+00
         0.00000E+00
         0.00000E+00
         0.00000E+00
         0.00000E+00
         0.00000E+00
         0.00000E+00
         0.00000E+00
         0.00000E+00
         0.00000E+00
         0.00000E+00
         0.00000E+00
         0.00000E+00
         0.00000E+00
         0.00000E+00
         0.00000E+00
         0.00000E+00
         0.00000E+00
         0.00000E+00
         0.00000E+00
         0.00000E+00
         0.00000E+00
         0.00000E+00
         0.00000E+00
         0.00000E+00
         0.00000E+00
         0.00000E+00
         0.00000E+00
         0.00000E+00
         0.00000E+00
         0.00000E+00
         0.00000E+00
         0.00000E+00
         0.00000E+00
         0.00000E+00
         0.00000E+00
         0.00000E+00
         0.00000E+00
         0.00000E+00
         0.00000E+00
         0.00000E+00
         0.00000E+00
         0.00000E+00
         0.00000E+00
         0.00000E+00
         0.00000E+00
         0.00000E+00
         0.00000E+00
         0.00000E+00
         0.00000E+00
         0.00000E+00
         0.00000E+00
         0.00000E+00
         0.00000E+00
         0.00000E+00
         0.00000E+00
         0.00000E+00
         0.00000E+00
         0.00000E+00
         0.00000E+00
         0.00000E+00
         0.00000E+00
         0.00000E+00
         0.00000E+00
         0.00000E+00
         0.00000E+00
         0.00000E+00
         0.00000E+00
         0.00000E+00
         0.00000E+00
         0.00000E+00
         0.00000E+00
         0.00000E+00
         0.00000E+00
         0.00000E+00
         0.00000E+00
         0.00000E+00
         0.00000E+00
         0.00000E+00
         0.00000E+00
         0.00000E+00
         0.00000E+00
         0.00000E+00
         0.00000E+00
         0.00000E+00
         0.00000E+00
         0.00000E+00
         0.00000E+00
         0.00000E+00
         0.00000E+00
         0.00000E+00
         0.00000E+00
         0.00000E+00
         0.00000E+00
         0.00000E+00
         0.00000E+00
         0.00000E+00
         0.00000E+00
         0.00000E+00
         0.00000E+00
         0.00000E+00
         0.00000E+00
         0.00000E+00
         0.00000E+00
         0.00000E+00
         0.00000E+00
         0.00000E+00
         0.00000E+00
         0.00000E+00
         0.00000E+00
         0.00000E+00
         0.00000E+00
         0.00000E+00
         0.00000E+00
         0.00000E+00
         0.00000E+00
         0.00000E+00
         0.00000E+00
         0.00000E+00
         0.00000E+00
         0.00000E+00
         0.00000E+00
         0.00000E+00
         0.00000E+00
         0.00000E+00
         0.00000E+00
         0.00000E+00
         0.00000E+00
         0.00000E+00
         0.00000E+00
         0.00000E+00
         0.00000E+00
         0.00000E+00
         0.00000E+00
         0.00000E+00
         0.00000E+00
         0.00000E+00
         0.00000E+00
         0.00000E+00
         0.00000E+00
         0.00000E+00
         0.00000E+00
         0.00000E+00
         0.00000E+00
         0.00000E+00
         0.00000E+00
         0.00000E+00
         0.00000E+00
         0.00000E+00
         0.00000E+00
         0.00000E+00
         0.00000E+00
         0.00000E+00
         0.00000E+00
         0.00000E+00
         0.00000E+00
         0.00000E+00
         0.00000E+00
         0.00000E+00
         0.00000E+00
         0.00000E+00
         0.00000E+00
         0.00000E+00
         0.00000E+00
         0.00000E+00
         0.00000E+00
         0.00000E+00
         0.00000E+00
         0.00000E+00
         0.00000E+00
         0.00000E+00
         0.00000E+00
         0.00000E+00
         0.00000E+00
         0.00000E+00
         0.00000E+00
         0.00000E+00
         0.00000E+00
         0.00000E+00
         0.00000E+00
         0.00000E+00
         0.00000E+00
         0.00000E+00
         0.00000E+00
         0.00000E+00
         0.00000E+00
         0.00000E+00
         0.00000E+00
         0.00000E+00
         0.00000E+00
         0.00000E+00
         0.00000E+00
         0.00000E+00
         0.00000E+00
         0.00000E+00
         0.00000E+00
         0.00000E+00
         0.00000E+00
         0.00000E+00
         0.00000E+00
         0.00000E+00
         0.00000E+00
         0.00000E+00
         0.00000E+00
         0.00000E+00
         0.00000E+00
         0.00000E+00
         0.00000E+00
         0.00000E+00
         0.00000E+00
         0.00000E+00
         0.00000E+00
         0.00000E+00
         0.00000E+00
         0.00000E+00
         0.00000E+00
         0.00000E+00
         0.00000E+00
         0.00000E+00
         0.00000E+00
         0.00000E+00
         0.00000E+00
         0.00000E+00
         0.00000E+00
         0.00000E+00
         0.00000E+00
         0.00000E+00
         0.00000E+00
         0.00000E+00
         0.00000E+00
         0.00000E+00
         0.00000E+00
         0.00000E+00
         0.00000E+00
         0.00000E+00
         0.00000E+00
         0.00000E+00
         0.00000E+00
         0.00000E+00
         0.00000E+00
         0.00000E+00
         0.00000E+00
         0.00000E+00
         0.00000E+00
         0.00000E+00
         0.00000E+00
         0.00000E+00
         0.00000E+00
         0.00000E+00
         0.00000E+00
         0.00000E+00
         0.00000E+00
         0.00000E+00
         0.00000E+00
         0.00000E+00
         0.00000E+00
         0.00000E+00
         0.00000E+00
         0.00000E+00
         0.00000E+00
         0.00000E+00
         0.00000E+00
         0.00000E+00
         0.00000E+00
         0.00000E+00
         0.00000E+00
         0.00000E+00
         0.00000E+00
         0.00000E+00
         0.00000E+00
         0.00000E+00
         0.00000E+00
         0.00000E+00
         0.00000E+00
         0.00000E+00
         0.00000E+00
         0.00000E+00
         0.00000E+00
         0.00000E+00
         0.00000E+00
         0.00000E+00
         0.00000E+00
         0.00000E+00
         0.00000E+00
         0.00000E+00
         0.00000E+00
         0.00000E+00
         0.00000E+00
         0.00000E+00
         0.00000E+00
         0.00000E+00
         0.00000E+00
         0.00000E+00
         0.00000E+00
         0.00000E+00
         0.00000E+00
         0.00000E+00
         0.00000E+00
         0.00000E+00
         0.00000E+00
         0.00000E+00
         0.00000E+00
         0.00000E+00
         0.00000E+00
         0.00000E+00
         0.00000E+00
         0.00000E+00
         0.00000E+00
         0.00000E+00
         0.00000E+00
         0.00000E+00
         0.00000E+00
         0.00000E+00
         0.00000E+00
         0.00000E+00
         0.00000E+00
         0.00000E+00
         0.00000E+00
         0.00000E+00
         0.00000E+00
         0.00000E+00
         0.00000E+00
         0.00000E+00
         0.00000E+00
         0.00000E+00
         0.00000E+00
         0.00000E+00
         0.00000E+00
         0.00000E+00
         0.00000E+00
         0.00000E+00
         0.00000E+00
         0.00000E+00
         0.00000E+00
         0.00000E+00
         0.00000E+00
         0.00000E+00
         0.00000E+00
         0.00000E+00
         0.00000E+00
         0.00000E+00
         0.00000E+00
         0.00000E+00
         0.00000E+00
         0.00000E+00
         0.00000E+00
         0.00000E+00
         0.00000E+00
         0.00000E+00
         0.00000E+00
         0.00000E+00
         0.00000E+00
         0.00000E+00
         0.00000E+00
         0.00000E+00
         0.00000E+00
         0.00000E+00
         0.00000E+00
         0.00000E+00
         0.00000E+00
         0.00000E+00
         0.00000E+00
         0.00000E+00
         0.00000E+00
         0.00000E+00
         0.00000E+00
         0.00000E+00
         0.00000E+00
         0.00000E+00
         0.00000E+00
         0.00000E+00
         0.00000E+00
         0.00000E+00
         0.00000E+00
         0.00000E+00
         0.00000E+00
         0.00000E+00
         0.00000E+00
         0.00000E+00
         0.00000E+00
         0.00000E+00
         0.00000E+00
         0.00000E+00
         0.00000E+00
         0.00000E+00
         0.00000E+00
         0.00000E+00
         0.00000E+00
         0.00000E+00
         0.00000E+00
         0.00000E+00
         0.00000E+00
         0.00000E+00
         0.00000E+00
         0.00000E+00
         0.00000E+00
         0.00000E+00
         0.00000E+00
         0.00000E+00
         0.00000E+00
         0.00000E+00
         0.00000E+00
         0.00000E+00
         0.00000E+00
         0.00000E+00
         0.00000E+00
         0.00000E+00
         0.00000E+00
         0.00000E+00
         0.00000E+00
         0.00000E+00
         0.00000E+00
         0.00000E+00
         0.00000E+00
         0.00000E+00
         0.00000E+00
         0.00000E+00
         0.00000E+00
         0.00000E+00
         0.00000E+00
         0.00000E+00
         0.00000E+00
         0.00000E+00
         0.00000E+00
         0.00000E+00
         0.00000E+00
         0.00000E+00
         0.00000E+00
         0.00000E+00
         0.00000E+00
         0.00000E+00
         0.00000E+00
         0.00000E+00
         0.00000E+00
         0.00000E+00
         0.00000E+00
         0.00000E+00
         0.00000E+00
         0.00000E+00
         0.00000E+00
         0.00000E+00
         0.00000E+00
         0.00000E+00
         0.00000E+00
         0.00000E+00
         0.00000E+00
         0.00000E+00
         0.00000E+00
         0.00000E+00
         0.00000E+00
         0.00000E+00
         0.00000E+00
         0.00000E+00
         0.00000E+00
         0.00000E+00
         0.00000E+00
         0.00000E+00
         0.00000E+00
         0.00000E+00
         0.00000E+00
         0.00000E+00
         0.00000E+00
         0.00000E+00
         0.00000E+00
         0.00000E+00
         0.00000E+00
         0.00000E+00
         0.00000E+00
         0.00000E+00
         0.00000E+00
         0.00000E+00
         0.00000E+00
         0.00000E+00
         0.00000E+00
         0.00000E+00
         0.00000E+00
         0.00000E+00
         0.00000E+00
         0.00000E+00
         0.00000E+00
         0.00000E+00
         0.00000E+00
         0.00000E+00
         0.00000E+00
         0.00000E+00
         0.00000E+00
         0.00000E+00
         0.00000E+00
         0.00000E+00
         0.00000E+00
         0.00000E+00
         0.00000E+00
         0.00000E+00
         0.00000E+00
         0.00000E+00
         0.00000E+00
         0.00000E+00
         0.00000E+00
         0.00000E+00
         0.00000E+00
         0.00000E+00
         0.00000E+00
         0.00000E+00
         0.00000E+00
         0.00000E+00
         0.00000E+00
         0.00000E+00
         0.00000E+00
         0.00000E+00
         0.00000E+00
         0.00000E+00
         0.00000E+00
         0.00000E+00
         0.00000E+00
         0.00000E+00
         0.00000E+00
         0.00000E+00
         0.00000E+00
         0.00000E+00
         0.00000E+00
         0.00000E+00
         0.00000E+00
         0.00000E+00
         0.00000E+00
         0.00000E+00
         0.00000E+00
         0.00000E+00
         0.00000E+00
         0.00000E+00
         0.00000E+00
         0.00000E+00
         0.00000E+00
         0.00000E+00
         0.00000E+00
         0.00000E+00
         0.00000E+00
         0.00000E+00
         0.00000E+00
         0.00000E+00
         0.00000E+00
         0.00000E+00
         0.00000E+00
         0.00000E+00
         0.00000E+00
         0.00000E+00
         0.00000E+00
         0.00000E+00
         0.00000E+00
         0.00000E+00
         0.00000E+00
         0.00000E+00
         0.00000E+00
         0.00000E+00
         0.00000E+00
         0.00000E+00
         0.00000E+00
         0.00000E+00
         0.00000E+00
         0.00000E+00
         0.00000E+00
         0.00000E+00
         0.00000E+00
         0.00000E+00
         0.00000E+00
         0.00000E+00
         0.00000E+00
         0.00000E+00
         0.00000E+00
         0.00000E+00
         0.00000E+00
         0.00000E+00
         0.00000E+00
         0.00000E+00
         0.00000E+00
         0.00000E+00
         0.00000E+00
         0.00000E+00
         0.00000E+00
         0.00000E+00
         0.00000E+00
         0.00000E+00
         0.00000E+00
         0.00000E+00
         0.00000E+00
         0.00000E+00
         0.00000E+00
         0.00000E+00
         0.00000E+00
         0.00000E+00
         0.00000E+00
         0.00000E+00
         0.00000E+00
         0.00000E+00
         0.00000E+00
         0.00000E+00
         0.00000E+00
         0.00000E+00
         0.00000E+00
         0.00000E+00
         0.00000E+00
         0.00000E+00
         0.00000E+00
         0.00000E+00
         0.00000E+00
         0.00000E+00
         0.00000E+00
         0.00000E+00
         0.00000E+00
         0.00000E+00
         0.00000E+00
         0.00000E+00
         0.00000E+00
         0.00000E+00
         0.00000E+00
         0.00000E+00
         0.00000E+00
         0.00000E+00
         0.00000E+00
         0.00000E+00
         0.00000E+00
         0.00000E+00
         0.00000E+00
         0.00000E+00
         0.00000E+00
         0.00000E+00
         0.00000E+00
         0.00000E+00
         0.00000E+00
         0.00000E+00
         0.00000E+00
         0.00000E+00
         0.00000E+00
         0.00000E+00
         0.00000E+00
         0.00000E+00
         0.00000E+00
         0.00000E+00
         0.00000E+00
         0.00000E+00
         0.00000E+00
         0.00000E+00
         0.00000E+00
         0.00000E+00
         0.00000E+00
         0.00000E+00
         0.00000E+00
         0.00000E+00
         0.00000E+00
         0.00000E+00
         0.00000E+00
         0.00000E+00
         0.00000E+00
         0.00000E+00
         0.00000E+00
         0.00000E+00
         0.00000E+00
         0.00000E+00
         0.00000E+00
         0.00000E+00
         0.00000E+00
         0.00000E+00
         0.00000E+00
         0.00000E+00
         0.00000E+00
         0.00000E+00
         0.00000E+00
         0.00000E+00
         0.00000E+00
         0.00000E+00
         0.00000E+00
         0.00000E+00
         0.00000E+00
         0.00000E+00
         0.00000E+00
         0.00000E+00
         0.00000E+00
         0.00000E+00
         0.00000E+00
         0.00000E+00
         0.00000E+00
         0.00000E+00
         0.00000E+00
         0.00000E+00
         0.00000E+00
         0.00000E+00
         0.00000E+00
         0.00000E+00
         0.00000E+00
         0.00000E+00
         0.00000E+00
         0.00000E+00
         0.00000E+00
         0.00000E+00
         0.00000E+00
         0.00000E+00
         0.00000E+00
         0.00000E+00
         0.00000E+00
         0.00000E+00
         0.00000E+00
         0.00000E+00
         0.00000E+00
         0.00000E+00
         0.00000E+00
         0.00000E+00
         0.00000E+00
         0.00000E+00
         0.00000E+00
         0.00000E+00
         0.00000E+00
         0.00000E+00
         0.00000E+00
         0.00000E+00
         0.00000E+00
         0.00000E+00
         0.00000E+00
         0.00000E+00
         0.00000E+00
         0.00000E+00
         0.00000E+00
         0.00000E+00
         0.00000E+00
         0.00000E+00
         0.00000E+00
         0.00000E+00
         0.00000E+00
         0.00000E+00
         0.00000E+00
         0.00000E+00
         0.00000E+00
         0.00000E+00
         0.00000E+00
         0.00000E+00
         0.00000E+00
  
SCALARS                            eps  double 1
LOOKUP_TABLE default
         0.11113E+02
         0.10977E+02
         0.11063E+02
         0.11218E+02
         0.00000E+00
         0.00000E+00
         0.00000E+00
         0.00000E+00
         0.10973E+02
         0.11019E+02
         0.00000E+00
         0.00000E+00
         0.10780E+02
         0.10772E+02
         0.00000E+00
         0.00000E+00
         0.11195E+02
         0.10783E+02
         0.00000E+00
         0.00000E+00
         0.10631E+02
         0.10514E+02
         0.10701E+02
         0.00000E+00
         0.00000E+00
         0.00000E+00
         0.10518E+02
         0.10346E+02
         0.00000E+00
         0.00000E+00
         0.11188E+02
         0.11009E+02
         0.11361E+02
         0.00000E+00
         0.00000E+00
         0.00000E+00
         0.11084E+02
         0.10856E+02
         0.00000E+00
         0.00000E+00
         0.10994E+02
         0.10818E+02
         0.00000E+00
         0.00000E+00
         0.11143E+02
         0.11209E+02
         0.00000E+00
         0.00000E+00
         0.10676E+02
         0.00000E+00
         0.11196E+02
         0.00000E+00
         0.10469E+02
         0.00000E+00
         0.10414E+02
         0.00000E+00
         0.10416E+02
         0.10608E+02
         0.00000E+00
         0.00000E+00
         0.11184E+02
         0.11115E+02
         0.00000E+00
         0.00000E+00
         0.11227E+02
         0.00000E+00
         0.11145E+02
         0.00000E+00
         0.10931E+02
         0.10909E+02
         0.00000E+00
         0.00000E+00
         0.10860E+02
         0.00000E+00
         0.10285E+02
         0.00000E+00
         0.10255E+02
         0.00000E+00
         0.10271E+02
         0.00000E+00
         0.10355E+02
         0.10441E+02
         0.00000E+00
         0.00000E+00
         0.10614E+02
         0.00000E+00
         0.11140E+02
         0.00000E+00
         0.11058E+02
         0.00000E+00
         0.10992E+02
         0.10954E+02
         0.00000E+00
         0.00000E+00
         0.10999E+02
         0.00000E+00
         0.11031E+02
         0.00000E+00
         0.11002E+02
         0.00000E+00
         0.10993E+02
         0.11022E+02
         0.00000E+00
         0.00000E+00
         0.10834E+02
         0.10913E+02
         0.00000E+00
         0.00000E+00
         0.10821E+02
         0.00000E+00
         0.10912E+02
         0.00000E+00
         0.10823E+02
         0.00000E+00
         0.10627E+02
         0.00000E+00
         0.10438E+02
         0.00000E+00
         0.10324E+02
         0.00000E+00
         0.10313E+02
         0.00000E+00
         0.10316E+02
         0.00000E+00
         0.10439E+02
         0.00000E+00
         0.10671E+02
         0.00000E+00
         0.10925E+02
         0.00000E+00
         0.11072E+02
         0.00000E+00
         0.11218E+02
         0.00000E+00
         0.11314E+02
         0.00000E+00
         0.11311E+02
         0.00000E+00
         0.11075E+02
         0.00000E+00
         0.10910E+02
         0.00000E+00
         0.10856E+02
         0.00000E+00
         0.10944E+02
         0.00000E+00
         0.10990E+02
         0.00000E+00
         0.10911E+02
         0.00000E+00
         0.10911E+02
         0.00000E+00
         0.10970E+02
         0.00000E+00
         0.11047E+02
         0.00000E+00
         0.33843E+00
         0.34263E+00
         0.34204E+00
         0.33670E+00
         0.34710E+00
         0.34158E+00
         0.34844E+00
         0.34475E+00
         0.33751E+00
         0.34191E+00
         0.35266E+00
         0.35411E+00
         0.35057E+00
         0.35025E+00
         0.35261E+00
         0.33694E+00
         0.33789E+00
         0.33528E+00
         0.34311E+00
         0.34158E+00
         0.34385E+00
         0.34240E+00
         0.34512E+00
         0.34433E+00
         0.34171E+00
         0.34189E+00
         0.34645E+00
         0.34602E+00
         0.34962E+00
         0.34427E+00
         0.33741E+00
         0.34269E+00
         0.33744E+00
         0.34084E+00
         0.35504E+00
         0.35013E+00
         0.34794E+00
         0.35059E+00
         0.35090E+00
         0.35536E+00
         0.35884E+00
         0.35073E+00
         0.34378E+00
         0.34465E+00
         0.34817E+00
         0.35487E+00
         0.34908E+00
         0.34344E+00
         0.34381E+00
         0.34816E+00
         0.35297E+00
         0.34659E+00
         0.36852E+00
         0.36197E+00
         0.36313E+00
         0.36170E+00
         0.36223E+00
         0.36598E+00
         0.36967E+00
         0.37068E+00
         0.37007E+00
         0.37055E+00
         0.37212E+00
         0.36244E+00
         0.35874E+00
         0.35735E+00
         0.35532E+00
         0.35383E+00
         0.35399E+00
         0.35680E+00
         0.36637E+00
         0.36409E+00
         0.36061E+00
         0.36054E+00
         0.36113E+00
         0.36430E+00
         0.35965E+00
         0.35801E+00
         0.77042E-02
         0.33661E-02
         0.29971E-02
         0.10756E-02
         0.81239E-02
         0.46361E-02
         0.30535E-03
         0.75244E-02
         0.35310E-02
         0.69058E-02
         0.17563E-02
         0.18078E-01
         0.12936E-01
         0.48691E-02
         0.19092E-01
         0.47294E-02
         0.85487E-03
         0.00000E+00
         0.21598E-02
         0.00000E+00
         0.13513E-01
         0.12476E-01
         0.12064E-01
         0.81129E-03
         0.33359E-02
         0.00000E+00
         0.44154E-02
         0.00000E+00
         0.00000E+00
         0.38843E-02
         0.35812E-02
         0.44733E-03
         0.12199E-02
         0.63682E-03
         0.11445E-01
         0.55628E-02
         0.81387E-02
         0.14959E-01
         0.10754E-01
         0.97857E-02
         0.15267E-01
         0.13533E-01
         0.13645E-01
         0.98292E-02
         0.84336E-02
         0.12727E-01
         0.72327E-02
         0.56738E-02
         0.41246E-02
         0.54420E-02
         0.10930E-01
         0.64984E-02
         0.59407E-01
         0.60916E-01
         0.63841E-01
         0.63351E-01
         0.67776E-01
         0.73044E-01
         0.69941E-01
         0.61783E-01
         0.60115E-01
         0.64593E-01
         0.63232E-01
         0.62321E-01
         0.50890E-01
         0.48201E-01
         0.53305E-01
         0.57353E-01
         0.59656E-01
         0.65485E-01
         0.62850E-01
         0.64651E-01
         0.57851E-01
         0.54745E-01
         0.58624E-01
         0.57229E-01
         0.58997E-01
         0.58469E-01
         0.77124E-02
         0.33675E-02
         0.30006E-02
         0.10816E-02
         0.81188E-02
         0.46316E-02
         0.31565E-03
         0.75347E-02
         0.35426E-02
         0.69355E-02
         0.17562E-02
         0.18078E-01
         0.12942E-01
         0.48503E-02
         0.19115E-01
         0.47357E-02
         0.86595E-03
         0.00000E+00
         0.21629E-02
         0.00000E+00
         0.13514E-01
         0.12475E-01
         0.12063E-01
         0.81118E-03
         0.33638E-02
         0.00000E+00
         0.44179E-02
         0.00000E+00
         0.00000E+00
         0.38967E-02
         0.35877E-02
         0.44618E-03
         0.12126E-02
         0.64022E-03
         0.11452E-01
         0.55603E-02
         0.81362E-02
         0.14988E-01
         0.10786E-01
         0.98037E-02
         0.15279E-01
         0.13542E-01
         0.13647E-01
         0.98290E-02
         0.84312E-02
         0.12726E-01
         0.72329E-02
         0.56733E-02
         0.41142E-02
         0.54303E-02
         0.10922E-01
         0.64835E-02
         0.59384E-01
         0.60900E-01
         0.63840E-01
         0.63352E-01
         0.67764E-01
         0.73018E-01
         0.69910E-01
         0.61766E-01
         0.60099E-01
         0.64573E-01
         0.63220E-01
         0.62323E-01
         0.50885E-01
         0.48198E-01
         0.53312E-01
         0.57368E-01
         0.59672E-01
         0.65499E-01
         0.62846E-01
         0.64647E-01
         0.57844E-01
         0.54742E-01
         0.58603E-01
         0.57189E-01
         0.58961E-01
         0.58436E-01
         0.77207E-02
         0.33691E-02
         0.30041E-02
         0.10876E-02
         0.81136E-02
         0.46273E-02
         0.32601E-03
         0.75451E-02
         0.35541E-02
         0.69650E-02
         0.17562E-02
         0.18077E-01
         0.12949E-01
         0.48315E-02
         0.19138E-01
         0.47422E-02
         0.87723E-03
         0.00000E+00
         0.21660E-02
         0.00000E+00
         0.13516E-01
         0.12473E-01
         0.12062E-01
         0.81101E-03
         0.33914E-02
         0.00000E+00
         0.44204E-02
         0.00000E+00
         0.00000E+00
         0.39087E-02
         0.35942E-02
         0.44503E-03
         0.12053E-02
         0.64359E-03
         0.11459E-01
         0.55580E-02
         0.81334E-02
         0.15016E-01
         0.10817E-01
         0.98219E-02
         0.15292E-01
         0.13551E-01
         0.13649E-01
         0.98293E-02
         0.84293E-02
         0.12726E-01
         0.72330E-02
         0.56726E-02
         0.41040E-02
         0.54184E-02
         0.10915E-01
         0.64687E-02
         0.59361E-01
         0.60885E-01
         0.63840E-01
         0.63352E-01
         0.67752E-01
         0.72992E-01
         0.69880E-01
         0.61749E-01
         0.60082E-01
         0.64552E-01
         0.63209E-01
         0.62326E-01
         0.50880E-01
         0.48196E-01
         0.53319E-01
         0.57383E-01
         0.59688E-01
         0.65514E-01
         0.62842E-01
         0.64643E-01
         0.57837E-01
         0.54738E-01
         0.58581E-01
         0.57149E-01
         0.58926E-01
         0.58403E-01
         0.77290E-02
         0.33706E-02
         0.30076E-02
         0.10937E-02
         0.81084E-02
         0.46228E-02
         0.33646E-03
         0.75553E-02
         0.35657E-02
         0.69939E-02
         0.17562E-02
         0.18076E-01
         0.12955E-01
         0.48127E-02
         0.19161E-01
         0.47493E-02
         0.88893E-03
         0.00000E+00
         0.21694E-02
         0.00000E+00
         0.13518E-01
         0.12473E-01
         0.12063E-01
         0.81061E-03
         0.34184E-02
         0.00000E+00
         0.44224E-02
         0.00000E+00
         0.00000E+00
         0.39196E-02
         0.36011E-02
         0.44415E-03
         0.11979E-02
         0.64699E-03
         0.11465E-01
         0.55556E-02
         0.81308E-02
         0.15045E-01
         0.10849E-01
         0.98411E-02
         0.15305E-01
         0.13560E-01
         0.13652E-01
         0.98308E-02
         0.84280E-02
         0.12725E-01
         0.72338E-02
         0.56721E-02
         0.40937E-02
         0.54065E-02
         0.10906E-01
         0.64537E-02
         0.59339E-01
         0.60869E-01
         0.63840E-01
         0.63353E-01
         0.67740E-01
         0.72966E-01
         0.69849E-01
         0.61731E-01
         0.60066E-01
         0.64532E-01
         0.63198E-01
         0.62329E-01
         0.50876E-01
         0.48195E-01
         0.53326E-01
         0.57400E-01
         0.59707E-01
         0.65530E-01
         0.62839E-01
         0.64639E-01
         0.57831E-01
         0.54734E-01
         0.58560E-01
         0.57109E-01
         0.58891E-01
         0.58370E-01
         0.77371E-02
         0.33720E-02
         0.30111E-02
         0.10997E-02
         0.81034E-02
         0.46184E-02
         0.34682E-03
         0.75654E-02
         0.35771E-02
         0.70222E-02
         0.17563E-02
         0.18076E-01
         0.12962E-01
         0.47939E-02
         0.19184E-01
         0.47568E-02
         0.90107E-03
         0.00000E+00
         0.21729E-02
         0.00000E+00
         0.13521E-01
         0.12473E-01
         0.12064E-01
         0.81002E-03
         0.34449E-02
         0.00000E+00
         0.44243E-02
         0.00000E+00
         0.00000E+00
         0.39293E-02
         0.36082E-02
         0.44337E-03
         0.11906E-02
         0.65038E-03
         0.11471E-01
         0.55531E-02
         0.81283E-02
         0.15073E-01
         0.10882E-01
         0.98611E-02
         0.15319E-01
         0.13570E-01
         0.13656E-01
         0.98335E-02
         0.84275E-02
         0.12726E-01
         0.72351E-02
         0.56720E-02
         0.40836E-02
         0.53946E-02
         0.10899E-01
         0.64388E-02
         0.59316E-01
         0.60854E-01
         0.63839E-01
         0.63353E-01
         0.67729E-01
         0.72940E-01
         0.69818E-01
         0.61714E-01
         0.60050E-01
         0.64511E-01
         0.63187E-01
         0.62333E-01
         0.50874E-01
         0.48194E-01
         0.53335E-01
         0.57420E-01
         0.59728E-01
         0.65547E-01
         0.62836E-01
         0.64635E-01
         0.57824E-01
         0.54730E-01
         0.58539E-01
         0.57069E-01
         0.58856E-01
         0.58337E-01
         0.77449E-02
         0.33731E-02
         0.30145E-02
         0.11057E-02
         0.80983E-02
         0.46139E-02
         0.35692E-03
         0.75749E-02
         0.35886E-02
         0.70496E-02
         0.17568E-02
         0.18075E-01
         0.12968E-01
         0.47752E-02
         0.19208E-01
         0.47646E-02
         0.91329E-03
         0.00000E+00
         0.21763E-02
         0.00000E+00
         0.13524E-01
         0.12472E-01
         0.12065E-01
         0.80941E-03
         0.34707E-02
         0.00000E+00
         0.44260E-02
         0.00000E+00
         0.00000E+00
         0.39388E-02
         0.36151E-02
         0.44234E-03
         0.11832E-02
         0.65378E-03
         0.11478E-01
         0.55512E-02
         0.81260E-02
         0.15102E-01
         0.10915E-01
         0.98817E-02
         0.15334E-01
         0.13579E-01
         0.13660E-01
         0.98367E-02
         0.84278E-02
         0.12727E-01
         0.72365E-02
         0.56722E-02
         0.40739E-02
         0.53830E-02
         0.10891E-01
         0.64243E-02
         0.59293E-01
         0.60839E-01
         0.63839E-01
         0.63353E-01
         0.67717E-01
         0.72914E-01
         0.69787E-01
         0.61696E-01
         0.60034E-01
         0.64490E-01
         0.63177E-01
         0.62338E-01
         0.50872E-01
         0.48192E-01
         0.53343E-01
         0.57440E-01
         0.59750E-01
         0.65564E-01
         0.62832E-01
         0.64631E-01
         0.57818E-01
         0.54727E-01
         0.58518E-01
         0.57030E-01
         0.58821E-01
         0.58304E-01
         0.77520E-02
         0.33733E-02
         0.30177E-02
         0.11118E-02
         0.80934E-02
         0.46096E-02
         0.36665E-03
         0.75829E-02
         0.36003E-02
         0.70759E-02
         0.17581E-02
         0.18075E-01
         0.12976E-01
         0.47567E-02
         0.19231E-01
         0.47725E-02
         0.92528E-03
         0.00000E+00
         0.21799E-02
         0.00000E+00
         0.13526E-01
         0.12473E-01
         0.12067E-01
         0.80893E-03
         0.34957E-02
         0.00000E+00
         0.44280E-02
         0.00000E+00
         0.00000E+00
         0.39482E-02
         0.36215E-02
         0.44061E-03
         0.11758E-02
         0.65704E-03
         0.11485E-01
         0.55495E-02
         0.81241E-02
         0.15131E-01
         0.10948E-01
         0.99023E-02
         0.15349E-01
         0.13590E-01
         0.13665E-01
         0.98400E-02
         0.84286E-02
         0.12730E-01
         0.72388E-02
         0.56733E-02
         0.40656E-02
         0.53719E-02
         0.10884E-01
         0.64097E-02
         0.59270E-01
         0.60823E-01
         0.63838E-01
         0.63354E-01
         0.67705E-01
         0.72888E-01
         0.69756E-01
         0.61679E-01
         0.60018E-01
         0.64470E-01
         0.63166E-01
         0.62342E-01
         0.50870E-01
         0.48192E-01
         0.53352E-01
         0.57460E-01
         0.59772E-01
         0.65580E-01
         0.62828E-01
         0.64627E-01
         0.57812E-01
         0.54724E-01
         0.58496E-01
         0.56990E-01
         0.58786E-01
         0.58271E-01
         0.77589E-02
         0.33733E-02
         0.30208E-02
         0.11179E-02
         0.80887E-02
         0.46052E-02
         0.37608E-03
         0.75903E-02
         0.36122E-02
         0.71016E-02
         0.17598E-02
         0.18075E-01
         0.12983E-01
         0.47382E-02
         0.19254E-01
         0.47804E-02
         0.93716E-03
         0.00000E+00
         0.21834E-02
         0.00000E+00
         0.13529E-01
         0.12472E-01
         0.12068E-01
         0.80842E-03
         0.35204E-02
         0.00000E+00
         0.44301E-02
         0.00000E+00
         0.00000E+00
         0.39576E-02
         0.36278E-02
         0.43849E-03
         0.11683E-02
         0.66030E-03
         0.11492E-01
         0.55482E-02
         0.81226E-02
         0.15160E-01
         0.10982E-01
         0.99231E-02
         0.15363E-01
         0.13600E-01
         0.13669E-01
         0.98437E-02
         0.84297E-02
         0.12732E-01
         0.72414E-02
         0.56746E-02
         0.40579E-02
         0.53610E-02
         0.10877E-01
         0.63955E-02
         0.59247E-01
         0.60808E-01
         0.63837E-01
         0.63354E-01
         0.67693E-01
         0.72862E-01
         0.69725E-01
         0.61661E-01
         0.60002E-01
         0.64449E-01
         0.63155E-01
         0.62346E-01
         0.50868E-01
         0.48191E-01
         0.53360E-01
         0.57481E-01
         0.59794E-01
         0.65596E-01
         0.62823E-01
         0.64623E-01
         0.57806E-01
         0.54721E-01
         0.58475E-01
         0.56950E-01
         0.58751E-01
         0.58238E-01
         0.77657E-02
         0.33733E-02
         0.30240E-02
         0.11240E-02
         0.80838E-02
         0.46007E-02
         0.38552E-03
         0.75977E-02
         0.36241E-02
         0.71273E-02
         0.17613E-02
         0.18075E-01
         0.12990E-01
         0.47198E-02
         0.19278E-01
         0.47883E-02
         0.94907E-03
         0.00000E+00
         0.21869E-02
         0.00000E+00
         0.13532E-01
         0.12473E-01
         0.12070E-01
         0.80806E-03
         0.35450E-02
         0.00000E+00
         0.44322E-02
         0.00000E+00
         0.00000E+00
         0.39670E-02
         0.36340E-02
         0.43642E-03
         0.11610E-02
         0.66353E-03
         0.11500E-01
         0.55466E-02
         0.81210E-02
         0.15190E-01
         0.11015E-01
         0.99436E-02
         0.15378E-01
         0.13610E-01
         0.13673E-01
         0.98475E-02
         0.84310E-02
         0.12735E-01
         0.72438E-02
         0.56760E-02
         0.40503E-02
         0.53503E-02
         0.10871E-01
         0.63811E-02
         0.59224E-01
         0.60793E-01
         0.63837E-01
         0.63354E-01
         0.67681E-01
         0.72836E-01
         0.69694E-01
         0.61643E-01
         0.59986E-01
         0.64428E-01
         0.63144E-01
         0.62351E-01
         0.50866E-01
         0.48190E-01
         0.53369E-01
         0.57501E-01
         0.59816E-01
         0.65612E-01
         0.62819E-01
         0.64619E-01
         0.57801E-01
         0.54719E-01
         0.58453E-01
         0.56911E-01
         0.58716E-01
         0.58205E-01
         0.77725E-02
         0.33732E-02
         0.30270E-02
         0.11301E-02
         0.80790E-02
         0.45963E-02
         0.39500E-03
         0.76051E-02
         0.36360E-02
         0.71530E-02
         0.17632E-02
         0.18076E-01
         0.12998E-01
         0.47015E-02
         0.19302E-01
         0.47961E-02
         0.96101E-03
         0.00000E+00
         0.21904E-02
         0.00000E+00
         0.13535E-01
         0.12473E-01
         0.12072E-01
         0.80767E-03
         0.35696E-02
         0.00000E+00
         0.44344E-02
         0.00000E+00
         0.00000E+00
         0.39765E-02
         0.36401E-02
         0.43429E-03
         0.11536E-02
         0.66680E-03
         0.11507E-01
         0.55454E-02
         0.81195E-02
         0.15219E-01
         0.11049E-01
         0.99644E-02
         0.15393E-01
         0.13620E-01
         0.13678E-01
         0.98512E-02
         0.84321E-02
         0.12737E-01
         0.72464E-02
         0.56775E-02
         0.40425E-02
         0.53394E-02
         0.10864E-01
         0.63668E-02
         0.59201E-01
         0.60778E-01
         0.63836E-01
         0.63355E-01
         0.67670E-01
         0.72810E-01
         0.69663E-01
         0.61626E-01
         0.59970E-01
         0.64406E-01
         0.63133E-01
         0.62355E-01
         0.50864E-01
         0.48189E-01
         0.53378E-01
         0.57522E-01
         0.59837E-01
         0.65628E-01
         0.62814E-01
         0.64615E-01
         0.57795E-01
         0.54716E-01
         0.58432E-01
         0.56871E-01
         0.58681E-01
         0.58172E-01
         0.77792E-02
         0.33731E-02
         0.30302E-02
         0.11362E-02
         0.80743E-02
         0.45920E-02
         0.40460E-03
         0.76124E-02
         0.36480E-02
         0.71787E-02
         0.17650E-02
         0.18076E-01
         0.13005E-01
         0.46832E-02
         0.19325E-01
         0.48040E-02
         0.97297E-03
         0.00000E+00
         0.21939E-02
         0.00000E+00
         0.13538E-01
         0.12473E-01
         0.12073E-01
         0.80733E-03
         0.35942E-02
         0.00000E+00
         0.44367E-02
         0.00000E+00
         0.00000E+00
         0.39858E-02
         0.36463E-02
         0.43220E-03
         0.11463E-02
         0.67005E-03
         0.11514E-01
         0.55440E-02
         0.81180E-02
         0.15249E-01
         0.11082E-01
         0.99849E-02
         0.15408E-01
         0.13631E-01
         0.13682E-01
         0.98547E-02
         0.84333E-02
         0.12740E-01
         0.72490E-02
         0.56789E-02
         0.40350E-02
         0.53286E-02
         0.10858E-01
         0.63525E-02
         0.59178E-01
         0.60763E-01
         0.63835E-01
         0.63355E-01
         0.67658E-01
         0.72784E-01
         0.69631E-01
         0.61608E-01
         0.59954E-01
         0.64385E-01
         0.63122E-01
         0.62359E-01
         0.50862E-01
         0.48188E-01
         0.53386E-01
         0.57542E-01
         0.59859E-01
         0.65644E-01
         0.62810E-01
         0.64610E-01
         0.57790E-01
         0.54713E-01
         0.58410E-01
         0.56832E-01
         0.58646E-01
         0.58139E-01
         0.77859E-02
         0.33731E-02
         0.30333E-02
         0.11424E-02
         0.80695E-02
         0.45876E-02
         0.41411E-03
         0.76197E-02
         0.36599E-02
         0.72043E-02
         0.17670E-02
         0.18076E-01
         0.13012E-01
         0.46649E-02
         0.19349E-01
         0.48119E-02
         0.98494E-03
         0.00000E+00
         0.21974E-02
         0.00000E+00
         0.13541E-01
         0.12472E-01
         0.12075E-01
         0.80702E-03
         0.36186E-02
         0.00000E+00
         0.44389E-02
         0.00000E+00
         0.00000E+00
         0.39952E-02
         0.36525E-02
         0.43012E-03
         0.11390E-02
         0.67334E-03
         0.11521E-01
         0.55426E-02
         0.81164E-02
         0.15278E-01
         0.11116E-01
         0.10006E-01
         0.15423E-01
         0.13641E-01
         0.13687E-01
         0.98584E-02
         0.84345E-02
         0.12743E-01
         0.72514E-02
         0.56805E-02
         0.40274E-02
         0.53179E-02
         0.10851E-01
         0.63381E-02
         0.59155E-01
         0.60747E-01
         0.63834E-01
         0.63355E-01
         0.67646E-01
         0.72758E-01
         0.69600E-01
         0.61591E-01
         0.59938E-01
         0.64364E-01
         0.63111E-01
         0.62364E-01
         0.50860E-01
         0.48187E-01
         0.53395E-01
         0.57562E-01
         0.59881E-01
         0.65660E-01
         0.62805E-01
         0.64606E-01
         0.57784E-01
         0.54711E-01
         0.58388E-01
         0.56792E-01
         0.58612E-01
         0.58107E-01
         0.77927E-02
         0.33730E-02
         0.30364E-02
         0.11485E-02
         0.80647E-02
         0.45832E-02
         0.42363E-03
         0.76271E-02
         0.36719E-02
         0.72299E-02
         0.17690E-02
         0.18076E-01
         0.13020E-01
         0.46466E-02
         0.19373E-01
         0.48197E-02
         0.99691E-03
         0.00000E+00
         0.22009E-02
         0.00000E+00
         0.13544E-01
         0.12473E-01
         0.12077E-01
         0.80671E-03
         0.36431E-02
         0.00000E+00
         0.44410E-02
         0.00000E+00
         0.00000E+00
         0.40046E-02
         0.36587E-02
         0.42800E-03
         0.11317E-02
         0.67660E-03
         0.11528E-01
         0.55414E-02
         0.81149E-02
         0.15307E-01
         0.11150E-01
         0.10026E-01
         0.15438E-01
         0.13651E-01
         0.13691E-01
         0.98622E-02
         0.84358E-02
         0.12745E-01
         0.72541E-02
         0.56819E-02
         0.40198E-02
         0.53071E-02
         0.10844E-01
         0.63238E-02
         0.59132E-01
         0.60732E-01
         0.63833E-01
         0.63356E-01
         0.67634E-01
         0.72731E-01
         0.69568E-01
         0.61573E-01
         0.59922E-01
         0.64343E-01
         0.63100E-01
         0.62368E-01
         0.50858E-01
         0.48186E-01
         0.53404E-01
         0.57582E-01
         0.59903E-01
         0.65676E-01
         0.62801E-01
         0.64602E-01
         0.57779E-01
         0.54708E-01
         0.58367E-01
         0.56753E-01
         0.58577E-01
         0.58074E-01
         0.77994E-02
         0.33730E-02
         0.30395E-02
         0.11547E-02
         0.80601E-02
         0.45787E-02
         0.43328E-03
         0.76343E-02
         0.36838E-02
         0.72554E-02
         0.17711E-02
         0.18076E-01
         0.13027E-01
         0.46284E-02
         0.19396E-01
         0.48275E-02
         0.10089E-02
         0.00000E+00
         0.22044E-02
         0.00000E+00
         0.13546E-01
         0.12472E-01
         0.12078E-01
         0.80639E-03
         0.36675E-02
         0.00000E+00
         0.44431E-02
         0.00000E+00
         0.00000E+00
         0.40139E-02
         0.36649E-02
         0.42592E-03
         0.11245E-02
         0.67987E-03
         0.11536E-01
         0.55400E-02
         0.81133E-02
         0.15337E-01
         0.11183E-01
         0.10047E-01
         0.15452E-01
         0.13661E-01
         0.13695E-01
         0.98659E-02
         0.84370E-02
         0.12747E-01
         0.72567E-02
         0.56833E-02
         0.40121E-02
         0.52964E-02
         0.10837E-01
         0.63096E-02
         0.59109E-01
         0.60717E-01
         0.63832E-01
         0.63356E-01
         0.67623E-01
         0.72705E-01
         0.69537E-01
         0.61555E-01
         0.59907E-01
         0.64321E-01
         0.63089E-01
         0.62372E-01
         0.50855E-01
         0.48185E-01
         0.53412E-01
         0.57603E-01
         0.59925E-01
         0.65693E-01
         0.62796E-01
         0.64598E-01
         0.57773E-01
         0.54705E-01
         0.58345E-01
         0.56713E-01
         0.58543E-01
         0.58041E-01
         0.78061E-02
         0.33730E-02
         0.30426E-02
         0.11609E-02
         0.80553E-02
         0.45743E-02
         0.44285E-03
         0.76417E-02
         0.36958E-02
         0.72810E-02
         0.17732E-02
         0.18076E-01
         0.13034E-01
         0.46101E-02
         0.19420E-01
         0.48353E-02
         0.10210E-02
         0.00000E+00
         0.22079E-02
         0.00000E+00
         0.13549E-01
         0.12472E-01
         0.12080E-01
         0.80609E-03
         0.36920E-02
         0.00000E+00
         0.44452E-02
         0.00000E+00
         0.00000E+00
         0.40232E-02
         0.36710E-02
         0.42379E-03
         0.11172E-02
         0.68314E-03
         0.11543E-01
         0.55389E-02
         0.81119E-02
         0.15366E-01
         0.11217E-01
         0.10067E-01
         0.15467E-01
         0.13671E-01
         0.13700E-01
         0.98695E-02
         0.84382E-02
         0.12750E-01
         0.72591E-02
         0.56849E-02
         0.40045E-02
         0.52855E-02
         0.10831E-01
         0.62952E-02
         0.59086E-01
         0.60702E-01
         0.63831E-01
         0.63356E-01
         0.67611E-01
         0.72679E-01
         0.69505E-01
         0.61537E-01
         0.59891E-01
         0.64299E-01
         0.63078E-01
         0.62377E-01
         0.50853E-01
         0.48184E-01
         0.53421E-01
         0.57623E-01
         0.59947E-01
         0.65709E-01
         0.62792E-01
         0.64593E-01
         0.57768E-01
         0.54703E-01
         0.58323E-01
         0.56674E-01
         0.58508E-01
         0.58008E-01
         0.78127E-02
         0.33728E-02
         0.30457E-02
         0.11671E-02
         0.80505E-02
         0.45700E-02
         0.45244E-03
         0.76490E-02
         0.37079E-02
         0.73065E-02
         0.17755E-02
         0.18076E-01
         0.13042E-01
         0.45919E-02
         0.19443E-01
         0.48432E-02
         0.10330E-02
         0.00000E+00
         0.22114E-02
         0.00000E+00
         0.13552E-01
         0.12472E-01
         0.12082E-01
         0.80582E-03
         0.37164E-02
         0.00000E+00
         0.44474E-02
         0.00000E+00
         0.00000E+00
         0.40325E-02
         0.36772E-02
         0.42175E-03
         0.11101E-02
         0.68647E-03
         0.11550E-01
         0.55375E-02
         0.81104E-02
         0.15396E-01
         0.11251E-01
         0.10088E-01
         0.15482E-01
         0.13681E-01
         0.13704E-01
         0.98730E-02
         0.84396E-02
         0.12753E-01
         0.72618E-02
         0.56862E-02
         0.39970E-02
         0.52747E-02
         0.10824E-01
         0.62808E-02
         0.59064E-01
         0.60687E-01
         0.63830E-01
         0.63356E-01
         0.67599E-01
         0.72653E-01
         0.69473E-01
         0.61519E-01
         0.59875E-01
         0.64278E-01
         0.63068E-01
         0.62381E-01
         0.50851E-01
         0.48183E-01
         0.53430E-01
         0.57643E-01
         0.59969E-01
         0.65725E-01
         0.62788E-01
         0.64589E-01
         0.57763E-01
         0.54700E-01
         0.58302E-01
         0.56634E-01
         0.58473E-01
         0.57975E-01
         0.78193E-02
         0.33727E-02
         0.30488E-02
         0.11733E-02
         0.80460E-02
         0.45656E-02
         0.46214E-03
         0.76563E-02
         0.37199E-02
         0.73320E-02
         0.17777E-02
         0.18077E-01
         0.13049E-01
         0.45737E-02
         0.19467E-01
         0.48511E-02
         0.10452E-02
         0.00000E+00
         0.22149E-02
         0.00000E+00
         0.13555E-01
         0.12472E-01
         0.12083E-01
         0.80561E-03
         0.37407E-02
         0.00000E+00
         0.44494E-02
         0.00000E+00
         0.00000E+00
         0.40416E-02
         0.36834E-02
         0.41973E-03
         0.11030E-02
         0.68982E-03
         0.11558E-01
         0.55362E-02
         0.81087E-02
         0.15425E-01
         0.11284E-01
         0.10108E-01
         0.15496E-01
         0.13691E-01
         0.13708E-01
         0.98768E-02
         0.84408E-02
         0.12755E-01
         0.72644E-02
         0.56878E-02
         0.39894E-02
         0.52639E-02
         0.10817E-01
         0.62667E-02
         0.59040E-01
         0.60672E-01
         0.63829E-01
         0.63357E-01
         0.67587E-01
         0.72626E-01
         0.69441E-01
         0.61501E-01
         0.59859E-01
         0.64256E-01
         0.63057E-01
         0.62386E-01
         0.50850E-01
         0.48182E-01
         0.53438E-01
         0.57664E-01
         0.59991E-01
         0.65740E-01
         0.62783E-01
         0.64585E-01
         0.57757E-01
         0.54697E-01
         0.58280E-01
         0.56594E-01
         0.58439E-01
         0.57942E-01
         0.78260E-02
         0.33727E-02
         0.30519E-02
         0.11795E-02
         0.80412E-02
         0.45612E-02
         0.47175E-03
         0.76635E-02
         0.37320E-02
         0.73573E-02
         0.17801E-02
         0.18077E-01
         0.13057E-01
         0.45554E-02
         0.19491E-01
         0.48589E-02
         0.10573E-02
         0.00000E+00
         0.22185E-02
         0.00000E+00
         0.13558E-01
         0.12472E-01
         0.12085E-01
         0.80526E-03
         0.37650E-02
         0.00000E+00
         0.44507E-02
         0.00000E+00
         0.00000E+00
         0.40504E-02
         0.36896E-02
         0.41760E-03
         0.10959E-02
         0.69315E-03
         0.11565E-01
         0.55351E-02
         0.81073E-02
         0.15455E-01
         0.11318E-01
         0.10127E-01
         0.15510E-01
         0.13700E-01
         0.13712E-01
         0.98805E-02
         0.84420E-02
         0.12758E-01
         0.72669E-02
         0.56893E-02
         0.39818E-02
         0.52531E-02
         0.10811E-01
         0.62524E-02
         0.59018E-01
         0.60657E-01
         0.63828E-01
         0.63357E-01
         0.67576E-01
         0.72600E-01
         0.69410E-01
         0.61483E-01
         0.59843E-01
         0.64233E-01
         0.63046E-01
         0.62393E-01
         0.50849E-01
         0.48181E-01
         0.53447E-01
         0.57684E-01
         0.60012E-01
         0.65756E-01
         0.62779E-01
         0.64581E-01
         0.57752E-01
         0.54694E-01
         0.58258E-01
         0.56555E-01
         0.58404E-01
         0.57910E-01
         0.78326E-02
         0.33727E-02
         0.30550E-02
         0.11858E-02
         0.80364E-02
         0.45568E-02
         0.48140E-03
         0.76707E-02
         0.37442E-02
         0.73823E-02
         0.17825E-02
         0.18077E-01
         0.13064E-01
         0.45369E-02
         0.19514E-01
         0.48667E-02
         0.10694E-02
         0.00000E+00
         0.22220E-02
         0.00000E+00
         0.13561E-01
         0.12472E-01
         0.12087E-01
         0.80504E-03
         0.37891E-02
         0.00000E+00
         0.44515E-02
         0.00000E+00
         0.00000E+00
         0.40586E-02
         0.36957E-02
         0.41554E-03
         0.10888E-02
         0.69647E-03
         0.11572E-01
         0.55337E-02
         0.81058E-02
         0.15485E-01
         0.11352E-01
         0.10146E-01
         0.15523E-01
         0.13709E-01
         0.13716E-01
         0.98842E-02
         0.84434E-02
         0.12761E-01
         0.72696E-02
         0.56908E-02
         0.39743E-02
         0.52422E-02
         0.10804E-01
         0.62379E-02
         0.58994E-01
         0.60642E-01
         0.63826E-01
         0.63357E-01
         0.67564E-01
         0.72574E-01
         0.69378E-01
         0.61466E-01
         0.59827E-01
         0.64209E-01
         0.63036E-01
         0.62401E-01
         0.50849E-01
         0.48180E-01
         0.53455E-01
         0.57704E-01
         0.60034E-01
         0.65772E-01
         0.62774E-01
         0.64576E-01
         0.57746E-01
         0.54692E-01
         0.58236E-01
         0.56516E-01
         0.58370E-01
         0.57877E-01
         0.78393E-02
         0.33726E-02
         0.30582E-02
         0.11920E-02
         0.80320E-02
         0.45526E-02
         0.49114E-03
         0.76779E-02
         0.37564E-02
         0.74074E-02
         0.17850E-02
         0.18077E-01
         0.13071E-01
         0.45184E-02
         0.19538E-01
         0.48745E-02
         0.10816E-02
         0.00000E+00
         0.22256E-02
         0.00000E+00
         0.13564E-01
         0.12471E-01
         0.12088E-01
         0.80485E-03
         0.38133E-02
         0.00000E+00
         0.44522E-02
         0.00000E+00
         0.00000E+00
         0.40667E-02
         0.37020E-02
         0.41353E-03
         0.10819E-02
         0.69988E-03
         0.11580E-01
         0.55326E-02
         0.81041E-02
         0.15515E-01
         0.11385E-01
         0.10165E-01
         0.15535E-01
         0.13716E-01
         0.13719E-01
         0.98879E-02
         0.84445E-02
         0.12763E-01
         0.72722E-02
         0.56924E-02
         0.39668E-02
         0.52315E-02
         0.10797E-01
         0.62239E-02
         0.58971E-01
         0.60627E-01
         0.63825E-01
         0.63358E-01
         0.67552E-01
         0.72547E-01
         0.69346E-01
         0.61448E-01
         0.59811E-01
         0.64184E-01
         0.63025E-01
         0.62410E-01
         0.50849E-01
         0.48180E-01
         0.53464E-01
         0.57724E-01
         0.60056E-01
         0.65788E-01
         0.62770E-01
         0.64572E-01
         0.57741E-01
         0.54689E-01
         0.58214E-01
         0.56476E-01
         0.58336E-01
         0.57844E-01
         0.83551E-02
         0.41932E-02
         0.39042E-02
         0.21485E-02
         0.87182E-02
         0.53672E-02
         0.19600E-02
         0.83298E-02
         0.44744E-02
         0.80897E-02
         0.31972E-02
         0.18699E-01
         0.13690E-01
         0.55587E-02
         0.20189E-01
         0.54788E-02
         0.22245E-02
         0.62461E-03
         0.32386E-02
         0.13694E-02
         0.14083E-01
         0.13021E-01
         0.12598E-01
         0.19819E-02
         0.47528E-02
         0.59205E-03
         0.54908E-02
         0.91120E-03
         0.18204E-02
         0.50263E-02
         0.43977E-02
         0.16642E-02
         0.20568E-02
         0.18431E-02
         0.12264E-01
         0.63625E-02
         0.87840E-02
         0.16187E-01
         0.12130E-01
         0.10924E-01
         0.16168E-01
         0.14325E-01
         0.14270E-01
         0.10427E-01
         0.90769E-02
         0.13410E-01
         0.80137E-02
         0.64341E-02
         0.48047E-02
         0.60195E-02
         0.11442E-01
         0.69546E-02
         0.59836E-01
         0.61473E-01
         0.64708E-01
         0.64205E-01
         0.68428E-01
         0.73474E-01
         0.70273E-01
         0.62371E-01
         0.60745E-01
         0.65146E-01
         0.63960E-01
         0.63288E-01
         0.51594E-01
         0.48869E-01
         0.54168E-01
         0.58457E-01
         0.60803E-01
         0.66622E-01
         0.63663E-01
         0.65471E-01
         0.58539E-01
         0.55451E-01
         0.58996E-01
         0.57233E-01
         0.59088E-01
         0.58598E-01
         0.35455E-01
         0.34616E-01
         0.33980E-01
         0.30340E-01
         0.40326E-01
         0.36382E-01
         0.36596E-01
         0.39778E-01
         0.32480E-01
         0.39602E-01
         0.40636E-01
         0.54075E-01
         0.46718E-01
         0.42695E-01
         0.56762E-01
         0.32392E-01
         0.33251E-01
         0.28424E-01
         0.34701E-01
         0.35943E-01
         0.43883E-01
         0.43978E-01
         0.41438E-01
         0.32938E-01
         0.38343E-01
         0.31360E-01
         0.42548E-01
         0.40373E-01
         0.40783E-01
         0.39782E-01
         0.32158E-01
         0.32697E-01
         0.30553E-01
         0.31913E-01
         0.45739E-01
         0.39288E-01
         0.40715E-01
         0.52670E-01
         0.48893E-01
         0.47647E-01
         0.51879E-01
         0.48553E-01
         0.46432E-01
         0.39173E-01
         0.39633E-01
         0.46406E-01
         0.40369E-01
         0.37383E-01
         0.35915E-01
         0.37746E-01
         0.43691E-01
         0.38294E-01
         0.10305E+00
         0.10338E+00
         0.10756E+00
         0.10587E+00
         0.11139E+00
         0.11900E+00
         0.11727E+00
         0.10969E+00
         0.10830E+00
         0.11342E+00
         0.11087E+00
         0.10721E+00
         0.91400E-01
         0.86590E-01
         0.91344E-01
         0.95513E-01
         0.98090E-01
         0.10681E+00
         0.10669E+00
         0.10876E+00
         0.99125E-01
         0.95003E-01
         0.99680E-01
         0.97817E-01
         0.99025E-01
         0.98186E-01
  
SCALARS                            dam  double 1
LOOKUP_TABLE default
         0.00000E+00
         0.00000E+00
         0.00000E+00
         0.00000E+00
         0.00000E+00
         0.00000E+00
         0.00000E+00
         0.00000E+00
         0.00000E+00
         0.00000E+00
         0.00000E+00
         0.00000E+00
         0.00000E+00
         0.00000E+00
         0.00000E+00
         0.00000E+00
         0.00000E+00
         0.00000E+00
         0.00000E+00
         0.00000E+00
         0.00000E+00
         0.00000E+00
         0.00000E+00
         0.00000E+00
         0.00000E+00
         0.00000E+00
         0.00000E+00
         0.00000E+00
         0.00000E+00
         0.00000E+00
         0.00000E+00
         0.00000E+00
         0.00000E+00
         0.00000E+00
         0.00000E+00
         0.00000E+00
         0.00000E+00
         0.00000E+00
         0.00000E+00
         0.00000E+00
         0.00000E+00
         0.00000E+00
         0.00000E+00
         0.00000E+00
         0.00000E+00
         0.00000E+00
         0.00000E+00
         0.00000E+00
         0.00000E+00
         0.00000E+00
         0.00000E+00
         0.00000E+00
         0.00000E+00
         0.00000E+00
         0.00000E+00
         0.00000E+00
         0.00000E+00
         0.00000E+00
         0.00000E+00
         0.00000E+00
         0.00000E+00
         0.00000E+00
         0.00000E+00
         0.00000E+00
         0.00000E+00
         0.00000E+00
         0.00000E+00
         0.00000E+00
         0.00000E+00
         0.00000E+00
         0.00000E+00
         0.00000E+00
         0.00000E+00
         0.00000E+00
         0.00000E+00
         0.00000E+00
         0.00000E+00
         0.00000E+00
         0.00000E+00
         0.00000E+00
         0.00000E+00
         0.00000E+00
         0.00000E+00
         0.00000E+00
         0.00000E+00
         0.00000E+00
         0.00000E+00
         0.00000E+00
         0.00000E+00
         0.00000E+00
         0.00000E+00
         0.00000E+00
         0.00000E+00
         0.00000E+00
         0.00000E+00
         0.00000E+00
         0.00000E+00
         0.00000E+00
         0.00000E+00
         0.00000E+00
         0.00000E+00
         0.00000E+00
         0.00000E+00
         0.00000E+00
         0.00000E+00
         0.00000E+00
         0.00000E+00
         0.00000E+00
         0.00000E+00
         0.00000E+00
         0.00000E+00
         0.00000E+00
         0.00000E+00
         0.00000E+00
         0.00000E+00
         0.00000E+00
         0.00000E+00
         0.00000E+00
         0.00000E+00
         0.00000E+00
         0.00000E+00
         0.00000E+00
         0.00000E+00
         0.00000E+00
         0.00000E+00
         0.00000E+00
         0.00000E+00
         0.00000E+00
         0.00000E+00
         0.00000E+00
         0.00000E+00
         0.00000E+00
         0.00000E+00
         0.00000E+00
         0.00000E+00
         0.00000E+00
         0.00000E+00
         0.00000E+00
         0.00000E+00
         0.00000E+00
         0.00000E+00
         0.00000E+00
         0.00000E+00
         0.00000E+00
         0.00000E+00
         0.00000E+00
         0.00000E+00
         0.00000E+00
         0.00000E+00
         0.00000E+00
         0.00000E+00
         0.00000E+00
         0.00000E+00
         0.00000E+00
         0.00000E+00
         0.00000E+00
         0.00000E+00
         0.00000E+00
         0.00000E+00
         0.00000E+00
         0.00000E+00
         0.00000E+00
         0.00000E+00
         0.00000E+00
         0.00000E+00
         0.00000E+00
         0.00000E+00
         0.00000E+00
         0.00000E+00
         0.00000E+00
         0.00000E+00
         0.00000E+00
         0.00000E+00
         0.00000E+00
         0.00000E+00
         0.00000E+00
         0.00000E+00
         0.00000E+00
         0.00000E+00
         0.00000E+00
         0.00000E+00
         0.00000E+00
         0.00000E+00
         0.00000E+00
         0.00000E+00
         0.00000E+00
         0.00000E+00
         0.00000E+00
         0.00000E+00
         0.00000E+00
         0.00000E+00
         0.00000E+00
         0.00000E+00
         0.00000E+00
         0.00000E+00
         0.00000E+00
         0.00000E+00
         0.00000E+00
         0.00000E+00
         0.00000E+00
         0.00000E+00
         0.00000E+00
         0.00000E+00
         0.00000E+00
         0.00000E+00
         0.00000E+00
         0.00000E+00
         0.00000E+00
         0.00000E+00
         0.00000E+00
         0.00000E+00
         0.00000E+00
         0.00000E+00
         0.00000E+00
         0.00000E+00
         0.00000E+00
         0.00000E+00
         0.00000E+00
         0.00000E+00
         0.00000E+00
         0.00000E+00
         0.00000E+00
         0.00000E+00
         0.00000E+00
         0.00000E+00
         0.00000E+00
         0.00000E+00
         0.00000E+00
         0.00000E+00
         0.00000E+00
         0.00000E+00
         0.00000E+00
         0.00000E+00
         0.00000E+00
         0.00000E+00
         0.00000E+00
         0.00000E+00
         0.00000E+00
         0.00000E+00
         0.00000E+00
         0.00000E+00
         0.00000E+00
         0.00000E+00
         0.00000E+00
         0.00000E+00
         0.00000E+00
         0.00000E+00
         0.00000E+00
         0.00000E+00
         0.00000E+00
         0.00000E+00
         0.00000E+00
         0.00000E+00
         0.00000E+00
         0.00000E+00
         0.00000E+00
         0.00000E+00
         0.00000E+00
         0.00000E+00
         0.00000E+00
         0.00000E+00
         0.00000E+00
         0.00000E+00
         0.00000E+00
         0.00000E+00
         0.00000E+00
         0.00000E+00
         0.00000E+00
         0.00000E+00
         0.00000E+00
         0.00000E+00
         0.00000E+00
         0.00000E+00
         0.00000E+00
         0.00000E+00
         0.00000E+00
         0.00000E+00
         0.00000E+00
         0.00000E+00
         0.00000E+00
         0.00000E+00
         0.00000E+00
         0.00000E+00
         0.00000E+00
         0.00000E+00
         0.00000E+00
         0.00000E+00
         0.00000E+00
         0.00000E+00
         0.00000E+00
         0.00000E+00
         0.00000E+00
         0.00000E+00
         0.00000E+00
         0.00000E+00
         0.00000E+00
         0.00000E+00
         0.00000E+00
         0.00000E+00
         0.00000E+00
         0.00000E+00
         0.00000E+00
         0.00000E+00
         0.00000E+00
         0.00000E+00
         0.00000E+00
         0.00000E+00
         0.00000E+00
         0.00000E+00
         0.00000E+00
         0.00000E+00
         0.00000E+00
         0.00000E+00
         0.00000E+00
         0.00000E+00
         0.00000E+00
         0.00000E+00
         0.00000E+00
         0.00000E+00
         0.00000E+00
         0.00000E+00
         0.00000E+00
         0.00000E+00
         0.00000E+00
         0.00000E+00
         0.00000E+00
         0.00000E+00
         0.00000E+00
         0.00000E+00
         0.00000E+00
         0.00000E+00
         0.00000E+00
         0.00000E+00
         0.00000E+00
         0.00000E+00
         0.00000E+00
         0.00000E+00
         0.00000E+00
         0.00000E+00
         0.00000E+00
         0.00000E+00
         0.00000E+00
         0.00000E+00
         0.00000E+00
         0.00000E+00
         0.00000E+00
         0.00000E+00
         0.00000E+00
         0.00000E+00
         0.00000E+00
         0.00000E+00
         0.00000E+00
         0.00000E+00
         0.00000E+00
         0.00000E+00
         0.00000E+00
         0.00000E+00
         0.00000E+00
         0.00000E+00
         0.00000E+00
         0.00000E+00
         0.00000E+00
         0.00000E+00
         0.00000E+00
         0.00000E+00
         0.00000E+00
         0.00000E+00
         0.00000E+00
         0.00000E+00
         0.00000E+00
         0.00000E+00
         0.00000E+00
         0.00000E+00
         0.00000E+00
         0.00000E+00
         0.00000E+00
         0.00000E+00
         0.00000E+00
         0.00000E+00
         0.00000E+00
         0.00000E+00
         0.00000E+00
         0.00000E+00
         0.00000E+00
         0.00000E+00
         0.00000E+00
         0.00000E+00
         0.00000E+00
         0.00000E+00
         0.00000E+00
         0.00000E+00
         0.00000E+00
         0.00000E+00
         0.00000E+00
         0.00000E+00
         0.00000E+00
         0.00000E+00
         0.00000E+00
         0.00000E+00
         0.00000E+00
         0.00000E+00
         0.00000E+00
         0.00000E+00
         0.00000E+00
         0.00000E+00
         0.00000E+00
         0.00000E+00
         0.00000E+00
         0.00000E+00
         0.00000E+00
         0.00000E+00
         0.00000E+00
         0.00000E+00
         0.00000E+00
         0.00000E+00
         0.00000E+00
         0.00000E+00
         0.00000E+00
         0.00000E+00
         0.00000E+00
         0.00000E+00
         0.00000E+00
         0.00000E+00
         0.00000E+00
         0.00000E+00
         0.00000E+00
         0.00000E+00
         0.00000E+00
         0.00000E+00
         0.00000E+00
         0.00000E+00
         0.00000E+00
         0.00000E+00
         0.00000E+00
         0.00000E+00
         0.00000E+00
         0.00000E+00
         0.00000E+00
         0.00000E+00
         0.00000E+00
         0.00000E+00
         0.00000E+00
         0.00000E+00
         0.00000E+00
         0.00000E+00
         0.00000E+00
         0.00000E+00
         0.00000E+00
         0.00000E+00
         0.00000E+00
         0.00000E+00
         0.00000E+00
         0.00000E+00
         0.00000E+00
         0.00000E+00
         0.00000E+00
         0.00000E+00
         0.00000E+00
         0.00000E+00
         0.00000E+00
         0.00000E+00
         0.00000E+00
         0.00000E+00
         0.00000E+00
         0.00000E+00
         0.00000E+00
         0.00000E+00
         0.00000E+00
         0.00000E+00
         0.00000E+00
         0.00000E+00
         0.00000E+00
         0.00000E+00
         0.00000E+00
         0.00000E+00
         0.00000E+00
         0.00000E+00
         0.00000E+00
         0.00000E+00
         0.00000E+00
         0.00000E+00
         0.00000E+00
         0.00000E+00
         0.00000E+00
         0.00000E+00
         0.00000E+00
         0.00000E+00
         0.00000E+00
         0.00000E+00
         0.00000E+00
         0.00000E+00
         0.00000E+00
         0.00000E+00
         0.00000E+00
         0.00000E+00
         0.00000E+00
         0.00000E+00
         0.00000E+00
         0.00000E+00
         0.00000E+00
         0.00000E+00
         0.00000E+00
         0.00000E+00
         0.00000E+00
         0.00000E+00
         0.00000E+00
         0.00000E+00
         0.00000E+00
         0.00000E+00
         0.00000E+00
         0.00000E+00
         0.00000E+00
         0.00000E+00
         0.00000E+00
         0.00000E+00
         0.00000E+00
         0.00000E+00
         0.00000E+00
         0.00000E+00
         0.00000E+00
         0.00000E+00
         0.00000E+00
         0.00000E+00
         0.00000E+00
         0.00000E+00
         0.00000E+00
         0.00000E+00
         0.00000E+00
         0.00000E+00
         0.00000E+00
         0.00000E+00
         0.00000E+00
         0.00000E+00
         0.00000E+00
         0.00000E+00
         0.00000E+00
         0.00000E+00
         0.00000E+00
         0.00000E+00
         0.00000E+00
         0.00000E+00
         0.00000E+00
         0.00000E+00
         0.00000E+00
         0.00000E+00
         0.00000E+00
         0.00000E+00
         0.00000E+00
         0.00000E+00
         0.00000E+00
         0.00000E+00
         0.00000E+00
         0.00000E+00
         0.00000E+00
         0.00000E+00
         0.00000E+00
         0.00000E+00
         0.00000E+00
         0.00000E+00
         0.00000E+00
         0.00000E+00
         0.00000E+00
         0.00000E+00
         0.00000E+00
         0.00000E+00
         0.00000E+00
         0.00000E+00
         0.00000E+00
         0.00000E+00
         0.00000E+00
         0.00000E+00
         0.00000E+00
         0.00000E+00
         0.00000E+00
         0.00000E+00
         0.00000E+00
         0.00000E+00
         0.00000E+00
         0.00000E+00
         0.00000E+00
         0.00000E+00
         0.00000E+00
         0.00000E+00
         0.00000E+00
         0.00000E+00
         0.00000E+00
         0.00000E+00
         0.00000E+00
         0.00000E+00
         0.00000E+00
         0.00000E+00
         0.00000E+00
         0.00000E+00
         0.00000E+00
         0.00000E+00
         0.00000E+00
         0.00000E+00
         0.00000E+00
         0.00000E+00
         0.00000E+00
         0.00000E+00
         0.00000E+00
         0.00000E+00
         0.00000E+00
         0.00000E+00
         0.00000E+00
         0.00000E+00
         0.00000E+00
         0.00000E+00
         0.00000E+00
         0.00000E+00
         0.00000E+00
         0.00000E+00
         0.00000E+00
         0.00000E+00
         0.00000E+00
         0.00000E+00
         0.00000E+00
         0.00000E+00
         0.00000E+00
         0.00000E+00
         0.00000E+00
         0.00000E+00
         0.00000E+00
         0.00000E+00
         0.00000E+00
         0.00000E+00
         0.00000E+00
         0.00000E+00
         0.00000E+00
         0.00000E+00
         0.00000E+00
         0.00000E+00
         0.00000E+00
         0.00000E+00
         0.00000E+00
         0.00000E+00
         0.00000E+00
         0.00000E+00
         0.00000E+00
         0.00000E+00
         0.00000E+00
         0.00000E+00
         0.00000E+00
         0.00000E+00
         0.00000E+00
         0.00000E+00
         0.00000E+00
         0.00000E+00
         0.00000E+00
         0.00000E+00
         0.00000E+00
         0.00000E+00
         0.00000E+00
         0.00000E+00
         0.00000E+00
         0.00000E+00
         0.00000E+00
         0.00000E+00
         0.00000E+00
         0.00000E+00
         0.00000E+00
         0.00000E+00
         0.00000E+00
         0.00000E+00
         0.00000E+00
         0.00000E+00
         0.00000E+00
         0.00000E+00
         0.00000E+00
         0.00000E+00
         0.00000E+00
         0.00000E+00
         0.00000E+00
         0.00000E+00
         0.00000E+00
         0.00000E+00
         0.00000E+00
         0.00000E+00
         0.00000E+00
         0.00000E+00
         0.00000E+00
         0.00000E+00
         0.00000E+00
         0.00000E+00
         0.00000E+00
         0.00000E+00
         0.00000E+00
         0.00000E+00
         0.00000E+00
         0.00000E+00
         0.00000E+00
         0.00000E+00
         0.00000E+00
         0.00000E+00
         0.00000E+00
         0.00000E+00
         0.00000E+00
         0.00000E+00
         0.00000E+00
         0.00000E+00
         0.00000E+00
         0.00000E+00
         0.00000E+00
         0.00000E+00
         0.00000E+00
         0.00000E+00
         0.00000E+00
         0.00000E+00
         0.00000E+00
         0.00000E+00
         0.00000E+00
         0.00000E+00
         0.00000E+00
         0.00000E+00
         0.00000E+00
         0.00000E+00
         0.00000E+00
         0.00000E+00
         0.00000E+00
         0.00000E+00
         0.00000E+00
         0.00000E+00
         0.00000E+00
         0.00000E+00
         0.00000E+00
         0.00000E+00
         0.00000E+00
         0.00000E+00
         0.00000E+00
         0.00000E+00
         0.00000E+00
         0.00000E+00
         0.00000E+00
         0.00000E+00
         0.00000E+00
         0.00000E+00
         0.00000E+00
         0.00000E+00
         0.00000E+00
         0.00000E+00
         0.00000E+00
         0.00000E+00
         0.00000E+00
         0.00000E+00
         0.00000E+00
         0.00000E+00
         0.00000E+00
         0.00000E+00
         0.00000E+00
         0.00000E+00
         0.00000E+00
         0.00000E+00
         0.00000E+00
         0.00000E+00
         0.00000E+00
         0.00000E+00
         0.00000E+00
         0.00000E+00
         0.00000E+00
         0.00000E+00
         0.00000E+00
         0.00000E+00
         0.00000E+00
         0.00000E+00
         0.00000E+00
         0.00000E+00
         0.00000E+00
         0.00000E+00
         0.00000E+00
         0.00000E+00
         0.00000E+00
         0.00000E+00
         0.00000E+00
         0.00000E+00
         0.00000E+00
         0.00000E+00
         0.00000E+00
         0.00000E+00
         0.00000E+00
         0.00000E+00
         0.00000E+00
         0.00000E+00
         0.00000E+00
         0.00000E+00
         0.00000E+00
         0.00000E+00
         0.00000E+00
         0.00000E+00
         0.00000E+00
         0.00000E+00
         0.00000E+00
         0.00000E+00
         0.00000E+00
         0.00000E+00
         0.00000E+00
         0.00000E+00
         0.00000E+00
         0.00000E+00
         0.00000E+00
         0.00000E+00
         0.00000E+00
         0.00000E+00
         0.00000E+00
         0.00000E+00
         0.00000E+00
         0.00000E+00
         0.00000E+00
         0.00000E+00
         0.00000E+00
         0.00000E+00
         0.00000E+00
         0.00000E+00
         0.00000E+00
         0.00000E+00
         0.00000E+00
         0.00000E+00
         0.00000E+00
         0.00000E+00
         0.00000E+00
         0.00000E+00
         0.00000E+00
         0.00000E+00
         0.00000E+00
         0.00000E+00
         0.00000E+00
         0.00000E+00
         0.00000E+00
         0.00000E+00
         0.00000E+00
         0.00000E+00
         0.00000E+00
         0.00000E+00
         0.00000E+00
         0.00000E+00
         0.00000E+00
         0.00000E+00
         0.00000E+00
         0.00000E+00
         0.00000E+00
         0.00000E+00
         0.00000E+00
         0.00000E+00
         0.00000E+00
         0.00000E+00
         0.00000E+00
         0.00000E+00
         0.00000E+00
         0.00000E+00
         0.00000E+00
         0.00000E+00
         0.00000E+00
         0.00000E+00
         0.00000E+00
         0.00000E+00
         0.00000E+00
         0.00000E+00
         0.00000E+00
         0.00000E+00
         0.00000E+00
         0.00000E+00
         0.00000E+00
         0.00000E+00
         0.00000E+00
         0.00000E+00
         0.00000E+00
         0.00000E+00
         0.00000E+00
         0.00000E+00
         0.00000E+00
         0.00000E+00
         0.00000E+00
         0.00000E+00
         0.00000E+00
         0.00000E+00
         0.00000E+00
         0.00000E+00
         0.00000E+00
         0.00000E+00
         0.00000E+00
         0.00000E+00
         0.00000E+00
         0.00000E+00
         0.00000E+00
         0.00000E+00
         0.00000E+00
         0.00000E+00
         0.00000E+00
         0.00000E+00
         0.00000E+00
         0.00000E+00
         0.00000E+00
         0.00000E+00
         0.00000E+00
         0.00000E+00
         0.00000E+00
         0.00000E+00
         0.00000E+00
         0.00000E+00
         0.00000E+00
         0.00000E+00
         0.00000E+00
         0.00000E+00
         0.00000E+00
         0.00000E+00
         0.00000E+00
         0.00000E+00
         0.00000E+00
         0.00000E+00
         0.00000E+00
         0.00000E+00
         0.00000E+00
         0.00000E+00
         0.00000E+00
         0.00000E+00
         0.00000E+00
         0.00000E+00
         0.00000E+00
         0.00000E+00
         0.00000E+00
         0.00000E+00
         0.00000E+00
         0.00000E+00
         0.00000E+00
         0.00000E+00
         0.00000E+00
         0.00000E+00
         0.00000E+00
         0.00000E+00
         0.00000E+00
         0.00000E+00
         0.00000E+00
         0.00000E+00
         0.00000E+00
         0.00000E+00
         0.00000E+00
         0.00000E+00
         0.00000E+00
         0.00000E+00
         0.00000E+00
         0.00000E+00
         0.00000E+00
         0.00000E+00
         0.00000E+00
         0.00000E+00
         0.00000E+00
         0.00000E+00
         0.00000E+00
         0.00000E+00
         0.00000E+00
         0.00000E+00
         0.00000E+00
         0.00000E+00
         0.00000E+00
         0.00000E+00
         0.00000E+00
         0.00000E+00
         0.00000E+00
         0.00000E+00
         0.00000E+00
         0.00000E+00
         0.00000E+00
         0.00000E+00
         0.00000E+00
         0.00000E+00
         0.00000E+00
         0.00000E+00
         0.00000E+00
         0.00000E+00
         0.00000E+00
         0.00000E+00
         0.00000E+00
         0.00000E+00
         0.00000E+00
         0.00000E+00
         0.00000E+00
         0.00000E+00
         0.00000E+00
         0.00000E+00
         0.00000E+00
         0.00000E+00
         0.00000E+00
         0.00000E+00
         0.00000E+00
         0.00000E+00
         0.00000E+00
         0.00000E+00
         0.00000E+00
         0.00000E+00
         0.00000E+00
         0.00000E+00
         0.00000E+00
         0.00000E+00
         0.00000E+00
         0.00000E+00
         0.00000E+00
         0.00000E+00
         0.00000E+00
         0.00000E+00
         0.00000E+00
         0.00000E+00
         0.00000E+00
         0.00000E+00
         0.00000E+00
         0.00000E+00
         0.00000E+00
         0.00000E+00
         0.00000E+00
         0.00000E+00
         0.00000E+00
         0.00000E+00
         0.00000E+00
         0.00000E+00
         0.00000E+00
         0.00000E+00
         0.00000E+00
         0.00000E+00
         0.00000E+00
         0.00000E+00
         0.00000E+00
         0.00000E+00
         0.00000E+00
         0.00000E+00
         0.00000E+00
         0.00000E+00
         0.00000E+00
         0.00000E+00
         0.00000E+00
         0.00000E+00
         0.00000E+00
         0.00000E+00
         0.00000E+00
         0.00000E+00
         0.00000E+00
         0.00000E+00
         0.00000E+00
         0.00000E+00
         0.00000E+00
         0.00000E+00
         0.00000E+00
         0.00000E+00
         0.00000E+00
         0.00000E+00
         0.00000E+00
         0.00000E+00
         0.00000E+00
         0.00000E+00
         0.00000E+00
         0.00000E+00
         0.00000E+00
         0.00000E+00
         0.00000E+00
         0.00000E+00
         0.00000E+00
         0.00000E+00
         0.00000E+00
         0.00000E+00
         0.00000E+00
         0.00000E+00
         0.00000E+00
         0.00000E+00
         0.00000E+00
         0.00000E+00
         0.00000E+00
         0.00000E+00
         0.00000E+00
         0.00000E+00
         0.00000E+00
         0.00000E+00
         0.00000E+00
         0.00000E+00
         0.00000E+00
         0.00000E+00
         0.00000E+00
         0.00000E+00
         0.00000E+00
         0.00000E+00
         0.00000E+00
         0.00000E+00
         0.00000E+00
         0.00000E+00
         0.00000E+00
         0.00000E+00
         0.00000E+00
         0.00000E+00
         0.00000E+00
         0.00000E+00
         0.00000E+00
         0.00000E+00
         0.00000E+00
         0.00000E+00
         0.00000E+00
         0.00000E+00
         0.00000E+00
         0.00000E+00
         0.00000E+00
         0.00000E+00
         0.00000E+00
         0.00000E+00
         0.00000E+00
         0.00000E+00
         0.00000E+00
         0.00000E+00
         0.00000E+00
         0.00000E+00
         0.00000E+00
         0.00000E+00
         0.00000E+00
         0.00000E+00
         0.00000E+00
         0.00000E+00
         0.00000E+00
         0.00000E+00
         0.00000E+00
         0.00000E+00
         0.00000E+00
         0.00000E+00
         0.00000E+00
         0.00000E+00
         0.00000E+00
         0.00000E+00
         0.00000E+00
         0.00000E+00
         0.00000E+00
         0.00000E+00
         0.00000E+00
         0.00000E+00
         0.00000E+00
         0.00000E+00
         0.00000E+00
         0.00000E+00
         0.00000E+00
         0.00000E+00
         0.00000E+00
         0.00000E+00
         0.00000E+00
         0.00000E+00
         0.00000E+00
         0.00000E+00
         0.00000E+00
         0.00000E+00
         0.00000E+00
         0.00000E+00
         0.00000E+00
         0.00000E+00
         0.00000E+00
         0.00000E+00
         0.00000E+00
         0.00000E+00
         0.00000E+00
         0.00000E+00
         0.00000E+00
         0.00000E+00
         0.00000E+00
         0.00000E+00
         0.00000E+00
         0.00000E+00
         0.00000E+00
         0.00000E+00
         0.00000E+00
         0.00000E+00
         0.00000E+00
         0.00000E+00
         0.00000E+00
         0.00000E+00
         0.00000E+00
         0.00000E+00
         0.00000E+00
         0.00000E+00
         0.00000E+00
         0.00000E+00
         0.00000E+00
         0.00000E+00
         0.00000E+00
         0.00000E+00
         0.00000E+00
         0.00000E+00
         0.00000E+00
         0.00000E+00
         0.00000E+00
         0.00000E+00
         0.00000E+00
         0.00000E+00
         0.00000E+00
         0.00000E+00
         0.00000E+00
         0.00000E+00
         0.00000E+00
         0.00000E+00
         0.00000E+00
         0.00000E+00
         0.00000E+00
         0.00000E+00
         0.00000E+00
         0.00000E+00
         0.00000E+00
         0.00000E+00
         0.00000E+00
         0.00000E+00
         0.00000E+00
         0.00000E+00
         0.00000E+00
         0.00000E+00
         0.00000E+00
         0.00000E+00
         0.00000E+00
         0.00000E+00
         0.00000E+00
         0.00000E+00
         0.00000E+00
         0.00000E+00
         0.00000E+00
         0.00000E+00
         0.00000E+00
         0.00000E+00
         0.00000E+00
         0.00000E+00
         0.00000E+00
         0.00000E+00
         0.00000E+00
         0.00000E+00
         0.00000E+00
         0.00000E+00
         0.00000E+00
         0.00000E+00
         0.00000E+00
         0.00000E+00
         0.00000E+00
         0.00000E+00
         0.00000E+00
         0.00000E+00
         0.00000E+00
         0.00000E+00
         0.00000E+00
         0.00000E+00
         0.00000E+00
         0.00000E+00
         0.00000E+00
         0.00000E+00
         0.00000E+00
         0.00000E+00
         0.00000E+00
         0.00000E+00
         0.00000E+00
         0.00000E+00
         0.00000E+00
         0.00000E+00
         0.00000E+00
         0.00000E+00
         0.00000E+00
         0.00000E+00
         0.00000E+00
         0.00000E+00
         0.00000E+00
         0.00000E+00
         0.00000E+00
         0.00000E+00
         0.00000E+00
         0.00000E+00
         0.00000E+00
         0.00000E+00
         0.00000E+00
         0.00000E+00
         0.00000E+00
         0.00000E+00
         0.00000E+00
         0.00000E+00
         0.00000E+00
         0.00000E+00
         0.00000E+00
         0.00000E+00
         0.00000E+00
         0.00000E+00
         0.00000E+00
         0.00000E+00
         0.00000E+00
         0.00000E+00
         0.00000E+00
         0.00000E+00
         0.00000E+00
         0.00000E+00
         0.00000E+00
         0.00000E+00
         0.00000E+00
         0.00000E+00
         0.00000E+00
         0.00000E+00
         0.00000E+00
         0.00000E+00
         0.00000E+00
         0.00000E+00
         0.00000E+00
         0.00000E+00
         0.00000E+00
         0.00000E+00
         0.00000E+00
         0.00000E+00
         0.00000E+00
         0.00000E+00
         0.00000E+00
         0.00000E+00
         0.00000E+00
         0.00000E+00
         0.00000E+00
         0.00000E+00
         0.00000E+00
         0.00000E+00
         0.00000E+00
         0.00000E+00
         0.00000E+00
         0.00000E+00
         0.00000E+00
         0.00000E+00
         0.00000E+00
         0.00000E+00
         0.00000E+00
         0.00000E+00
         0.00000E+00
         0.00000E+00
         0.00000E+00
         0.00000E+00
         0.00000E+00
         0.00000E+00
         0.00000E+00
         0.00000E+00
         0.00000E+00
         0.00000E+00
         0.00000E+00
         0.00000E+00
         0.00000E+00
         0.00000E+00
         0.00000E+00
         0.00000E+00
         0.00000E+00
         0.00000E+00
         0.00000E+00
         0.00000E+00
         0.00000E+00
         0.00000E+00
         0.00000E+00
         0.00000E+00
         0.00000E+00
         0.00000E+00
         0.00000E+00
         0.00000E+00
         0.00000E+00
         0.00000E+00
         0.00000E+00
         0.00000E+00
         0.00000E+00
         0.00000E+00
         0.00000E+00
         0.00000E+00
         0.00000E+00
         0.00000E+00
         0.00000E+00
         0.00000E+00
         0.00000E+00
         0.00000E+00
         0.00000E+00
         0.00000E+00
         0.00000E+00
         0.00000E+00
         0.00000E+00
         0.00000E+00
         0.00000E+00
         0.00000E+00
         0.00000E+00
         0.00000E+00
         0.00000E+00
         0.00000E+00
         0.00000E+00
         0.00000E+00
         0.00000E+00
         0.00000E+00
         0.00000E+00
         0.00000E+00
         0.00000E+00
         0.00000E+00
         0.00000E+00
         0.00000E+00
         0.00000E+00
         0.00000E+00
         0.00000E+00
         0.00000E+00
         0.00000E+00
         0.00000E+00
         0.00000E+00
         0.00000E+00
         0.00000E+00
         0.00000E+00
         0.00000E+00
         0.00000E+00
         0.00000E+00
         0.00000E+00
         0.00000E+00
         0.00000E+00
         0.00000E+00
         0.00000E+00
         0.00000E+00
         0.00000E+00
         0.00000E+00
         0.00000E+00
         0.00000E+00
         0.00000E+00
         0.00000E+00
         0.00000E+00
         0.00000E+00
         0.00000E+00
         0.00000E+00
         0.00000E+00
         0.00000E+00
         0.00000E+00
         0.00000E+00
         0.00000E+00
         0.00000E+00
         0.00000E+00
         0.00000E+00
         0.00000E+00
         0.00000E+00
         0.00000E+00
         0.00000E+00
         0.00000E+00
         0.00000E+00
         0.00000E+00
         0.00000E+00
         0.00000E+00
         0.00000E+00
         0.00000E+00
         0.00000E+00
         0.00000E+00
         0.00000E+00
         0.00000E+00
         0.00000E+00
         0.00000E+00
         0.00000E+00
         0.00000E+00
         0.00000E+00
         0.00000E+00
         0.00000E+00
         0.00000E+00
         0.00000E+00
         0.00000E+00
         0.00000E+00
         0.00000E+00
         0.00000E+00
         0.00000E+00
         0.00000E+00
         0.00000E+00
         0.00000E+00
         0.00000E+00
         0.00000E+00
         0.00000E+00
         0.00000E+00
         0.00000E+00
         0.00000E+00
         0.00000E+00
         0.00000E+00
         0.00000E+00
         0.00000E+00
         0.00000E+00
         0.00000E+00
         0.00000E+00
         0.00000E+00
         0.00000E+00
         0.00000E+00
         0.00000E+00
         0.00000E+00
         0.00000E+00
         0.00000E+00
         0.00000E+00
         0.00000E+00
         0.00000E+00
         0.00000E+00
         0.00000E+00
         0.00000E+00
         0.00000E+00
         0.00000E+00
         0.00000E+00
         0.00000E+00
         0.00000E+00
         0.00000E+00
         0.00000E+00
         0.00000E+00
         0.00000E+00
         0.00000E+00
         0.00000E+00
         0.00000E+00
         0.00000E+00
         0.00000E+00
         0.00000E+00
         0.00000E+00
         0.00000E+00
         0.00000E+00
         0.00000E+00
         0.00000E+00
         0.00000E+00
         0.00000E+00
         0.00000E+00
         0.00000E+00
         0.00000E+00
         0.00000E+00
         0.00000E+00
         0.00000E+00
         0.00000E+00
         0.00000E+00
         0.00000E+00
         0.00000E+00
         0.00000E+00
         0.00000E+00
         0.00000E+00
         0.00000E+00
         0.00000E+00
         0.00000E+00
         0.00000E+00
         0.00000E+00
         0.00000E+00
         0.00000E+00
         0.00000E+00
         0.00000E+00
         0.00000E+00
         0.00000E+00
         0.00000E+00
         0.00000E+00
         0.00000E+00
         0.00000E+00
         0.00000E+00
         0.00000E+00
         0.00000E+00
         0.00000E+00
         0.00000E+00
         0.00000E+00
         0.00000E+00
         0.00000E+00
         0.00000E+00
         0.00000E+00
         0.00000E+00
         0.00000E+00
         0.00000E+00
         0.00000E+00
         0.00000E+00
         0.00000E+00
         0.00000E+00
         0.00000E+00
         0.00000E+00
         0.00000E+00
         0.00000E+00
         0.00000E+00
         0.00000E+00
         0.00000E+00
         0.00000E+00
         0.00000E+00
         0.00000E+00
         0.00000E+00
         0.00000E+00
         0.00000E+00
         0.00000E+00
         0.00000E+00
         0.00000E+00
         0.00000E+00
         0.00000E+00
         0.00000E+00
         0.00000E+00
         0.00000E+00
         0.00000E+00
         0.00000E+00
         0.00000E+00
         0.00000E+00
         0.00000E+00
         0.00000E+00
         0.00000E+00
         0.00000E+00
         0.00000E+00
         0.00000E+00
         0.00000E+00
         0.00000E+00
         0.00000E+00
         0.00000E+00
         0.00000E+00
         0.00000E+00
         0.00000E+00
         0.00000E+00
         0.00000E+00
         0.00000E+00
         0.00000E+00
         0.00000E+00
         0.00000E+00
         0.00000E+00
         0.00000E+00
         0.00000E+00
         0.00000E+00
         0.00000E+00
         0.00000E+00
         0.00000E+00
         0.00000E+00
         0.00000E+00
         0.00000E+00
         0.00000E+00
         0.00000E+00
         0.00000E+00
         0.00000E+00
         0.00000E+00
         0.00000E+00
         0.00000E+00
         0.00000E+00
         0.00000E+00
         0.00000E+00
         0.00000E+00
         0.00000E+00
         0.00000E+00
         0.00000E+00
         0.00000E+00
         0.00000E+00
         0.00000E+00
         0.00000E+00
         0.00000E+00
         0.00000E+00
         0.00000E+00
         0.00000E+00
         0.00000E+00
         0.00000E+00
         0.00000E+00
         0.00000E+00
         0.00000E+00
         0.00000E+00
         0.00000E+00
         0.00000E+00
         0.00000E+00
         0.00000E+00
         0.00000E+00
         0.00000E+00
         0.00000E+00
         0.00000E+00
         0.00000E+00
         0.00000E+00
         0.00000E+00
         0.00000E+00
         0.00000E+00
         0.00000E+00
         0.00000E+00
         0.00000E+00
         0.00000E+00
         0.00000E+00
         0.00000E+00
         0.00000E+00
         0.00000E+00
         0.00000E+00
         0.00000E+00
         0.00000E+00
         0.00000E+00
         0.00000E+00
         0.00000E+00
         0.00000E+00
         0.00000E+00
         0.00000E+00
         0.00000E+00
         0.00000E+00
         0.00000E+00
         0.00000E+00
         0.00000E+00
         0.00000E+00
         0.00000E+00
         0.00000E+00
         0.00000E+00
         0.00000E+00
         0.00000E+00
         0.00000E+00
         0.00000E+00
         0.00000E+00
         0.00000E+00
         0.00000E+00
         0.00000E+00
         0.00000E+00
         0.00000E+00
         0.00000E+00
         0.00000E+00
         0.00000E+00
         0.00000E+00
         0.00000E+00
         0.00000E+00
         0.00000E+00
         0.00000E+00
         0.00000E+00
         0.00000E+00
         0.00000E+00
         0.00000E+00
         0.00000E+00
         0.00000E+00
         0.00000E+00
         0.00000E+00
         0.00000E+00
         0.00000E+00
         0.00000E+00
         0.00000E+00
         0.00000E+00
         0.00000E+00
         0.00000E+00
         0.00000E+00
         0.00000E+00
         0.00000E+00
         0.00000E+00
         0.00000E+00
         0.00000E+00
         0.00000E+00
         0.00000E+00
         0.00000E+00
         0.00000E+00
         0.00000E+00
         0.00000E+00
         0.00000E+00
         0.00000E+00
         0.00000E+00
         0.00000E+00
         0.00000E+00
         0.00000E+00
         0.00000E+00
         0.00000E+00
         0.00000E+00
         0.00000E+00
         0.00000E+00
         0.00000E+00
         0.00000E+00
         0.00000E+00
         0.00000E+00
         0.00000E+00
         0.00000E+00
         0.00000E+00
         0.00000E+00
         0.00000E+00
         0.00000E+00
         0.00000E+00
         0.00000E+00
         0.00000E+00
         0.00000E+00
         0.00000E+00
         0.00000E+00
         0.00000E+00
         0.00000E+00
         0.00000E+00
         0.00000E+00
         0.00000E+00
         0.00000E+00
         0.00000E+00
         0.00000E+00
         0.00000E+00
         0.00000E+00
         0.00000E+00
         0.00000E+00
         0.00000E+00
         0.00000E+00
         0.00000E+00
         0.00000E+00
         0.00000E+00
         0.00000E+00
         0.00000E+00
         0.00000E+00
         0.00000E+00
         0.00000E+00
         0.00000E+00
         0.00000E+00
         0.00000E+00
         0.00000E+00
         0.00000E+00
         0.00000E+00
         0.00000E+00
         0.00000E+00
         0.00000E+00
         0.00000E+00
         0.00000E+00
         0.00000E+00
         0.00000E+00
         0.00000E+00
         0.00000E+00
         0.00000E+00
         0.00000E+00
         0.00000E+00
         0.00000E+00
         0.00000E+00
         0.00000E+00
         0.00000E+00
         0.00000E+00
         0.00000E+00
         0.00000E+00
         0.00000E+00
         0.00000E+00
         0.00000E+00
         0.00000E+00
         0.00000E+00
         0.00000E+00
         0.00000E+00
         0.00000E+00
         0.00000E+00
         0.00000E+00
         0.00000E+00
         0.00000E+00
         0.00000E+00
         0.00000E+00
         0.00000E+00
         0.00000E+00
         0.00000E+00
         0.00000E+00
         0.00000E+00
         0.00000E+00
         0.00000E+00
         0.00000E+00
         0.00000E+00
         0.00000E+00
         0.00000E+00
         0.00000E+00
         0.00000E+00
         0.00000E+00
         0.00000E+00
         0.00000E+00
         0.00000E+00
         0.00000E+00
         0.00000E+00
         0.00000E+00
         0.00000E+00
         0.00000E+00
         0.00000E+00
         0.00000E+00
         0.00000E+00
         0.00000E+00
         0.00000E+00
         0.00000E+00
         0.00000E+00
         0.00000E+00
         0.00000E+00
         0.00000E+00
         0.00000E+00
         0.00000E+00
         0.00000E+00
         0.00000E+00
         0.00000E+00
         0.00000E+00
         0.00000E+00
         0.00000E+00
         0.00000E+00
         0.00000E+00
         0.00000E+00
         0.00000E+00
         0.00000E+00
         0.00000E+00
         0.00000E+00
         0.00000E+00
         0.00000E+00
         0.00000E+00
         0.00000E+00
         0.00000E+00
         0.00000E+00
         0.00000E+00
         0.00000E+00
         0.00000E+00
         0.00000E+00
         0.00000E+00
         0.00000E+00
         0.00000E+00
         0.00000E+00
         0.00000E+00
         0.00000E+00
         0.00000E+00
         0.00000E+00
         0.00000E+00
         0.00000E+00
         0.00000E+00
         0.00000E+00
         0.00000E+00
         0.00000E+00
         0.00000E+00
         0.00000E+00
         0.00000E+00
         0.00000E+00
         0.00000E+00
         0.00000E+00
         0.00000E+00
         0.00000E+00
         0.00000E+00
         0.00000E+00
         0.00000E+00
         0.00000E+00
         0.00000E+00
         0.00000E+00
         0.00000E+00
         0.00000E+00
         0.00000E+00
         0.00000E+00
         0.00000E+00
         0.00000E+00
         0.00000E+00
         0.00000E+00
         0.00000E+00
         0.00000E+00
         0.00000E+00
         0.00000E+00
         0.00000E+00
         0.00000E+00
         0.00000E+00
         0.00000E+00
         0.00000E+00
         0.00000E+00
         0.00000E+00
         0.00000E+00
         0.00000E+00
         0.00000E+00
         0.00000E+00
         0.00000E+00
         0.00000E+00
         0.00000E+00
         0.00000E+00
         0.00000E+00
         0.00000E+00
         0.00000E+00
         0.00000E+00
         0.00000E+00
         0.00000E+00
         0.00000E+00
         0.00000E+00
         0.00000E+00
         0.00000E+00
         0.00000E+00
         0.00000E+00
         0.00000E+00
         0.00000E+00
         0.00000E+00
         0.00000E+00
         0.00000E+00
         0.00000E+00
         0.00000E+00
         0.00000E+00
         0.00000E+00
         0.00000E+00
         0.00000E+00
         0.00000E+00
         0.00000E+00
         0.00000E+00
         0.00000E+00
         0.00000E+00
         0.00000E+00
         0.00000E+00
         0.00000E+00
         0.00000E+00
         0.00000E+00
         0.00000E+00
         0.00000E+00
         0.00000E+00
         0.00000E+00
         0.00000E+00
         0.00000E+00
         0.00000E+00
         0.00000E+00
  
SCALARS           initial_coordinate_x  double 1
LOOKUP_TABLE default
         0.10378E-02
         0.17452E-02
         0.23177E-02
         0.16698E-02
         0.10379E-02
         0.17453E-02
         0.23178E-02
         0.16700E-02
         0.30377E-02
         0.27791E-02
         0.30377E-02
         0.27788E-02
         0.12850E-02
         0.65139E-03
         0.12851E-02
         0.65164E-03
         0.12757E-03
        -0.12822E-03
         0.12783E-03
        -0.12804E-03
         0.94500E-03
         0.11327E-02
         0.17490E-02
         0.94533E-03
         0.11330E-02
         0.17494E-02
         0.40588E-03
         0.39779E-03
         0.40594E-03
         0.39781E-03
        -0.76303E-03
        -0.86604E-03
         0.46119E-03
        -0.76268E-03
        -0.86593E-03
         0.46164E-03
        -0.18300E-02
        -0.18440E-02
        -0.18297E-02
        -0.18441E-02
        -0.27238E-02
        -0.28028E-02
        -0.27238E-02
        -0.28031E-02
        -0.25365E-02
        -0.19287E-02
        -0.25363E-02
        -0.19283E-02
        -0.99363E-03
        -0.99377E-03
        -0.14380E-02
        -0.14377E-02
        -0.31574E-03
        -0.31594E-03
        -0.11068E-02
        -0.11071E-02
        -0.18845E-02
        -0.18713E-02
        -0.18846E-02
        -0.18714E-02
        -0.15871E-03
        -0.94089E-03
        -0.15844E-03
        -0.94029E-03
         0.78856E-03
         0.78922E-03
         0.17211E-02
         0.17211E-02
         0.32050E-02
         0.28046E-02
         0.32047E-02
         0.28047E-02
         0.23059E-02
         0.23060E-02
        -0.40614E-03
        -0.40627E-03
        -0.12092E-02
        -0.12092E-02
        -0.19448E-02
        -0.19448E-02
        -0.25029E-02
        -0.26371E-02
        -0.25029E-02
        -0.26372E-02
        -0.27671E-02
        -0.27674E-02
        -0.21123E-02
        -0.21122E-02
        -0.16087E-02
        -0.16087E-02
        -0.11939E-02
        -0.58641E-03
        -0.11937E-02
        -0.58606E-03
         0.20912E-03
         0.20952E-03
         0.10586E-02
         0.10589E-02
         0.18413E-02
         0.18413E-02
         0.24544E-02
         0.26022E-02
         0.24543E-02
         0.26021E-02
         0.37964E-02
         0.39100E-02
         0.37964E-02
         0.39100E-02
         0.34621E-02
         0.34621E-02
         0.29267E-02
         0.29267E-02
         0.22211E-02
         0.22211E-02
         0.13865E-02
         0.13865E-02
         0.47130E-03
         0.47130E-03
        -0.47130E-03
        -0.47130E-03
        -0.13865E-02
        -0.13865E-02
        -0.22211E-02
        -0.22211E-02
        -0.29267E-02
        -0.29267E-02
        -0.34621E-02
        -0.34621E-02
        -0.37964E-02
        -0.37964E-02
        -0.39100E-02
        -0.39100E-02
        -0.37964E-02
        -0.37964E-02
        -0.34621E-02
        -0.34621E-02
        -0.29267E-02
        -0.29267E-02
        -0.22211E-02
        -0.22211E-02
        -0.13865E-02
        -0.13865E-02
        -0.47130E-03
        -0.47130E-03
         0.47130E-03
         0.47130E-03
         0.13865E-02
         0.13865E-02
         0.22211E-02
         0.22211E-02
         0.29267E-02
         0.29267E-02
         0.34621E-02
         0.34621E-02
         0.37964E-02
         0.37964E-02
         0.10376E-02
         0.17450E-02
         0.23175E-02
         0.16696E-02
         0.30377E-02
         0.27795E-02
         0.12849E-02
         0.65115E-03
         0.12731E-03
        -0.12841E-03
         0.94467E-03
         0.11323E-02
         0.17487E-02
         0.40583E-03
         0.39777E-03
        -0.76338E-03
        -0.86615E-03
         0.46074E-03
        -0.18303E-02
        -0.18439E-02
        -0.27238E-02
        -0.28025E-02
        -0.25366E-02
        -0.19292E-02
        -0.99349E-03
        -0.14384E-02
        -0.31554E-03
        -0.11064E-02
        -0.18845E-02
        -0.18712E-02
        -0.15899E-03
        -0.94149E-03
         0.78790E-03
         0.17210E-02
         0.32053E-02
         0.28046E-02
         0.23058E-02
        -0.40600E-03
        -0.12092E-02
        -0.19447E-02
        -0.25028E-02
        -0.26370E-02
        -0.27668E-02
        -0.21125E-02
        -0.16088E-02
        -0.11940E-02
        -0.58676E-03
         0.20871E-03
         0.10583E-02
         0.18413E-02
         0.24545E-02
         0.26022E-02
         0.37964E-02
         0.39100E-02
         0.34621E-02
         0.29267E-02
         0.22211E-02
         0.13865E-02
         0.47130E-03
        -0.47130E-03
        -0.13865E-02
        -0.22211E-02
        -0.29267E-02
        -0.34621E-02
        -0.37964E-02
        -0.39100E-02
        -0.37964E-02
        -0.34621E-02
        -0.29267E-02
        -0.22211E-02
        -0.13865E-02
        -0.47130E-03
         0.47130E-03
         0.13865E-02
         0.22211E-02
         0.29267E-02
         0.34621E-02
         0.37964E-02
         0.10375E-02
         0.17448E-02
         0.23174E-02
         0.16694E-02
         0.30377E-02
         0.27798E-02
         0.12848E-02
         0.65090E-03
         0.12705E-03
        -0.12859E-03
         0.94434E-03
         0.11320E-02
         0.17483E-02
         0.40577E-03
         0.39776E-03
        -0.76374E-03
        -0.86626E-03
         0.46029E-03
        -0.18306E-02
        -0.18438E-02
        -0.27238E-02
        -0.28022E-02
        -0.25368E-02
        -0.19296E-02
        -0.99334E-03
        -0.14387E-02
        -0.31534E-03
        -0.11061E-02
        -0.18844E-02
        -0.18710E-02
        -0.15926E-03
        -0.94209E-03
         0.78724E-03
         0.17210E-02
         0.32056E-02
         0.28046E-02
         0.23057E-02
        -0.40586E-03
        -0.12092E-02
        -0.19447E-02
        -0.25028E-02
        -0.26369E-02
        -0.27665E-02
        -0.21126E-02
        -0.16088E-02
        -0.11941E-02
        -0.58711E-03
         0.20830E-03
         0.10580E-02
         0.18414E-02
         0.24546E-02
         0.26023E-02
         0.37964E-02
         0.39100E-02
         0.34621E-02
         0.29267E-02
         0.22211E-02
         0.13865E-02
         0.47130E-03
        -0.47130E-03
        -0.13865E-02
        -0.22211E-02
        -0.29267E-02
        -0.34621E-02
        -0.37964E-02
        -0.39100E-02
        -0.37964E-02
        -0.34621E-02
        -0.29267E-02
        -0.22211E-02
        -0.13865E-02
        -0.47130E-03
         0.47130E-03
         0.13865E-02
         0.22211E-02
         0.29267E-02
         0.34621E-02
         0.37964E-02
         0.10374E-02
         0.17446E-02
         0.23173E-02
         0.16692E-02
         0.30376E-02
         0.27801E-02
         0.12847E-02
         0.65065E-03
         0.12678E-03
        -0.12878E-03
         0.94401E-03
         0.11316E-02
         0.17479E-02
         0.40572E-03
         0.39774E-03
        -0.76409E-03
        -0.86637E-03
         0.45985E-03
        -0.18309E-02
        -0.18437E-02
        -0.27237E-02
        -0.28020E-02
        -0.25369E-02
        -0.19300E-02
        -0.99320E-03
        -0.14391E-02
        -0.31514E-03
        -0.11057E-02
        -0.18844E-02
        -0.18709E-02
        -0.15954E-03
        -0.94269E-03
         0.78658E-03
         0.17209E-02
         0.32060E-02
         0.28046E-02
         0.23056E-02
        -0.40572E-03
        -0.12092E-02
        -0.19446E-02
        -0.25028E-02
        -0.26368E-02
        -0.27662E-02
        -0.21128E-02
        -0.16088E-02
        -0.11942E-02
        -0.58746E-03
         0.20790E-03
         0.10577E-02
         0.18414E-02
         0.24548E-02
         0.26024E-02
         0.37964E-02
         0.39100E-02
         0.34621E-02
         0.29267E-02
         0.22211E-02
         0.13865E-02
         0.47130E-03
        -0.47130E-03
        -0.13865E-02
        -0.22211E-02
        -0.29267E-02
        -0.34621E-02
        -0.37964E-02
        -0.39100E-02
        -0.37964E-02
        -0.34621E-02
        -0.29267E-02
        -0.22211E-02
        -0.13865E-02
        -0.47130E-03
         0.47130E-03
         0.13865E-02
         0.22211E-02
         0.29267E-02
         0.34621E-02
         0.37964E-02
         0.10373E-02
         0.17445E-02
         0.23172E-02
         0.16689E-02
         0.30376E-02
         0.27805E-02
         0.12846E-02
         0.65041E-03
         0.12652E-03
        -0.12896E-03
         0.94367E-03
         0.11313E-02
         0.17475E-02
         0.40566E-03
         0.39772E-03
        -0.76444E-03
        -0.86648E-03
         0.45940E-03
        -0.18312E-02
        -0.18436E-02
        -0.27237E-02
        -0.28017E-02
        -0.25371E-02
        -0.19305E-02
        -0.99305E-03
        -0.14394E-02
        -0.31494E-03
        -0.11054E-02
        -0.18843E-02
        -0.18708E-02
        -0.15981E-03
        -0.94328E-03
         0.78592E-03
         0.17209E-02
         0.32063E-02
         0.28045E-02
         0.23055E-02
        -0.40558E-03
        -0.12092E-02
        -0.19446E-02
        -0.25027E-02
        -0.26367E-02
        -0.27658E-02
        -0.21129E-02
        -0.16089E-02
        -0.11943E-02
        -0.58781E-03
         0.20749E-03
         0.10574E-02
         0.18415E-02
         0.24549E-02
         0.26025E-02
         0.37964E-02
         0.39100E-02
         0.34621E-02
         0.29267E-02
         0.22211E-02
         0.13865E-02
         0.47130E-03
        -0.47130E-03
        -0.13865E-02
        -0.22211E-02
        -0.29267E-02
        -0.34621E-02
        -0.37964E-02
        -0.39100E-02
        -0.37964E-02
        -0.34621E-02
        -0.29267E-02
        -0.22211E-02
        -0.13865E-02
        -0.47130E-03
         0.47130E-03
         0.13865E-02
         0.22211E-02
         0.29267E-02
         0.34621E-02
         0.37964E-02
         0.10372E-02
         0.17443E-02
         0.23171E-02
         0.16687E-02
         0.30376E-02
         0.27808E-02
         0.12845E-02
         0.65016E-03
         0.12626E-03
        -0.12915E-03
         0.94334E-03
         0.11310E-02
         0.17471E-02
         0.40561E-03
         0.39770E-03
        -0.76480E-03
        -0.86659E-03
         0.45895E-03
        -0.18315E-02
        -0.18435E-02
        -0.27237E-02
        -0.28014E-02
        -0.25372E-02
        -0.19309E-02
        -0.99291E-03
        -0.14398E-02
        -0.31474E-03
        -0.11051E-02
        -0.18843E-02
        -0.18706E-02
        -0.16009E-03
        -0.94388E-03
         0.78526E-03
         0.17208E-02
         0.32066E-02
         0.28045E-02
         0.23053E-02
        -0.40545E-03
        -0.12092E-02
        -0.19446E-02
        -0.25027E-02
        -0.26366E-02
        -0.27655E-02
        -0.21130E-02
        -0.16089E-02
        -0.11944E-02
        -0.58816E-03
         0.20709E-03
         0.10571E-02
         0.18415E-02
         0.24550E-02
         0.26025E-02
         0.37964E-02
         0.39100E-02
         0.34621E-02
         0.29267E-02
         0.22211E-02
         0.13865E-02
         0.47130E-03
        -0.47130E-03
        -0.13865E-02
        -0.22211E-02
        -0.29267E-02
        -0.34621E-02
        -0.37964E-02
        -0.39100E-02
        -0.37964E-02
        -0.34621E-02
        -0.29267E-02
        -0.22211E-02
        -0.13865E-02
        -0.47130E-03
         0.47130E-03
         0.13865E-02
         0.22211E-02
         0.29267E-02
         0.34621E-02
         0.37964E-02
         0.10371E-02
         0.17441E-02
         0.23169E-02
         0.16685E-02
         0.30376E-02
         0.27812E-02
         0.12844E-02
         0.64992E-03
         0.12600E-03
        -0.12933E-03
         0.94301E-03
         0.11306E-02
         0.17467E-02
         0.40556E-03
         0.39769E-03
        -0.76515E-03
        -0.86670E-03
         0.45850E-03
        -0.18318E-02
        -0.18434E-02
        -0.27236E-02
        -0.28011E-02
        -0.25374E-02
        -0.19313E-02
        -0.99277E-03
        -0.14401E-02
        -0.31454E-03
        -0.11047E-02
        -0.18842E-02
        -0.18705E-02
        -0.16036E-03
        -0.94448E-03
         0.78460E-03
         0.17208E-02
         0.32070E-02
         0.28045E-02
         0.23052E-02
        -0.40531E-03
        -0.12092E-02
        -0.19445E-02
        -0.25027E-02
        -0.26366E-02
        -0.27652E-02
        -0.21132E-02
        -0.16090E-02
        -0.11946E-02
        -0.58851E-03
         0.20668E-03
         0.10567E-02
         0.18416E-02
         0.24551E-02
         0.26026E-02
         0.37964E-02
         0.39100E-02
         0.34621E-02
         0.29267E-02
         0.22211E-02
         0.13865E-02
         0.47130E-03
        -0.47130E-03
        -0.13865E-02
        -0.22211E-02
        -0.29267E-02
        -0.34621E-02
        -0.37964E-02
        -0.39100E-02
        -0.37964E-02
        -0.34621E-02
        -0.29267E-02
        -0.22211E-02
        -0.13865E-02
        -0.47130E-03
         0.47130E-03
         0.13865E-02
         0.22211E-02
         0.29267E-02
         0.34621E-02
         0.37964E-02
         0.10370E-02
         0.17439E-02
         0.23168E-02
         0.16683E-02
         0.30375E-02
         0.27815E-02
         0.12843E-02
         0.64967E-03
         0.12573E-03
        -0.12952E-03
         0.94268E-03
         0.11303E-02
         0.17463E-02
         0.40550E-03
         0.39767E-03
        -0.76551E-03
        -0.86680E-03
         0.45806E-03
        -0.18321E-02
        -0.18433E-02
        -0.27236E-02
        -0.28009E-02
        -0.25375E-02
        -0.19317E-02
        -0.99262E-03
        -0.14405E-02
        -0.31434E-03
        -0.11044E-02
        -0.18842E-02
        -0.18704E-02
        -0.16064E-03
        -0.94508E-03
         0.78394E-03
         0.17208E-02
         0.32073E-02
         0.28045E-02
         0.23051E-02
        -0.40517E-03
        -0.12092E-02
        -0.19445E-02
        -0.25026E-02
        -0.26365E-02
        -0.27649E-02
        -0.21133E-02
        -0.16090E-02
        -0.11947E-02
        -0.58886E-03
         0.20627E-03
         0.10564E-02
         0.18416E-02
         0.24553E-02
         0.26027E-02
         0.37964E-02
         0.39100E-02
         0.34621E-02
         0.29267E-02
         0.22211E-02
         0.13865E-02
         0.47130E-03
        -0.47130E-03
        -0.13865E-02
        -0.22211E-02
        -0.29267E-02
        -0.34621E-02
        -0.37964E-02
        -0.39100E-02
        -0.37964E-02
        -0.34621E-02
        -0.29267E-02
        -0.22211E-02
        -0.13865E-02
        -0.47130E-03
         0.47130E-03
         0.13865E-02
         0.22211E-02
         0.29267E-02
         0.34621E-02
         0.37964E-02
         0.10368E-02
         0.17438E-02
         0.23167E-02
         0.16681E-02
         0.30375E-02
         0.27819E-02
         0.12842E-02
         0.64943E-03
         0.12547E-03
        -0.12970E-03
         0.94235E-03
         0.11300E-02
         0.17459E-02
         0.40545E-03
         0.39766E-03
        -0.76586E-03
        -0.86691E-03
         0.45761E-03
        -0.18324E-02
        -0.18432E-02
        -0.27236E-02
        -0.28006E-02
        -0.25377E-02
        -0.19322E-02
        -0.99248E-03
        -0.14408E-02
        -0.31414E-03
        -0.11040E-02
        -0.18841E-02
        -0.18703E-02
        -0.16091E-03
        -0.94568E-03
         0.78328E-03
         0.17207E-02
         0.32076E-02
         0.28044E-02
         0.23050E-02
        -0.40503E-03
        -0.12092E-02
        -0.19445E-02
        -0.25026E-02
        -0.26364E-02
        -0.27646E-02
        -0.21134E-02
        -0.16091E-02
        -0.11948E-02
        -0.58921E-03
         0.20587E-03
         0.10561E-02
         0.18416E-02
         0.24554E-02
         0.26027E-02
         0.37964E-02
         0.39100E-02
         0.34621E-02
         0.29267E-02
         0.22211E-02
         0.13865E-02
         0.47130E-03
        -0.47130E-03
        -0.13865E-02
        -0.22211E-02
        -0.29267E-02
        -0.34621E-02
        -0.37964E-02
        -0.39100E-02
        -0.37964E-02
        -0.34621E-02
        -0.29267E-02
        -0.22211E-02
        -0.13865E-02
        -0.47130E-03
         0.47130E-03
         0.13865E-02
         0.22211E-02
         0.29267E-02
         0.34621E-02
         0.37964E-02
         0.10367E-02
         0.17436E-02
         0.23166E-02
         0.16679E-02
         0.30375E-02
         0.27822E-02
         0.12841E-02
         0.64918E-03
         0.12521E-03
        -0.12989E-03
         0.94202E-03
         0.11296E-02
         0.17455E-02
         0.40539E-03
         0.39764E-03
        -0.76621E-03
        -0.86702E-03
         0.45716E-03
        -0.18326E-02
        -0.18431E-02
        -0.27235E-02
        -0.28003E-02
        -0.25379E-02
        -0.19326E-02
        -0.99233E-03
        -0.14412E-02
        -0.31394E-03
        -0.11037E-02
        -0.18841E-02
        -0.18701E-02
        -0.16119E-03
        -0.94628E-03
         0.78262E-03
         0.17207E-02
         0.32079E-02
         0.28044E-02
         0.23049E-02
        -0.40490E-03
        -0.12093E-02
        -0.19444E-02
        -0.25026E-02
        -0.26363E-02
        -0.27643E-02
        -0.21136E-02
        -0.16091E-02
        -0.11949E-02
        -0.58956E-03
         0.20546E-03
         0.10558E-02
         0.18417E-02
         0.24555E-02
         0.26028E-02
         0.37964E-02
         0.39100E-02
         0.34621E-02
         0.29267E-02
         0.22211E-02
         0.13865E-02
         0.47130E-03
        -0.47130E-03
        -0.13865E-02
        -0.22211E-02
        -0.29267E-02
        -0.34621E-02
        -0.37964E-02
        -0.39100E-02
        -0.37964E-02
        -0.34621E-02
        -0.29267E-02
        -0.22211E-02
        -0.13865E-02
        -0.47130E-03
         0.47130E-03
         0.13865E-02
         0.22211E-02
         0.29267E-02
         0.34621E-02
         0.37964E-02
         0.10366E-02
         0.17434E-02
         0.23164E-02
         0.16677E-02
         0.30375E-02
         0.27825E-02
         0.12840E-02
         0.64894E-03
         0.12495E-03
        -0.13007E-03
         0.94169E-03
         0.11293E-02
         0.17451E-02
         0.40534E-03
         0.39762E-03
        -0.76657E-03
        -0.86713E-03
         0.45671E-03
        -0.18329E-02
        -0.18430E-02
        -0.27235E-02
        -0.28001E-02
        -0.25380E-02
        -0.19330E-02
        -0.99219E-03
        -0.14415E-02
        -0.31374E-03
        -0.11033E-02
        -0.18840E-02
        -0.18700E-02
        -0.16146E-03
        -0.94687E-03
         0.78195E-03
         0.17207E-02
         0.32083E-02
         0.28044E-02
         0.23048E-02
        -0.40476E-03
        -0.12093E-02
        -0.19444E-02
        -0.25026E-02
        -0.26362E-02
        -0.27640E-02
        -0.21137E-02
        -0.16091E-02
        -0.11950E-02
        -0.58991E-03
         0.20505E-03
         0.10555E-02
         0.18417E-02
         0.24556E-02
         0.26029E-02
         0.37964E-02
         0.39100E-02
         0.34621E-02
         0.29267E-02
         0.22211E-02
         0.13865E-02
         0.47130E-03
        -0.47130E-03
        -0.13865E-02
        -0.22211E-02
        -0.29267E-02
        -0.34621E-02
        -0.37964E-02
        -0.39100E-02
        -0.37964E-02
        -0.34621E-02
        -0.29267E-02
        -0.22211E-02
        -0.13865E-02
        -0.47130E-03
         0.47130E-03
         0.13865E-02
         0.22211E-02
         0.29267E-02
         0.34621E-02
         0.37964E-02
         0.10365E-02
         0.17432E-02
         0.23163E-02
         0.16675E-02
         0.30374E-02
         0.27829E-02
         0.12839E-02
         0.64869E-03
         0.12468E-03
        -0.13026E-03
         0.94135E-03
         0.11289E-02
         0.17447E-02
         0.40528E-03
         0.39760E-03
        -0.76692E-03
        -0.86724E-03
         0.45626E-03
        -0.18332E-02
        -0.18430E-02
        -0.27235E-02
        -0.27998E-02
        -0.25382E-02
        -0.19334E-02
        -0.99205E-03
        -0.14419E-02
        -0.31354E-03
        -0.11030E-02
        -0.18840E-02
        -0.18699E-02
        -0.16174E-03
        -0.94747E-03
         0.78129E-03
         0.17206E-02
         0.32086E-02
         0.28044E-02
         0.23047E-02
        -0.40462E-03
        -0.12093E-02
        -0.19444E-02
        -0.25025E-02
        -0.26361E-02
        -0.27637E-02
        -0.21139E-02
        -0.16092E-02
        -0.11951E-02
        -0.59025E-03
         0.20465E-03
         0.10552E-02
         0.18418E-02
         0.24558E-02
         0.26030E-02
         0.37964E-02
         0.39100E-02
         0.34621E-02
         0.29267E-02
         0.22211E-02
         0.13865E-02
         0.47130E-03
        -0.47130E-03
        -0.13865E-02
        -0.22211E-02
        -0.29267E-02
        -0.34621E-02
        -0.37964E-02
        -0.39100E-02
        -0.37964E-02
        -0.34621E-02
        -0.29267E-02
        -0.22211E-02
        -0.13865E-02
        -0.47130E-03
         0.47130E-03
         0.13865E-02
         0.22211E-02
         0.29267E-02
         0.34621E-02
         0.37964E-02
         0.10364E-02
         0.17430E-02
         0.23162E-02
         0.16672E-02
         0.30374E-02
         0.27832E-02
         0.12838E-02
         0.64845E-03
         0.12442E-03
        -0.13044E-03
         0.94102E-03
         0.11286E-02
         0.17443E-02
         0.40523E-03
         0.39759E-03
        -0.76727E-03
        -0.86735E-03
         0.45582E-03
        -0.18335E-02
        -0.18429E-02
        -0.27235E-02
        -0.27995E-02
        -0.25383E-02
        -0.19339E-02
        -0.99190E-03
        -0.14422E-02
        -0.31334E-03
        -0.11026E-02
        -0.18839E-02
        -0.18697E-02
        -0.16201E-03
        -0.94807E-03
         0.78063E-03
         0.17206E-02
         0.32089E-02
         0.28043E-02
         0.23046E-02
        -0.40448E-03
        -0.12093E-02
        -0.19443E-02
        -0.25025E-02
        -0.26360E-02
        -0.27633E-02
        -0.21140E-02
        -0.16092E-02
        -0.11953E-02
        -0.59060E-03
         0.20424E-03
         0.10549E-02
         0.18418E-02
         0.24559E-02
         0.26030E-02
         0.37964E-02
         0.39100E-02
         0.34621E-02
         0.29267E-02
         0.22211E-02
         0.13865E-02
         0.47130E-03
        -0.47130E-03
        -0.13865E-02
        -0.22211E-02
        -0.29267E-02
        -0.34621E-02
        -0.37964E-02
        -0.39100E-02
        -0.37964E-02
        -0.34621E-02
        -0.29267E-02
        -0.22211E-02
        -0.13865E-02
        -0.47130E-03
         0.47130E-03
         0.13865E-02
         0.22211E-02
         0.29267E-02
         0.34621E-02
         0.37964E-02
         0.10363E-02
         0.17429E-02
         0.23161E-02
         0.16670E-02
         0.30374E-02
         0.27836E-02
         0.12837E-02
         0.64820E-03
         0.12416E-03
        -0.13063E-03
         0.94069E-03
         0.11282E-02
         0.17439E-02
         0.40518E-03
         0.39757E-03
        -0.76763E-03
        -0.86746E-03
         0.45537E-03
        -0.18338E-02
        -0.18428E-02
        -0.27234E-02
        -0.27992E-02
        -0.25385E-02
        -0.19343E-02
        -0.99176E-03
        -0.14425E-02
        -0.31314E-03
        -0.11023E-02
        -0.18839E-02
        -0.18696E-02
        -0.16229E-03
        -0.94867E-03
         0.77997E-03
         0.17205E-02
         0.32092E-02
         0.28043E-02
         0.23044E-02
        -0.40434E-03
        -0.12093E-02
        -0.19443E-02
        -0.25025E-02
        -0.26359E-02
        -0.27630E-02
        -0.21141E-02
        -0.16093E-02
        -0.11954E-02
        -0.59095E-03
         0.20384E-03
         0.10546E-02
         0.18419E-02
         0.24560E-02
         0.26031E-02
         0.37964E-02
         0.39100E-02
         0.34621E-02
         0.29267E-02
         0.22211E-02
         0.13865E-02
         0.47130E-03
        -0.47130E-03
        -0.13865E-02
        -0.22211E-02
        -0.29267E-02
        -0.34621E-02
        -0.37964E-02
        -0.39100E-02
        -0.37964E-02
        -0.34621E-02
        -0.29267E-02
        -0.22211E-02
        -0.13865E-02
        -0.47130E-03
         0.47130E-03
         0.13865E-02
         0.22211E-02
         0.29267E-02
         0.34621E-02
         0.37964E-02
         0.10362E-02
         0.17427E-02
         0.23160E-02
         0.16668E-02
         0.30373E-02
         0.27839E-02
         0.12836E-02
         0.64796E-03
         0.12390E-03
        -0.13082E-03
         0.94036E-03
         0.11279E-02
         0.17435E-02
         0.40512E-03
         0.39755E-03
        -0.76798E-03
        -0.86756E-03
         0.45492E-03
        -0.18341E-02
        -0.18427E-02
        -0.27234E-02
        -0.27990E-02
        -0.25386E-02
        -0.19347E-02
        -0.99161E-03
        -0.14429E-02
        -0.31294E-03
        -0.11019E-02
        -0.18838E-02
        -0.18695E-02
        -0.16256E-03
        -0.94927E-03
         0.77931E-03
         0.17205E-02
         0.32096E-02
         0.28043E-02
         0.23043E-02
        -0.40420E-03
        -0.12093E-02
        -0.19443E-02
        -0.25024E-02
        -0.26358E-02
        -0.27627E-02
        -0.21143E-02
        -0.16093E-02
        -0.11955E-02
        -0.59130E-03
         0.20343E-03
         0.10543E-02
         0.18419E-02
         0.24561E-02
         0.26032E-02
         0.37964E-02
         0.39100E-02
         0.34621E-02
         0.29267E-02
         0.22211E-02
         0.13865E-02
         0.47130E-03
        -0.47130E-03
        -0.13865E-02
        -0.22211E-02
        -0.29267E-02
        -0.34621E-02
        -0.37964E-02
        -0.39100E-02
        -0.37964E-02
        -0.34621E-02
        -0.29267E-02
        -0.22211E-02
        -0.13865E-02
        -0.47130E-03
         0.47130E-03
         0.13865E-02
         0.22211E-02
         0.29267E-02
         0.34621E-02
         0.37964E-02
         0.10360E-02
         0.17425E-02
         0.23158E-02
         0.16666E-02
         0.30373E-02
         0.27842E-02
         0.12835E-02
         0.64771E-03
         0.12363E-03
        -0.13100E-03
         0.94003E-03
         0.11276E-02
         0.17432E-02
         0.40507E-03
         0.39754E-03
        -0.76834E-03
        -0.86767E-03
         0.45447E-03
        -0.18344E-02
        -0.18426E-02
        -0.27234E-02
        -0.27987E-02
        -0.25388E-02
        -0.19352E-02
        -0.99147E-03
        -0.14433E-02
        -0.31274E-03
        -0.11016E-02
        -0.18838E-02
        -0.18694E-02
        -0.16284E-03
        -0.94986E-03
         0.77865E-03
         0.17205E-02
         0.32099E-02
         0.28042E-02
         0.23042E-02
        -0.40407E-03
        -0.12093E-02
        -0.19442E-02
        -0.25024E-02
        -0.26358E-02
        -0.27624E-02
        -0.21144E-02
        -0.16094E-02
        -0.11956E-02
        -0.59165E-03
         0.20302E-03
         0.10540E-02
         0.18419E-02
         0.24563E-02
         0.26033E-02
         0.37964E-02
         0.39100E-02
         0.34621E-02
         0.29267E-02
         0.22211E-02
         0.13865E-02
         0.47130E-03
        -0.47130E-03
        -0.13865E-02
        -0.22211E-02
        -0.29267E-02
        -0.34621E-02
        -0.37964E-02
        -0.39100E-02
        -0.37964E-02
        -0.34621E-02
        -0.29267E-02
        -0.22211E-02
        -0.13865E-02
        -0.47130E-03
         0.47130E-03
         0.13865E-02
         0.22211E-02
         0.29267E-02
         0.34621E-02
         0.37964E-02
         0.10359E-02
         0.17423E-02
         0.23157E-02
         0.16664E-02
         0.30373E-02
         0.27846E-02
         0.12834E-02
         0.64747E-03
         0.12337E-03
        -0.13118E-03
         0.93970E-03
         0.11272E-02
         0.17428E-02
         0.40501E-03
         0.39752E-03
        -0.76869E-03
        -0.86778E-03
         0.45402E-03
        -0.18347E-02
        -0.18425E-02
        -0.27234E-02
        -0.27984E-02
        -0.25389E-02
        -0.19356E-02
        -0.99133E-03
        -0.14436E-02
        -0.31254E-03
        -0.11013E-02
        -0.18837E-02
        -0.18692E-02
        -0.16311E-03
        -0.95046E-03
         0.77799E-03
         0.17204E-02
         0.32102E-02
         0.28042E-02
         0.23041E-02
        -0.40393E-03
        -0.12093E-02
        -0.19442E-02
        -0.25024E-02
        -0.26357E-02
        -0.27621E-02
        -0.21146E-02
        -0.16094E-02
        -0.11957E-02
        -0.59200E-03
         0.20262E-03
         0.10536E-02
         0.18420E-02
         0.24564E-02
         0.26033E-02
         0.37964E-02
         0.39100E-02
         0.34621E-02
         0.29267E-02
         0.22211E-02
         0.13865E-02
         0.47130E-03
        -0.47130E-03
        -0.13865E-02
        -0.22211E-02
        -0.29267E-02
        -0.34621E-02
        -0.37964E-02
        -0.39100E-02
        -0.37964E-02
        -0.34621E-02
        -0.29267E-02
        -0.22211E-02
        -0.13865E-02
        -0.47130E-03
         0.47130E-03
         0.13865E-02
         0.22211E-02
         0.29267E-02
         0.34621E-02
         0.37964E-02
         0.10358E-02
         0.17422E-02
         0.23156E-02
         0.16662E-02
         0.30373E-02
         0.27849E-02
         0.12833E-02
         0.64722E-03
         0.12311E-03
        -0.13137E-03
         0.93937E-03
         0.11269E-02
         0.17424E-02
         0.40496E-03
         0.39750E-03
        -0.76904E-03
        -0.86789E-03
         0.45358E-03
        -0.18350E-02
        -0.18424E-02
        -0.27233E-02
        -0.27981E-02
        -0.25391E-02
        -0.19360E-02
        -0.99118E-03
        -0.14440E-02
        -0.31234E-03
        -0.11009E-02
        -0.18836E-02
        -0.18691E-02
        -0.16339E-03
        -0.95106E-03
         0.77733E-03
         0.17204E-02
         0.32105E-02
         0.28042E-02
         0.23040E-02
        -0.40379E-03
        -0.12093E-02
        -0.19441E-02
        -0.25023E-02
        -0.26356E-02
        -0.27618E-02
        -0.21147E-02
        -0.16094E-02
        -0.11958E-02
        -0.59235E-03
         0.20221E-03
         0.10533E-02
         0.18420E-02
         0.24565E-02
         0.26034E-02
         0.37964E-02
         0.39100E-02
         0.34621E-02
         0.29267E-02
         0.22211E-02
         0.13865E-02
         0.47130E-03
        -0.47130E-03
        -0.13865E-02
        -0.22211E-02
        -0.29267E-02
        -0.34621E-02
        -0.37964E-02
        -0.39100E-02
        -0.37964E-02
        -0.34621E-02
        -0.29267E-02
        -0.22211E-02
        -0.13865E-02
        -0.47130E-03
         0.47130E-03
         0.13865E-02
         0.22211E-02
         0.29267E-02
         0.34621E-02
         0.37964E-02
         0.10357E-02
         0.17420E-02
         0.23155E-02
         0.16660E-02
         0.30372E-02
         0.27853E-02
         0.12832E-02
         0.64698E-03
         0.12285E-03
        -0.13155E-03
         0.93903E-03
         0.11266E-02
         0.17420E-02
         0.40490E-03
         0.39749E-03
        -0.76940E-03
        -0.86800E-03
         0.45313E-03
        -0.18353E-02
        -0.18423E-02
        -0.27233E-02
        -0.27979E-02
        -0.25393E-02
        -0.19365E-02
        -0.99104E-03
        -0.14443E-02
        -0.31214E-03
        -0.11006E-02
        -0.18836E-02
        -0.18690E-02
        -0.16366E-03
        -0.95166E-03
         0.77667E-03
         0.17203E-02
         0.32109E-02
         0.28042E-02
         0.23039E-02
        -0.40365E-03
        -0.12093E-02
        -0.19441E-02
        -0.25023E-02
        -0.26355E-02
        -0.27615E-02
        -0.21148E-02
        -0.16095E-02
        -0.11960E-02
        -0.59270E-03
         0.20180E-03
         0.10530E-02
         0.18421E-02
         0.24566E-02
         0.26035E-02
         0.37964E-02
         0.39100E-02
         0.34621E-02
         0.29267E-02
         0.22211E-02
         0.13865E-02
         0.47130E-03
        -0.47130E-03
        -0.13865E-02
        -0.22211E-02
        -0.29267E-02
        -0.34621E-02
        -0.37964E-02
        -0.39100E-02
        -0.37964E-02
        -0.34621E-02
        -0.29267E-02
        -0.22211E-02
        -0.13865E-02
        -0.47130E-03
         0.47130E-03
         0.13865E-02
         0.22211E-02
         0.29267E-02
         0.34621E-02
         0.37964E-02
         0.10356E-02
         0.17418E-02
         0.23153E-02
         0.16657E-02
         0.30372E-02
         0.27856E-02
         0.12830E-02
         0.64673E-03
         0.12259E-03
        -0.13174E-03
         0.93870E-03
         0.11262E-02
         0.17416E-02
         0.40485E-03
         0.39747E-03
        -0.76975E-03
        -0.86811E-03
         0.45268E-03
        -0.18356E-02
        -0.18422E-02
        -0.27233E-02
        -0.27976E-02
        -0.25394E-02
        -0.19369E-02
        -0.99090E-03
        -0.14446E-02
        -0.31194E-03
        -0.11002E-02
        -0.18835E-02
        -0.18689E-02
        -0.16394E-03
        -0.95226E-03
         0.77601E-03
         0.17203E-02
         0.32112E-02
         0.28042E-02
         0.23038E-02
        -0.40352E-03
        -0.12093E-02
        -0.19441E-02
        -0.25023E-02
        -0.26354E-02
        -0.27612E-02
        -0.21150E-02
        -0.16095E-02
        -0.11961E-02
        -0.59305E-03
         0.20140E-03
         0.10527E-02
         0.18421E-02
         0.24568E-02
         0.26036E-02
         0.37964E-02
         0.39100E-02
         0.34621E-02
         0.29267E-02
         0.22211E-02
         0.13865E-02
         0.47130E-03
        -0.47130E-03
        -0.13865E-02
        -0.22211E-02
        -0.29267E-02
        -0.34621E-02
        -0.37964E-02
        -0.39100E-02
        -0.37964E-02
        -0.34621E-02
        -0.29267E-02
        -0.22211E-02
        -0.13865E-02
        -0.47130E-03
         0.47130E-03
         0.13865E-02
         0.22211E-02
         0.29267E-02
         0.34621E-02
         0.37964E-02
         0.10355E-02
         0.17416E-02
         0.23152E-02
         0.16655E-02
         0.30372E-02
         0.27860E-02
         0.12829E-02
         0.64649E-03
         0.12232E-03
        -0.13193E-03
         0.93837E-03
         0.11259E-02
         0.17412E-02
         0.40480E-03
         0.39745E-03
        -0.77011E-03
        -0.86822E-03
         0.45223E-03
        -0.18359E-02
        -0.18421E-02
        -0.27232E-02
        -0.27973E-02
        -0.25396E-02
        -0.19373E-02
        -0.99075E-03
        -0.14450E-02
        -0.31173E-03
        -0.10999E-02
        -0.18835E-02
        -0.18687E-02
        -0.16421E-03
        -0.95285E-03
         0.77535E-03
         0.17202E-02
         0.32115E-02
         0.28041E-02
         0.23037E-02
        -0.40338E-03
        -0.12093E-02
        -0.19440E-02
        -0.25023E-02
        -0.26353E-02
        -0.27609E-02
        -0.21151E-02
        -0.16096E-02
        -0.11962E-02
        -0.59340E-03
         0.20099E-03
         0.10524E-02
         0.18422E-02
         0.24569E-02
         0.26036E-02
         0.37964E-02
         0.39100E-02
         0.34621E-02
         0.29267E-02
         0.22211E-02
         0.13865E-02
         0.47130E-03
        -0.47130E-03
        -0.13865E-02
        -0.22211E-02
        -0.29267E-02
        -0.34621E-02
        -0.37964E-02
        -0.39100E-02
        -0.37964E-02
        -0.34621E-02
        -0.29267E-02
        -0.22211E-02
        -0.13865E-02
        -0.47130E-03
         0.47130E-03
         0.13865E-02
         0.22211E-02
         0.29267E-02
         0.34621E-02
         0.37964E-02
         0.10354E-02
         0.17414E-02
         0.23151E-02
         0.16653E-02
         0.30372E-02
         0.27863E-02
         0.12829E-02
         0.64624E-03
         0.12206E-03
        -0.13211E-03
         0.93804E-03
         0.11255E-02
         0.17408E-02
         0.40474E-03
         0.39744E-03
        -0.77046E-03
        -0.86832E-03
         0.45179E-03
        -0.18362E-02
        -0.18420E-02
        -0.27232E-02
        -0.27970E-02
        -0.25397E-02
        -0.19377E-02
        -0.99061E-03
        -0.14453E-02
        -0.31153E-03
        -0.10995E-02
        -0.18834E-02
        -0.18686E-02
        -0.16449E-03
        -0.95345E-03
         0.77469E-03
         0.17202E-02
         0.32119E-02
         0.28041E-02
         0.23036E-02
        -0.40324E-03
        -0.12093E-02
        -0.19440E-02
        -0.25022E-02
        -0.26352E-02
        -0.27606E-02
        -0.21152E-02
        -0.16096E-02
        -0.11963E-02
        -0.59375E-03
         0.20059E-03
         0.10521E-02
         0.18422E-02
         0.24570E-02
         0.26037E-02
         0.37964E-02
         0.39100E-02
         0.34621E-02
         0.29267E-02
         0.22211E-02
         0.13865E-02
         0.47130E-03
        -0.47130E-03
        -0.13865E-02
        -0.22211E-02
        -0.29267E-02
        -0.34621E-02
        -0.37964E-02
        -0.39100E-02
        -0.37964E-02
        -0.34621E-02
        -0.29267E-02
        -0.22211E-02
        -0.13865E-02
        -0.47130E-03
         0.47130E-03
         0.13865E-02
         0.22211E-02
         0.29267E-02
         0.34621E-02
         0.37964E-02
         0.10352E-02
         0.17413E-02
         0.23150E-02
         0.16651E-02
         0.30371E-02
         0.27866E-02
         0.12827E-02
         0.64600E-03
         0.12180E-03
        -0.13230E-03
         0.93771E-03
         0.11252E-02
         0.17404E-02
         0.40469E-03
         0.39742E-03
        -0.77081E-03
        -0.86843E-03
         0.45134E-03
        -0.18365E-02
        -0.18419E-02
        -0.27232E-02
        -0.27968E-02
        -0.25399E-02
        -0.19382E-02
        -0.99046E-03
        -0.14457E-02
        -0.31133E-03
        -0.10992E-02
        -0.18834E-02
        -0.18685E-02
        -0.16476E-03
        -0.95405E-03
         0.77402E-03
         0.17202E-02
         0.32122E-02
         0.28041E-02
         0.23034E-02
        -0.40310E-03
        -0.12093E-02
        -0.19440E-02
        -0.25022E-02
        -0.26351E-02
        -0.27602E-02
        -0.21154E-02
        -0.16097E-02
        -0.11964E-02
        -0.59409E-03
         0.20018E-03
         0.10518E-02
         0.18422E-02
         0.24571E-02
         0.26038E-02
         0.37964E-02
         0.39100E-02
         0.34621E-02
         0.29267E-02
         0.22211E-02
         0.13865E-02
         0.47130E-03
        -0.47130E-03
        -0.13865E-02
        -0.22211E-02
        -0.29267E-02
        -0.34621E-02
        -0.37964E-02
        -0.39100E-02
        -0.37964E-02
        -0.34621E-02
        -0.29267E-02
        -0.22211E-02
        -0.13865E-02
        -0.47130E-03
         0.47130E-03
         0.13865E-02
         0.22211E-02
         0.29267E-02
         0.34621E-02
         0.37964E-02
         0.10351E-02
         0.17411E-02
         0.23149E-02
         0.16649E-02
         0.30371E-02
         0.27870E-02
         0.12826E-02
         0.64575E-03
         0.12154E-03
        -0.13248E-03
         0.93738E-03
         0.11249E-02
         0.17400E-02
         0.40463E-03
         0.39740E-03
        -0.77117E-03
        -0.86854E-03
         0.45089E-03
        -0.18368E-02
        -0.18418E-02
        -0.27232E-02
        -0.27965E-02
        -0.25400E-02
        -0.19386E-02
        -0.99032E-03
        -0.14460E-02
        -0.31113E-03
        -0.10988E-02
        -0.18833E-02
        -0.18683E-02
        -0.16504E-03
        -0.95465E-03
         0.77336E-03
         0.17201E-02
         0.32125E-02
         0.28041E-02
         0.23033E-02
        -0.40296E-03
        -0.12093E-02
        -0.19439E-02
        -0.25022E-02
        -0.26350E-02
        -0.27599E-02
        -0.21155E-02
        -0.16097E-02
        -0.11965E-02
        -0.59444E-03
         0.19977E-03
         0.10515E-02
         0.18423E-02
         0.24573E-02
         0.26039E-02
         0.37964E-02
         0.39100E-02
         0.34621E-02
         0.29267E-02
         0.22211E-02
         0.13865E-02
         0.47130E-03
        -0.47130E-03
        -0.13865E-02
        -0.22211E-02
        -0.29267E-02
        -0.34621E-02
        -0.37964E-02
        -0.39100E-02
        -0.37964E-02
        -0.34621E-02
        -0.29267E-02
        -0.22211E-02
        -0.13865E-02
        -0.47130E-03
         0.47130E-03
         0.13865E-02
         0.22211E-02
         0.29267E-02
         0.34621E-02
         0.37964E-02
  
SCALARS           initial_coordinate_y  double 1
LOOKUP_TABLE default
         0.67292E-03
         0.12308E-02
         0.59151E-03
        -0.33775E-03
         0.67237E-03
         0.12301E-02
         0.59098E-03
        -0.33851E-03
         0.14882E-03
        -0.67643E-03
         0.14846E-03
        -0.67692E-03
         0.18412E-02
         0.14576E-02
         0.18410E-02
         0.14566E-02
         0.29933E-03
         0.11672E-02
         0.29819E-03
         0.11655E-02
         0.22748E-02
         0.28286E-02
         0.24238E-02
         0.22746E-02
         0.28291E-02
         0.24236E-02
         0.21685E-02
         0.29366E-02
         0.21684E-02
         0.29369E-02
        -0.10033E-02
         0.78969E-04
        -0.70318E-03
        -0.10032E-02
         0.78160E-04
        -0.70391E-03
        -0.71196E-03
         0.82749E-04
        -0.71210E-03
         0.82626E-04
        -0.77865E-03
         0.40713E-04
        -0.77882E-03
         0.40439E-04
        -0.15195E-02
        -0.13230E-02
        -0.15195E-02
        -0.13231E-02
         0.98847E-03
         0.98712E-03
        -0.17325E-02
        -0.17325E-02
         0.20220E-02
         0.20217E-02
         0.18615E-02
         0.18616E-02
         0.17175E-02
         0.90940E-03
         0.17175E-02
         0.90916E-03
        -0.19800E-02
        -0.23489E-02
        -0.19800E-02
        -0.23489E-02
        -0.17074E-02
        -0.17074E-02
        -0.14894E-02
        -0.14892E-02
         0.76036E-03
         0.12477E-02
         0.75936E-03
         0.12473E-02
         0.18665E-02
         0.18664E-02
         0.29038E-02
         0.29049E-02
         0.27207E-02
         0.27212E-02
         0.24642E-02
         0.24645E-02
         0.22359E-02
         0.16503E-02
         0.22359E-02
         0.16503E-02
         0.87493E-03
         0.87466E-03
        -0.21373E-02
        -0.21373E-02
        -0.26931E-02
        -0.26931E-02
        -0.31291E-02
        -0.30382E-02
        -0.31291E-02
        -0.30382E-02
        -0.28748E-02
        -0.28748E-02
        -0.26423E-02
        -0.26420E-02
        -0.23707E-02
        -0.23705E-02
        -0.21445E-02
        -0.15105E-02
        -0.21439E-02
        -0.15106E-02
         0.93572E-03
         0.00000E+00
         0.93572E-03
         0.00000E+00
         0.18171E-02
         0.18171E-02
         0.25928E-02
         0.25928E-02
         0.32179E-02
         0.32179E-02
         0.36559E-02
         0.36559E-02
         0.38815E-02
         0.38815E-02
         0.38815E-02
         0.38815E-02
         0.36559E-02
         0.36559E-02
         0.32179E-02
         0.32179E-02
         0.25928E-02
         0.25928E-02
         0.18171E-02
         0.18171E-02
         0.93572E-03
         0.93572E-03
         0.22152E-17
        -0.47884E-18
        -0.93572E-03
        -0.93572E-03
        -0.18171E-02
        -0.18171E-02
        -0.25928E-02
        -0.25928E-02
        -0.32179E-02
        -0.32179E-02
        -0.36559E-02
        -0.36559E-02
        -0.38815E-02
        -0.38815E-02
        -0.38815E-02
        -0.38815E-02
        -0.36559E-02
        -0.36559E-02
        -0.32179E-02
        -0.32179E-02
        -0.25928E-02
        -0.25928E-02
        -0.18171E-02
        -0.18171E-02
        -0.93572E-03
        -0.93572E-03
         0.67348E-03
         0.12314E-02
         0.59203E-03
        -0.33700E-03
         0.14918E-03
        -0.67594E-03
         0.18414E-02
         0.14586E-02
         0.30048E-03
         0.11690E-02
         0.22749E-02
         0.28282E-02
         0.24239E-02
         0.21685E-02
         0.29364E-02
        -0.10035E-02
         0.79778E-04
        -0.70245E-03
        -0.71182E-03
         0.82873E-04
        -0.77848E-03
         0.40986E-04
        -0.15194E-02
        -0.13228E-02
         0.98983E-03
        -0.17324E-02
         0.20223E-02
         0.18614E-02
         0.17175E-02
         0.90964E-03
        -0.19800E-02
        -0.23489E-02
        -0.17074E-02
        -0.14896E-02
         0.76137E-03
         0.12481E-02
         0.18665E-02
         0.29027E-02
         0.27202E-02
         0.24640E-02
         0.22359E-02
         0.16503E-02
         0.87519E-03
        -0.21373E-02
        -0.26932E-02
        -0.31291E-02
        -0.30382E-02
        -0.28748E-02
        -0.26426E-02
        -0.23709E-02
        -0.21450E-02
        -0.15104E-02
         0.93572E-03
         0.00000E+00
         0.18171E-02
         0.25928E-02
         0.32179E-02
         0.36559E-02
         0.38815E-02
         0.38815E-02
         0.36559E-02
         0.32179E-02
         0.25928E-02
         0.18171E-02
         0.93572E-03
        -0.47884E-18
        -0.93572E-03
        -0.18171E-02
        -0.25928E-02
        -0.32179E-02
        -0.36559E-02
        -0.38815E-02
        -0.38815E-02
        -0.36559E-02
        -0.32179E-02
        -0.25928E-02
        -0.18171E-02
        -0.93572E-03
         0.67403E-03
         0.12321E-02
         0.59255E-03
        -0.33624E-03
         0.14955E-03
        -0.67544E-03
         0.18415E-02
         0.14596E-02
         0.30163E-03
         0.11707E-02
         0.22750E-02
         0.28277E-02
         0.24241E-02
         0.21685E-02
         0.29361E-02
        -0.10036E-02
         0.80588E-04
        -0.70173E-03
        -0.71168E-03
         0.82996E-04
        -0.77831E-03
         0.41259E-04
        -0.15194E-02
        -0.13227E-02
         0.99119E-03
        -0.17324E-02
         0.20226E-02
         0.18613E-02
         0.17175E-02
         0.90988E-03
        -0.19801E-02
        -0.23490E-02
        -0.17074E-02
        -0.14899E-02
         0.76237E-03
         0.12485E-02
         0.18666E-02
         0.29017E-02
         0.27198E-02
         0.24638E-02
         0.22359E-02
         0.16503E-02
         0.87545E-03
        -0.21374E-02
        -0.26932E-02
        -0.31291E-02
        -0.30382E-02
        -0.28748E-02
        -0.26428E-02
        -0.23711E-02
        -0.21456E-02
        -0.15103E-02
         0.93572E-03
         0.00000E+00
         0.18171E-02
         0.25928E-02
         0.32179E-02
         0.36559E-02
         0.38815E-02
         0.38815E-02
         0.36559E-02
         0.32179E-02
         0.25928E-02
         0.18171E-02
         0.93572E-03
         0.39516E-17
        -0.93572E-03
        -0.18171E-02
        -0.25928E-02
        -0.32179E-02
        -0.36559E-02
        -0.38815E-02
        -0.38815E-02
        -0.36559E-02
        -0.32179E-02
        -0.25928E-02
        -0.18171E-02
        -0.93572E-03
         0.67459E-03
         0.12328E-02
         0.59308E-03
        -0.33549E-03
         0.14991E-03
        -0.67495E-03
         0.18417E-02
         0.14606E-02
         0.30278E-03
         0.11725E-02
         0.22752E-02
         0.28273E-02
         0.24242E-02
         0.21686E-02
         0.29359E-02
        -0.10038E-02
         0.81397E-04
        -0.70100E-03
        -0.71154E-03
         0.83120E-04
        -0.77814E-03
         0.41533E-04
        -0.15193E-02
        -0.13227E-02
         0.99254E-03
        -0.17324E-02
         0.20228E-02
         0.18611E-02
         0.17175E-02
         0.91012E-03
        -0.19801E-02
        -0.23490E-02
        -0.17074E-02
        -0.14901E-02
         0.76338E-03
         0.12490E-02
         0.18666E-02
         0.29006E-02
         0.27193E-02
         0.24636E-02
         0.22359E-02
         0.16503E-02
         0.87571E-03
        -0.21374E-02
        -0.26932E-02
        -0.31291E-02
        -0.30382E-02
        -0.28748E-02
        -0.26431E-02
        -0.23713E-02
        -0.21461E-02
        -0.15102E-02
         0.93572E-03
         0.00000E+00
         0.18171E-02
         0.25928E-02
         0.32179E-02
         0.36559E-02
         0.38815E-02
         0.38815E-02
         0.36559E-02
         0.32179E-02
         0.25928E-02
         0.18171E-02
         0.93572E-03
        -0.47884E-18
        -0.93572E-03
        -0.18171E-02
        -0.25928E-02
        -0.32179E-02
        -0.36559E-02
        -0.38815E-02
        -0.38815E-02
        -0.36559E-02
        -0.32179E-02
        -0.25928E-02
        -0.18171E-02
        -0.93572E-03
         0.67514E-03
         0.12334E-02
         0.59360E-03
        -0.33474E-03
         0.15027E-03
        -0.67446E-03
         0.18419E-02
         0.14616E-02
         0.30393E-03
         0.11742E-02
         0.22753E-02
         0.28269E-02
         0.24244E-02
         0.21686E-02
         0.29356E-02
        -0.10039E-02
         0.82206E-04
        -0.70028E-03
        -0.71140E-03
         0.83243E-04
        -0.77797E-03
         0.41806E-04
        -0.15193E-02
        -0.13226E-02
         0.99390E-03
        -0.17323E-02
         0.20231E-02
         0.18610E-02
         0.17175E-02
         0.91036E-03
        -0.19801E-02
        -0.23490E-02
        -0.17074E-02
        -0.14904E-02
         0.76439E-03
         0.12494E-02
         0.18666E-02
         0.28995E-02
         0.27188E-02
         0.24633E-02
         0.22359E-02
         0.16503E-02
         0.87597E-03
        -0.21374E-02
        -0.26932E-02
        -0.31291E-02
        -0.30382E-02
        -0.28748E-02
        -0.26434E-02
        -0.23715E-02
        -0.21467E-02
        -0.15101E-02
         0.93572E-03
         0.00000E+00
         0.18171E-02
         0.25928E-02
         0.32179E-02
         0.36559E-02
         0.38815E-02
         0.38815E-02
         0.36559E-02
         0.32179E-02
         0.25928E-02
         0.18171E-02
         0.93572E-03
        -0.47884E-18
        -0.93572E-03
        -0.18171E-02
        -0.25928E-02
        -0.32179E-02
        -0.36559E-02
        -0.38815E-02
        -0.38815E-02
        -0.36559E-02
        -0.32179E-02
        -0.25928E-02
        -0.18171E-02
        -0.93572E-03
         0.67570E-03
         0.12341E-02
         0.59412E-03
        -0.33398E-03
         0.15064E-03
        -0.67396E-03
         0.18421E-02
         0.14626E-02
         0.30507E-03
         0.11760E-02
         0.22754E-02
         0.28264E-02
         0.24245E-02
         0.21686E-02
         0.29353E-02
        -0.10040E-02
         0.83015E-04
        -0.69955E-03
        -0.71126E-03
         0.83367E-04
        -0.77780E-03
         0.42080E-04
        -0.15192E-02
        -0.13224E-02
         0.99526E-03
        -0.17323E-02
         0.20234E-02
         0.18609E-02
         0.17175E-02
         0.91060E-03
        -0.19801E-02
        -0.23490E-02
        -0.17074E-02
        -0.14906E-02
         0.76539E-03
         0.12498E-02
         0.18667E-02
         0.28984E-02
         0.27184E-02
         0.24631E-02
         0.22359E-02
         0.16503E-02
         0.87623E-03
        -0.21374E-02
        -0.26932E-02
        -0.31291E-02
        -0.30382E-02
        -0.28748E-02
        -0.26436E-02
        -0.23717E-02
        -0.21472E-02
        -0.15100E-02
         0.93572E-03
         0.00000E+00
         0.18171E-02
         0.25928E-02
         0.32179E-02
         0.36559E-02
         0.38815E-02
         0.38815E-02
         0.36559E-02
         0.32179E-02
         0.25928E-02
         0.18171E-02
         0.93572E-03
        -0.47884E-18
        -0.93572E-03
        -0.18171E-02
        -0.25928E-02
        -0.32179E-02
        -0.36559E-02
        -0.38815E-02
        -0.38815E-02
        -0.36559E-02
        -0.32179E-02
        -0.25928E-02
        -0.18171E-02
        -0.93572E-03
         0.67625E-03
         0.12348E-02
         0.59465E-03
        -0.33323E-03
         0.15100E-03
        -0.67347E-03
         0.18423E-02
         0.14636E-02
         0.30622E-03
         0.11777E-02
         0.22755E-02
         0.28260E-02
         0.24247E-02
         0.21687E-02
         0.29351E-02
        -0.10042E-02
         0.83825E-04
        -0.69882E-03
        -0.71112E-03
         0.83490E-04
        -0.77763E-03
         0.42353E-04
        -0.15192E-02
        -0.13223E-02
         0.99661E-03
        -0.17322E-02
         0.20237E-02
         0.18607E-02
         0.17175E-02
         0.91084E-03
        -0.19801E-02
        -0.23491E-02
        -0.17074E-02
        -0.14909E-02
         0.76640E-03
         0.12503E-02
         0.18667E-02
         0.28974E-02
         0.27179E-02
         0.24629E-02
         0.22359E-02
         0.16503E-02
         0.87650E-03
        -0.21374E-02
        -0.26933E-02
        -0.31291E-02
        -0.30382E-02
        -0.28749E-02
        -0.26439E-02
        -0.23719E-02
        -0.21478E-02
        -0.15099E-02
         0.93572E-03
         0.00000E+00
         0.18171E-02
         0.25928E-02
         0.32179E-02
         0.36559E-02
         0.38815E-02
         0.38815E-02
         0.36559E-02
         0.32179E-02
         0.25928E-02
         0.18171E-02
         0.93572E-03
        -0.47884E-18
        -0.93572E-03
        -0.18171E-02
        -0.25928E-02
        -0.32179E-02
        -0.36559E-02
        -0.38815E-02
        -0.38815E-02
        -0.36559E-02
        -0.32179E-02
        -0.25928E-02
        -0.18171E-02
        -0.93572E-03
         0.67680E-03
         0.12354E-02
         0.59517E-03
        -0.33247E-03
         0.15136E-03
        -0.67298E-03
         0.18425E-02
         0.14646E-02
         0.30737E-03
         0.11795E-02
         0.22757E-02
         0.28255E-02
         0.24248E-02
         0.21687E-02
         0.29348E-02
        -0.10043E-02
         0.84634E-04
        -0.69810E-03
        -0.71098E-03
         0.83614E-04
        -0.77746E-03
         0.42626E-04
        -0.15191E-02
        -0.13223E-02
         0.99797E-03
        -0.17322E-02
         0.20240E-02
         0.18606E-02
         0.17175E-02
         0.91108E-03
        -0.19802E-02
        -0.23491E-02
        -0.17074E-02
        -0.14911E-02
         0.76740E-03
         0.12507E-02
         0.18668E-02
         0.28963E-02
         0.27174E-02
         0.24627E-02
         0.22358E-02
         0.16503E-02
         0.87676E-03
        -0.21374E-02
        -0.26933E-02
        -0.31291E-02
        -0.30382E-02
        -0.28749E-02
        -0.26442E-02
        -0.23721E-02
        -0.21483E-02
        -0.15097E-02
         0.93572E-03
         0.00000E+00
         0.18171E-02
         0.25928E-02
         0.32179E-02
         0.36559E-02
         0.38815E-02
         0.38815E-02
         0.36559E-02
         0.32179E-02
         0.25928E-02
         0.18171E-02
         0.93572E-03
        -0.47884E-18
        -0.93572E-03
        -0.18171E-02
        -0.25928E-02
        -0.32179E-02
        -0.36559E-02
        -0.38815E-02
        -0.38815E-02
        -0.36559E-02
        -0.32179E-02
        -0.25928E-02
        -0.18171E-02
        -0.93572E-03
         0.67736E-03
         0.12361E-02
         0.59570E-03
        -0.33172E-03
         0.15173E-03
        -0.67248E-03
         0.18427E-02
         0.14656E-02
         0.30852E-03
         0.11812E-02
         0.22758E-02
         0.28251E-02
         0.24249E-02
         0.21688E-02
         0.29345E-02
        -0.10044E-02
         0.85443E-04
        -0.69737E-03
        -0.71084E-03
         0.83737E-04
        -0.77729E-03
         0.42899E-04
        -0.15191E-02
        -0.13222E-02
         0.99932E-03
        -0.17322E-02
         0.20243E-02
         0.18605E-02
         0.17175E-02
         0.91132E-03
        -0.19802E-02
        -0.23491E-02
        -0.17074E-02
        -0.14914E-02
         0.76841E-03
         0.12511E-02
         0.18668E-02
         0.28952E-02
         0.27170E-02
         0.24624E-02
         0.22358E-02
         0.16503E-02
         0.87702E-03
        -0.21374E-02
        -0.26933E-02
        -0.31291E-02
        -0.30382E-02
        -0.28749E-02
        -0.26444E-02
        -0.23723E-02
        -0.21489E-02
        -0.15096E-02
         0.93572E-03
         0.00000E+00
         0.18171E-02
         0.25928E-02
         0.32179E-02
         0.36559E-02
         0.38815E-02
         0.38815E-02
         0.36559E-02
         0.32179E-02
         0.25928E-02
         0.18171E-02
         0.93572E-03
        -0.47884E-18
        -0.93572E-03
        -0.18171E-02
        -0.25928E-02
        -0.32179E-02
        -0.36559E-02
        -0.38815E-02
        -0.38815E-02
        -0.36559E-02
        -0.32179E-02
        -0.25928E-02
        -0.18171E-02
        -0.93572E-03
         0.67791E-03
         0.12368E-02
         0.59622E-03
        -0.33096E-03
         0.15209E-03
        -0.67199E-03
         0.18429E-02
         0.14666E-02
         0.30967E-03
         0.11830E-02
         0.22759E-02
         0.28247E-02
         0.24251E-02
         0.21688E-02
         0.29343E-02
        -0.10046E-02
         0.86253E-04
        -0.69665E-03
        -0.71070E-03
         0.83861E-04
        -0.77712E-03
         0.43173E-04
        -0.15190E-02
        -0.13220E-02
         0.10007E-02
        -0.17321E-02
         0.20245E-02
         0.18603E-02
         0.17175E-02
         0.91156E-03
        -0.19802E-02
        -0.23491E-02
        -0.17074E-02
        -0.14916E-02
         0.76941E-03
         0.12515E-02
         0.18668E-02
         0.28942E-02
         0.27165E-02
         0.24622E-02
         0.22358E-02
         0.16503E-02
         0.87728E-03
        -0.21374E-02
        -0.26933E-02
        -0.31291E-02
        -0.30382E-02
        -0.28749E-02
        -0.26447E-02
        -0.23725E-02
        -0.21494E-02
        -0.15095E-02
         0.93572E-03
         0.00000E+00
         0.18171E-02
         0.25928E-02
         0.32179E-02
         0.36559E-02
         0.38815E-02
         0.38815E-02
         0.36559E-02
         0.32179E-02
         0.25928E-02
         0.18171E-02
         0.93572E-03
        -0.47884E-18
        -0.93572E-03
        -0.18171E-02
        -0.25928E-02
        -0.32179E-02
        -0.36559E-02
        -0.38815E-02
        -0.38815E-02
        -0.36559E-02
        -0.32179E-02
        -0.25928E-02
        -0.18171E-02
        -0.93572E-03
         0.67847E-03
         0.12374E-02
         0.59674E-03
        -0.33021E-03
         0.15245E-03
        -0.67150E-03
         0.18430E-02
         0.14676E-02
         0.31081E-03
         0.11847E-02
         0.22761E-02
         0.28242E-02
         0.24252E-02
         0.21688E-02
         0.29340E-02
        -0.10047E-02
         0.87062E-04
        -0.69592E-03
        -0.71056E-03
         0.83985E-04
        -0.77695E-03
         0.43446E-04
        -0.15190E-02
        -0.13219E-02
         0.10020E-02
        -0.17321E-02
         0.20248E-02
         0.18602E-02
         0.17175E-02
         0.91180E-03
        -0.19803E-02
        -0.23491E-02
        -0.17073E-02
        -0.14919E-02
         0.77042E-03
         0.12520E-02
         0.18669E-02
         0.28931E-02
         0.27160E-02
         0.24620E-02
         0.22358E-02
         0.16503E-02
         0.87754E-03
        -0.21374E-02
        -0.26933E-02
        -0.31291E-02
        -0.30382E-02
        -0.28749E-02
        -0.26450E-02
        -0.23727E-02
        -0.21500E-02
        -0.15094E-02
         0.93572E-03
         0.00000E+00
         0.18171E-02
         0.25928E-02
         0.32179E-02
         0.36559E-02
         0.38815E-02
         0.38815E-02
         0.36559E-02
         0.32179E-02
         0.25928E-02
         0.18171E-02
         0.93572E-03
         0.39516E-17
        -0.93572E-03
        -0.18171E-02
        -0.25928E-02
        -0.32179E-02
        -0.36559E-02
        -0.38815E-02
        -0.38815E-02
        -0.36559E-02
        -0.32179E-02
        -0.25928E-02
        -0.18171E-02
        -0.93572E-03
         0.67902E-03
         0.12381E-02
         0.59727E-03
        -0.32945E-03
         0.15282E-03
        -0.67100E-03
         0.18432E-02
         0.14686E-02
         0.31196E-03
         0.11865E-02
         0.22762E-02
         0.28238E-02
         0.24254E-02
         0.21688E-02
         0.29337E-02
        -0.10049E-02
         0.87871E-04
        -0.69519E-03
        -0.71042E-03
         0.84108E-04
        -0.77678E-03
         0.43720E-04
        -0.15189E-02
        -0.13219E-02
         0.10034E-02
        -0.17320E-02
         0.20251E-02
         0.18601E-02
         0.17175E-02
         0.91204E-03
        -0.19803E-02
        -0.23492E-02
        -0.17073E-02
        -0.14921E-02
         0.77142E-03
         0.12524E-02
         0.18669E-02
         0.28920E-02
         0.27155E-02
         0.24618E-02
         0.22358E-02
         0.16503E-02
         0.87781E-03
        -0.21374E-02
        -0.26934E-02
        -0.31291E-02
        -0.30382E-02
        -0.28749E-02
        -0.26452E-02
        -0.23729E-02
        -0.21505E-02
        -0.15093E-02
         0.93572E-03
         0.00000E+00
         0.18171E-02
         0.25928E-02
         0.32179E-02
         0.36559E-02
         0.38815E-02
         0.38815E-02
         0.36559E-02
         0.32179E-02
         0.25928E-02
         0.18171E-02
         0.93572E-03
        -0.47884E-18
        -0.93572E-03
        -0.18171E-02
        -0.25928E-02
        -0.32179E-02
        -0.36559E-02
        -0.38815E-02
        -0.38815E-02
        -0.36559E-02
        -0.32179E-02
        -0.25928E-02
        -0.18171E-02
        -0.93572E-03
         0.67958E-03
         0.12387E-02
         0.59779E-03
        -0.32870E-03
         0.15318E-03
        -0.67051E-03
         0.18434E-02
         0.14696E-02
         0.31311E-03
         0.11882E-02
         0.22763E-02
         0.28233E-02
         0.24255E-02
         0.21689E-02
         0.29335E-02
        -0.10050E-02
         0.88681E-04
        -0.69447E-03
        -0.71028E-03
         0.84232E-04
        -0.77661E-03
         0.43993E-04
        -0.15189E-02
        -0.13218E-02
         0.10048E-02
        -0.17320E-02
         0.20254E-02
         0.18599E-02
         0.17175E-02
         0.91228E-03
        -0.19803E-02
        -0.23492E-02
        -0.17073E-02
        -0.14923E-02
         0.77243E-03
         0.12528E-02
         0.18670E-02
         0.28910E-02
         0.27151E-02
         0.24615E-02
         0.22358E-02
         0.16503E-02
         0.87807E-03
        -0.21374E-02
        -0.26934E-02
        -0.31291E-02
        -0.30382E-02
        -0.28749E-02
        -0.26455E-02
        -0.23732E-02
        -0.21511E-02
        -0.15092E-02
         0.93572E-03
         0.00000E+00
         0.18171E-02
         0.25928E-02
         0.32179E-02
         0.36559E-02
         0.38815E-02
         0.38815E-02
         0.36559E-02
         0.32179E-02
         0.25928E-02
         0.18171E-02
         0.93572E-03
         0.22152E-17
        -0.93572E-03
        -0.18171E-02
        -0.25928E-02
        -0.32179E-02
        -0.36559E-02
        -0.38815E-02
        -0.38815E-02
        -0.36559E-02
        -0.32179E-02
        -0.25928E-02
        -0.18171E-02
        -0.93572E-03
         0.68013E-03
         0.12394E-02
         0.59831E-03
        -0.32794E-03
         0.15354E-03
        -0.67002E-03
         0.18436E-02
         0.14706E-02
         0.31426E-03
         0.11900E-02
         0.22765E-02
         0.28229E-02
         0.24257E-02
         0.21689E-02
         0.29332E-02
        -0.10051E-02
         0.89490E-04
        -0.69374E-03
        -0.71013E-03
         0.84355E-04
        -0.77644E-03
         0.44266E-04
        -0.15188E-02
        -0.13216E-02
         0.10061E-02
        -0.17320E-02
         0.20257E-02
         0.18598E-02
         0.17175E-02
         0.91252E-03
        -0.19803E-02
        -0.23492E-02
        -0.17073E-02
        -0.14926E-02
         0.77343E-03
         0.12533E-02
         0.18670E-02
         0.28899E-02
         0.27146E-02
         0.24613E-02
         0.22358E-02
         0.16503E-02
         0.87833E-03
        -0.21374E-02
        -0.26934E-02
        -0.31291E-02
        -0.30382E-02
        -0.28750E-02
        -0.26458E-02
        -0.23734E-02
        -0.21516E-02
        -0.15091E-02
         0.93572E-03
         0.00000E+00
         0.18171E-02
         0.25928E-02
         0.32179E-02
         0.36559E-02
         0.38815E-02
         0.38815E-02
         0.36559E-02
         0.32179E-02
         0.25928E-02
         0.18171E-02
         0.93572E-03
        -0.47884E-18
        -0.93572E-03
        -0.18171E-02
        -0.25928E-02
        -0.32179E-02
        -0.36559E-02
        -0.38815E-02
        -0.38815E-02
        -0.36559E-02
        -0.32179E-02
        -0.25928E-02
        -0.18171E-02
        -0.93572E-03
         0.68068E-03
         0.12401E-02
         0.59884E-03
        -0.32719E-03
         0.15391E-03
        -0.66953E-03
         0.18438E-02
         0.14716E-02
         0.31541E-03
         0.11917E-02
         0.22766E-02
         0.28225E-02
         0.24258E-02
         0.21690E-02
         0.29330E-02
        -0.10053E-02
         0.90299E-04
        -0.69302E-03
        -0.70999E-03
         0.84479E-04
        -0.77627E-03
         0.44540E-04
        -0.15188E-02
        -0.13215E-02
         0.10075E-02
        -0.17319E-02
         0.20260E-02
         0.18597E-02
         0.17175E-02
         0.91276E-03
        -0.19804E-02
        -0.23493E-02
        -0.17073E-02
        -0.14928E-02
         0.77444E-03
         0.12537E-02
         0.18670E-02
         0.28888E-02
         0.27141E-02
         0.24611E-02
         0.22358E-02
         0.16503E-02
         0.87859E-03
        -0.21374E-02
        -0.26934E-02
        -0.31291E-02
        -0.30382E-02
        -0.28750E-02
        -0.26460E-02
        -0.23736E-02
        -0.21521E-02
        -0.15090E-02
         0.93572E-03
         0.00000E+00
         0.18171E-02
         0.25928E-02
         0.32179E-02
         0.36559E-02
         0.38815E-02
         0.38815E-02
         0.36559E-02
         0.32179E-02
         0.25928E-02
         0.18171E-02
         0.93572E-03
         0.22152E-17
        -0.93572E-03
        -0.18171E-02
        -0.25928E-02
        -0.32179E-02
        -0.36559E-02
        -0.38815E-02
        -0.38815E-02
        -0.36559E-02
        -0.32179E-02
        -0.25928E-02
        -0.18171E-02
        -0.93572E-03
         0.68124E-03
         0.12407E-02
         0.59936E-03
        -0.32643E-03
         0.15427E-03
        -0.66903E-03
         0.18440E-02
         0.14727E-02
         0.31656E-03
         0.11935E-02
         0.22767E-02
         0.28220E-02
         0.24260E-02
         0.21690E-02
         0.29327E-02
        -0.10054E-02
         0.91108E-04
        -0.69229E-03
        -0.70985E-03
         0.84602E-04
        -0.77610E-03
         0.44813E-04
        -0.15187E-02
        -0.13215E-02
         0.10088E-02
        -0.17319E-02
         0.20262E-02
         0.18595E-02
         0.17175E-02
         0.91300E-03
        -0.19804E-02
        -0.23493E-02
        -0.17073E-02
        -0.14931E-02
         0.77544E-03
         0.12541E-02
         0.18671E-02
         0.28877E-02
         0.27137E-02
         0.24609E-02
         0.22358E-02
         0.16503E-02
         0.87885E-03
        -0.21374E-02
        -0.26934E-02
        -0.31291E-02
        -0.30382E-02
        -0.28750E-02
        -0.26463E-02
        -0.23738E-02
        -0.21527E-02
        -0.15088E-02
         0.93572E-03
         0.00000E+00
         0.18171E-02
         0.25928E-02
         0.32179E-02
         0.36559E-02
         0.38815E-02
         0.38815E-02
         0.36559E-02
         0.32179E-02
         0.25928E-02
         0.18171E-02
         0.93572E-03
        -0.47884E-18
        -0.93572E-03
        -0.18171E-02
        -0.25928E-02
        -0.32179E-02
        -0.36559E-02
        -0.38815E-02
        -0.38815E-02
        -0.36559E-02
        -0.32179E-02
        -0.25928E-02
        -0.18171E-02
        -0.93572E-03
         0.68179E-03
         0.12414E-02
         0.59988E-03
        -0.32568E-03
         0.15463E-03
        -0.66854E-03
         0.18442E-02
         0.14736E-02
         0.31770E-03
         0.11952E-02
         0.22768E-02
         0.28216E-02
         0.24261E-02
         0.21690E-02
         0.29324E-02
        -0.10056E-02
         0.91918E-04
        -0.69156E-03
        -0.70971E-03
         0.84726E-04
        -0.77593E-03
         0.45086E-04
        -0.15187E-02
        -0.13213E-02
         0.10102E-02
        -0.17318E-02
         0.20265E-02
         0.18594E-02
         0.17175E-02
         0.91324E-03
        -0.19804E-02
        -0.23493E-02
        -0.17073E-02
        -0.14933E-02
         0.77645E-03
         0.12545E-02
         0.18671E-02
         0.28867E-02
         0.27132E-02
         0.24606E-02
         0.22358E-02
         0.16503E-02
         0.87912E-03
        -0.21374E-02
        -0.26935E-02
        -0.31291E-02
        -0.30381E-02
        -0.28750E-02
        -0.26466E-02
        -0.23740E-02
        -0.21533E-02
        -0.15087E-02
         0.93572E-03
         0.00000E+00
         0.18171E-02
         0.25928E-02
         0.32179E-02
         0.36559E-02
         0.38815E-02
         0.38815E-02
         0.36559E-02
         0.32179E-02
         0.25928E-02
         0.18171E-02
         0.93572E-03
        -0.47884E-18
        -0.93572E-03
        -0.18171E-02
        -0.25928E-02
        -0.32179E-02
        -0.36559E-02
        -0.38815E-02
        -0.38815E-02
        -0.36559E-02
        -0.32179E-02
        -0.25928E-02
        -0.18171E-02
        -0.93572E-03
         0.68235E-03
         0.12421E-02
         0.60041E-03
        -0.32493E-03
         0.15500E-03
        -0.66805E-03
         0.18444E-02
         0.14747E-02
         0.31885E-03
         0.11970E-02
         0.22770E-02
         0.28211E-02
         0.24262E-02
         0.21691E-02
         0.29322E-02
        -0.10057E-02
         0.92727E-04
        -0.69084E-03
        -0.70957E-03
         0.84849E-04
        -0.77576E-03
         0.45359E-04
        -0.15186E-02
        -0.13212E-02
         0.10115E-02
        -0.17318E-02
         0.20268E-02
         0.18593E-02
         0.17175E-02
         0.91347E-03
        -0.19804E-02
        -0.23493E-02
        -0.17073E-02
        -0.14936E-02
         0.77745E-03
         0.12550E-02
         0.18671E-02
         0.28856E-02
         0.27127E-02
         0.24604E-02
         0.22358E-02
         0.16503E-02
         0.87938E-03
        -0.21374E-02
        -0.26935E-02
        -0.31291E-02
        -0.30381E-02
        -0.28750E-02
        -0.26468E-02
        -0.23742E-02
        -0.21538E-02
        -0.15086E-02
         0.93572E-03
         0.00000E+00
         0.18171E-02
         0.25928E-02
         0.32179E-02
         0.36559E-02
         0.38815E-02
         0.38815E-02
         0.36559E-02
         0.32179E-02
         0.25928E-02
         0.18171E-02
         0.93572E-03
        -0.47884E-18
        -0.93572E-03
        -0.18171E-02
        -0.25928E-02
        -0.32179E-02
        -0.36559E-02
        -0.38815E-02
        -0.38815E-02
        -0.36559E-02
        -0.32179E-02
        -0.25928E-02
        -0.18171E-02
        -0.93572E-03
         0.68290E-03
         0.12427E-02
         0.60093E-03
        -0.32417E-03
         0.15536E-03
        -0.66755E-03
         0.18445E-02
         0.14757E-02
         0.32000E-03
         0.11987E-02
         0.22771E-02
         0.28207E-02
         0.24264E-02
         0.21691E-02
         0.29319E-02
        -0.10058E-02
         0.93536E-04
        -0.69011E-03
        -0.70943E-03
         0.84973E-04
        -0.77559E-03
         0.45633E-04
        -0.15186E-02
        -0.13212E-02
         0.10129E-02
        -0.17318E-02
         0.20271E-02
         0.18592E-02
         0.17175E-02
         0.91371E-03
        -0.19805E-02
        -0.23493E-02
        -0.17073E-02
        -0.14938E-02
         0.77846E-03
         0.12554E-02
         0.18672E-02
         0.28845E-02
         0.27122E-02
         0.24602E-02
         0.22358E-02
         0.16502E-02
         0.87964E-03
        -0.21374E-02
        -0.26935E-02
        -0.31291E-02
        -0.30381E-02
        -0.28750E-02
        -0.26471E-02
        -0.23744E-02
        -0.21543E-02
        -0.15085E-02
         0.93572E-03
         0.00000E+00
         0.18171E-02
         0.25928E-02
         0.32179E-02
         0.36559E-02
         0.38815E-02
         0.38815E-02
         0.36559E-02
         0.32179E-02
         0.25928E-02
         0.18171E-02
         0.93572E-03
        -0.47884E-18
        -0.93572E-03
        -0.18171E-02
        -0.25928E-02
        -0.32179E-02
        -0.36559E-02
        -0.38815E-02
        -0.38815E-02
        -0.36559E-02
        -0.32179E-02
        -0.25928E-02
        -0.18171E-02
        -0.93572E-03
         0.68346E-03
         0.12434E-02
         0.60145E-03
        -0.32342E-03
         0.15572E-03
        -0.66706E-03
         0.18447E-02
         0.14767E-02
         0.32115E-03
         0.12005E-02
         0.22772E-02
         0.28203E-02
         0.24265E-02
         0.21691E-02
         0.29316E-02
        -0.10060E-02
         0.94345E-04
        -0.68939E-03
        -0.70929E-03
         0.85096E-04
        -0.77542E-03
         0.45906E-04
        -0.15185E-02
        -0.13211E-02
         0.10142E-02
        -0.17317E-02
         0.20274E-02
         0.18590E-02
         0.17175E-02
         0.91395E-03
        -0.19805E-02
        -0.23494E-02
        -0.17073E-02
        -0.14941E-02
         0.77946E-03
         0.12558E-02
         0.18672E-02
         0.28835E-02
         0.27118E-02
         0.24600E-02
         0.22358E-02
         0.16502E-02
         0.87990E-03
        -0.21374E-02
        -0.26935E-02
        -0.31291E-02
        -0.30381E-02
        -0.28750E-02
        -0.26474E-02
        -0.23746E-02
        -0.21549E-02
        -0.15084E-02
         0.93572E-03
         0.00000E+00
         0.18171E-02
         0.25928E-02
         0.32179E-02
         0.36559E-02
         0.38815E-02
         0.38815E-02
         0.36559E-02
         0.32179E-02
         0.25928E-02
         0.18171E-02
         0.93572E-03
         0.22152E-17
        -0.93572E-03
        -0.18171E-02
        -0.25928E-02
        -0.32179E-02
        -0.36559E-02
        -0.38815E-02
        -0.38815E-02
        -0.36559E-02
        -0.32179E-02
        -0.25928E-02
        -0.18171E-02
        -0.93572E-03
         0.68401E-03
         0.12440E-02
         0.60198E-03
        -0.32266E-03
         0.15609E-03
        -0.66657E-03
         0.18449E-02
         0.14777E-02
         0.32230E-03
         0.12022E-02
         0.22774E-02
         0.28198E-02
         0.24267E-02
         0.21692E-02
         0.29314E-02
        -0.10061E-02
         0.95155E-04
        -0.68866E-03
        -0.70915E-03
         0.85220E-04
        -0.77525E-03
         0.46180E-04
        -0.15185E-02
        -0.13210E-02
         0.10156E-02
        -0.17317E-02
         0.20277E-02
         0.18589E-02
         0.17175E-02
         0.91419E-03
        -0.19805E-02
        -0.23494E-02
        -0.17073E-02
        -0.14943E-02
         0.78047E-03
         0.12563E-02
         0.18672E-02
         0.28824E-02
         0.27113E-02
         0.24597E-02
         0.22358E-02
         0.16502E-02
         0.88016E-03
        -0.21374E-02
        -0.26935E-02
        -0.31291E-02
        -0.30381E-02
        -0.28751E-02
        -0.26476E-02
        -0.23748E-02
        -0.21554E-02
        -0.15083E-02
         0.93572E-03
         0.00000E+00
         0.18171E-02
         0.25928E-02
         0.32179E-02
         0.36559E-02
         0.38815E-02
         0.38815E-02
         0.36559E-02
         0.32179E-02
         0.25928E-02
         0.18171E-02
         0.93572E-03
        -0.47884E-18
        -0.93572E-03
        -0.18171E-02
        -0.25928E-02
        -0.32179E-02
        -0.36559E-02
        -0.38815E-02
        -0.38815E-02
        -0.36559E-02
        -0.32179E-02
        -0.25928E-02
        -0.18171E-02
        -0.93572E-03
         0.68457E-03
         0.12447E-02
         0.60250E-03
        -0.32191E-03
         0.15645E-03
        -0.66607E-03
         0.18451E-02
         0.14787E-02
         0.32345E-03
         0.12040E-02
         0.22775E-02
         0.28194E-02
         0.24268E-02
         0.21692E-02
         0.29311E-02
        -0.10062E-02
         0.95964E-04
        -0.68793E-03
        -0.70901E-03
         0.85343E-04
        -0.77507E-03
         0.46453E-04
        -0.15184E-02
        -0.13209E-02
         0.10169E-02
        -0.17316E-02
         0.20280E-02
         0.18588E-02
         0.17175E-02
         0.91443E-03
        -0.19806E-02
        -0.23494E-02
        -0.17073E-02
        -0.14945E-02
         0.78148E-03
         0.12567E-02
         0.18673E-02
         0.28813E-02
         0.27108E-02
         0.24595E-02
         0.22358E-02
         0.16502E-02
         0.88043E-03
        -0.21374E-02
        -0.26936E-02
        -0.31291E-02
        -0.30381E-02
        -0.28751E-02
        -0.26479E-02
        -0.23750E-02
        -0.21560E-02
        -0.15082E-02
         0.93572E-03
         0.00000E+00
         0.18171E-02
         0.25928E-02
         0.32179E-02
         0.36559E-02
         0.38815E-02
         0.38815E-02
         0.36559E-02
         0.32179E-02
         0.25928E-02
         0.18171E-02
         0.93572E-03
        -0.47884E-18
        -0.93572E-03
        -0.18171E-02
        -0.25928E-02
        -0.32179E-02
        -0.36559E-02
        -0.38815E-02
        -0.38815E-02
        -0.36559E-02
        -0.32179E-02
        -0.25928E-02
        -0.18171E-02
        -0.93572E-03
         0.68512E-03
         0.12454E-02
         0.60302E-03
        -0.32115E-03
         0.15681E-03
        -0.66558E-03
         0.18453E-02
         0.14797E-02
         0.32459E-03
         0.12058E-02
         0.22776E-02
         0.28189E-02
         0.24270E-02
         0.21693E-02
         0.29308E-02
        -0.10064E-02
         0.96773E-04
        -0.68721E-03
        -0.70887E-03
         0.85467E-04
        -0.77490E-03
         0.46726E-04
        -0.15184E-02
        -0.13208E-02
         0.10183E-02
        -0.17316E-02
         0.20283E-02
         0.18586E-02
         0.17175E-02
         0.91467E-03
        -0.19806E-02
        -0.23494E-02
        -0.17073E-02
        -0.14948E-02
         0.78248E-03
         0.12571E-02
         0.18673E-02
         0.28802E-02
         0.27103E-02
         0.24593E-02
         0.22358E-02
         0.16502E-02
         0.88069E-03
        -0.21374E-02
        -0.26936E-02
        -0.31291E-02
        -0.30381E-02
        -0.28751E-02
        -0.26482E-02
        -0.23752E-02
        -0.21565E-02
        -0.15081E-02
         0.93572E-03
         0.00000E+00
         0.18171E-02
         0.25928E-02
         0.32179E-02
         0.36559E-02
         0.38815E-02
         0.38815E-02
         0.36559E-02
         0.32179E-02
         0.25928E-02
         0.18171E-02
         0.93572E-03
        -0.47884E-18
        -0.93572E-03
        -0.18171E-02
        -0.25928E-02
        -0.32179E-02
        -0.36559E-02
        -0.38815E-02
        -0.38815E-02
        -0.36559E-02
        -0.32179E-02
        -0.25928E-02
        -0.18171E-02
        -0.93572E-03
         0.68567E-03
         0.12460E-02
         0.60355E-03
        -0.32040E-03
         0.15718E-03
        -0.66509E-03
         0.18455E-02
         0.14807E-02
         0.32574E-03
         0.12075E-02
         0.22777E-02
         0.28185E-02
         0.24271E-02
         0.21693E-02
         0.29306E-02
        -0.10065E-02
         0.97583E-04
        -0.68648E-03
        -0.70873E-03
         0.85591E-04
        -0.77474E-03
         0.47000E-04
        -0.15183E-02
        -0.13207E-02
         0.10197E-02
        -0.17316E-02
         0.20285E-02
         0.18585E-02
         0.17175E-02
         0.91491E-03
        -0.19806E-02
        -0.23495E-02
        -0.17073E-02
        -0.14950E-02
         0.78348E-03
         0.12576E-02
         0.18674E-02
         0.28792E-02
         0.27099E-02
         0.24591E-02
         0.22358E-02
         0.16502E-02
         0.88095E-03
        -0.21374E-02
        -0.26936E-02
        -0.31290E-02
        -0.30381E-02
        -0.28751E-02
        -0.26484E-02
        -0.23754E-02
        -0.21571E-02
        -0.15080E-02
         0.93572E-03
         0.00000E+00
         0.18171E-02
         0.25928E-02
         0.32179E-02
         0.36559E-02
         0.38815E-02
         0.38815E-02
         0.36559E-02
         0.32179E-02
         0.25928E-02
         0.18171E-02
         0.93572E-03
         0.47884E-18
        -0.93572E-03
        -0.18171E-02
        -0.25928E-02
        -0.32179E-02
        -0.36559E-02
        -0.38815E-02
        -0.38815E-02
        -0.36559E-02
        -0.32179E-02
        -0.25928E-02
        -0.18171E-02
        -0.93572E-03
  
SCALARS           initial_coordinate_z  double 1
LOOKUP_TABLE default
        -0.10771E-01
        -0.10771E-01
        -0.10771E-01
        -0.10771E-01
        -0.11750E-01
        -0.11750E-01
        -0.11750E-01
        -0.11750E-01
        -0.10771E-01
        -0.10771E-01
        -0.11750E-01
        -0.11750E-01
        -0.10771E-01
        -0.10771E-01
        -0.11750E-01
        -0.11750E-01
        -0.10771E-01
        -0.10771E-01
        -0.11750E-01
        -0.11750E-01
        -0.10771E-01
        -0.10771E-01
        -0.10771E-01
        -0.11750E-01
        -0.11750E-01
        -0.11750E-01
        -0.10771E-01
        -0.10771E-01
        -0.11750E-01
        -0.11750E-01
        -0.10771E-01
        -0.10771E-01
        -0.10771E-01
        -0.11750E-01
        -0.11750E-01
        -0.11750E-01
        -0.10771E-01
        -0.10771E-01
        -0.11750E-01
        -0.11750E-01
        -0.10771E-01
        -0.10771E-01
        -0.11750E-01
        -0.11750E-01
        -0.10771E-01
        -0.10771E-01
        -0.11750E-01
        -0.11750E-01
        -0.10771E-01
        -0.11750E-01
        -0.10771E-01
        -0.11750E-01
        -0.10771E-01
        -0.11750E-01
        -0.10771E-01
        -0.11750E-01
        -0.10771E-01
        -0.10771E-01
        -0.11750E-01
        -0.11750E-01
        -0.10771E-01
        -0.10771E-01
        -0.11750E-01
        -0.11750E-01
        -0.10771E-01
        -0.11750E-01
        -0.10771E-01
        -0.11750E-01
        -0.10771E-01
        -0.10771E-01
        -0.11750E-01
        -0.11750E-01
        -0.10771E-01
        -0.11750E-01
        -0.10771E-01
        -0.11750E-01
        -0.10771E-01
        -0.11750E-01
        -0.10771E-01
        -0.11750E-01
        -0.10771E-01
        -0.10771E-01
        -0.11750E-01
        -0.11750E-01
        -0.10771E-01
        -0.11750E-01
        -0.10771E-01
        -0.11750E-01
        -0.10771E-01
        -0.11750E-01
        -0.10771E-01
        -0.10771E-01
        -0.11750E-01
        -0.11750E-01
        -0.10771E-01
        -0.11750E-01
        -0.10771E-01
        -0.11750E-01
        -0.10771E-01
        -0.11750E-01
        -0.10771E-01
        -0.10771E-01
        -0.11750E-01
        -0.11750E-01
        -0.10771E-01
        -0.10771E-01
        -0.11750E-01
        -0.11750E-01
        -0.10771E-01
        -0.11750E-01
        -0.10771E-01
        -0.11750E-01
        -0.10771E-01
        -0.11750E-01
        -0.10771E-01
        -0.11750E-01
        -0.10771E-01
        -0.11750E-01
        -0.10771E-01
        -0.11750E-01
        -0.10771E-01
        -0.11750E-01
        -0.10771E-01
        -0.11750E-01
        -0.10771E-01
        -0.11750E-01
        -0.10771E-01
        -0.11750E-01
        -0.10771E-01
        -0.11750E-01
        -0.10771E-01
        -0.11750E-01
        -0.10771E-01
        -0.11750E-01
        -0.10771E-01
        -0.11750E-01
        -0.10771E-01
        -0.11750E-01
        -0.10771E-01
        -0.11750E-01
        -0.10771E-01
        -0.11750E-01
        -0.10771E-01
        -0.11750E-01
        -0.10771E-01
        -0.11750E-01
        -0.10771E-01
        -0.11750E-01
        -0.10771E-01
        -0.11750E-01
        -0.10771E-01
        -0.11750E-01
        -0.10771E-01
        -0.11750E-01
        -0.10771E-01
        -0.11750E-01
        -0.97917E-02
        -0.97917E-02
        -0.97917E-02
        -0.97917E-02
        -0.97917E-02
        -0.97917E-02
        -0.97917E-02
        -0.97917E-02
        -0.97917E-02
        -0.97917E-02
        -0.97917E-02
        -0.97917E-02
        -0.97917E-02
        -0.97917E-02
        -0.97917E-02
        -0.97917E-02
        -0.97917E-02
        -0.97917E-02
        -0.97917E-02
        -0.97917E-02
        -0.97917E-02
        -0.97917E-02
        -0.97917E-02
        -0.97917E-02
        -0.97917E-02
        -0.97917E-02
        -0.97917E-02
        -0.97917E-02
        -0.97917E-02
        -0.97917E-02
        -0.97917E-02
        -0.97917E-02
        -0.97917E-02
        -0.97917E-02
        -0.97917E-02
        -0.97917E-02
        -0.97917E-02
        -0.97917E-02
        -0.97917E-02
        -0.97917E-02
        -0.97917E-02
        -0.97917E-02
        -0.97917E-02
        -0.97917E-02
        -0.97917E-02
        -0.97917E-02
        -0.97917E-02
        -0.97917E-02
        -0.97917E-02
        -0.97917E-02
        -0.97917E-02
        -0.97917E-02
        -0.97917E-02
        -0.97917E-02
        -0.97917E-02
        -0.97917E-02
        -0.97917E-02
        -0.97917E-02
        -0.97917E-02
        -0.97917E-02
        -0.97917E-02
        -0.97917E-02
        -0.97917E-02
        -0.97917E-02
        -0.97917E-02
        -0.97917E-02
        -0.97917E-02
        -0.97917E-02
        -0.97917E-02
        -0.97917E-02
        -0.97917E-02
        -0.97917E-02
        -0.97917E-02
        -0.97917E-02
        -0.97917E-02
        -0.97917E-02
        -0.97917E-02
        -0.97917E-02
        -0.88125E-02
        -0.88125E-02
        -0.88125E-02
        -0.88125E-02
        -0.88125E-02
        -0.88125E-02
        -0.88125E-02
        -0.88125E-02
        -0.88125E-02
        -0.88125E-02
        -0.88125E-02
        -0.88125E-02
        -0.88125E-02
        -0.88125E-02
        -0.88125E-02
        -0.88125E-02
        -0.88125E-02
        -0.88125E-02
        -0.88125E-02
        -0.88125E-02
        -0.88125E-02
        -0.88125E-02
        -0.88125E-02
        -0.88125E-02
        -0.88125E-02
        -0.88125E-02
        -0.88125E-02
        -0.88125E-02
        -0.88125E-02
        -0.88125E-02
        -0.88125E-02
        -0.88125E-02
        -0.88125E-02
        -0.88125E-02
        -0.88125E-02
        -0.88125E-02
        -0.88125E-02
        -0.88125E-02
        -0.88125E-02
        -0.88125E-02
        -0.88125E-02
        -0.88125E-02
        -0.88125E-02
        -0.88125E-02
        -0.88125E-02
        -0.88125E-02
        -0.88125E-02
        -0.88125E-02
        -0.88125E-02
        -0.88125E-02
        -0.88125E-02
        -0.88125E-02
        -0.88125E-02
        -0.88125E-02
        -0.88125E-02
        -0.88125E-02
        -0.88125E-02
        -0.88125E-02
        -0.88125E-02
        -0.88125E-02
        -0.88125E-02
        -0.88125E-02
        -0.88125E-02
        -0.88125E-02
        -0.88125E-02
        -0.88125E-02
        -0.88125E-02
        -0.88125E-02
        -0.88125E-02
        -0.88125E-02
        -0.88125E-02
        -0.88125E-02
        -0.88125E-02
        -0.88125E-02
        -0.88125E-02
        -0.88125E-02
        -0.88125E-02
        -0.88125E-02
        -0.78333E-02
        -0.78333E-02
        -0.78333E-02
        -0.78333E-02
        -0.78333E-02
        -0.78333E-02
        -0.78333E-02
        -0.78333E-02
        -0.78333E-02
        -0.78333E-02
        -0.78333E-02
        -0.78333E-02
        -0.78333E-02
        -0.78333E-02
        -0.78333E-02
        -0.78333E-02
        -0.78333E-02
        -0.78333E-02
        -0.78333E-02
        -0.78333E-02
        -0.78333E-02
        -0.78333E-02
        -0.78333E-02
        -0.78333E-02
        -0.78333E-02
        -0.78333E-02
        -0.78333E-02
        -0.78333E-02
        -0.78333E-02
        -0.78333E-02
        -0.78333E-02
        -0.78333E-02
        -0.78333E-02
        -0.78333E-02
        -0.78333E-02
        -0.78333E-02
        -0.78333E-02
        -0.78333E-02
        -0.78333E-02
        -0.78333E-02
        -0.78333E-02
        -0.78333E-02
        -0.78333E-02
        -0.78333E-02
        -0.78333E-02
        -0.78333E-02
        -0.78333E-02
        -0.78333E-02
        -0.78333E-02
        -0.78333E-02
        -0.78333E-02
        -0.78333E-02
        -0.78333E-02
        -0.78333E-02
        -0.78333E-02
        -0.78333E-02
        -0.78333E-02
        -0.78333E-02
        -0.78333E-02
        -0.78333E-02
        -0.78333E-02
        -0.78333E-02
        -0.78333E-02
        -0.78333E-02
        -0.78333E-02
        -0.78333E-02
        -0.78333E-02
        -0.78333E-02
        -0.78333E-02
        -0.78333E-02
        -0.78333E-02
        -0.78333E-02
        -0.78333E-02
        -0.78333E-02
        -0.78333E-02
        -0.78333E-02
        -0.78333E-02
        -0.78333E-02
        -0.68542E-02
        -0.68542E-02
        -0.68542E-02
        -0.68542E-02
        -0.68542E-02
        -0.68542E-02
        -0.68542E-02
        -0.68542E-02
        -0.68542E-02
        -0.68542E-02
        -0.68542E-02
        -0.68542E-02
        -0.68542E-02
        -0.68542E-02
        -0.68542E-02
        -0.68542E-02
        -0.68542E-02
        -0.68542E-02
        -0.68542E-02
        -0.68542E-02
        -0.68542E-02
        -0.68542E-02
        -0.68542E-02
        -0.68542E-02
        -0.68542E-02
        -0.68542E-02
        -0.68542E-02
        -0.68542E-02
        -0.68542E-02
        -0.68542E-02
        -0.68542E-02
        -0.68542E-02
        -0.68542E-02
        -0.68542E-02
        -0.68542E-02
        -0.68542E-02
        -0.68542E-02
        -0.68542E-02
        -0.68542E-02
        -0.68542E-02
        -0.68542E-02
        -0.68542E-02
        -0.68542E-02
        -0.68542E-02
        -0.68542E-02
        -0.68542E-02
        -0.68542E-02
        -0.68542E-02
        -0.68542E-02
        -0.68542E-02
        -0.68542E-02
        -0.68542E-02
        -0.68542E-02
        -0.68542E-02
        -0.68542E-02
        -0.68542E-02
        -0.68542E-02
        -0.68542E-02
        -0.68542E-02
        -0.68542E-02
        -0.68542E-02
        -0.68542E-02
        -0.68542E-02
        -0.68542E-02
        -0.68542E-02
        -0.68542E-02
        -0.68542E-02
        -0.68542E-02
        -0.68542E-02
        -0.68542E-02
        -0.68542E-02
        -0.68542E-02
        -0.68542E-02
        -0.68542E-02
        -0.68542E-02
        -0.68542E-02
        -0.68542E-02
        -0.68542E-02
        -0.58750E-02
        -0.58750E-02
        -0.58750E-02
        -0.58750E-02
        -0.58750E-02
        -0.58750E-02
        -0.58750E-02
        -0.58750E-02
        -0.58750E-02
        -0.58750E-02
        -0.58750E-02
        -0.58750E-02
        -0.58750E-02
        -0.58750E-02
        -0.58750E-02
        -0.58750E-02
        -0.58750E-02
        -0.58750E-02
        -0.58750E-02
        -0.58750E-02
        -0.58750E-02
        -0.58750E-02
        -0.58750E-02
        -0.58750E-02
        -0.58750E-02
        -0.58750E-02
        -0.58750E-02
        -0.58750E-02
        -0.58750E-02
        -0.58750E-02
        -0.58750E-02
        -0.58750E-02
        -0.58750E-02
        -0.58750E-02
        -0.58750E-02
        -0.58750E-02
        -0.58750E-02
        -0.58750E-02
        -0.58750E-02
        -0.58750E-02
        -0.58750E-02
        -0.58750E-02
        -0.58750E-02
        -0.58750E-02
        -0.58750E-02
        -0.58750E-02
        -0.58750E-02
        -0.58750E-02
        -0.58750E-02
        -0.58750E-02
        -0.58750E-02
        -0.58750E-02
        -0.58750E-02
        -0.58750E-02
        -0.58750E-02
        -0.58750E-02
        -0.58750E-02
        -0.58750E-02
        -0.58750E-02
        -0.58750E-02
        -0.58750E-02
        -0.58750E-02
        -0.58750E-02
        -0.58750E-02
        -0.58750E-02
        -0.58750E-02
        -0.58750E-02
        -0.58750E-02
        -0.58750E-02
        -0.58750E-02
        -0.58750E-02
        -0.58750E-02
        -0.58750E-02
        -0.58750E-02
        -0.58750E-02
        -0.58750E-02
        -0.58750E-02
        -0.58750E-02
        -0.48958E-02
        -0.48958E-02
        -0.48958E-02
        -0.48958E-02
        -0.48958E-02
        -0.48958E-02
        -0.48958E-02
        -0.48958E-02
        -0.48958E-02
        -0.48958E-02
        -0.48958E-02
        -0.48958E-02
        -0.48958E-02
        -0.48958E-02
        -0.48958E-02
        -0.48958E-02
        -0.48958E-02
        -0.48958E-02
        -0.48958E-02
        -0.48958E-02
        -0.48958E-02
        -0.48958E-02
        -0.48958E-02
        -0.48958E-02
        -0.48958E-02
        -0.48958E-02
        -0.48958E-02
        -0.48958E-02
        -0.48958E-02
        -0.48958E-02
        -0.48958E-02
        -0.48958E-02
        -0.48958E-02
        -0.48958E-02
        -0.48958E-02
        -0.48958E-02
        -0.48958E-02
        -0.48958E-02
        -0.48958E-02
        -0.48958E-02
        -0.48958E-02
        -0.48958E-02
        -0.48958E-02
        -0.48958E-02
        -0.48958E-02
        -0.48958E-02
        -0.48958E-02
        -0.48958E-02
        -0.48958E-02
        -0.48958E-02
        -0.48958E-02
        -0.48958E-02
        -0.48958E-02
        -0.48958E-02
        -0.48958E-02
        -0.48958E-02
        -0.48958E-02
        -0.48958E-02
        -0.48958E-02
        -0.48958E-02
        -0.48958E-02
        -0.48958E-02
        -0.48958E-02
        -0.48958E-02
        -0.48958E-02
        -0.48958E-02
        -0.48958E-02
        -0.48958E-02
        -0.48958E-02
        -0.48958E-02
        -0.48958E-02
        -0.48958E-02
        -0.48958E-02
        -0.48958E-02
        -0.48958E-02
        -0.48958E-02
        -0.48958E-02
        -0.48958E-02
        -0.39167E-02
        -0.39167E-02
        -0.39167E-02
        -0.39167E-02
        -0.39167E-02
        -0.39167E-02
        -0.39167E-02
        -0.39167E-02
        -0.39167E-02
        -0.39167E-02
        -0.39167E-02
        -0.39167E-02
        -0.39167E-02
        -0.39167E-02
        -0.39167E-02
        -0.39167E-02
        -0.39167E-02
        -0.39167E-02
        -0.39167E-02
        -0.39167E-02
        -0.39167E-02
        -0.39167E-02
        -0.39167E-02
        -0.39167E-02
        -0.39167E-02
        -0.39167E-02
        -0.39167E-02
        -0.39167E-02
        -0.39167E-02
        -0.39167E-02
        -0.39167E-02
        -0.39167E-02
        -0.39167E-02
        -0.39167E-02
        -0.39167E-02
        -0.39167E-02
        -0.39167E-02
        -0.39167E-02
        -0.39167E-02
        -0.39167E-02
        -0.39167E-02
        -0.39167E-02
        -0.39167E-02
        -0.39167E-02
        -0.39167E-02
        -0.39167E-02
        -0.39167E-02
        -0.39167E-02
        -0.39167E-02
        -0.39167E-02
        -0.39167E-02
        -0.39167E-02
        -0.39167E-02
        -0.39167E-02
        -0.39167E-02
        -0.39167E-02
        -0.39167E-02
        -0.39167E-02
        -0.39167E-02
        -0.39167E-02
        -0.39167E-02
        -0.39167E-02
        -0.39167E-02
        -0.39167E-02
        -0.39167E-02
        -0.39167E-02
        -0.39167E-02
        -0.39167E-02
        -0.39167E-02
        -0.39167E-02
        -0.39167E-02
        -0.39167E-02
        -0.39167E-02
        -0.39167E-02
        -0.39167E-02
        -0.39167E-02
        -0.39167E-02
        -0.39167E-02
        -0.29375E-02
        -0.29375E-02
        -0.29375E-02
        -0.29375E-02
        -0.29375E-02
        -0.29375E-02
        -0.29375E-02
        -0.29375E-02
        -0.29375E-02
        -0.29375E-02
        -0.29375E-02
        -0.29375E-02
        -0.29375E-02
        -0.29375E-02
        -0.29375E-02
        -0.29375E-02
        -0.29375E-02
        -0.29375E-02
        -0.29375E-02
        -0.29375E-02
        -0.29375E-02
        -0.29375E-02
        -0.29375E-02
        -0.29375E-02
        -0.29375E-02
        -0.29375E-02
        -0.29375E-02
        -0.29375E-02
        -0.29375E-02
        -0.29375E-02
        -0.29375E-02
        -0.29375E-02
        -0.29375E-02
        -0.29375E-02
        -0.29375E-02
        -0.29375E-02
        -0.29375E-02
        -0.29375E-02
        -0.29375E-02
        -0.29375E-02
        -0.29375E-02
        -0.29375E-02
        -0.29375E-02
        -0.29375E-02
        -0.29375E-02
        -0.29375E-02
        -0.29375E-02
        -0.29375E-02
        -0.29375E-02
        -0.29375E-02
        -0.29375E-02
        -0.29375E-02
        -0.29375E-02
        -0.29375E-02
        -0.29375E-02
        -0.29375E-02
        -0.29375E-02
        -0.29375E-02
        -0.29375E-02
        -0.29375E-02
        -0.29375E-02
        -0.29375E-02
        -0.29375E-02
        -0.29375E-02
        -0.29375E-02
        -0.29375E-02
        -0.29375E-02
        -0.29375E-02
        -0.29375E-02
        -0.29375E-02
        -0.29375E-02
        -0.29375E-02
        -0.29375E-02
        -0.29375E-02
        -0.29375E-02
        -0.29375E-02
        -0.29375E-02
        -0.29375E-02
        -0.19583E-02
        -0.19583E-02
        -0.19583E-02
        -0.19583E-02
        -0.19583E-02
        -0.19583E-02
        -0.19583E-02
        -0.19583E-02
        -0.19583E-02
        -0.19583E-02
        -0.19583E-02
        -0.19583E-02
        -0.19583E-02
        -0.19583E-02
        -0.19583E-02
        -0.19583E-02
        -0.19583E-02
        -0.19583E-02
        -0.19583E-02
        -0.19583E-02
        -0.19583E-02
        -0.19583E-02
        -0.19583E-02
        -0.19583E-02
        -0.19583E-02
        -0.19583E-02
        -0.19583E-02
        -0.19583E-02
        -0.19583E-02
        -0.19583E-02
        -0.19583E-02
        -0.19583E-02
        -0.19583E-02
        -0.19583E-02
        -0.19583E-02
        -0.19583E-02
        -0.19583E-02
        -0.19583E-02
        -0.19583E-02
        -0.19583E-02
        -0.19583E-02
        -0.19583E-02
        -0.19583E-02
        -0.19583E-02
        -0.19583E-02
        -0.19583E-02
        -0.19583E-02
        -0.19583E-02
        -0.19583E-02
        -0.19583E-02
        -0.19583E-02
        -0.19583E-02
        -0.19583E-02
        -0.19583E-02
        -0.19583E-02
        -0.19583E-02
        -0.19583E-02
        -0.19583E-02
        -0.19583E-02
        -0.19583E-02
        -0.19583E-02
        -0.19583E-02
        -0.19583E-02
        -0.19583E-02
        -0.19583E-02
        -0.19583E-02
        -0.19583E-02
        -0.19583E-02
        -0.19583E-02
        -0.19583E-02
        -0.19583E-02
        -0.19583E-02
        -0.19583E-02
        -0.19583E-02
        -0.19583E-02
        -0.19583E-02
        -0.19583E-02
        -0.19583E-02
        -0.97917E-03
        -0.97917E-03
        -0.97917E-03
        -0.97917E-03
        -0.97917E-03
        -0.97917E-03
        -0.97917E-03
        -0.97917E-03
        -0.97917E-03
        -0.97917E-03
        -0.97917E-03
        -0.97917E-03
        -0.97917E-03
        -0.97917E-03
        -0.97917E-03
        -0.97917E-03
        -0.97917E-03
        -0.97917E-03
        -0.97917E-03
        -0.97917E-03
        -0.97917E-03
        -0.97917E-03
        -0.97917E-03
        -0.97917E-03
        -0.97917E-03
        -0.97917E-03
        -0.97917E-03
        -0.97917E-03
        -0.97917E-03
        -0.97917E-03
        -0.97917E-03
        -0.97917E-03
        -0.97917E-03
        -0.97917E-03
        -0.97917E-03
        -0.97917E-03
        -0.97917E-03
        -0.97917E-03
        -0.97917E-03
        -0.97917E-03
        -0.97917E-03
        -0.97917E-03
        -0.97917E-03
        -0.97917E-03
        -0.97917E-03
        -0.97917E-03
        -0.97917E-03
        -0.97917E-03
        -0.97917E-03
        -0.97917E-03
        -0.97917E-03
        -0.97917E-03
        -0.97917E-03
        -0.97917E-03
        -0.97917E-03
        -0.97917E-03
        -0.97917E-03
        -0.97917E-03
        -0.97917E-03
        -0.97917E-03
        -0.97917E-03
        -0.97917E-03
        -0.97917E-03
        -0.97917E-03
        -0.97917E-03
        -0.97917E-03
        -0.97917E-03
        -0.97917E-03
        -0.97917E-03
        -0.97917E-03
        -0.97917E-03
        -0.97917E-03
        -0.97917E-03
        -0.97917E-03
        -0.97917E-03
        -0.97917E-03
        -0.97917E-03
        -0.97917E-03
         0.38917E-18
         0.44621E-18
         0.34485E-18
         0.23671E-18
         0.26613E-18
         0.16162E-18
         0.53980E-18
         0.50579E-18
         0.36337E-18
         0.48798E-18
         0.60712E-18
         0.67611E-18
         0.60634E-18
         0.60658E-18
         0.70997E-18
         0.20892E-18
         0.35894E-18
         0.21887E-18
         0.27638E-18
         0.38382E-18
         0.29058E-18
         0.40326E-18
         0.18564E-18
         0.19650E-18
         0.48570E-18
         0.12837E-18
         0.60589E-18
         0.60416E-18
         0.60524E-18
         0.49621E-18
         0.61582E-19
         0.32255E-19
         0.73874E-19
         0.78478E-19
         0.34514E-18
         0.42054E-18
         0.51644E-18
         0.72521E-18
         0.72233E-18
         0.70722E-18
         0.69126E-18
         0.61573E-18
         0.51484E-18
         0.91170E-19
         0.30347E-20
        -0.66516E-19
        -0.69988E-19
        -0.68643E-19
        -0.59779E-19
        -0.43507E-19
        -0.29471E-19
         0.53205E-19
         0.86819E-18
         0.00000E+00
         0.86819E-18
         0.86819E-18
         0.00000E+00
         0.00000E+00
         0.00000E+00
         0.17364E-17
         0.17364E-17
         0.17364E-17
         0.43410E-18
         0.43410E-18
         0.43410E-18
         0.00000E+00
         0.00000E+00
         0.00000E+00
         0.00000E+00
         0.00000E+00
         0.21705E-18
        -0.21705E-18
         0.00000E+00
         0.00000E+00
         0.00000E+00
        -0.32557E-18
         0.54262E-19
        -0.40697E-18
         0.97917E-03
         0.97917E-03
         0.97917E-03
         0.97917E-03
         0.97917E-03
         0.97917E-03
         0.97917E-03
         0.97917E-03
         0.97917E-03
         0.97917E-03
         0.97917E-03
         0.97917E-03
         0.97917E-03
         0.97917E-03
         0.97917E-03
         0.97917E-03
         0.97917E-03
         0.97917E-03
         0.97917E-03
         0.97917E-03
         0.97917E-03
         0.97917E-03
         0.97917E-03
         0.97917E-03
         0.97917E-03
         0.97917E-03
         0.97917E-03
         0.97917E-03
         0.97917E-03
         0.97917E-03
         0.97917E-03
         0.97917E-03
         0.97917E-03
         0.97917E-03
         0.97917E-03
         0.97917E-03
         0.97917E-03
         0.97917E-03
         0.97917E-03
         0.97917E-03
         0.97917E-03
         0.97917E-03
         0.97917E-03
         0.97917E-03
         0.97917E-03
         0.97917E-03
         0.97917E-03
         0.97917E-03
         0.97917E-03
         0.97917E-03
         0.97917E-03
         0.97917E-03
         0.97917E-03
         0.97917E-03
         0.97917E-03
         0.97917E-03
         0.97917E-03
         0.97917E-03
         0.97917E-03
         0.97917E-03
         0.97917E-03
         0.97917E-03
         0.97917E-03
         0.97917E-03
         0.97917E-03
         0.97917E-03
         0.97917E-03
         0.97917E-03
         0.97917E-03
         0.97917E-03
         0.97917E-03
         0.97917E-03
         0.97917E-03
         0.97917E-03
         0.97917E-03
         0.97917E-03
         0.97917E-03
         0.97917E-03
         0.19583E-02
         0.19583E-02
         0.19583E-02
         0.19583E-02
         0.19583E-02
         0.19583E-02
         0.19583E-02
         0.19583E-02
         0.19583E-02
         0.19583E-02
         0.19583E-02
         0.19583E-02
         0.19583E-02
         0.19583E-02
         0.19583E-02
         0.19583E-02
         0.19583E-02
         0.19583E-02
         0.19583E-02
         0.19583E-02
         0.19583E-02
         0.19583E-02
         0.19583E-02
         0.19583E-02
         0.19583E-02
         0.19583E-02
         0.19583E-02
         0.19583E-02
         0.19583E-02
         0.19583E-02
         0.19583E-02
         0.19583E-02
         0.19583E-02
         0.19583E-02
         0.19583E-02
         0.19583E-02
         0.19583E-02
         0.19583E-02
         0.19583E-02
         0.19583E-02
         0.19583E-02
         0.19583E-02
         0.19583E-02
         0.19583E-02
         0.19583E-02
         0.19583E-02
         0.19583E-02
         0.19583E-02
         0.19583E-02
         0.19583E-02
         0.19583E-02
         0.19583E-02
         0.19583E-02
         0.19583E-02
         0.19583E-02
         0.19583E-02
         0.19583E-02
         0.19583E-02
         0.19583E-02
         0.19583E-02
         0.19583E-02
         0.19583E-02
         0.19583E-02
         0.19583E-02
         0.19583E-02
         0.19583E-02
         0.19583E-02
         0.19583E-02
         0.19583E-02
         0.19583E-02
         0.19583E-02
         0.19583E-02
         0.19583E-02
         0.19583E-02
         0.19583E-02
         0.19583E-02
         0.19583E-02
         0.19583E-02
         0.29375E-02
         0.29375E-02
         0.29375E-02
         0.29375E-02
         0.29375E-02
         0.29375E-02
         0.29375E-02
         0.29375E-02
         0.29375E-02
         0.29375E-02
         0.29375E-02
         0.29375E-02
         0.29375E-02
         0.29375E-02
         0.29375E-02
         0.29375E-02
         0.29375E-02
         0.29375E-02
         0.29375E-02
         0.29375E-02
         0.29375E-02
         0.29375E-02
         0.29375E-02
         0.29375E-02
         0.29375E-02
         0.29375E-02
         0.29375E-02
         0.29375E-02
         0.29375E-02
         0.29375E-02
         0.29375E-02
         0.29375E-02
         0.29375E-02
         0.29375E-02
         0.29375E-02
         0.29375E-02
         0.29375E-02
         0.29375E-02
         0.29375E-02
         0.29375E-02
         0.29375E-02
         0.29375E-02
         0.29375E-02
         0.29375E-02
         0.29375E-02
         0.29375E-02
         0.29375E-02
         0.29375E-02
         0.29375E-02
         0.29375E-02
         0.29375E-02
         0.29375E-02
         0.29375E-02
         0.29375E-02
         0.29375E-02
         0.29375E-02
         0.29375E-02
         0.29375E-02
         0.29375E-02
         0.29375E-02
         0.29375E-02
         0.29375E-02
         0.29375E-02
         0.29375E-02
         0.29375E-02
         0.29375E-02
         0.29375E-02
         0.29375E-02
         0.29375E-02
         0.29375E-02
         0.29375E-02
         0.29375E-02
         0.29375E-02
         0.29375E-02
         0.29375E-02
         0.29375E-02
         0.29375E-02
         0.29375E-02
         0.39167E-02
         0.39167E-02
         0.39167E-02
         0.39167E-02
         0.39167E-02
         0.39167E-02
         0.39167E-02
         0.39167E-02
         0.39167E-02
         0.39167E-02
         0.39167E-02
         0.39167E-02
         0.39167E-02
         0.39167E-02
         0.39167E-02
         0.39167E-02
         0.39167E-02
         0.39167E-02
         0.39167E-02
         0.39167E-02
         0.39167E-02
         0.39167E-02
         0.39167E-02
         0.39167E-02
         0.39167E-02
         0.39167E-02
         0.39167E-02
         0.39167E-02
         0.39167E-02
         0.39167E-02
         0.39167E-02
         0.39167E-02
         0.39167E-02
         0.39167E-02
         0.39167E-02
         0.39167E-02
         0.39167E-02
         0.39167E-02
         0.39167E-02
         0.39167E-02
         0.39167E-02
         0.39167E-02
         0.39167E-02
         0.39167E-02
         0.39167E-02
         0.39167E-02
         0.39167E-02
         0.39167E-02
         0.39167E-02
         0.39167E-02
         0.39167E-02
         0.39167E-02
         0.39167E-02
         0.39167E-02
         0.39167E-02
         0.39167E-02
         0.39167E-02
         0.39167E-02
         0.39167E-02
         0.39167E-02
         0.39167E-02
         0.39167E-02
         0.39167E-02
         0.39167E-02
         0.39167E-02
         0.39167E-02
         0.39167E-02
         0.39167E-02
         0.39167E-02
         0.39167E-02
         0.39167E-02
         0.39167E-02
         0.39167E-02
         0.39167E-02
         0.39167E-02
         0.39167E-02
         0.39167E-02
         0.39167E-02
         0.48958E-02
         0.48958E-02
         0.48958E-02
         0.48958E-02
         0.48958E-02
         0.48958E-02
         0.48958E-02
         0.48958E-02
         0.48958E-02
         0.48958E-02
         0.48958E-02
         0.48958E-02
         0.48958E-02
         0.48958E-02
         0.48958E-02
         0.48958E-02
         0.48958E-02
         0.48958E-02
         0.48958E-02
         0.48958E-02
         0.48958E-02
         0.48958E-02
         0.48958E-02
         0.48958E-02
         0.48958E-02
         0.48958E-02
         0.48958E-02
         0.48958E-02
         0.48958E-02
         0.48958E-02
         0.48958E-02
         0.48958E-02
         0.48958E-02
         0.48958E-02
         0.48958E-02
         0.48958E-02
         0.48958E-02
         0.48958E-02
         0.48958E-02
         0.48958E-02
         0.48958E-02
         0.48958E-02
         0.48958E-02
         0.48958E-02
         0.48958E-02
         0.48958E-02
         0.48958E-02
         0.48958E-02
         0.48958E-02
         0.48958E-02
         0.48958E-02
         0.48958E-02
         0.48958E-02
         0.48958E-02
         0.48958E-02
         0.48958E-02
         0.48958E-02
         0.48958E-02
         0.48958E-02
         0.48958E-02
         0.48958E-02
         0.48958E-02
         0.48958E-02
         0.48958E-02
         0.48958E-02
         0.48958E-02
         0.48958E-02
         0.48958E-02
         0.48958E-02
         0.48958E-02
         0.48958E-02
         0.48958E-02
         0.48958E-02
         0.48958E-02
         0.48958E-02
         0.48958E-02
         0.48958E-02
         0.48958E-02
         0.58750E-02
         0.58750E-02
         0.58750E-02
         0.58750E-02
         0.58750E-02
         0.58750E-02
         0.58750E-02
         0.58750E-02
         0.58750E-02
         0.58750E-02
         0.58750E-02
         0.58750E-02
         0.58750E-02
         0.58750E-02
         0.58750E-02
         0.58750E-02
         0.58750E-02
         0.58750E-02
         0.58750E-02
         0.58750E-02
         0.58750E-02
         0.58750E-02
         0.58750E-02
         0.58750E-02
         0.58750E-02
         0.58750E-02
         0.58750E-02
         0.58750E-02
         0.58750E-02
         0.58750E-02
         0.58750E-02
         0.58750E-02
         0.58750E-02
         0.58750E-02
         0.58750E-02
         0.58750E-02
         0.58750E-02
         0.58750E-02
         0.58750E-02
         0.58750E-02
         0.58750E-02
         0.58750E-02
         0.58750E-02
         0.58750E-02
         0.58750E-02
         0.58750E-02
         0.58750E-02
         0.58750E-02
         0.58750E-02
         0.58750E-02
         0.58750E-02
         0.58750E-02
         0.58750E-02
         0.58750E-02
         0.58750E-02
         0.58750E-02
         0.58750E-02
         0.58750E-02
         0.58750E-02
         0.58750E-02
         0.58750E-02
         0.58750E-02
         0.58750E-02
         0.58750E-02
         0.58750E-02
         0.58750E-02
         0.58750E-02
         0.58750E-02
         0.58750E-02
         0.58750E-02
         0.58750E-02
         0.58750E-02
         0.58750E-02
         0.58750E-02
         0.58750E-02
         0.58750E-02
         0.58750E-02
         0.58750E-02
         0.68542E-02
         0.68542E-02
         0.68542E-02
         0.68542E-02
         0.68542E-02
         0.68542E-02
         0.68542E-02
         0.68542E-02
         0.68542E-02
         0.68542E-02
         0.68542E-02
         0.68542E-02
         0.68542E-02
         0.68542E-02
         0.68542E-02
         0.68542E-02
         0.68542E-02
         0.68542E-02
         0.68542E-02
         0.68542E-02
         0.68542E-02
         0.68542E-02
         0.68542E-02
         0.68542E-02
         0.68542E-02
         0.68542E-02
         0.68542E-02
         0.68542E-02
         0.68542E-02
         0.68542E-02
         0.68542E-02
         0.68542E-02
         0.68542E-02
         0.68542E-02
         0.68542E-02
         0.68542E-02
         0.68542E-02
         0.68542E-02
         0.68542E-02
         0.68542E-02
         0.68542E-02
         0.68542E-02
         0.68542E-02
         0.68542E-02
         0.68542E-02
         0.68542E-02
         0.68542E-02
         0.68542E-02
         0.68542E-02
         0.68542E-02
         0.68542E-02
         0.68542E-02
         0.68542E-02
         0.68542E-02
         0.68542E-02
         0.68542E-02
         0.68542E-02
         0.68542E-02
         0.68542E-02
         0.68542E-02
         0.68542E-02
         0.68542E-02
         0.68542E-02
         0.68542E-02
         0.68542E-02
         0.68542E-02
         0.68542E-02
         0.68542E-02
         0.68542E-02
         0.68542E-02
         0.68542E-02
         0.68542E-02
         0.68542E-02
         0.68542E-02
         0.68542E-02
         0.68542E-02
         0.68542E-02
         0.68542E-02
         0.78333E-02
         0.78333E-02
         0.78333E-02
         0.78333E-02
         0.78333E-02
         0.78333E-02
         0.78333E-02
         0.78333E-02
         0.78333E-02
         0.78333E-02
         0.78333E-02
         0.78333E-02
         0.78333E-02
         0.78333E-02
         0.78333E-02
         0.78333E-02
         0.78333E-02
         0.78333E-02
         0.78333E-02
         0.78333E-02
         0.78333E-02
         0.78333E-02
         0.78333E-02
         0.78333E-02
         0.78333E-02
         0.78333E-02
         0.78333E-02
         0.78333E-02
         0.78333E-02
         0.78333E-02
         0.78333E-02
         0.78333E-02
         0.78333E-02
         0.78333E-02
         0.78333E-02
         0.78333E-02
         0.78333E-02
         0.78333E-02
         0.78333E-02
         0.78333E-02
         0.78333E-02
         0.78333E-02
         0.78333E-02
         0.78333E-02
         0.78333E-02
         0.78333E-02
         0.78333E-02
         0.78333E-02
         0.78333E-02
         0.78333E-02
         0.78333E-02
         0.78333E-02
         0.78333E-02
         0.78333E-02
         0.78333E-02
         0.78333E-02
         0.78333E-02
         0.78333E-02
         0.78333E-02
         0.78333E-02
         0.78333E-02
         0.78333E-02
         0.78333E-02
         0.78333E-02
         0.78333E-02
         0.78333E-02
         0.78333E-02
         0.78333E-02
         0.78333E-02
         0.78333E-02
         0.78333E-02
         0.78333E-02
         0.78333E-02
         0.78333E-02
         0.78333E-02
         0.78333E-02
         0.78333E-02
         0.78333E-02
         0.88125E-02
         0.88125E-02
         0.88125E-02
         0.88125E-02
         0.88125E-02
         0.88125E-02
         0.88125E-02
         0.88125E-02
         0.88125E-02
         0.88125E-02
         0.88125E-02
         0.88125E-02
         0.88125E-02
         0.88125E-02
         0.88125E-02
         0.88125E-02
         0.88125E-02
         0.88125E-02
         0.88125E-02
         0.88125E-02
         0.88125E-02
         0.88125E-02
         0.88125E-02
         0.88125E-02
         0.88125E-02
         0.88125E-02
         0.88125E-02
         0.88125E-02
         0.88125E-02
         0.88125E-02
         0.88125E-02
         0.88125E-02
         0.88125E-02
         0.88125E-02
         0.88125E-02
         0.88125E-02
         0.88125E-02
         0.88125E-02
         0.88125E-02
         0.88125E-02
         0.88125E-02
         0.88125E-02
         0.88125E-02
         0.88125E-02
         0.88125E-02
         0.88125E-02
         0.88125E-02
         0.88125E-02
         0.88125E-02
         0.88125E-02
         0.88125E-02
         0.88125E-02
         0.88125E-02
         0.88125E-02
         0.88125E-02
         0.88125E-02
         0.88125E-02
         0.88125E-02
         0.88125E-02
         0.88125E-02
         0.88125E-02
         0.88125E-02
         0.88125E-02
         0.88125E-02
         0.88125E-02
         0.88125E-02
         0.88125E-02
         0.88125E-02
         0.88125E-02
         0.88125E-02
         0.88125E-02
         0.88125E-02
         0.88125E-02
         0.88125E-02
         0.88125E-02
         0.88125E-02
         0.88125E-02
         0.88125E-02
         0.97917E-02
         0.97917E-02
         0.97917E-02
         0.97917E-02
         0.97917E-02
         0.97917E-02
         0.97917E-02
         0.97917E-02
         0.97917E-02
         0.97917E-02
         0.97917E-02
         0.97917E-02
         0.97917E-02
         0.97917E-02
         0.97917E-02
         0.97917E-02
         0.97917E-02
         0.97917E-02
         0.97917E-02
         0.97917E-02
         0.97917E-02
         0.97917E-02
         0.97917E-02
         0.97917E-02
         0.97917E-02
         0.97917E-02
         0.97917E-02
         0.97917E-02
         0.97917E-02
         0.97917E-02
         0.97917E-02
         0.97917E-02
         0.97917E-02
         0.97917E-02
         0.97917E-02
         0.97917E-02
         0.97917E-02
         0.97917E-02
         0.97917E-02
         0.97917E-02
         0.97917E-02
         0.97917E-02
         0.97917E-02
         0.97917E-02
         0.97917E-02
         0.97917E-02
         0.97917E-02
         0.97917E-02
         0.97917E-02
         0.97917E-02
         0.97917E-02
         0.97917E-02
         0.97917E-02
         0.97917E-02
         0.97917E-02
         0.97917E-02
         0.97917E-02
         0.97917E-02
         0.97917E-02
         0.97917E-02
         0.97917E-02
         0.97917E-02
         0.97917E-02
         0.97917E-02
         0.97917E-02
         0.97917E-02
         0.97917E-02
         0.97917E-02
         0.97917E-02
         0.97917E-02
         0.97917E-02
         0.97917E-02
         0.97917E-02
         0.97917E-02
         0.97917E-02
         0.97917E-02
         0.97917E-02
         0.97917E-02
         0.10771E-01
         0.10771E-01
         0.10771E-01
         0.10771E-01
         0.10771E-01
         0.10771E-01
         0.10771E-01
         0.10771E-01
         0.10771E-01
         0.10771E-01
         0.10771E-01
         0.10771E-01
         0.10771E-01
         0.10771E-01
         0.10771E-01
         0.10771E-01
         0.10771E-01
         0.10771E-01
         0.10771E-01
         0.10771E-01
         0.10771E-01
         0.10771E-01
         0.10771E-01
         0.10771E-01
         0.10771E-01
         0.10771E-01
         0.10771E-01
         0.10771E-01
         0.10771E-01
         0.10771E-01
         0.10771E-01
         0.10771E-01
         0.10771E-01
         0.10771E-01
         0.10771E-01
         0.10771E-01
         0.10771E-01
         0.10771E-01
         0.10771E-01
         0.10771E-01
         0.10771E-01
         0.10771E-01
         0.10771E-01
         0.10771E-01
         0.10771E-01
         0.10771E-01
         0.10771E-01
         0.10771E-01
         0.10771E-01
         0.10771E-01
         0.10771E-01
         0.10771E-01
         0.10771E-01
         0.10771E-01
         0.10771E-01
         0.10771E-01
         0.10771E-01
         0.10771E-01
         0.10771E-01
         0.10771E-01
         0.10771E-01
         0.10771E-01
         0.10771E-01
         0.10771E-01
         0.10771E-01
         0.10771E-01
         0.10771E-01
         0.10771E-01
         0.10771E-01
         0.10771E-01
         0.10771E-01
         0.10771E-01
         0.10771E-01
         0.10771E-01
         0.10771E-01
         0.10771E-01
         0.10771E-01
         0.10771E-01
         0.11750E-01
         0.11750E-01
         0.11750E-01
         0.11750E-01
         0.11750E-01
         0.11750E-01
         0.11750E-01
         0.11750E-01
         0.11750E-01
         0.11750E-01
         0.11750E-01
         0.11750E-01
         0.11750E-01
         0.11750E-01
         0.11750E-01
         0.11750E-01
         0.11750E-01
         0.11750E-01
         0.11750E-01
         0.11750E-01
         0.11750E-01
         0.11750E-01
         0.11750E-01
         0.11750E-01
         0.11750E-01
         0.11750E-01
         0.11750E-01
         0.11750E-01
         0.11750E-01
         0.11750E-01
         0.11750E-01
         0.11750E-01
         0.11750E-01
         0.11750E-01
         0.11750E-01
         0.11750E-01
         0.11750E-01
         0.11750E-01
         0.11750E-01
         0.11750E-01
         0.11750E-01
         0.11750E-01
         0.11750E-01
         0.11750E-01
         0.11750E-01
         0.11750E-01
         0.11750E-01
         0.11750E-01
         0.11750E-01
         0.11750E-01
         0.11750E-01
         0.11750E-01
         0.11750E-01
         0.11750E-01
         0.11750E-01
         0.11750E-01
         0.11750E-01
         0.11750E-01
         0.11750E-01
         0.11750E-01
         0.11750E-01
         0.11750E-01
         0.11750E-01
         0.11750E-01
         0.11750E-01
         0.11750E-01
         0.11750E-01
         0.11750E-01
         0.11750E-01
         0.11750E-01
         0.11750E-01
         0.11750E-01
         0.11750E-01
         0.11750E-01
         0.11750E-01
         0.11750E-01
         0.11750E-01
         0.11750E-01
  
SCALARS                init_velocity_x  double 1
LOOKUP_TABLE default
         0.00000E+00
         0.00000E+00
         0.00000E+00
         0.00000E+00
         0.00000E+00
         0.00000E+00
         0.00000E+00
         0.00000E+00
         0.00000E+00
         0.00000E+00
         0.00000E+00
         0.00000E+00
         0.00000E+00
         0.00000E+00
         0.00000E+00
         0.00000E+00
         0.00000E+00
         0.00000E+00
         0.00000E+00
         0.00000E+00
         0.00000E+00
         0.00000E+00
         0.00000E+00
         0.00000E+00
         0.00000E+00
         0.00000E+00
         0.00000E+00
         0.00000E+00
         0.00000E+00
         0.00000E+00
         0.00000E+00
         0.00000E+00
         0.00000E+00
         0.00000E+00
         0.00000E+00
         0.00000E+00
         0.00000E+00
         0.00000E+00
         0.00000E+00
         0.00000E+00
         0.00000E+00
         0.00000E+00
         0.00000E+00
         0.00000E+00
         0.00000E+00
         0.00000E+00
         0.00000E+00
         0.00000E+00
         0.00000E+00
         0.00000E+00
         0.00000E+00
         0.00000E+00
         0.00000E+00
         0.00000E+00
         0.00000E+00
         0.00000E+00
         0.00000E+00
         0.00000E+00
         0.00000E+00
         0.00000E+00
         0.00000E+00
         0.00000E+00
         0.00000E+00
         0.00000E+00
         0.00000E+00
         0.00000E+00
         0.00000E+00
         0.00000E+00
         0.00000E+00
         0.00000E+00
         0.00000E+00
         0.00000E+00
         0.00000E+00
         0.00000E+00
         0.00000E+00
         0.00000E+00
         0.00000E+00
         0.00000E+00
         0.00000E+00
         0.00000E+00
         0.00000E+00
         0.00000E+00
         0.00000E+00
         0.00000E+00
         0.00000E+00
         0.00000E+00
         0.00000E+00
         0.00000E+00
         0.00000E+00
         0.00000E+00
         0.00000E+00
         0.00000E+00
         0.00000E+00
         0.00000E+00
         0.00000E+00
         0.00000E+00
         0.00000E+00
         0.00000E+00
         0.00000E+00
         0.00000E+00
         0.00000E+00
         0.00000E+00
         0.00000E+00
         0.00000E+00
         0.00000E+00
         0.00000E+00
         0.00000E+00
         0.00000E+00
         0.00000E+00
         0.00000E+00
         0.00000E+00
         0.00000E+00
         0.00000E+00
         0.00000E+00
         0.00000E+00
         0.00000E+00
         0.00000E+00
         0.00000E+00
         0.00000E+00
         0.00000E+00
         0.00000E+00
         0.00000E+00
         0.00000E+00
         0.00000E+00
         0.00000E+00
         0.00000E+00
         0.00000E+00
         0.00000E+00
         0.00000E+00
         0.00000E+00
         0.00000E+00
         0.00000E+00
         0.00000E+00
         0.00000E+00
         0.00000E+00
         0.00000E+00
         0.00000E+00
         0.00000E+00
         0.00000E+00
         0.00000E+00
         0.00000E+00
         0.00000E+00
         0.00000E+00
         0.00000E+00
         0.00000E+00
         0.00000E+00
         0.00000E+00
         0.00000E+00
         0.00000E+00
         0.00000E+00
         0.00000E+00
         0.00000E+00
         0.00000E+00
         0.00000E+00
         0.00000E+00
         0.00000E+00
         0.00000E+00
         0.00000E+00
         0.00000E+00
         0.00000E+00
         0.00000E+00
         0.00000E+00
         0.00000E+00
         0.00000E+00
         0.00000E+00
         0.00000E+00
         0.00000E+00
         0.00000E+00
         0.00000E+00
         0.00000E+00
         0.00000E+00
         0.00000E+00
         0.00000E+00
         0.00000E+00
         0.00000E+00
         0.00000E+00
         0.00000E+00
         0.00000E+00
         0.00000E+00
         0.00000E+00
         0.00000E+00
         0.00000E+00
         0.00000E+00
         0.00000E+00
         0.00000E+00
         0.00000E+00
         0.00000E+00
         0.00000E+00
         0.00000E+00
         0.00000E+00
         0.00000E+00
         0.00000E+00
         0.00000E+00
         0.00000E+00
         0.00000E+00
         0.00000E+00
         0.00000E+00
         0.00000E+00
         0.00000E+00
         0.00000E+00
         0.00000E+00
         0.00000E+00
         0.00000E+00
         0.00000E+00
         0.00000E+00
         0.00000E+00
         0.00000E+00
         0.00000E+00
         0.00000E+00
         0.00000E+00
         0.00000E+00
         0.00000E+00
         0.00000E+00
         0.00000E+00
         0.00000E+00
         0.00000E+00
         0.00000E+00
         0.00000E+00
         0.00000E+00
         0.00000E+00
         0.00000E+00
         0.00000E+00
         0.00000E+00
         0.00000E+00
         0.00000E+00
         0.00000E+00
         0.00000E+00
         0.00000E+00
         0.00000E+00
         0.00000E+00
         0.00000E+00
         0.00000E+00
         0.00000E+00
         0.00000E+00
         0.00000E+00
         0.00000E+00
         0.00000E+00
         0.00000E+00
         0.00000E+00
         0.00000E+00
         0.00000E+00
         0.00000E+00
         0.00000E+00
         0.00000E+00
         0.00000E+00
         0.00000E+00
         0.00000E+00
         0.00000E+00
         0.00000E+00
         0.00000E+00
         0.00000E+00
         0.00000E+00
         0.00000E+00
         0.00000E+00
         0.00000E+00
         0.00000E+00
         0.00000E+00
         0.00000E+00
         0.00000E+00
         0.00000E+00
         0.00000E+00
         0.00000E+00
         0.00000E+00
         0.00000E+00
         0.00000E+00
         0.00000E+00
         0.00000E+00
         0.00000E+00
         0.00000E+00
         0.00000E+00
         0.00000E+00
         0.00000E+00
         0.00000E+00
         0.00000E+00
         0.00000E+00
         0.00000E+00
         0.00000E+00
         0.00000E+00
         0.00000E+00
         0.00000E+00
         0.00000E+00
         0.00000E+00
         0.00000E+00
         0.00000E+00
         0.00000E+00
         0.00000E+00
         0.00000E+00
         0.00000E+00
         0.00000E+00
         0.00000E+00
         0.00000E+00
         0.00000E+00
         0.00000E+00
         0.00000E+00
         0.00000E+00
         0.00000E+00
         0.00000E+00
         0.00000E+00
         0.00000E+00
         0.00000E+00
         0.00000E+00
         0.00000E+00
         0.00000E+00
         0.00000E+00
         0.00000E+00
         0.00000E+00
         0.00000E+00
         0.00000E+00
         0.00000E+00
         0.00000E+00
         0.00000E+00
         0.00000E+00
         0.00000E+00
         0.00000E+00
         0.00000E+00
         0.00000E+00
         0.00000E+00
         0.00000E+00
         0.00000E+00
         0.00000E+00
         0.00000E+00
         0.00000E+00
         0.00000E+00
         0.00000E+00
         0.00000E+00
         0.00000E+00
         0.00000E+00
         0.00000E+00
         0.00000E+00
         0.00000E+00
         0.00000E+00
         0.00000E+00
         0.00000E+00
         0.00000E+00
         0.00000E+00
         0.00000E+00
         0.00000E+00
         0.00000E+00
         0.00000E+00
         0.00000E+00
         0.00000E+00
         0.00000E+00
         0.00000E+00
         0.00000E+00
         0.00000E+00
         0.00000E+00
         0.00000E+00
         0.00000E+00
         0.00000E+00
         0.00000E+00
         0.00000E+00
         0.00000E+00
         0.00000E+00
         0.00000E+00
         0.00000E+00
         0.00000E+00
         0.00000E+00
         0.00000E+00
         0.00000E+00
         0.00000E+00
         0.00000E+00
         0.00000E+00
         0.00000E+00
         0.00000E+00
         0.00000E+00
         0.00000E+00
         0.00000E+00
         0.00000E+00
         0.00000E+00
         0.00000E+00
         0.00000E+00
         0.00000E+00
         0.00000E+00
         0.00000E+00
         0.00000E+00
         0.00000E+00
         0.00000E+00
         0.00000E+00
         0.00000E+00
         0.00000E+00
         0.00000E+00
         0.00000E+00
         0.00000E+00
         0.00000E+00
         0.00000E+00
         0.00000E+00
         0.00000E+00
         0.00000E+00
         0.00000E+00
         0.00000E+00
         0.00000E+00
         0.00000E+00
         0.00000E+00
         0.00000E+00
         0.00000E+00
         0.00000E+00
         0.00000E+00
         0.00000E+00
         0.00000E+00
         0.00000E+00
         0.00000E+00
         0.00000E+00
         0.00000E+00
         0.00000E+00
         0.00000E+00
         0.00000E+00
         0.00000E+00
         0.00000E+00
         0.00000E+00
         0.00000E+00
         0.00000E+00
         0.00000E+00
         0.00000E+00
         0.00000E+00
         0.00000E+00
         0.00000E+00
         0.00000E+00
         0.00000E+00
         0.00000E+00
         0.00000E+00
         0.00000E+00
         0.00000E+00
         0.00000E+00
         0.00000E+00
         0.00000E+00
         0.00000E+00
         0.00000E+00
         0.00000E+00
         0.00000E+00
         0.00000E+00
         0.00000E+00
         0.00000E+00
         0.00000E+00
         0.00000E+00
         0.00000E+00
         0.00000E+00
         0.00000E+00
         0.00000E+00
         0.00000E+00
         0.00000E+00
         0.00000E+00
         0.00000E+00
         0.00000E+00
         0.00000E+00
         0.00000E+00
         0.00000E+00
         0.00000E+00
         0.00000E+00
         0.00000E+00
         0.00000E+00
         0.00000E+00
         0.00000E+00
         0.00000E+00
         0.00000E+00
         0.00000E+00
         0.00000E+00
         0.00000E+00
         0.00000E+00
         0.00000E+00
         0.00000E+00
         0.00000E+00
         0.00000E+00
         0.00000E+00
         0.00000E+00
         0.00000E+00
         0.00000E+00
         0.00000E+00
         0.00000E+00
         0.00000E+00
         0.00000E+00
         0.00000E+00
         0.00000E+00
         0.00000E+00
         0.00000E+00
         0.00000E+00
         0.00000E+00
         0.00000E+00
         0.00000E+00
         0.00000E+00
         0.00000E+00
         0.00000E+00
         0.00000E+00
         0.00000E+00
         0.00000E+00
         0.00000E+00
         0.00000E+00
         0.00000E+00
         0.00000E+00
         0.00000E+00
         0.00000E+00
         0.00000E+00
         0.00000E+00
         0.00000E+00
         0.00000E+00
         0.00000E+00
         0.00000E+00
         0.00000E+00
         0.00000E+00
         0.00000E+00
         0.00000E+00
         0.00000E+00
         0.00000E+00
         0.00000E+00
         0.00000E+00
         0.00000E+00
         0.00000E+00
         0.00000E+00
         0.00000E+00
         0.00000E+00
         0.00000E+00
         0.00000E+00
         0.00000E+00
         0.00000E+00
         0.00000E+00
         0.00000E+00
         0.00000E+00
         0.00000E+00
         0.00000E+00
         0.00000E+00
         0.00000E+00
         0.00000E+00
         0.00000E+00
         0.00000E+00
         0.00000E+00
         0.00000E+00
         0.00000E+00
         0.00000E+00
         0.00000E+00
         0.00000E+00
         0.00000E+00
         0.00000E+00
         0.00000E+00
         0.00000E+00
         0.00000E+00
         0.00000E+00
         0.00000E+00
         0.00000E+00
         0.00000E+00
         0.00000E+00
         0.00000E+00
         0.00000E+00
         0.00000E+00
         0.00000E+00
         0.00000E+00
         0.00000E+00
         0.00000E+00
         0.00000E+00
         0.00000E+00
         0.00000E+00
         0.00000E+00
         0.00000E+00
         0.00000E+00
         0.00000E+00
         0.00000E+00
         0.00000E+00
         0.00000E+00
         0.00000E+00
         0.00000E+00
         0.00000E+00
         0.00000E+00
         0.00000E+00
         0.00000E+00
         0.00000E+00
         0.00000E+00
         0.00000E+00
         0.00000E+00
         0.00000E+00
         0.00000E+00
         0.00000E+00
         0.00000E+00
         0.00000E+00
         0.00000E+00
         0.00000E+00
         0.00000E+00
         0.00000E+00
         0.00000E+00
         0.00000E+00
         0.00000E+00
         0.00000E+00
         0.00000E+00
         0.00000E+00
         0.00000E+00
         0.00000E+00
         0.00000E+00
         0.00000E+00
         0.00000E+00
         0.00000E+00
         0.00000E+00
         0.00000E+00
         0.00000E+00
         0.00000E+00
         0.00000E+00
         0.00000E+00
         0.00000E+00
         0.00000E+00
         0.00000E+00
         0.00000E+00
         0.00000E+00
         0.00000E+00
         0.00000E+00
         0.00000E+00
         0.00000E+00
         0.00000E+00
         0.00000E+00
         0.00000E+00
         0.00000E+00
         0.00000E+00
         0.00000E+00
         0.00000E+00
         0.00000E+00
         0.00000E+00
         0.00000E+00
         0.00000E+00
         0.00000E+00
         0.00000E+00
         0.00000E+00
         0.00000E+00
         0.00000E+00
         0.00000E+00
         0.00000E+00
         0.00000E+00
         0.00000E+00
         0.00000E+00
         0.00000E+00
         0.00000E+00
         0.00000E+00
         0.00000E+00
         0.00000E+00
         0.00000E+00
         0.00000E+00
         0.00000E+00
         0.00000E+00
         0.00000E+00
         0.00000E+00
         0.00000E+00
         0.00000E+00
         0.00000E+00
         0.00000E+00
         0.00000E+00
         0.00000E+00
         0.00000E+00
         0.00000E+00
         0.00000E+00
         0.00000E+00
         0.00000E+00
         0.00000E+00
         0.00000E+00
         0.00000E+00
         0.00000E+00
         0.00000E+00
         0.00000E+00
         0.00000E+00
         0.00000E+00
         0.00000E+00
         0.00000E+00
         0.00000E+00
         0.00000E+00
         0.00000E+00
         0.00000E+00
         0.00000E+00
         0.00000E+00
         0.00000E+00
         0.00000E+00
         0.00000E+00
         0.00000E+00
         0.00000E+00
         0.00000E+00
         0.00000E+00
         0.00000E+00
         0.00000E+00
         0.00000E+00
         0.00000E+00
         0.00000E+00
         0.00000E+00
         0.00000E+00
         0.00000E+00
         0.00000E+00
         0.00000E+00
         0.00000E+00
         0.00000E+00
         0.00000E+00
         0.00000E+00
         0.00000E+00
         0.00000E+00
         0.00000E+00
         0.00000E+00
         0.00000E+00
         0.00000E+00
         0.00000E+00
         0.00000E+00
         0.00000E+00
         0.00000E+00
         0.00000E+00
         0.00000E+00
         0.00000E+00
         0.00000E+00
         0.00000E+00
         0.00000E+00
         0.00000E+00
         0.00000E+00
         0.00000E+00
         0.00000E+00
         0.00000E+00
         0.00000E+00
         0.00000E+00
         0.00000E+00
         0.00000E+00
         0.00000E+00
         0.00000E+00
         0.00000E+00
         0.00000E+00
         0.00000E+00
         0.00000E+00
         0.00000E+00
         0.00000E+00
         0.00000E+00
         0.00000E+00
         0.00000E+00
         0.00000E+00
         0.00000E+00
         0.00000E+00
         0.00000E+00
         0.00000E+00
         0.00000E+00
         0.00000E+00
         0.00000E+00
         0.00000E+00
         0.00000E+00
         0.00000E+00
         0.00000E+00
         0.00000E+00
         0.00000E+00
         0.00000E+00
         0.00000E+00
         0.00000E+00
         0.00000E+00
         0.00000E+00
         0.00000E+00
         0.00000E+00
         0.00000E+00
         0.00000E+00
         0.00000E+00
         0.00000E+00
         0.00000E+00
         0.00000E+00
         0.00000E+00
         0.00000E+00
         0.00000E+00
         0.00000E+00
         0.00000E+00
         0.00000E+00
         0.00000E+00
         0.00000E+00
         0.00000E+00
         0.00000E+00
         0.00000E+00
         0.00000E+00
         0.00000E+00
         0.00000E+00
         0.00000E+00
         0.00000E+00
         0.00000E+00
         0.00000E+00
         0.00000E+00
         0.00000E+00
         0.00000E+00
         0.00000E+00
         0.00000E+00
         0.00000E+00
         0.00000E+00
         0.00000E+00
         0.00000E+00
         0.00000E+00
         0.00000E+00
         0.00000E+00
         0.00000E+00
         0.00000E+00
         0.00000E+00
         0.00000E+00
         0.00000E+00
         0.00000E+00
         0.00000E+00
         0.00000E+00
         0.00000E+00
         0.00000E+00
         0.00000E+00
         0.00000E+00
         0.00000E+00
         0.00000E+00
         0.00000E+00
         0.00000E+00
         0.00000E+00
         0.00000E+00
         0.00000E+00
         0.00000E+00
         0.00000E+00
         0.00000E+00
         0.00000E+00
         0.00000E+00
         0.00000E+00
         0.00000E+00
         0.00000E+00
         0.00000E+00
         0.00000E+00
         0.00000E+00
         0.00000E+00
         0.00000E+00
         0.00000E+00
         0.00000E+00
         0.00000E+00
         0.00000E+00
         0.00000E+00
         0.00000E+00
         0.00000E+00
         0.00000E+00
         0.00000E+00
         0.00000E+00
         0.00000E+00
         0.00000E+00
         0.00000E+00
         0.00000E+00
         0.00000E+00
         0.00000E+00
         0.00000E+00
         0.00000E+00
         0.00000E+00
         0.00000E+00
         0.00000E+00
         0.00000E+00
         0.00000E+00
         0.00000E+00
         0.00000E+00
         0.00000E+00
         0.00000E+00
         0.00000E+00
         0.00000E+00
         0.00000E+00
         0.00000E+00
         0.00000E+00
         0.00000E+00
         0.00000E+00
         0.00000E+00
         0.00000E+00
         0.00000E+00
         0.00000E+00
         0.00000E+00
         0.00000E+00
         0.00000E+00
         0.00000E+00
         0.00000E+00
         0.00000E+00
         0.00000E+00
         0.00000E+00
         0.00000E+00
         0.00000E+00
         0.00000E+00
         0.00000E+00
         0.00000E+00
         0.00000E+00
         0.00000E+00
         0.00000E+00
         0.00000E+00
         0.00000E+00
         0.00000E+00
         0.00000E+00
         0.00000E+00
         0.00000E+00
         0.00000E+00
         0.00000E+00
         0.00000E+00
         0.00000E+00
         0.00000E+00
         0.00000E+00
         0.00000E+00
         0.00000E+00
         0.00000E+00
         0.00000E+00
         0.00000E+00
         0.00000E+00
         0.00000E+00
         0.00000E+00
         0.00000E+00
         0.00000E+00
         0.00000E+00
         0.00000E+00
         0.00000E+00
         0.00000E+00
         0.00000E+00
         0.00000E+00
         0.00000E+00
         0.00000E+00
         0.00000E+00
         0.00000E+00
         0.00000E+00
         0.00000E+00
         0.00000E+00
         0.00000E+00
         0.00000E+00
         0.00000E+00
         0.00000E+00
         0.00000E+00
         0.00000E+00
         0.00000E+00
         0.00000E+00
         0.00000E+00
         0.00000E+00
         0.00000E+00
         0.00000E+00
         0.00000E+00
         0.00000E+00
         0.00000E+00
         0.00000E+00
         0.00000E+00
         0.00000E+00
         0.00000E+00
         0.00000E+00
         0.00000E+00
         0.00000E+00
         0.00000E+00
         0.00000E+00
         0.00000E+00
         0.00000E+00
         0.00000E+00
         0.00000E+00
         0.00000E+00
         0.00000E+00
         0.00000E+00
         0.00000E+00
         0.00000E+00
         0.00000E+00
         0.00000E+00
         0.00000E+00
         0.00000E+00
         0.00000E+00
         0.00000E+00
         0.00000E+00
         0.00000E+00
         0.00000E+00
         0.00000E+00
         0.00000E+00
         0.00000E+00
         0.00000E+00
         0.00000E+00
         0.00000E+00
         0.00000E+00
         0.00000E+00
         0.00000E+00
         0.00000E+00
         0.00000E+00
         0.00000E+00
         0.00000E+00
         0.00000E+00
         0.00000E+00
         0.00000E+00
         0.00000E+00
         0.00000E+00
         0.00000E+00
         0.00000E+00
         0.00000E+00
         0.00000E+00
         0.00000E+00
         0.00000E+00
         0.00000E+00
         0.00000E+00
         0.00000E+00
         0.00000E+00
         0.00000E+00
         0.00000E+00
         0.00000E+00
         0.00000E+00
         0.00000E+00
         0.00000E+00
         0.00000E+00
         0.00000E+00
         0.00000E+00
         0.00000E+00
         0.00000E+00
         0.00000E+00
         0.00000E+00
         0.00000E+00
         0.00000E+00
         0.00000E+00
         0.00000E+00
         0.00000E+00
         0.00000E+00
         0.00000E+00
         0.00000E+00
         0.00000E+00
         0.00000E+00
         0.00000E+00
         0.00000E+00
         0.00000E+00
         0.00000E+00
         0.00000E+00
         0.00000E+00
         0.00000E+00
         0.00000E+00
         0.00000E+00
         0.00000E+00
         0.00000E+00
         0.00000E+00
         0.00000E+00
         0.00000E+00
         0.00000E+00
         0.00000E+00
         0.00000E+00
         0.00000E+00
         0.00000E+00
         0.00000E+00
         0.00000E+00
         0.00000E+00
         0.00000E+00
         0.00000E+00
         0.00000E+00
         0.00000E+00
         0.00000E+00
         0.00000E+00
         0.00000E+00
         0.00000E+00
         0.00000E+00
         0.00000E+00
         0.00000E+00
         0.00000E+00
         0.00000E+00
         0.00000E+00
         0.00000E+00
         0.00000E+00
         0.00000E+00
         0.00000E+00
         0.00000E+00
         0.00000E+00
         0.00000E+00
         0.00000E+00
         0.00000E+00
         0.00000E+00
         0.00000E+00
         0.00000E+00
         0.00000E+00
         0.00000E+00
         0.00000E+00
         0.00000E+00
         0.00000E+00
         0.00000E+00
         0.00000E+00
         0.00000E+00
         0.00000E+00
         0.00000E+00
         0.00000E+00
         0.00000E+00
         0.00000E+00
         0.00000E+00
         0.00000E+00
         0.00000E+00
         0.00000E+00
         0.00000E+00
         0.00000E+00
         0.00000E+00
         0.00000E+00
         0.00000E+00
         0.00000E+00
         0.00000E+00
         0.00000E+00
         0.00000E+00
         0.00000E+00
         0.00000E+00
         0.00000E+00
         0.00000E+00
         0.00000E+00
         0.00000E+00
         0.00000E+00
         0.00000E+00
         0.00000E+00
         0.00000E+00
         0.00000E+00
         0.00000E+00
         0.00000E+00
         0.00000E+00
         0.00000E+00
         0.00000E+00
         0.00000E+00
         0.00000E+00
         0.00000E+00
         0.00000E+00
         0.00000E+00
         0.00000E+00
         0.00000E+00
         0.00000E+00
         0.00000E+00
         0.00000E+00
         0.00000E+00
         0.00000E+00
         0.00000E+00
         0.00000E+00
         0.00000E+00
         0.00000E+00
         0.00000E+00
         0.00000E+00
         0.00000E+00
         0.00000E+00
         0.00000E+00
         0.00000E+00
         0.00000E+00
         0.00000E+00
         0.00000E+00
         0.00000E+00
         0.00000E+00
         0.00000E+00
         0.00000E+00
         0.00000E+00
         0.00000E+00
         0.00000E+00
         0.00000E+00
         0.00000E+00
         0.00000E+00
         0.00000E+00
         0.00000E+00
         0.00000E+00
         0.00000E+00
         0.00000E+00
         0.00000E+00
         0.00000E+00
         0.00000E+00
         0.00000E+00
         0.00000E+00
         0.00000E+00
         0.00000E+00
         0.00000E+00
         0.00000E+00
         0.00000E+00
         0.00000E+00
         0.00000E+00
         0.00000E+00
         0.00000E+00
         0.00000E+00
         0.00000E+00
         0.00000E+00
         0.00000E+00
         0.00000E+00
         0.00000E+00
         0.00000E+00
         0.00000E+00
         0.00000E+00
         0.00000E+00
         0.00000E+00
         0.00000E+00
         0.00000E+00
         0.00000E+00
         0.00000E+00
         0.00000E+00
         0.00000E+00
         0.00000E+00
         0.00000E+00
         0.00000E+00
         0.00000E+00
         0.00000E+00
         0.00000E+00
         0.00000E+00
         0.00000E+00
         0.00000E+00
         0.00000E+00
         0.00000E+00
         0.00000E+00
         0.00000E+00
         0.00000E+00
         0.00000E+00
         0.00000E+00
         0.00000E+00
         0.00000E+00
         0.00000E+00
         0.00000E+00
         0.00000E+00
         0.00000E+00
         0.00000E+00
         0.00000E+00
         0.00000E+00
         0.00000E+00
         0.00000E+00
         0.00000E+00
         0.00000E+00
         0.00000E+00
         0.00000E+00
         0.00000E+00
         0.00000E+00
         0.00000E+00
         0.00000E+00
         0.00000E+00
         0.00000E+00
         0.00000E+00
         0.00000E+00
         0.00000E+00
         0.00000E+00
         0.00000E+00
         0.00000E+00
         0.00000E+00
         0.00000E+00
         0.00000E+00
         0.00000E+00
         0.00000E+00
         0.00000E+00
         0.00000E+00
         0.00000E+00
         0.00000E+00
         0.00000E+00
         0.00000E+00
         0.00000E+00
         0.00000E+00
         0.00000E+00
         0.00000E+00
         0.00000E+00
         0.00000E+00
         0.00000E+00
         0.00000E+00
         0.00000E+00
         0.00000E+00
         0.00000E+00
         0.00000E+00
         0.00000E+00
         0.00000E+00
         0.00000E+00
         0.00000E+00
         0.00000E+00
         0.00000E+00
         0.00000E+00
         0.00000E+00
         0.00000E+00
         0.00000E+00
         0.00000E+00
         0.00000E+00
         0.00000E+00
         0.00000E+00
         0.00000E+00
         0.00000E+00
         0.00000E+00
         0.00000E+00
         0.00000E+00
         0.00000E+00
         0.00000E+00
         0.00000E+00
         0.00000E+00
         0.00000E+00
         0.00000E+00
         0.00000E+00
         0.00000E+00
         0.00000E+00
         0.00000E+00
         0.00000E+00
         0.00000E+00
         0.00000E+00
         0.00000E+00
         0.00000E+00
         0.00000E+00
         0.00000E+00
         0.00000E+00
         0.00000E+00
         0.00000E+00
         0.00000E+00
         0.00000E+00
         0.00000E+00
         0.00000E+00
         0.00000E+00
         0.00000E+00
         0.00000E+00
         0.00000E+00
         0.00000E+00
         0.00000E+00
         0.00000E+00
         0.00000E+00
         0.00000E+00
         0.00000E+00
         0.00000E+00
         0.00000E+00
         0.00000E+00
         0.00000E+00
         0.00000E+00
         0.00000E+00
         0.00000E+00
         0.00000E+00
         0.00000E+00
         0.00000E+00
         0.00000E+00
         0.00000E+00
         0.00000E+00
         0.00000E+00
         0.00000E+00
         0.00000E+00
         0.00000E+00
         0.00000E+00
         0.00000E+00
         0.00000E+00
         0.00000E+00
         0.00000E+00
         0.00000E+00
         0.00000E+00
         0.00000E+00
         0.00000E+00
         0.00000E+00
         0.00000E+00
         0.00000E+00
         0.00000E+00
         0.00000E+00
         0.00000E+00
         0.00000E+00
         0.00000E+00
         0.00000E+00
         0.00000E+00
         0.00000E+00
         0.00000E+00
         0.00000E+00
         0.00000E+00
         0.00000E+00
         0.00000E+00
         0.00000E+00
         0.00000E+00
         0.00000E+00
         0.00000E+00
         0.00000E+00
         0.00000E+00
         0.00000E+00
         0.00000E+00
         0.00000E+00
         0.00000E+00
         0.00000E+00
         0.00000E+00
         0.00000E+00
         0.00000E+00
         0.00000E+00
         0.00000E+00
         0.00000E+00
         0.00000E+00
         0.00000E+00
         0.00000E+00
         0.00000E+00
         0.00000E+00
         0.00000E+00
         0.00000E+00
         0.00000E+00
         0.00000E+00
         0.00000E+00
         0.00000E+00
         0.00000E+00
         0.00000E+00
         0.00000E+00
         0.00000E+00
         0.00000E+00
         0.00000E+00
         0.00000E+00
         0.00000E+00
         0.00000E+00
         0.00000E+00
         0.00000E+00
         0.00000E+00
         0.00000E+00
         0.00000E+00
         0.00000E+00
         0.00000E+00
         0.00000E+00
         0.00000E+00
         0.00000E+00
         0.00000E+00
         0.00000E+00
         0.00000E+00
         0.00000E+00
         0.00000E+00
         0.00000E+00
         0.00000E+00
         0.00000E+00
         0.00000E+00
         0.00000E+00
         0.00000E+00
         0.00000E+00
         0.00000E+00
         0.00000E+00
         0.00000E+00
         0.00000E+00
         0.00000E+00
         0.00000E+00
         0.00000E+00
         0.00000E+00
         0.00000E+00
         0.00000E+00
         0.00000E+00
         0.00000E+00
         0.00000E+00
         0.00000E+00
         0.00000E+00
         0.00000E+00
         0.00000E+00
         0.00000E+00
         0.00000E+00
         0.00000E+00
         0.00000E+00
         0.00000E+00
         0.00000E+00
         0.00000E+00
         0.00000E+00
         0.00000E+00
         0.00000E+00
         0.00000E+00
         0.00000E+00
         0.00000E+00
         0.00000E+00
         0.00000E+00
         0.00000E+00
         0.00000E+00
         0.00000E+00
         0.00000E+00
         0.00000E+00
         0.00000E+00
         0.00000E+00
         0.00000E+00
         0.00000E+00
         0.00000E+00
         0.00000E+00
         0.00000E+00
         0.00000E+00
         0.00000E+00
         0.00000E+00
         0.00000E+00
         0.00000E+00
         0.00000E+00
         0.00000E+00
         0.00000E+00
         0.00000E+00
         0.00000E+00
         0.00000E+00
         0.00000E+00
         0.00000E+00
         0.00000E+00
         0.00000E+00
         0.00000E+00
         0.00000E+00
         0.00000E+00
         0.00000E+00
         0.00000E+00
         0.00000E+00
         0.00000E+00
         0.00000E+00
         0.00000E+00
         0.00000E+00
         0.00000E+00
         0.00000E+00
         0.00000E+00
         0.00000E+00
         0.00000E+00
         0.00000E+00
         0.00000E+00
         0.00000E+00
         0.00000E+00
         0.00000E+00
         0.00000E+00
         0.00000E+00
         0.00000E+00
         0.00000E+00
         0.00000E+00
         0.00000E+00
         0.00000E+00
         0.00000E+00
         0.00000E+00
         0.00000E+00
         0.00000E+00
         0.00000E+00
         0.00000E+00
         0.00000E+00
         0.00000E+00
         0.00000E+00
         0.00000E+00
         0.00000E+00
         0.00000E+00
         0.00000E+00
         0.00000E+00
         0.00000E+00
         0.00000E+00
         0.00000E+00
         0.00000E+00
         0.00000E+00
         0.00000E+00
         0.00000E+00
         0.00000E+00
         0.00000E+00
         0.00000E+00
         0.00000E+00
         0.00000E+00
         0.00000E+00
         0.00000E+00
         0.00000E+00
         0.00000E+00
         0.00000E+00
         0.00000E+00
         0.00000E+00
         0.00000E+00
         0.00000E+00
         0.00000E+00
         0.00000E+00
         0.00000E+00
         0.00000E+00
         0.00000E+00
         0.00000E+00
         0.00000E+00
         0.00000E+00
         0.00000E+00
         0.00000E+00
         0.00000E+00
         0.00000E+00
         0.00000E+00
         0.00000E+00
         0.00000E+00
         0.00000E+00
         0.00000E+00
         0.00000E+00
         0.00000E+00
         0.00000E+00
         0.00000E+00
         0.00000E+00
         0.00000E+00
         0.00000E+00
         0.00000E+00
         0.00000E+00
         0.00000E+00
         0.00000E+00
         0.00000E+00
         0.00000E+00
         0.00000E+00
         0.00000E+00
         0.00000E+00
         0.00000E+00
         0.00000E+00
         0.00000E+00
         0.00000E+00
         0.00000E+00
         0.00000E+00
         0.00000E+00
         0.00000E+00
         0.00000E+00
         0.00000E+00
         0.00000E+00
         0.00000E+00
         0.00000E+00
         0.00000E+00
         0.00000E+00
         0.00000E+00
         0.00000E+00
         0.00000E+00
         0.00000E+00
         0.00000E+00
         0.00000E+00
         0.00000E+00
         0.00000E+00
         0.00000E+00
         0.00000E+00
         0.00000E+00
         0.00000E+00
         0.00000E+00
         0.00000E+00
         0.00000E+00
         0.00000E+00
         0.00000E+00
         0.00000E+00
         0.00000E+00
         0.00000E+00
         0.00000E+00
         0.00000E+00
         0.00000E+00
         0.00000E+00
         0.00000E+00
         0.00000E+00
         0.00000E+00
         0.00000E+00
         0.00000E+00
         0.00000E+00
         0.00000E+00
         0.00000E+00
         0.00000E+00
         0.00000E+00
         0.00000E+00
         0.00000E+00
         0.00000E+00
         0.00000E+00
         0.00000E+00
         0.00000E+00
         0.00000E+00
         0.00000E+00
         0.00000E+00
         0.00000E+00
         0.00000E+00
         0.00000E+00
         0.00000E+00
         0.00000E+00
         0.00000E+00
         0.00000E+00
         0.00000E+00
         0.00000E+00
         0.00000E+00
         0.00000E+00
         0.00000E+00
         0.00000E+00
         0.00000E+00
         0.00000E+00
         0.00000E+00
         0.00000E+00
         0.00000E+00
         0.00000E+00
         0.00000E+00
         0.00000E+00
         0.00000E+00
         0.00000E+00
         0.00000E+00
         0.00000E+00
         0.00000E+00
         0.00000E+00
         0.00000E+00
         0.00000E+00
         0.00000E+00
         0.00000E+00
         0.00000E+00
         0.00000E+00
         0.00000E+00
         0.00000E+00
         0.00000E+00
         0.00000E+00
         0.00000E+00
         0.00000E+00
         0.00000E+00
         0.00000E+00
         0.00000E+00
         0.00000E+00
         0.00000E+00
         0.00000E+00
         0.00000E+00
         0.00000E+00
         0.00000E+00
         0.00000E+00
         0.00000E+00
         0.00000E+00
         0.00000E+00
         0.00000E+00
         0.00000E+00
         0.00000E+00
         0.00000E+00
         0.00000E+00
         0.00000E+00
         0.00000E+00
         0.00000E+00
         0.00000E+00
         0.00000E+00
         0.00000E+00
         0.00000E+00
         0.00000E+00
         0.00000E+00
         0.00000E+00
         0.00000E+00
         0.00000E+00
         0.00000E+00
         0.00000E+00
         0.00000E+00
         0.00000E+00
         0.00000E+00
         0.00000E+00
         0.00000E+00
         0.00000E+00
         0.00000E+00
         0.00000E+00
         0.00000E+00
         0.00000E+00
         0.00000E+00
         0.00000E+00
         0.00000E+00
         0.00000E+00
         0.00000E+00
         0.00000E+00
         0.00000E+00
         0.00000E+00
         0.00000E+00
         0.00000E+00
         0.00000E+00
         0.00000E+00
         0.00000E+00
         0.00000E+00
         0.00000E+00
         0.00000E+00
         0.00000E+00
         0.00000E+00
         0.00000E+00
         0.00000E+00
         0.00000E+00
         0.00000E+00
         0.00000E+00
         0.00000E+00
         0.00000E+00
         0.00000E+00
         0.00000E+00
         0.00000E+00
         0.00000E+00
         0.00000E+00
         0.00000E+00
         0.00000E+00
         0.00000E+00
         0.00000E+00
         0.00000E+00
         0.00000E+00
         0.00000E+00
         0.00000E+00
         0.00000E+00
         0.00000E+00
         0.00000E+00
         0.00000E+00
         0.00000E+00
         0.00000E+00
         0.00000E+00
         0.00000E+00
         0.00000E+00
         0.00000E+00
         0.00000E+00
         0.00000E+00
         0.00000E+00
         0.00000E+00
         0.00000E+00
         0.00000E+00
         0.00000E+00
         0.00000E+00
         0.00000E+00
         0.00000E+00
         0.00000E+00
         0.00000E+00
         0.00000E+00
         0.00000E+00
         0.00000E+00
         0.00000E+00
         0.00000E+00
         0.00000E+00
         0.00000E+00
         0.00000E+00
         0.00000E+00
         0.00000E+00
         0.00000E+00
         0.00000E+00
         0.00000E+00
         0.00000E+00
         0.00000E+00
         0.00000E+00
         0.00000E+00
         0.00000E+00
         0.00000E+00
         0.00000E+00
         0.00000E+00
         0.00000E+00
         0.00000E+00
         0.00000E+00
         0.00000E+00
         0.00000E+00
         0.00000E+00
         0.00000E+00
         0.00000E+00
         0.00000E+00
         0.00000E+00
         0.00000E+00
         0.00000E+00
         0.00000E+00
         0.00000E+00
         0.00000E+00
         0.00000E+00
         0.00000E+00
         0.00000E+00
         0.00000E+00
         0.00000E+00
         0.00000E+00
         0.00000E+00
         0.00000E+00
         0.00000E+00
         0.00000E+00
         0.00000E+00
         0.00000E+00
         0.00000E+00
         0.00000E+00
         0.00000E+00
         0.00000E+00
         0.00000E+00
         0.00000E+00
         0.00000E+00
         0.00000E+00
         0.00000E+00
         0.00000E+00
         0.00000E+00
         0.00000E+00
         0.00000E+00
         0.00000E+00
         0.00000E+00
         0.00000E+00
         0.00000E+00
         0.00000E+00
         0.00000E+00
         0.00000E+00
         0.00000E+00
         0.00000E+00
         0.00000E+00
         0.00000E+00
         0.00000E+00
         0.00000E+00
         0.00000E+00
         0.00000E+00
         0.00000E+00
         0.00000E+00
         0.00000E+00
         0.00000E+00
         0.00000E+00
         0.00000E+00
         0.00000E+00
         0.00000E+00
         0.00000E+00
         0.00000E+00
         0.00000E+00
         0.00000E+00
         0.00000E+00
         0.00000E+00
         0.00000E+00
         0.00000E+00
         0.00000E+00
         0.00000E+00
         0.00000E+00
         0.00000E+00
         0.00000E+00
         0.00000E+00
         0.00000E+00
         0.00000E+00
         0.00000E+00
         0.00000E+00
         0.00000E+00
         0.00000E+00
         0.00000E+00
         0.00000E+00
         0.00000E+00
         0.00000E+00
         0.00000E+00
         0.00000E+00
         0.00000E+00
         0.00000E+00
         0.00000E+00
         0.00000E+00
         0.00000E+00
         0.00000E+00
         0.00000E+00
         0.00000E+00
         0.00000E+00
         0.00000E+00
         0.00000E+00
         0.00000E+00
         0.00000E+00
         0.00000E+00
         0.00000E+00
         0.00000E+00
         0.00000E+00
         0.00000E+00
         0.00000E+00
         0.00000E+00
         0.00000E+00
         0.00000E+00
         0.00000E+00
         0.00000E+00
         0.00000E+00
         0.00000E+00
         0.00000E+00
         0.00000E+00
         0.00000E+00
         0.00000E+00
         0.00000E+00
         0.00000E+00
         0.00000E+00
         0.00000E+00
         0.00000E+00
         0.00000E+00
         0.00000E+00
         0.00000E+00
         0.00000E+00
         0.00000E+00
         0.00000E+00
         0.00000E+00
         0.00000E+00
         0.00000E+00
         0.00000E+00
         0.00000E+00
         0.00000E+00
         0.00000E+00
         0.00000E+00
         0.00000E+00
         0.00000E+00
         0.00000E+00
         0.00000E+00
         0.00000E+00
         0.00000E+00
         0.00000E+00
         0.00000E+00
         0.00000E+00
         0.00000E+00
         0.00000E+00
         0.00000E+00
         0.00000E+00
         0.00000E+00
         0.00000E+00
         0.00000E+00
         0.00000E+00
         0.00000E+00
         0.00000E+00
         0.00000E+00
         0.00000E+00
         0.00000E+00
         0.00000E+00
         0.00000E+00
         0.00000E+00
         0.00000E+00
         0.00000E+00
         0.00000E+00
         0.00000E+00
         0.00000E+00
         0.00000E+00
         0.00000E+00
         0.00000E+00
         0.00000E+00
         0.00000E+00
         0.00000E+00
         0.00000E+00
         0.00000E+00
         0.00000E+00
         0.00000E+00
         0.00000E+00
         0.00000E+00
         0.00000E+00
         0.00000E+00
         0.00000E+00
         0.00000E+00
         0.00000E+00
         0.00000E+00
         0.00000E+00
         0.00000E+00
         0.00000E+00
         0.00000E+00
         0.00000E+00
         0.00000E+00
         0.00000E+00
         0.00000E+00
         0.00000E+00
         0.00000E+00
         0.00000E+00
         0.00000E+00
         0.00000E+00
         0.00000E+00
         0.00000E+00
         0.00000E+00
         0.00000E+00
         0.00000E+00
         0.00000E+00
         0.00000E+00
  
SCALARS                init_velocity_y  double 1
LOOKUP_TABLE default
         0.00000E+00
         0.00000E+00
         0.00000E+00
         0.00000E+00
         0.00000E+00
         0.00000E+00
         0.00000E+00
         0.00000E+00
         0.00000E+00
         0.00000E+00
         0.00000E+00
         0.00000E+00
         0.00000E+00
         0.00000E+00
         0.00000E+00
         0.00000E+00
         0.00000E+00
         0.00000E+00
         0.00000E+00
         0.00000E+00
         0.00000E+00
         0.00000E+00
         0.00000E+00
         0.00000E+00
         0.00000E+00
         0.00000E+00
         0.00000E+00
         0.00000E+00
         0.00000E+00
         0.00000E+00
         0.00000E+00
         0.00000E+00
         0.00000E+00
         0.00000E+00
         0.00000E+00
         0.00000E+00
         0.00000E+00
         0.00000E+00
         0.00000E+00
         0.00000E+00
         0.00000E+00
         0.00000E+00
         0.00000E+00
         0.00000E+00
         0.00000E+00
         0.00000E+00
         0.00000E+00
         0.00000E+00
         0.00000E+00
         0.00000E+00
         0.00000E+00
         0.00000E+00
         0.00000E+00
         0.00000E+00
         0.00000E+00
         0.00000E+00
         0.00000E+00
         0.00000E+00
         0.00000E+00
         0.00000E+00
         0.00000E+00
         0.00000E+00
         0.00000E+00
         0.00000E+00
         0.00000E+00
         0.00000E+00
         0.00000E+00
         0.00000E+00
         0.00000E+00
         0.00000E+00
         0.00000E+00
         0.00000E+00
         0.00000E+00
         0.00000E+00
         0.00000E+00
         0.00000E+00
         0.00000E+00
         0.00000E+00
         0.00000E+00
         0.00000E+00
         0.00000E+00
         0.00000E+00
         0.00000E+00
         0.00000E+00
         0.00000E+00
         0.00000E+00
         0.00000E+00
         0.00000E+00
         0.00000E+00
         0.00000E+00
         0.00000E+00
         0.00000E+00
         0.00000E+00
         0.00000E+00
         0.00000E+00
         0.00000E+00
         0.00000E+00
         0.00000E+00
         0.00000E+00
         0.00000E+00
         0.00000E+00
         0.00000E+00
         0.00000E+00
         0.00000E+00
         0.00000E+00
         0.00000E+00
         0.00000E+00
         0.00000E+00
         0.00000E+00
         0.00000E+00
         0.00000E+00
         0.00000E+00
         0.00000E+00
         0.00000E+00
         0.00000E+00
         0.00000E+00
         0.00000E+00
         0.00000E+00
         0.00000E+00
         0.00000E+00
         0.00000E+00
         0.00000E+00
         0.00000E+00
         0.00000E+00
         0.00000E+00
         0.00000E+00
         0.00000E+00
         0.00000E+00
         0.00000E+00
         0.00000E+00
         0.00000E+00
         0.00000E+00
         0.00000E+00
         0.00000E+00
         0.00000E+00
         0.00000E+00
         0.00000E+00
         0.00000E+00
         0.00000E+00
         0.00000E+00
         0.00000E+00
         0.00000E+00
         0.00000E+00
         0.00000E+00
         0.00000E+00
         0.00000E+00
         0.00000E+00
         0.00000E+00
         0.00000E+00
         0.00000E+00
         0.00000E+00
         0.00000E+00
         0.00000E+00
         0.00000E+00
         0.00000E+00
         0.00000E+00
         0.00000E+00
         0.00000E+00
         0.00000E+00
         0.00000E+00
         0.00000E+00
         0.00000E+00
         0.00000E+00
         0.00000E+00
         0.00000E+00
         0.00000E+00
         0.00000E+00
         0.00000E+00
         0.00000E+00
         0.00000E+00
         0.00000E+00
         0.00000E+00
         0.00000E+00
         0.00000E+00
         0.00000E+00
         0.00000E+00
         0.00000E+00
         0.00000E+00
         0.00000E+00
         0.00000E+00
         0.00000E+00
         0.00000E+00
         0.00000E+00
         0.00000E+00
         0.00000E+00
         0.00000E+00
         0.00000E+00
         0.00000E+00
         0.00000E+00
         0.00000E+00
         0.00000E+00
         0.00000E+00
         0.00000E+00
         0.00000E+00
         0.00000E+00
         0.00000E+00
         0.00000E+00
         0.00000E+00
         0.00000E+00
         0.00000E+00
         0.00000E+00
         0.00000E+00
         0.00000E+00
         0.00000E+00
         0.00000E+00
         0.00000E+00
         0.00000E+00
         0.00000E+00
         0.00000E+00
         0.00000E+00
         0.00000E+00
         0.00000E+00
         0.00000E+00
         0.00000E+00
         0.00000E+00
         0.00000E+00
         0.00000E+00
         0.00000E+00
         0.00000E+00
         0.00000E+00
         0.00000E+00
         0.00000E+00
         0.00000E+00
         0.00000E+00
         0.00000E+00
         0.00000E+00
         0.00000E+00
         0.00000E+00
         0.00000E+00
         0.00000E+00
         0.00000E+00
         0.00000E+00
         0.00000E+00
         0.00000E+00
         0.00000E+00
         0.00000E+00
         0.00000E+00
         0.00000E+00
         0.00000E+00
         0.00000E+00
         0.00000E+00
         0.00000E+00
         0.00000E+00
         0.00000E+00
         0.00000E+00
         0.00000E+00
         0.00000E+00
         0.00000E+00
         0.00000E+00
         0.00000E+00
         0.00000E+00
         0.00000E+00
         0.00000E+00
         0.00000E+00
         0.00000E+00
         0.00000E+00
         0.00000E+00
         0.00000E+00
         0.00000E+00
         0.00000E+00
         0.00000E+00
         0.00000E+00
         0.00000E+00
         0.00000E+00
         0.00000E+00
         0.00000E+00
         0.00000E+00
         0.00000E+00
         0.00000E+00
         0.00000E+00
         0.00000E+00
         0.00000E+00
         0.00000E+00
         0.00000E+00
         0.00000E+00
         0.00000E+00
         0.00000E+00
         0.00000E+00
         0.00000E+00
         0.00000E+00
         0.00000E+00
         0.00000E+00
         0.00000E+00
         0.00000E+00
         0.00000E+00
         0.00000E+00
         0.00000E+00
         0.00000E+00
         0.00000E+00
         0.00000E+00
         0.00000E+00
         0.00000E+00
         0.00000E+00
         0.00000E+00
         0.00000E+00
         0.00000E+00
         0.00000E+00
         0.00000E+00
         0.00000E+00
         0.00000E+00
         0.00000E+00
         0.00000E+00
         0.00000E+00
         0.00000E+00
         0.00000E+00
         0.00000E+00
         0.00000E+00
         0.00000E+00
         0.00000E+00
         0.00000E+00
         0.00000E+00
         0.00000E+00
         0.00000E+00
         0.00000E+00
         0.00000E+00
         0.00000E+00
         0.00000E+00
         0.00000E+00
         0.00000E+00
         0.00000E+00
         0.00000E+00
         0.00000E+00
         0.00000E+00
         0.00000E+00
         0.00000E+00
         0.00000E+00
         0.00000E+00
         0.00000E+00
         0.00000E+00
         0.00000E+00
         0.00000E+00
         0.00000E+00
         0.00000E+00
         0.00000E+00
         0.00000E+00
         0.00000E+00
         0.00000E+00
         0.00000E+00
         0.00000E+00
         0.00000E+00
         0.00000E+00
         0.00000E+00
         0.00000E+00
         0.00000E+00
         0.00000E+00
         0.00000E+00
         0.00000E+00
         0.00000E+00
         0.00000E+00
         0.00000E+00
         0.00000E+00
         0.00000E+00
         0.00000E+00
         0.00000E+00
         0.00000E+00
         0.00000E+00
         0.00000E+00
         0.00000E+00
         0.00000E+00
         0.00000E+00
         0.00000E+00
         0.00000E+00
         0.00000E+00
         0.00000E+00
         0.00000E+00
         0.00000E+00
         0.00000E+00
         0.00000E+00
         0.00000E+00
         0.00000E+00
         0.00000E+00
         0.00000E+00
         0.00000E+00
         0.00000E+00
         0.00000E+00
         0.00000E+00
         0.00000E+00
         0.00000E+00
         0.00000E+00
         0.00000E+00
         0.00000E+00
         0.00000E+00
         0.00000E+00
         0.00000E+00
         0.00000E+00
         0.00000E+00
         0.00000E+00
         0.00000E+00
         0.00000E+00
         0.00000E+00
         0.00000E+00
         0.00000E+00
         0.00000E+00
         0.00000E+00
         0.00000E+00
         0.00000E+00
         0.00000E+00
         0.00000E+00
         0.00000E+00
         0.00000E+00
         0.00000E+00
         0.00000E+00
         0.00000E+00
         0.00000E+00
         0.00000E+00
         0.00000E+00
         0.00000E+00
         0.00000E+00
         0.00000E+00
         0.00000E+00
         0.00000E+00
         0.00000E+00
         0.00000E+00
         0.00000E+00
         0.00000E+00
         0.00000E+00
         0.00000E+00
         0.00000E+00
         0.00000E+00
         0.00000E+00
         0.00000E+00
         0.00000E+00
         0.00000E+00
         0.00000E+00
         0.00000E+00
         0.00000E+00
         0.00000E+00
         0.00000E+00
         0.00000E+00
         0.00000E+00
         0.00000E+00
         0.00000E+00
         0.00000E+00
         0.00000E+00
         0.00000E+00
         0.00000E+00
         0.00000E+00
         0.00000E+00
         0.00000E+00
         0.00000E+00
         0.00000E+00
         0.00000E+00
         0.00000E+00
         0.00000E+00
         0.00000E+00
         0.00000E+00
         0.00000E+00
         0.00000E+00
         0.00000E+00
         0.00000E+00
         0.00000E+00
         0.00000E+00
         0.00000E+00
         0.00000E+00
         0.00000E+00
         0.00000E+00
         0.00000E+00
         0.00000E+00
         0.00000E+00
         0.00000E+00
         0.00000E+00
         0.00000E+00
         0.00000E+00
         0.00000E+00
         0.00000E+00
         0.00000E+00
         0.00000E+00
         0.00000E+00
         0.00000E+00
         0.00000E+00
         0.00000E+00
         0.00000E+00
         0.00000E+00
         0.00000E+00
         0.00000E+00
         0.00000E+00
         0.00000E+00
         0.00000E+00
         0.00000E+00
         0.00000E+00
         0.00000E+00
         0.00000E+00
         0.00000E+00
         0.00000E+00
         0.00000E+00
         0.00000E+00
         0.00000E+00
         0.00000E+00
         0.00000E+00
         0.00000E+00
         0.00000E+00
         0.00000E+00
         0.00000E+00
         0.00000E+00
         0.00000E+00
         0.00000E+00
         0.00000E+00
         0.00000E+00
         0.00000E+00
         0.00000E+00
         0.00000E+00
         0.00000E+00
         0.00000E+00
         0.00000E+00
         0.00000E+00
         0.00000E+00
         0.00000E+00
         0.00000E+00
         0.00000E+00
         0.00000E+00
         0.00000E+00
         0.00000E+00
         0.00000E+00
         0.00000E+00
         0.00000E+00
         0.00000E+00
         0.00000E+00
         0.00000E+00
         0.00000E+00
         0.00000E+00
         0.00000E+00
         0.00000E+00
         0.00000E+00
         0.00000E+00
         0.00000E+00
         0.00000E+00
         0.00000E+00
         0.00000E+00
         0.00000E+00
         0.00000E+00
         0.00000E+00
         0.00000E+00
         0.00000E+00
         0.00000E+00
         0.00000E+00
         0.00000E+00
         0.00000E+00
         0.00000E+00
         0.00000E+00
         0.00000E+00
         0.00000E+00
         0.00000E+00
         0.00000E+00
         0.00000E+00
         0.00000E+00
         0.00000E+00
         0.00000E+00
         0.00000E+00
         0.00000E+00
         0.00000E+00
         0.00000E+00
         0.00000E+00
         0.00000E+00
         0.00000E+00
         0.00000E+00
         0.00000E+00
         0.00000E+00
         0.00000E+00
         0.00000E+00
         0.00000E+00
         0.00000E+00
         0.00000E+00
         0.00000E+00
         0.00000E+00
         0.00000E+00
         0.00000E+00
         0.00000E+00
         0.00000E+00
         0.00000E+00
         0.00000E+00
         0.00000E+00
         0.00000E+00
         0.00000E+00
         0.00000E+00
         0.00000E+00
         0.00000E+00
         0.00000E+00
         0.00000E+00
         0.00000E+00
         0.00000E+00
         0.00000E+00
         0.00000E+00
         0.00000E+00
         0.00000E+00
         0.00000E+00
         0.00000E+00
         0.00000E+00
         0.00000E+00
         0.00000E+00
         0.00000E+00
         0.00000E+00
         0.00000E+00
         0.00000E+00
         0.00000E+00
         0.00000E+00
         0.00000E+00
         0.00000E+00
         0.00000E+00
         0.00000E+00
         0.00000E+00
         0.00000E+00
         0.00000E+00
         0.00000E+00
         0.00000E+00
         0.00000E+00
         0.00000E+00
         0.00000E+00
         0.00000E+00
         0.00000E+00
         0.00000E+00
         0.00000E+00
         0.00000E+00
         0.00000E+00
         0.00000E+00
         0.00000E+00
         0.00000E+00
         0.00000E+00
         0.00000E+00
         0.00000E+00
         0.00000E+00
         0.00000E+00
         0.00000E+00
         0.00000E+00
         0.00000E+00
         0.00000E+00
         0.00000E+00
         0.00000E+00
         0.00000E+00
         0.00000E+00
         0.00000E+00
         0.00000E+00
         0.00000E+00
         0.00000E+00
         0.00000E+00
         0.00000E+00
         0.00000E+00
         0.00000E+00
         0.00000E+00
         0.00000E+00
         0.00000E+00
         0.00000E+00
         0.00000E+00
         0.00000E+00
         0.00000E+00
         0.00000E+00
         0.00000E+00
         0.00000E+00
         0.00000E+00
         0.00000E+00
         0.00000E+00
         0.00000E+00
         0.00000E+00
         0.00000E+00
         0.00000E+00
         0.00000E+00
         0.00000E+00
         0.00000E+00
         0.00000E+00
         0.00000E+00
         0.00000E+00
         0.00000E+00
         0.00000E+00
         0.00000E+00
         0.00000E+00
         0.00000E+00
         0.00000E+00
         0.00000E+00
         0.00000E+00
         0.00000E+00
         0.00000E+00
         0.00000E+00
         0.00000E+00
         0.00000E+00
         0.00000E+00
         0.00000E+00
         0.00000E+00
         0.00000E+00
         0.00000E+00
         0.00000E+00
         0.00000E+00
         0.00000E+00
         0.00000E+00
         0.00000E+00
         0.00000E+00
         0.00000E+00
         0.00000E+00
         0.00000E+00
         0.00000E+00
         0.00000E+00
         0.00000E+00
         0.00000E+00
         0.00000E+00
         0.00000E+00
         0.00000E+00
         0.00000E+00
         0.00000E+00
         0.00000E+00
         0.00000E+00
         0.00000E+00
         0.00000E+00
         0.00000E+00
         0.00000E+00
         0.00000E+00
         0.00000E+00
         0.00000E+00
         0.00000E+00
         0.00000E+00
         0.00000E+00
         0.00000E+00
         0.00000E+00
         0.00000E+00
         0.00000E+00
         0.00000E+00
         0.00000E+00
         0.00000E+00
         0.00000E+00
         0.00000E+00
         0.00000E+00
         0.00000E+00
         0.00000E+00
         0.00000E+00
         0.00000E+00
         0.00000E+00
         0.00000E+00
         0.00000E+00
         0.00000E+00
         0.00000E+00
         0.00000E+00
         0.00000E+00
         0.00000E+00
         0.00000E+00
         0.00000E+00
         0.00000E+00
         0.00000E+00
         0.00000E+00
         0.00000E+00
         0.00000E+00
         0.00000E+00
         0.00000E+00
         0.00000E+00
         0.00000E+00
         0.00000E+00
         0.00000E+00
         0.00000E+00
         0.00000E+00
         0.00000E+00
         0.00000E+00
         0.00000E+00
         0.00000E+00
         0.00000E+00
         0.00000E+00
         0.00000E+00
         0.00000E+00
         0.00000E+00
         0.00000E+00
         0.00000E+00
         0.00000E+00
         0.00000E+00
         0.00000E+00
         0.00000E+00
         0.00000E+00
         0.00000E+00
         0.00000E+00
         0.00000E+00
         0.00000E+00
         0.00000E+00
         0.00000E+00
         0.00000E+00
         0.00000E+00
         0.00000E+00
         0.00000E+00
         0.00000E+00
         0.00000E+00
         0.00000E+00
         0.00000E+00
         0.00000E+00
         0.00000E+00
         0.00000E+00
         0.00000E+00
         0.00000E+00
         0.00000E+00
         0.00000E+00
         0.00000E+00
         0.00000E+00
         0.00000E+00
         0.00000E+00
         0.00000E+00
         0.00000E+00
         0.00000E+00
         0.00000E+00
         0.00000E+00
         0.00000E+00
         0.00000E+00
         0.00000E+00
         0.00000E+00
         0.00000E+00
         0.00000E+00
         0.00000E+00
         0.00000E+00
         0.00000E+00
         0.00000E+00
         0.00000E+00
         0.00000E+00
         0.00000E+00
         0.00000E+00
         0.00000E+00
         0.00000E+00
         0.00000E+00
         0.00000E+00
         0.00000E+00
         0.00000E+00
         0.00000E+00
         0.00000E+00
         0.00000E+00
         0.00000E+00
         0.00000E+00
         0.00000E+00
         0.00000E+00
         0.00000E+00
         0.00000E+00
         0.00000E+00
         0.00000E+00
         0.00000E+00
         0.00000E+00
         0.00000E+00
         0.00000E+00
         0.00000E+00
         0.00000E+00
         0.00000E+00
         0.00000E+00
         0.00000E+00
         0.00000E+00
         0.00000E+00
         0.00000E+00
         0.00000E+00
         0.00000E+00
         0.00000E+00
         0.00000E+00
         0.00000E+00
         0.00000E+00
         0.00000E+00
         0.00000E+00
         0.00000E+00
         0.00000E+00
         0.00000E+00
         0.00000E+00
         0.00000E+00
         0.00000E+00
         0.00000E+00
         0.00000E+00
         0.00000E+00
         0.00000E+00
         0.00000E+00
         0.00000E+00
         0.00000E+00
         0.00000E+00
         0.00000E+00
         0.00000E+00
         0.00000E+00
         0.00000E+00
         0.00000E+00
         0.00000E+00
         0.00000E+00
         0.00000E+00
         0.00000E+00
         0.00000E+00
         0.00000E+00
         0.00000E+00
         0.00000E+00
         0.00000E+00
         0.00000E+00
         0.00000E+00
         0.00000E+00
         0.00000E+00
         0.00000E+00
         0.00000E+00
         0.00000E+00
         0.00000E+00
         0.00000E+00
         0.00000E+00
         0.00000E+00
         0.00000E+00
         0.00000E+00
         0.00000E+00
         0.00000E+00
         0.00000E+00
         0.00000E+00
         0.00000E+00
         0.00000E+00
         0.00000E+00
         0.00000E+00
         0.00000E+00
         0.00000E+00
         0.00000E+00
         0.00000E+00
         0.00000E+00
         0.00000E+00
         0.00000E+00
         0.00000E+00
         0.00000E+00
         0.00000E+00
         0.00000E+00
         0.00000E+00
         0.00000E+00
         0.00000E+00
         0.00000E+00
         0.00000E+00
         0.00000E+00
         0.00000E+00
         0.00000E+00
         0.00000E+00
         0.00000E+00
         0.00000E+00
         0.00000E+00
         0.00000E+00
         0.00000E+00
         0.00000E+00
         0.00000E+00
         0.00000E+00
         0.00000E+00
         0.00000E+00
         0.00000E+00
         0.00000E+00
         0.00000E+00
         0.00000E+00
         0.00000E+00
         0.00000E+00
         0.00000E+00
         0.00000E+00
         0.00000E+00
         0.00000E+00
         0.00000E+00
         0.00000E+00
         0.00000E+00
         0.00000E+00
         0.00000E+00
         0.00000E+00
         0.00000E+00
         0.00000E+00
         0.00000E+00
         0.00000E+00
         0.00000E+00
         0.00000E+00
         0.00000E+00
         0.00000E+00
         0.00000E+00
         0.00000E+00
         0.00000E+00
         0.00000E+00
         0.00000E+00
         0.00000E+00
         0.00000E+00
         0.00000E+00
         0.00000E+00
         0.00000E+00
         0.00000E+00
         0.00000E+00
         0.00000E+00
         0.00000E+00
         0.00000E+00
         0.00000E+00
         0.00000E+00
         0.00000E+00
         0.00000E+00
         0.00000E+00
         0.00000E+00
         0.00000E+00
         0.00000E+00
         0.00000E+00
         0.00000E+00
         0.00000E+00
         0.00000E+00
         0.00000E+00
         0.00000E+00
         0.00000E+00
         0.00000E+00
         0.00000E+00
         0.00000E+00
         0.00000E+00
         0.00000E+00
         0.00000E+00
         0.00000E+00
         0.00000E+00
         0.00000E+00
         0.00000E+00
         0.00000E+00
         0.00000E+00
         0.00000E+00
         0.00000E+00
         0.00000E+00
         0.00000E+00
         0.00000E+00
         0.00000E+00
         0.00000E+00
         0.00000E+00
         0.00000E+00
         0.00000E+00
         0.00000E+00
         0.00000E+00
         0.00000E+00
         0.00000E+00
         0.00000E+00
         0.00000E+00
         0.00000E+00
         0.00000E+00
         0.00000E+00
         0.00000E+00
         0.00000E+00
         0.00000E+00
         0.00000E+00
         0.00000E+00
         0.00000E+00
         0.00000E+00
         0.00000E+00
         0.00000E+00
         0.00000E+00
         0.00000E+00
         0.00000E+00
         0.00000E+00
         0.00000E+00
         0.00000E+00
         0.00000E+00
         0.00000E+00
         0.00000E+00
         0.00000E+00
         0.00000E+00
         0.00000E+00
         0.00000E+00
         0.00000E+00
         0.00000E+00
         0.00000E+00
         0.00000E+00
         0.00000E+00
         0.00000E+00
         0.00000E+00
         0.00000E+00
         0.00000E+00
         0.00000E+00
         0.00000E+00
         0.00000E+00
         0.00000E+00
         0.00000E+00
         0.00000E+00
         0.00000E+00
         0.00000E+00
         0.00000E+00
         0.00000E+00
         0.00000E+00
         0.00000E+00
         0.00000E+00
         0.00000E+00
         0.00000E+00
         0.00000E+00
         0.00000E+00
         0.00000E+00
         0.00000E+00
         0.00000E+00
         0.00000E+00
         0.00000E+00
         0.00000E+00
         0.00000E+00
         0.00000E+00
         0.00000E+00
         0.00000E+00
         0.00000E+00
         0.00000E+00
         0.00000E+00
         0.00000E+00
         0.00000E+00
         0.00000E+00
         0.00000E+00
         0.00000E+00
         0.00000E+00
         0.00000E+00
         0.00000E+00
         0.00000E+00
         0.00000E+00
         0.00000E+00
         0.00000E+00
         0.00000E+00
         0.00000E+00
         0.00000E+00
         0.00000E+00
         0.00000E+00
         0.00000E+00
         0.00000E+00
         0.00000E+00
         0.00000E+00
         0.00000E+00
         0.00000E+00
         0.00000E+00
         0.00000E+00
         0.00000E+00
         0.00000E+00
         0.00000E+00
         0.00000E+00
         0.00000E+00
         0.00000E+00
         0.00000E+00
         0.00000E+00
         0.00000E+00
         0.00000E+00
         0.00000E+00
         0.00000E+00
         0.00000E+00
         0.00000E+00
         0.00000E+00
         0.00000E+00
         0.00000E+00
         0.00000E+00
         0.00000E+00
         0.00000E+00
         0.00000E+00
         0.00000E+00
         0.00000E+00
         0.00000E+00
         0.00000E+00
         0.00000E+00
         0.00000E+00
         0.00000E+00
         0.00000E+00
         0.00000E+00
         0.00000E+00
         0.00000E+00
         0.00000E+00
         0.00000E+00
         0.00000E+00
         0.00000E+00
         0.00000E+00
         0.00000E+00
         0.00000E+00
         0.00000E+00
         0.00000E+00
         0.00000E+00
         0.00000E+00
         0.00000E+00
         0.00000E+00
         0.00000E+00
         0.00000E+00
         0.00000E+00
         0.00000E+00
         0.00000E+00
         0.00000E+00
         0.00000E+00
         0.00000E+00
         0.00000E+00
         0.00000E+00
         0.00000E+00
         0.00000E+00
         0.00000E+00
         0.00000E+00
         0.00000E+00
         0.00000E+00
         0.00000E+00
         0.00000E+00
         0.00000E+00
         0.00000E+00
         0.00000E+00
         0.00000E+00
         0.00000E+00
         0.00000E+00
         0.00000E+00
         0.00000E+00
         0.00000E+00
         0.00000E+00
         0.00000E+00
         0.00000E+00
         0.00000E+00
         0.00000E+00
         0.00000E+00
         0.00000E+00
         0.00000E+00
         0.00000E+00
         0.00000E+00
         0.00000E+00
         0.00000E+00
         0.00000E+00
         0.00000E+00
         0.00000E+00
         0.00000E+00
         0.00000E+00
         0.00000E+00
         0.00000E+00
         0.00000E+00
         0.00000E+00
         0.00000E+00
         0.00000E+00
         0.00000E+00
         0.00000E+00
         0.00000E+00
         0.00000E+00
         0.00000E+00
         0.00000E+00
         0.00000E+00
         0.00000E+00
         0.00000E+00
         0.00000E+00
         0.00000E+00
         0.00000E+00
         0.00000E+00
         0.00000E+00
         0.00000E+00
         0.00000E+00
         0.00000E+00
         0.00000E+00
         0.00000E+00
         0.00000E+00
         0.00000E+00
         0.00000E+00
         0.00000E+00
         0.00000E+00
         0.00000E+00
         0.00000E+00
         0.00000E+00
         0.00000E+00
         0.00000E+00
         0.00000E+00
         0.00000E+00
         0.00000E+00
         0.00000E+00
         0.00000E+00
         0.00000E+00
         0.00000E+00
         0.00000E+00
         0.00000E+00
         0.00000E+00
         0.00000E+00
         0.00000E+00
         0.00000E+00
         0.00000E+00
         0.00000E+00
         0.00000E+00
         0.00000E+00
         0.00000E+00
         0.00000E+00
         0.00000E+00
         0.00000E+00
         0.00000E+00
         0.00000E+00
         0.00000E+00
         0.00000E+00
         0.00000E+00
         0.00000E+00
         0.00000E+00
         0.00000E+00
         0.00000E+00
         0.00000E+00
         0.00000E+00
         0.00000E+00
         0.00000E+00
         0.00000E+00
         0.00000E+00
         0.00000E+00
         0.00000E+00
         0.00000E+00
         0.00000E+00
         0.00000E+00
         0.00000E+00
         0.00000E+00
         0.00000E+00
         0.00000E+00
         0.00000E+00
         0.00000E+00
         0.00000E+00
         0.00000E+00
         0.00000E+00
         0.00000E+00
         0.00000E+00
         0.00000E+00
         0.00000E+00
         0.00000E+00
         0.00000E+00
         0.00000E+00
         0.00000E+00
         0.00000E+00
         0.00000E+00
         0.00000E+00
         0.00000E+00
         0.00000E+00
         0.00000E+00
         0.00000E+00
         0.00000E+00
         0.00000E+00
         0.00000E+00
         0.00000E+00
         0.00000E+00
         0.00000E+00
         0.00000E+00
         0.00000E+00
         0.00000E+00
         0.00000E+00
         0.00000E+00
         0.00000E+00
         0.00000E+00
         0.00000E+00
         0.00000E+00
         0.00000E+00
         0.00000E+00
         0.00000E+00
         0.00000E+00
         0.00000E+00
         0.00000E+00
         0.00000E+00
         0.00000E+00
         0.00000E+00
         0.00000E+00
         0.00000E+00
         0.00000E+00
         0.00000E+00
         0.00000E+00
         0.00000E+00
         0.00000E+00
         0.00000E+00
         0.00000E+00
         0.00000E+00
         0.00000E+00
         0.00000E+00
         0.00000E+00
         0.00000E+00
         0.00000E+00
         0.00000E+00
         0.00000E+00
         0.00000E+00
         0.00000E+00
         0.00000E+00
         0.00000E+00
         0.00000E+00
         0.00000E+00
         0.00000E+00
         0.00000E+00
         0.00000E+00
         0.00000E+00
         0.00000E+00
         0.00000E+00
         0.00000E+00
         0.00000E+00
         0.00000E+00
         0.00000E+00
         0.00000E+00
         0.00000E+00
         0.00000E+00
         0.00000E+00
         0.00000E+00
         0.00000E+00
         0.00000E+00
         0.00000E+00
         0.00000E+00
         0.00000E+00
         0.00000E+00
         0.00000E+00
         0.00000E+00
         0.00000E+00
         0.00000E+00
         0.00000E+00
         0.00000E+00
         0.00000E+00
         0.00000E+00
         0.00000E+00
         0.00000E+00
         0.00000E+00
         0.00000E+00
         0.00000E+00
         0.00000E+00
         0.00000E+00
         0.00000E+00
         0.00000E+00
         0.00000E+00
         0.00000E+00
         0.00000E+00
         0.00000E+00
         0.00000E+00
         0.00000E+00
         0.00000E+00
         0.00000E+00
         0.00000E+00
         0.00000E+00
         0.00000E+00
         0.00000E+00
         0.00000E+00
         0.00000E+00
         0.00000E+00
         0.00000E+00
         0.00000E+00
         0.00000E+00
         0.00000E+00
         0.00000E+00
         0.00000E+00
         0.00000E+00
         0.00000E+00
         0.00000E+00
         0.00000E+00
         0.00000E+00
         0.00000E+00
         0.00000E+00
         0.00000E+00
         0.00000E+00
         0.00000E+00
         0.00000E+00
         0.00000E+00
         0.00000E+00
         0.00000E+00
         0.00000E+00
         0.00000E+00
         0.00000E+00
         0.00000E+00
         0.00000E+00
         0.00000E+00
         0.00000E+00
         0.00000E+00
         0.00000E+00
         0.00000E+00
         0.00000E+00
         0.00000E+00
         0.00000E+00
         0.00000E+00
         0.00000E+00
         0.00000E+00
         0.00000E+00
         0.00000E+00
         0.00000E+00
         0.00000E+00
         0.00000E+00
         0.00000E+00
         0.00000E+00
         0.00000E+00
         0.00000E+00
         0.00000E+00
         0.00000E+00
         0.00000E+00
         0.00000E+00
         0.00000E+00
         0.00000E+00
         0.00000E+00
         0.00000E+00
         0.00000E+00
         0.00000E+00
         0.00000E+00
         0.00000E+00
         0.00000E+00
         0.00000E+00
         0.00000E+00
         0.00000E+00
         0.00000E+00
         0.00000E+00
         0.00000E+00
         0.00000E+00
         0.00000E+00
         0.00000E+00
         0.00000E+00
         0.00000E+00
         0.00000E+00
         0.00000E+00
         0.00000E+00
         0.00000E+00
         0.00000E+00
         0.00000E+00
         0.00000E+00
         0.00000E+00
         0.00000E+00
         0.00000E+00
         0.00000E+00
         0.00000E+00
         0.00000E+00
         0.00000E+00
         0.00000E+00
         0.00000E+00
         0.00000E+00
         0.00000E+00
         0.00000E+00
         0.00000E+00
         0.00000E+00
         0.00000E+00
         0.00000E+00
         0.00000E+00
         0.00000E+00
         0.00000E+00
         0.00000E+00
         0.00000E+00
         0.00000E+00
         0.00000E+00
         0.00000E+00
         0.00000E+00
         0.00000E+00
         0.00000E+00
         0.00000E+00
         0.00000E+00
         0.00000E+00
         0.00000E+00
         0.00000E+00
         0.00000E+00
         0.00000E+00
         0.00000E+00
         0.00000E+00
         0.00000E+00
         0.00000E+00
         0.00000E+00
         0.00000E+00
         0.00000E+00
         0.00000E+00
         0.00000E+00
         0.00000E+00
         0.00000E+00
         0.00000E+00
         0.00000E+00
         0.00000E+00
         0.00000E+00
         0.00000E+00
         0.00000E+00
         0.00000E+00
         0.00000E+00
         0.00000E+00
         0.00000E+00
         0.00000E+00
         0.00000E+00
         0.00000E+00
         0.00000E+00
         0.00000E+00
         0.00000E+00
         0.00000E+00
         0.00000E+00
         0.00000E+00
         0.00000E+00
         0.00000E+00
         0.00000E+00
         0.00000E+00
         0.00000E+00
         0.00000E+00
         0.00000E+00
         0.00000E+00
         0.00000E+00
         0.00000E+00
         0.00000E+00
         0.00000E+00
         0.00000E+00
         0.00000E+00
         0.00000E+00
         0.00000E+00
         0.00000E+00
         0.00000E+00
         0.00000E+00
         0.00000E+00
         0.00000E+00
         0.00000E+00
         0.00000E+00
         0.00000E+00
         0.00000E+00
         0.00000E+00
         0.00000E+00
         0.00000E+00
         0.00000E+00
         0.00000E+00
         0.00000E+00
         0.00000E+00
         0.00000E+00
         0.00000E+00
         0.00000E+00
         0.00000E+00
         0.00000E+00
         0.00000E+00
         0.00000E+00
         0.00000E+00
         0.00000E+00
         0.00000E+00
         0.00000E+00
         0.00000E+00
         0.00000E+00
         0.00000E+00
         0.00000E+00
         0.00000E+00
         0.00000E+00
         0.00000E+00
         0.00000E+00
         0.00000E+00
         0.00000E+00
         0.00000E+00
         0.00000E+00
         0.00000E+00
         0.00000E+00
         0.00000E+00
         0.00000E+00
         0.00000E+00
         0.00000E+00
         0.00000E+00
         0.00000E+00
         0.00000E+00
         0.00000E+00
         0.00000E+00
         0.00000E+00
         0.00000E+00
         0.00000E+00
         0.00000E+00
         0.00000E+00
         0.00000E+00
         0.00000E+00
         0.00000E+00
         0.00000E+00
         0.00000E+00
         0.00000E+00
         0.00000E+00
         0.00000E+00
         0.00000E+00
         0.00000E+00
         0.00000E+00
         0.00000E+00
         0.00000E+00
         0.00000E+00
         0.00000E+00
         0.00000E+00
         0.00000E+00
         0.00000E+00
         0.00000E+00
         0.00000E+00
         0.00000E+00
         0.00000E+00
         0.00000E+00
         0.00000E+00
         0.00000E+00
         0.00000E+00
         0.00000E+00
         0.00000E+00
         0.00000E+00
         0.00000E+00
         0.00000E+00
         0.00000E+00
         0.00000E+00
         0.00000E+00
         0.00000E+00
         0.00000E+00
         0.00000E+00
         0.00000E+00
         0.00000E+00
         0.00000E+00
         0.00000E+00
         0.00000E+00
         0.00000E+00
         0.00000E+00
         0.00000E+00
         0.00000E+00
         0.00000E+00
         0.00000E+00
         0.00000E+00
         0.00000E+00
         0.00000E+00
         0.00000E+00
         0.00000E+00
         0.00000E+00
         0.00000E+00
         0.00000E+00
         0.00000E+00
         0.00000E+00
         0.00000E+00
         0.00000E+00
         0.00000E+00
         0.00000E+00
         0.00000E+00
         0.00000E+00
         0.00000E+00
         0.00000E+00
         0.00000E+00
         0.00000E+00
         0.00000E+00
         0.00000E+00
         0.00000E+00
         0.00000E+00
         0.00000E+00
         0.00000E+00
         0.00000E+00
         0.00000E+00
         0.00000E+00
         0.00000E+00
         0.00000E+00
         0.00000E+00
         0.00000E+00
         0.00000E+00
         0.00000E+00
         0.00000E+00
         0.00000E+00
         0.00000E+00
         0.00000E+00
         0.00000E+00
         0.00000E+00
         0.00000E+00
         0.00000E+00
         0.00000E+00
         0.00000E+00
         0.00000E+00
         0.00000E+00
         0.00000E+00
         0.00000E+00
         0.00000E+00
         0.00000E+00
         0.00000E+00
         0.00000E+00
         0.00000E+00
         0.00000E+00
         0.00000E+00
         0.00000E+00
         0.00000E+00
         0.00000E+00
         0.00000E+00
         0.00000E+00
         0.00000E+00
         0.00000E+00
         0.00000E+00
         0.00000E+00
         0.00000E+00
         0.00000E+00
         0.00000E+00
         0.00000E+00
         0.00000E+00
         0.00000E+00
         0.00000E+00
         0.00000E+00
         0.00000E+00
         0.00000E+00
         0.00000E+00
         0.00000E+00
         0.00000E+00
         0.00000E+00
         0.00000E+00
         0.00000E+00
         0.00000E+00
         0.00000E+00
         0.00000E+00
         0.00000E+00
         0.00000E+00
         0.00000E+00
         0.00000E+00
         0.00000E+00
         0.00000E+00
         0.00000E+00
         0.00000E+00
         0.00000E+00
         0.00000E+00
         0.00000E+00
         0.00000E+00
         0.00000E+00
         0.00000E+00
         0.00000E+00
         0.00000E+00
         0.00000E+00
         0.00000E+00
         0.00000E+00
         0.00000E+00
         0.00000E+00
         0.00000E+00
         0.00000E+00
         0.00000E+00
         0.00000E+00
         0.00000E+00
         0.00000E+00
         0.00000E+00
         0.00000E+00
         0.00000E+00
         0.00000E+00
         0.00000E+00
         0.00000E+00
         0.00000E+00
         0.00000E+00
         0.00000E+00
         0.00000E+00
         0.00000E+00
         0.00000E+00
         0.00000E+00
         0.00000E+00
         0.00000E+00
         0.00000E+00
         0.00000E+00
         0.00000E+00
         0.00000E+00
         0.00000E+00
         0.00000E+00
         0.00000E+00
         0.00000E+00
         0.00000E+00
         0.00000E+00
         0.00000E+00
         0.00000E+00
         0.00000E+00
         0.00000E+00
         0.00000E+00
         0.00000E+00
         0.00000E+00
         0.00000E+00
         0.00000E+00
         0.00000E+00
         0.00000E+00
         0.00000E+00
         0.00000E+00
         0.00000E+00
         0.00000E+00
         0.00000E+00
         0.00000E+00
         0.00000E+00
         0.00000E+00
         0.00000E+00
         0.00000E+00
         0.00000E+00
         0.00000E+00
         0.00000E+00
         0.00000E+00
         0.00000E+00
         0.00000E+00
         0.00000E+00
         0.00000E+00
         0.00000E+00
         0.00000E+00
         0.00000E+00
         0.00000E+00
         0.00000E+00
         0.00000E+00
         0.00000E+00
         0.00000E+00
         0.00000E+00
         0.00000E+00
         0.00000E+00
         0.00000E+00
         0.00000E+00
         0.00000E+00
         0.00000E+00
         0.00000E+00
         0.00000E+00
         0.00000E+00
         0.00000E+00
         0.00000E+00
         0.00000E+00
         0.00000E+00
         0.00000E+00
         0.00000E+00
         0.00000E+00
         0.00000E+00
         0.00000E+00
         0.00000E+00
         0.00000E+00
         0.00000E+00
         0.00000E+00
         0.00000E+00
         0.00000E+00
         0.00000E+00
         0.00000E+00
         0.00000E+00
         0.00000E+00
         0.00000E+00
         0.00000E+00
         0.00000E+00
         0.00000E+00
         0.00000E+00
         0.00000E+00
         0.00000E+00
         0.00000E+00
         0.00000E+00
         0.00000E+00
         0.00000E+00
         0.00000E+00
         0.00000E+00
         0.00000E+00
         0.00000E+00
         0.00000E+00
         0.00000E+00
         0.00000E+00
         0.00000E+00
         0.00000E+00
         0.00000E+00
         0.00000E+00
         0.00000E+00
         0.00000E+00
         0.00000E+00
         0.00000E+00
         0.00000E+00
         0.00000E+00
         0.00000E+00
         0.00000E+00
         0.00000E+00
         0.00000E+00
         0.00000E+00
         0.00000E+00
         0.00000E+00
         0.00000E+00
         0.00000E+00
         0.00000E+00
         0.00000E+00
         0.00000E+00
         0.00000E+00
         0.00000E+00
         0.00000E+00
         0.00000E+00
         0.00000E+00
         0.00000E+00
         0.00000E+00
         0.00000E+00
         0.00000E+00
         0.00000E+00
         0.00000E+00
         0.00000E+00
         0.00000E+00
         0.00000E+00
         0.00000E+00
         0.00000E+00
         0.00000E+00
         0.00000E+00
         0.00000E+00
         0.00000E+00
         0.00000E+00
         0.00000E+00
         0.00000E+00
         0.00000E+00
         0.00000E+00
         0.00000E+00
         0.00000E+00
         0.00000E+00
         0.00000E+00
         0.00000E+00
         0.00000E+00
         0.00000E+00
         0.00000E+00
         0.00000E+00
         0.00000E+00
         0.00000E+00
         0.00000E+00
         0.00000E+00
         0.00000E+00
         0.00000E+00
         0.00000E+00
         0.00000E+00
         0.00000E+00
         0.00000E+00
         0.00000E+00
         0.00000E+00
         0.00000E+00
         0.00000E+00
         0.00000E+00
         0.00000E+00
         0.00000E+00
         0.00000E+00
         0.00000E+00
         0.00000E+00
         0.00000E+00
         0.00000E+00
         0.00000E+00
         0.00000E+00
         0.00000E+00
         0.00000E+00
         0.00000E+00
         0.00000E+00
         0.00000E+00
         0.00000E+00
         0.00000E+00
         0.00000E+00
         0.00000E+00
         0.00000E+00
  
SCALARS                init_velocity_z  double 1
LOOKUP_TABLE default
        -0.37300E+03
        -0.37300E+03
        -0.37300E+03
        -0.37300E+03
        -0.37300E+03
        -0.37300E+03
        -0.37300E+03
        -0.37300E+03
        -0.37300E+03
        -0.37300E+03
        -0.37300E+03
        -0.37300E+03
        -0.37300E+03
        -0.37300E+03
        -0.37300E+03
        -0.37300E+03
        -0.37300E+03
        -0.37300E+03
        -0.37300E+03
        -0.37300E+03
        -0.37300E+03
        -0.37300E+03
        -0.37300E+03
        -0.37300E+03
        -0.37300E+03
        -0.37300E+03
        -0.37300E+03
        -0.37300E+03
        -0.37300E+03
        -0.37300E+03
        -0.37300E+03
        -0.37300E+03
        -0.37300E+03
        -0.37300E+03
        -0.37300E+03
        -0.37300E+03
        -0.37300E+03
        -0.37300E+03
        -0.37300E+03
        -0.37300E+03
        -0.37300E+03
        -0.37300E+03
        -0.37300E+03
        -0.37300E+03
        -0.37300E+03
        -0.37300E+03
        -0.37300E+03
        -0.37300E+03
        -0.37300E+03
        -0.37300E+03
        -0.37300E+03
        -0.37300E+03
        -0.37300E+03
        -0.37300E+03
        -0.37300E+03
        -0.37300E+03
        -0.37300E+03
        -0.37300E+03
        -0.37300E+03
        -0.37300E+03
        -0.37300E+03
        -0.37300E+03
        -0.37300E+03
        -0.37300E+03
        -0.37300E+03
        -0.37300E+03
        -0.37300E+03
        -0.37300E+03
        -0.37300E+03
        -0.37300E+03
        -0.37300E+03
        -0.37300E+03
        -0.37300E+03
        -0.37300E+03
        -0.37300E+03
        -0.37300E+03
        -0.37300E+03
        -0.37300E+03
        -0.37300E+03
        -0.37300E+03
        -0.37300E+03
        -0.37300E+03
        -0.37300E+03
        -0.37300E+03
        -0.37300E+03
        -0.37300E+03
        -0.37300E+03
        -0.37300E+03
        -0.37300E+03
        -0.37300E+03
        -0.37300E+03
        -0.37300E+03
        -0.37300E+03
        -0.37300E+03
        -0.37300E+03
        -0.37300E+03
        -0.37300E+03
        -0.37300E+03
        -0.37300E+03
        -0.37300E+03
        -0.37300E+03
        -0.37300E+03
        -0.37300E+03
        -0.37300E+03
        -0.37300E+03
        -0.37300E+03
        -0.37300E+03
        -0.37300E+03
        -0.37300E+03
        -0.37300E+03
        -0.37300E+03
        -0.37300E+03
        -0.37300E+03
        -0.37300E+03
        -0.37300E+03
        -0.37300E+03
        -0.37300E+03
        -0.37300E+03
        -0.37300E+03
        -0.37300E+03
        -0.37300E+03
        -0.37300E+03
        -0.37300E+03
        -0.37300E+03
        -0.37300E+03
        -0.37300E+03
        -0.37300E+03
        -0.37300E+03
        -0.37300E+03
        -0.37300E+03
        -0.37300E+03
        -0.37300E+03
        -0.37300E+03
        -0.37300E+03
        -0.37300E+03
        -0.37300E+03
        -0.37300E+03
        -0.37300E+03
        -0.37300E+03
        -0.37300E+03
        -0.37300E+03
        -0.37300E+03
        -0.37300E+03
        -0.37300E+03
        -0.37300E+03
        -0.37300E+03
        -0.37300E+03
        -0.37300E+03
        -0.37300E+03
        -0.37300E+03
        -0.37300E+03
        -0.37300E+03
        -0.37300E+03
        -0.37300E+03
        -0.37300E+03
        -0.37300E+03
        -0.37300E+03
        -0.37300E+03
        -0.37300E+03
        -0.37300E+03
        -0.37300E+03
        -0.37300E+03
        -0.37300E+03
        -0.37300E+03
        -0.37300E+03
        -0.37300E+03
        -0.37300E+03
        -0.37300E+03
        -0.37300E+03
        -0.37300E+03
        -0.37300E+03
        -0.37300E+03
        -0.37300E+03
        -0.37300E+03
        -0.37300E+03
        -0.37300E+03
        -0.37300E+03
        -0.37300E+03
        -0.37300E+03
        -0.37300E+03
        -0.37300E+03
        -0.37300E+03
        -0.37300E+03
        -0.37300E+03
        -0.37300E+03
        -0.37300E+03
        -0.37300E+03
        -0.37300E+03
        -0.37300E+03
        -0.37300E+03
        -0.37300E+03
        -0.37300E+03
        -0.37300E+03
        -0.37300E+03
        -0.37300E+03
        -0.37300E+03
        -0.37300E+03
        -0.37300E+03
        -0.37300E+03
        -0.37300E+03
        -0.37300E+03
        -0.37300E+03
        -0.37300E+03
        -0.37300E+03
        -0.37300E+03
        -0.37300E+03
        -0.37300E+03
        -0.37300E+03
        -0.37300E+03
        -0.37300E+03
        -0.37300E+03
        -0.37300E+03
        -0.37300E+03
        -0.37300E+03
        -0.37300E+03
        -0.37300E+03
        -0.37300E+03
        -0.37300E+03
        -0.37300E+03
        -0.37300E+03
        -0.37300E+03
        -0.37300E+03
        -0.37300E+03
        -0.37300E+03
        -0.37300E+03
        -0.37300E+03
        -0.37300E+03
        -0.37300E+03
        -0.37300E+03
        -0.37300E+03
        -0.37300E+03
        -0.37300E+03
        -0.37300E+03
        -0.37300E+03
        -0.37300E+03
        -0.37300E+03
        -0.37300E+03
        -0.37300E+03
        -0.37300E+03
        -0.37300E+03
        -0.37300E+03
        -0.37300E+03
        -0.37300E+03
        -0.37300E+03
        -0.37300E+03
        -0.37300E+03
        -0.37300E+03
        -0.37300E+03
        -0.37300E+03
        -0.37300E+03
        -0.37300E+03
        -0.37300E+03
        -0.37300E+03
        -0.37300E+03
        -0.37300E+03
        -0.37300E+03
        -0.37300E+03
        -0.37300E+03
        -0.37300E+03
        -0.37300E+03
        -0.37300E+03
        -0.37300E+03
        -0.37300E+03
        -0.37300E+03
        -0.37300E+03
        -0.37300E+03
        -0.37300E+03
        -0.37300E+03
        -0.37300E+03
        -0.37300E+03
        -0.37300E+03
        -0.37300E+03
        -0.37300E+03
        -0.37300E+03
        -0.37300E+03
        -0.37300E+03
        -0.37300E+03
        -0.37300E+03
        -0.37300E+03
        -0.37300E+03
        -0.37300E+03
        -0.37300E+03
        -0.37300E+03
        -0.37300E+03
        -0.37300E+03
        -0.37300E+03
        -0.37300E+03
        -0.37300E+03
        -0.37300E+03
        -0.37300E+03
        -0.37300E+03
        -0.37300E+03
        -0.37300E+03
        -0.37300E+03
        -0.37300E+03
        -0.37300E+03
        -0.37300E+03
        -0.37300E+03
        -0.37300E+03
        -0.37300E+03
        -0.37300E+03
        -0.37300E+03
        -0.37300E+03
        -0.37300E+03
        -0.37300E+03
        -0.37300E+03
        -0.37300E+03
        -0.37300E+03
        -0.37300E+03
        -0.37300E+03
        -0.37300E+03
        -0.37300E+03
        -0.37300E+03
        -0.37300E+03
        -0.37300E+03
        -0.37300E+03
        -0.37300E+03
        -0.37300E+03
        -0.37300E+03
        -0.37300E+03
        -0.37300E+03
        -0.37300E+03
        -0.37300E+03
        -0.37300E+03
        -0.37300E+03
        -0.37300E+03
        -0.37300E+03
        -0.37300E+03
        -0.37300E+03
        -0.37300E+03
        -0.37300E+03
        -0.37300E+03
        -0.37300E+03
        -0.37300E+03
        -0.37300E+03
        -0.37300E+03
        -0.37300E+03
        -0.37300E+03
        -0.37300E+03
        -0.37300E+03
        -0.37300E+03
        -0.37300E+03
        -0.37300E+03
        -0.37300E+03
        -0.37300E+03
        -0.37300E+03
        -0.37300E+03
        -0.37300E+03
        -0.37300E+03
        -0.37300E+03
        -0.37300E+03
        -0.37300E+03
        -0.37300E+03
        -0.37300E+03
        -0.37300E+03
        -0.37300E+03
        -0.37300E+03
        -0.37300E+03
        -0.37300E+03
        -0.37300E+03
        -0.37300E+03
        -0.37300E+03
        -0.37300E+03
        -0.37300E+03
        -0.37300E+03
        -0.37300E+03
        -0.37300E+03
        -0.37300E+03
        -0.37300E+03
        -0.37300E+03
        -0.37300E+03
        -0.37300E+03
        -0.37300E+03
        -0.37300E+03
        -0.37300E+03
        -0.37300E+03
        -0.37300E+03
        -0.37300E+03
        -0.37300E+03
        -0.37300E+03
        -0.37300E+03
        -0.37300E+03
        -0.37300E+03
        -0.37300E+03
        -0.37300E+03
        -0.37300E+03
        -0.37300E+03
        -0.37300E+03
        -0.37300E+03
        -0.37300E+03
        -0.37300E+03
        -0.37300E+03
        -0.37300E+03
        -0.37300E+03
        -0.37300E+03
        -0.37300E+03
        -0.37300E+03
        -0.37300E+03
        -0.37300E+03
        -0.37300E+03
        -0.37300E+03
        -0.37300E+03
        -0.37300E+03
        -0.37300E+03
        -0.37300E+03
        -0.37300E+03
        -0.37300E+03
        -0.37300E+03
        -0.37300E+03
        -0.37300E+03
        -0.37300E+03
        -0.37300E+03
        -0.37300E+03
        -0.37300E+03
        -0.37300E+03
        -0.37300E+03
        -0.37300E+03
        -0.37300E+03
        -0.37300E+03
        -0.37300E+03
        -0.37300E+03
        -0.37300E+03
        -0.37300E+03
        -0.37300E+03
        -0.37300E+03
        -0.37300E+03
        -0.37300E+03
        -0.37300E+03
        -0.37300E+03
        -0.37300E+03
        -0.37300E+03
        -0.37300E+03
        -0.37300E+03
        -0.37300E+03
        -0.37300E+03
        -0.37300E+03
        -0.37300E+03
        -0.37300E+03
        -0.37300E+03
        -0.37300E+03
        -0.37300E+03
        -0.37300E+03
        -0.37300E+03
        -0.37300E+03
        -0.37300E+03
        -0.37300E+03
        -0.37300E+03
        -0.37300E+03
        -0.37300E+03
        -0.37300E+03
        -0.37300E+03
        -0.37300E+03
        -0.37300E+03
        -0.37300E+03
        -0.37300E+03
        -0.37300E+03
        -0.37300E+03
        -0.37300E+03
        -0.37300E+03
        -0.37300E+03
        -0.37300E+03
        -0.37300E+03
        -0.37300E+03
        -0.37300E+03
        -0.37300E+03
        -0.37300E+03
        -0.37300E+03
        -0.37300E+03
        -0.37300E+03
        -0.37300E+03
        -0.37300E+03
        -0.37300E+03
        -0.37300E+03
        -0.37300E+03
        -0.37300E+03
        -0.37300E+03
        -0.37300E+03
        -0.37300E+03
        -0.37300E+03
        -0.37300E+03
        -0.37300E+03
        -0.37300E+03
        -0.37300E+03
        -0.37300E+03
        -0.37300E+03
        -0.37300E+03
        -0.37300E+03
        -0.37300E+03
        -0.37300E+03
        -0.37300E+03
        -0.37300E+03
        -0.37300E+03
        -0.37300E+03
        -0.37300E+03
        -0.37300E+03
        -0.37300E+03
        -0.37300E+03
        -0.37300E+03
        -0.37300E+03
        -0.37300E+03
        -0.37300E+03
        -0.37300E+03
        -0.37300E+03
        -0.37300E+03
        -0.37300E+03
        -0.37300E+03
        -0.37300E+03
        -0.37300E+03
        -0.37300E+03
        -0.37300E+03
        -0.37300E+03
        -0.37300E+03
        -0.37300E+03
        -0.37300E+03
        -0.37300E+03
        -0.37300E+03
        -0.37300E+03
        -0.37300E+03
        -0.37300E+03
        -0.37300E+03
        -0.37300E+03
        -0.37300E+03
        -0.37300E+03
        -0.37300E+03
        -0.37300E+03
        -0.37300E+03
        -0.37300E+03
        -0.37300E+03
        -0.37300E+03
        -0.37300E+03
        -0.37300E+03
        -0.37300E+03
        -0.37300E+03
        -0.37300E+03
        -0.37300E+03
        -0.37300E+03
        -0.37300E+03
        -0.37300E+03
        -0.37300E+03
        -0.37300E+03
        -0.37300E+03
        -0.37300E+03
        -0.37300E+03
        -0.37300E+03
        -0.37300E+03
        -0.37300E+03
        -0.37300E+03
        -0.37300E+03
        -0.37300E+03
        -0.37300E+03
        -0.37300E+03
        -0.37300E+03
        -0.37300E+03
        -0.37300E+03
        -0.37300E+03
        -0.37300E+03
        -0.37300E+03
        -0.37300E+03
        -0.37300E+03
        -0.37300E+03
        -0.37300E+03
        -0.37300E+03
        -0.37300E+03
        -0.37300E+03
        -0.37300E+03
        -0.37300E+03
        -0.37300E+03
        -0.37300E+03
        -0.37300E+03
        -0.37300E+03
        -0.37300E+03
        -0.37300E+03
        -0.37300E+03
        -0.37300E+03
        -0.37300E+03
        -0.37300E+03
        -0.37300E+03
        -0.37300E+03
        -0.37300E+03
        -0.37300E+03
        -0.37300E+03
        -0.37300E+03
        -0.37300E+03
        -0.37300E+03
        -0.37300E+03
        -0.37300E+03
        -0.37300E+03
        -0.37300E+03
        -0.37300E+03
        -0.37300E+03
        -0.37300E+03
        -0.37300E+03
        -0.37300E+03
        -0.37300E+03
        -0.37300E+03
        -0.37300E+03
        -0.37300E+03
        -0.37300E+03
        -0.37300E+03
        -0.37300E+03
        -0.37300E+03
        -0.37300E+03
        -0.37300E+03
        -0.37300E+03
        -0.37300E+03
        -0.37300E+03
        -0.37300E+03
        -0.37300E+03
        -0.37300E+03
        -0.37300E+03
        -0.37300E+03
        -0.37300E+03
        -0.37300E+03
        -0.37300E+03
        -0.37300E+03
        -0.37300E+03
        -0.37300E+03
        -0.37300E+03
        -0.37300E+03
        -0.37300E+03
        -0.37300E+03
        -0.37300E+03
        -0.37300E+03
        -0.37300E+03
        -0.37300E+03
        -0.37300E+03
        -0.37300E+03
        -0.37300E+03
        -0.37300E+03
        -0.37300E+03
        -0.37300E+03
        -0.37300E+03
        -0.37300E+03
        -0.37300E+03
        -0.37300E+03
        -0.37300E+03
        -0.37300E+03
        -0.37300E+03
        -0.37300E+03
        -0.37300E+03
        -0.37300E+03
        -0.37300E+03
        -0.37300E+03
        -0.37300E+03
        -0.37300E+03
        -0.37300E+03
        -0.37300E+03
        -0.37300E+03
        -0.37300E+03
        -0.37300E+03
        -0.37300E+03
        -0.37300E+03
        -0.37300E+03
        -0.37300E+03
        -0.37300E+03
        -0.37300E+03
        -0.37300E+03
        -0.37300E+03
        -0.37300E+03
        -0.37300E+03
        -0.37300E+03
        -0.37300E+03
        -0.37300E+03
        -0.37300E+03
        -0.37300E+03
        -0.37300E+03
        -0.37300E+03
        -0.37300E+03
        -0.37300E+03
        -0.37300E+03
        -0.37300E+03
        -0.37300E+03
        -0.37300E+03
        -0.37300E+03
        -0.37300E+03
        -0.37300E+03
        -0.37300E+03
        -0.37300E+03
        -0.37300E+03
        -0.37300E+03
        -0.37300E+03
        -0.37300E+03
        -0.37300E+03
        -0.37300E+03
        -0.37300E+03
        -0.37300E+03
        -0.37300E+03
        -0.37300E+03
        -0.37300E+03
        -0.37300E+03
        -0.37300E+03
        -0.37300E+03
        -0.37300E+03
        -0.37300E+03
        -0.37300E+03
        -0.37300E+03
        -0.37300E+03
        -0.37300E+03
        -0.37300E+03
        -0.37300E+03
        -0.37300E+03
        -0.37300E+03
        -0.37300E+03
        -0.37300E+03
        -0.37300E+03
        -0.37300E+03
        -0.37300E+03
        -0.37300E+03
        -0.37300E+03
        -0.37300E+03
        -0.37300E+03
        -0.37300E+03
        -0.37300E+03
        -0.37300E+03
        -0.37300E+03
        -0.37300E+03
        -0.37300E+03
        -0.37300E+03
        -0.37300E+03
        -0.37300E+03
        -0.37300E+03
        -0.37300E+03
        -0.37300E+03
        -0.37300E+03
        -0.37300E+03
        -0.37300E+03
        -0.37300E+03
        -0.37300E+03
        -0.37300E+03
        -0.37300E+03
        -0.37300E+03
        -0.37300E+03
        -0.37300E+03
        -0.37300E+03
        -0.37300E+03
        -0.37300E+03
        -0.37300E+03
        -0.37300E+03
        -0.37300E+03
        -0.37300E+03
        -0.37300E+03
        -0.37300E+03
        -0.37300E+03
        -0.37300E+03
        -0.37300E+03
        -0.37300E+03
        -0.37300E+03
        -0.37300E+03
        -0.37300E+03
        -0.37300E+03
        -0.37300E+03
        -0.37300E+03
        -0.37300E+03
        -0.37300E+03
        -0.37300E+03
        -0.37300E+03
        -0.37300E+03
        -0.37300E+03
        -0.37300E+03
        -0.37300E+03
        -0.37300E+03
        -0.37300E+03
        -0.37300E+03
        -0.37300E+03
        -0.37300E+03
        -0.37300E+03
        -0.37300E+03
        -0.37300E+03
        -0.37300E+03
        -0.37300E+03
        -0.37300E+03
        -0.37300E+03
        -0.37300E+03
        -0.37300E+03
        -0.37300E+03
        -0.37300E+03
        -0.37300E+03
        -0.37300E+03
        -0.37300E+03
        -0.37300E+03
        -0.37300E+03
        -0.37300E+03
        -0.37300E+03
        -0.37300E+03
        -0.37300E+03
        -0.37300E+03
        -0.37300E+03
        -0.37300E+03
        -0.37300E+03
        -0.37300E+03
        -0.37300E+03
        -0.37300E+03
        -0.37300E+03
        -0.37300E+03
        -0.37300E+03
        -0.37300E+03
        -0.37300E+03
        -0.37300E+03
        -0.37300E+03
        -0.37300E+03
        -0.37300E+03
        -0.37300E+03
        -0.37300E+03
        -0.37300E+03
        -0.37300E+03
        -0.37300E+03
        -0.37300E+03
        -0.37300E+03
        -0.37300E+03
        -0.37300E+03
        -0.37300E+03
        -0.37300E+03
        -0.37300E+03
        -0.37300E+03
        -0.37300E+03
        -0.37300E+03
        -0.37300E+03
        -0.37300E+03
        -0.37300E+03
        -0.37300E+03
        -0.37300E+03
        -0.37300E+03
        -0.37300E+03
        -0.37300E+03
        -0.37300E+03
        -0.37300E+03
        -0.37300E+03
        -0.37300E+03
        -0.37300E+03
        -0.37300E+03
        -0.37300E+03
        -0.37300E+03
        -0.37300E+03
        -0.37300E+03
        -0.37300E+03
        -0.37300E+03
        -0.37300E+03
        -0.37300E+03
        -0.37300E+03
        -0.37300E+03
        -0.37300E+03
        -0.37300E+03
        -0.37300E+03
        -0.37300E+03
        -0.37300E+03
        -0.37300E+03
        -0.37300E+03
        -0.37300E+03
        -0.37300E+03
        -0.37300E+03
        -0.37300E+03
        -0.37300E+03
        -0.37300E+03
        -0.37300E+03
        -0.37300E+03
        -0.37300E+03
        -0.37300E+03
        -0.37300E+03
        -0.37300E+03
        -0.37300E+03
        -0.37300E+03
        -0.37300E+03
        -0.37300E+03
        -0.37300E+03
        -0.37300E+03
        -0.37300E+03
        -0.37300E+03
        -0.37300E+03
        -0.37300E+03
        -0.37300E+03
        -0.37300E+03
        -0.37300E+03
        -0.37300E+03
        -0.37300E+03
        -0.37300E+03
        -0.37300E+03
        -0.37300E+03
        -0.37300E+03
        -0.37300E+03
        -0.37300E+03
        -0.37300E+03
        -0.37300E+03
        -0.37300E+03
        -0.37300E+03
        -0.37300E+03
        -0.37300E+03
        -0.37300E+03
        -0.37300E+03
        -0.37300E+03
        -0.37300E+03
        -0.37300E+03
        -0.37300E+03
        -0.37300E+03
        -0.37300E+03
        -0.37300E+03
        -0.37300E+03
        -0.37300E+03
        -0.37300E+03
        -0.37300E+03
        -0.37300E+03
        -0.37300E+03
        -0.37300E+03
        -0.37300E+03
        -0.37300E+03
        -0.37300E+03
        -0.37300E+03
        -0.37300E+03
        -0.37300E+03
        -0.37300E+03
        -0.37300E+03
        -0.37300E+03
        -0.37300E+03
        -0.37300E+03
        -0.37300E+03
        -0.37300E+03
        -0.37300E+03
        -0.37300E+03
        -0.37300E+03
        -0.37300E+03
        -0.37300E+03
        -0.37300E+03
        -0.37300E+03
        -0.37300E+03
        -0.37300E+03
        -0.37300E+03
        -0.37300E+03
        -0.37300E+03
        -0.37300E+03
        -0.37300E+03
        -0.37300E+03
        -0.37300E+03
        -0.37300E+03
        -0.37300E+03
        -0.37300E+03
        -0.37300E+03
        -0.37300E+03
        -0.37300E+03
        -0.37300E+03
        -0.37300E+03
        -0.37300E+03
        -0.37300E+03
        -0.37300E+03
        -0.37300E+03
        -0.37300E+03
        -0.37300E+03
        -0.37300E+03
        -0.37300E+03
        -0.37300E+03
        -0.37300E+03
        -0.37300E+03
        -0.37300E+03
        -0.37300E+03
        -0.37300E+03
        -0.37300E+03
        -0.37300E+03
        -0.37300E+03
        -0.37300E+03
        -0.37300E+03
        -0.37300E+03
        -0.37300E+03
        -0.37300E+03
        -0.37300E+03
        -0.37300E+03
        -0.37300E+03
        -0.37300E+03
        -0.37300E+03
        -0.37300E+03
        -0.37300E+03
        -0.37300E+03
        -0.37300E+03
        -0.37300E+03
        -0.37300E+03
        -0.37300E+03
        -0.37300E+03
        -0.37300E+03
        -0.37300E+03
        -0.37300E+03
        -0.37300E+03
        -0.37300E+03
        -0.37300E+03
        -0.37300E+03
        -0.37300E+03
        -0.37300E+03
        -0.37300E+03
        -0.37300E+03
        -0.37300E+03
        -0.37300E+03
        -0.37300E+03
        -0.37300E+03
        -0.37300E+03
        -0.37300E+03
        -0.37300E+03
        -0.37300E+03
        -0.37300E+03
        -0.37300E+03
        -0.37300E+03
        -0.37300E+03
        -0.37300E+03
        -0.37300E+03
        -0.37300E+03
        -0.37300E+03
        -0.37300E+03
        -0.37300E+03
        -0.37300E+03
        -0.37300E+03
        -0.37300E+03
        -0.37300E+03
        -0.37300E+03
        -0.37300E+03
        -0.37300E+03
        -0.37300E+03
        -0.37300E+03
        -0.37300E+03
        -0.37300E+03
        -0.37300E+03
        -0.37300E+03
        -0.37300E+03
        -0.37300E+03
        -0.37300E+03
        -0.37300E+03
        -0.37300E+03
        -0.37300E+03
        -0.37300E+03
        -0.37300E+03
        -0.37300E+03
        -0.37300E+03
        -0.37300E+03
        -0.37300E+03
        -0.37300E+03
        -0.37300E+03
        -0.37300E+03
        -0.37300E+03
        -0.37300E+03
        -0.37300E+03
        -0.37300E+03
        -0.37300E+03
        -0.37300E+03
        -0.37300E+03
        -0.37300E+03
        -0.37300E+03
        -0.37300E+03
        -0.37300E+03
        -0.37300E+03
        -0.37300E+03
        -0.37300E+03
        -0.37300E+03
        -0.37300E+03
        -0.37300E+03
        -0.37300E+03
        -0.37300E+03
        -0.37300E+03
        -0.37300E+03
        -0.37300E+03
        -0.37300E+03
        -0.37300E+03
        -0.37300E+03
        -0.37300E+03
        -0.37300E+03
        -0.37300E+03
        -0.37300E+03
        -0.37300E+03
        -0.37300E+03
        -0.37300E+03
        -0.37300E+03
        -0.37300E+03
        -0.37300E+03
        -0.37300E+03
        -0.37300E+03
        -0.37300E+03
        -0.37300E+03
        -0.37300E+03
        -0.37300E+03
        -0.37300E+03
        -0.37300E+03
        -0.37300E+03
        -0.37300E+03
        -0.37300E+03
        -0.37300E+03
        -0.37300E+03
        -0.37300E+03
        -0.37300E+03
        -0.37300E+03
        -0.37300E+03
        -0.37300E+03
        -0.37300E+03
        -0.37300E+03
        -0.37300E+03
        -0.37300E+03
        -0.37300E+03
        -0.37300E+03
        -0.37300E+03
        -0.37300E+03
        -0.37300E+03
        -0.37300E+03
        -0.37300E+03
        -0.37300E+03
        -0.37300E+03
        -0.37300E+03
        -0.37300E+03
        -0.37300E+03
        -0.37300E+03
        -0.37300E+03
        -0.37300E+03
        -0.37300E+03
        -0.37300E+03
        -0.37300E+03
        -0.37300E+03
        -0.37300E+03
        -0.37300E+03
        -0.37300E+03
        -0.37300E+03
        -0.37300E+03
        -0.37300E+03
        -0.37300E+03
        -0.37300E+03
        -0.37300E+03
        -0.37300E+03
        -0.37300E+03
        -0.37300E+03
        -0.37300E+03
        -0.37300E+03
        -0.37300E+03
        -0.37300E+03
        -0.37300E+03
        -0.37300E+03
        -0.37300E+03
        -0.37300E+03
        -0.37300E+03
        -0.37300E+03
        -0.37300E+03
        -0.37300E+03
        -0.37300E+03
        -0.37300E+03
        -0.37300E+03
        -0.37300E+03
        -0.37300E+03
        -0.37300E+03
        -0.37300E+03
        -0.37300E+03
        -0.37300E+03
        -0.37300E+03
        -0.37300E+03
        -0.37300E+03
        -0.37300E+03
        -0.37300E+03
        -0.37300E+03
        -0.37300E+03
        -0.37300E+03
        -0.37300E+03
        -0.37300E+03
        -0.37300E+03
        -0.37300E+03
        -0.37300E+03
        -0.37300E+03
        -0.37300E+03
        -0.37300E+03
        -0.37300E+03
        -0.37300E+03
        -0.37300E+03
        -0.37300E+03
        -0.37300E+03
        -0.37300E+03
        -0.37300E+03
        -0.37300E+03
        -0.37300E+03
        -0.37300E+03
        -0.37300E+03
        -0.37300E+03
        -0.37300E+03
        -0.37300E+03
        -0.37300E+03
        -0.37300E+03
        -0.37300E+03
        -0.37300E+03
        -0.37300E+03
        -0.37300E+03
        -0.37300E+03
        -0.37300E+03
        -0.37300E+03
        -0.37300E+03
        -0.37300E+03
        -0.37300E+03
        -0.37300E+03
        -0.37300E+03
        -0.37300E+03
        -0.37300E+03
        -0.37300E+03
        -0.37300E+03
        -0.37300E+03
        -0.37300E+03
        -0.37300E+03
        -0.37300E+03
        -0.37300E+03
        -0.37300E+03
        -0.37300E+03
        -0.37300E+03
        -0.37300E+03
        -0.37300E+03
        -0.37300E+03
        -0.37300E+03
        -0.37300E+03
        -0.37300E+03
        -0.37300E+03
        -0.37300E+03
        -0.37300E+03
        -0.37300E+03
        -0.37300E+03
        -0.37300E+03
        -0.37300E+03
        -0.37300E+03
        -0.37300E+03
        -0.37300E+03
        -0.37300E+03
        -0.37300E+03
        -0.37300E+03
        -0.37300E+03
        -0.37300E+03
        -0.37300E+03
        -0.37300E+03
        -0.37300E+03
        -0.37300E+03
        -0.37300E+03
        -0.37300E+03
        -0.37300E+03
        -0.37300E+03
        -0.37300E+03
        -0.37300E+03
        -0.37300E+03
        -0.37300E+03
        -0.37300E+03
        -0.37300E+03
        -0.37300E+03
        -0.37300E+03
        -0.37300E+03
        -0.37300E+03
        -0.37300E+03
        -0.37300E+03
        -0.37300E+03
        -0.37300E+03
        -0.37300E+03
        -0.37300E+03
        -0.37300E+03
        -0.37300E+03
        -0.37300E+03
        -0.37300E+03
        -0.37300E+03
        -0.37300E+03
        -0.37300E+03
        -0.37300E+03
        -0.37300E+03
        -0.37300E+03
        -0.37300E+03
        -0.37300E+03
        -0.37300E+03
        -0.37300E+03
        -0.37300E+03
        -0.37300E+03
        -0.37300E+03
        -0.37300E+03
        -0.37300E+03
        -0.37300E+03
        -0.37300E+03
        -0.37300E+03
        -0.37300E+03
        -0.37300E+03
        -0.37300E+03
        -0.37300E+03
        -0.37300E+03
        -0.37300E+03
        -0.37300E+03
        -0.37300E+03
        -0.37300E+03
        -0.37300E+03
        -0.37300E+03
        -0.37300E+03
        -0.37300E+03
        -0.37300E+03
        -0.37300E+03
        -0.37300E+03
        -0.37300E+03
        -0.37300E+03
        -0.37300E+03
        -0.37300E+03
        -0.37300E+03
        -0.37300E+03
        -0.37300E+03
        -0.37300E+03
        -0.37300E+03
        -0.37300E+03
        -0.37300E+03
        -0.37300E+03
        -0.37300E+03
        -0.37300E+03
        -0.37300E+03
        -0.37300E+03
        -0.37300E+03
        -0.37300E+03
        -0.37300E+03
        -0.37300E+03
        -0.37300E+03
        -0.37300E+03
        -0.37300E+03
        -0.37300E+03
        -0.37300E+03
        -0.37300E+03
        -0.37300E+03
        -0.37300E+03
        -0.37300E+03
        -0.37300E+03
        -0.37300E+03
        -0.37300E+03
        -0.37300E+03
        -0.37300E+03
        -0.37300E+03
        -0.37300E+03
        -0.37300E+03
        -0.37300E+03
        -0.37300E+03
        -0.37300E+03
        -0.37300E+03
        -0.37300E+03
        -0.37300E+03
        -0.37300E+03
        -0.37300E+03
        -0.37300E+03
        -0.37300E+03
        -0.37300E+03
        -0.37300E+03
        -0.37300E+03
        -0.37300E+03
        -0.37300E+03
        -0.37300E+03
        -0.37300E+03
        -0.37300E+03
        -0.37300E+03
        -0.37300E+03
        -0.37300E+03
        -0.37300E+03
        -0.37300E+03
        -0.37300E+03
        -0.37300E+03
        -0.37300E+03
        -0.37300E+03
        -0.37300E+03
        -0.37300E+03
        -0.37300E+03
        -0.37300E+03
        -0.37300E+03
        -0.37300E+03
        -0.37300E+03
        -0.37300E+03
        -0.37300E+03
        -0.37300E+03
        -0.37300E+03
        -0.37300E+03
        -0.37300E+03
        -0.37300E+03
        -0.37300E+03
        -0.37300E+03
        -0.37300E+03
        -0.37300E+03
        -0.37300E+03
        -0.37300E+03
        -0.37300E+03
        -0.37300E+03
        -0.37300E+03
        -0.37300E+03
        -0.37300E+03
        -0.37300E+03
        -0.37300E+03
        -0.37300E+03
        -0.37300E+03
        -0.37300E+03
        -0.37300E+03
        -0.37300E+03
        -0.37300E+03
        -0.37300E+03
        -0.37300E+03
        -0.37300E+03
        -0.37300E+03
        -0.37300E+03
        -0.37300E+03
        -0.37300E+03
        -0.37300E+03
        -0.37300E+03
        -0.37300E+03
        -0.37300E+03
        -0.37300E+03
        -0.37300E+03
        -0.37300E+03
        -0.37300E+03
        -0.37300E+03
        -0.37300E+03
        -0.37300E+03
        -0.37300E+03
        -0.37300E+03
        -0.37300E+03
        -0.37300E+03
        -0.37300E+03
        -0.37300E+03
        -0.37300E+03
        -0.37300E+03
        -0.37300E+03
        -0.37300E+03
        -0.37300E+03
        -0.37300E+03
        -0.37300E+03
        -0.37300E+03
        -0.37300E+03
        -0.37300E+03
        -0.37300E+03
        -0.37300E+03
        -0.37300E+03
        -0.37300E+03
        -0.37300E+03
        -0.37300E+03
        -0.37300E+03
        -0.37300E+03
        -0.37300E+03
        -0.37300E+03
        -0.37300E+03
        -0.37300E+03
        -0.37300E+03
        -0.37300E+03
        -0.37300E+03
        -0.37300E+03
        -0.37300E+03
        -0.37300E+03
        -0.37300E+03
        -0.37300E+03
        -0.37300E+03
        -0.37300E+03
        -0.37300E+03
        -0.37300E+03
        -0.37300E+03
        -0.37300E+03
        -0.37300E+03
        -0.37300E+03
        -0.37300E+03
        -0.37300E+03
        -0.37300E+03
        -0.37300E+03
        -0.37300E+03
        -0.37300E+03
        -0.37300E+03
        -0.37300E+03
        -0.37300E+03
        -0.37300E+03
        -0.37300E+03
        -0.37300E+03
        -0.37300E+03
        -0.37300E+03
        -0.37300E+03
        -0.37300E+03
        -0.37300E+03
        -0.37300E+03
        -0.37300E+03
        -0.37300E+03
        -0.37300E+03
        -0.37300E+03
        -0.37300E+03
        -0.37300E+03
        -0.37300E+03
        -0.37300E+03
        -0.37300E+03
        -0.37300E+03
        -0.37300E+03
        -0.37300E+03
        -0.37300E+03
        -0.37300E+03
        -0.37300E+03
        -0.37300E+03
        -0.37300E+03
        -0.37300E+03
        -0.37300E+03
        -0.37300E+03
        -0.37300E+03
        -0.37300E+03
        -0.37300E+03
        -0.37300E+03
        -0.37300E+03
        -0.37300E+03
        -0.37300E+03
        -0.37300E+03
        -0.37300E+03
        -0.37300E+03
        -0.37300E+03
        -0.37300E+03
        -0.37300E+03
        -0.37300E+03
        -0.37300E+03
        -0.37300E+03
        -0.37300E+03
        -0.37300E+03
        -0.37300E+03
        -0.37300E+03
        -0.37300E+03
        -0.37300E+03
        -0.37300E+03
        -0.37300E+03
        -0.37300E+03
        -0.37300E+03
        -0.37300E+03
        -0.37300E+03
        -0.37300E+03
        -0.37300E+03
        -0.37300E+03
        -0.37300E+03
        -0.37300E+03
        -0.37300E+03
        -0.37300E+03
        -0.37300E+03
        -0.37300E+03
        -0.37300E+03
        -0.37300E+03
        -0.37300E+03
        -0.37300E+03
        -0.37300E+03
        -0.37300E+03
        -0.37300E+03
        -0.37300E+03
        -0.37300E+03
        -0.37300E+03
        -0.37300E+03
        -0.37300E+03
        -0.37300E+03
        -0.37300E+03
        -0.37300E+03
        -0.37300E+03
        -0.37300E+03
        -0.37300E+03
        -0.37300E+03
        -0.37300E+03
        -0.37300E+03
        -0.37300E+03
        -0.37300E+03
        -0.37300E+03
        -0.37300E+03
        -0.37300E+03
        -0.37300E+03
        -0.37300E+03
        -0.37300E+03
        -0.37300E+03
        -0.37300E+03
        -0.37300E+03
        -0.37300E+03
        -0.37300E+03
        -0.37300E+03
        -0.37300E+03
        -0.37300E+03
        -0.37300E+03
        -0.37300E+03
        -0.37300E+03
        -0.37300E+03
        -0.37300E+03
        -0.37300E+03
        -0.37300E+03
        -0.37300E+03
        -0.37300E+03
        -0.37300E+03
        -0.37300E+03
        -0.37300E+03
        -0.37300E+03
        -0.37300E+03
        -0.37300E+03
        -0.37300E+03
        -0.37300E+03
        -0.37300E+03
        -0.37300E+03
        -0.37300E+03
        -0.37300E+03
        -0.37300E+03
        -0.37300E+03
        -0.37300E+03
        -0.37300E+03
        -0.37300E+03
        -0.37300E+03
        -0.37300E+03
        -0.37300E+03
        -0.37300E+03
        -0.37300E+03
        -0.37300E+03
        -0.37300E+03
        -0.37300E+03
        -0.37300E+03
        -0.37300E+03
        -0.37300E+03
        -0.37300E+03
        -0.37300E+03
        -0.37300E+03
        -0.37300E+03
        -0.37300E+03
        -0.37300E+03
        -0.37300E+03
        -0.37300E+03
        -0.37300E+03
        -0.37300E+03
        -0.37300E+03
        -0.37300E+03
        -0.37300E+03
        -0.37300E+03
        -0.37300E+03
        -0.37300E+03
        -0.37300E+03
        -0.37300E+03
        -0.37300E+03
        -0.37300E+03
        -0.37300E+03
        -0.37300E+03
        -0.37300E+03
        -0.37300E+03
        -0.37300E+03
        -0.37300E+03
        -0.37300E+03
        -0.37300E+03
        -0.37300E+03
        -0.37300E+03
        -0.37300E+03
        -0.37300E+03
        -0.37300E+03
        -0.37300E+03
        -0.37300E+03
        -0.37300E+03
        -0.37300E+03
        -0.37300E+03
        -0.37300E+03
        -0.37300E+03
        -0.37300E+03
        -0.37300E+03
        -0.37300E+03
        -0.37300E+03
        -0.37300E+03
        -0.37300E+03
        -0.37300E+03
        -0.37300E+03
        -0.37300E+03
        -0.37300E+03
        -0.37300E+03
        -0.37300E+03
        -0.37300E+03
        -0.37300E+03
        -0.37300E+03
        -0.37300E+03
        -0.37300E+03
        -0.37300E+03
        -0.37300E+03
        -0.37300E+03
        -0.37300E+03
        -0.37300E+03
        -0.37300E+03
        -0.37300E+03
        -0.37300E+03
        -0.37300E+03
        -0.37300E+03
        -0.37300E+03
        -0.37300E+03
        -0.37300E+03
        -0.37300E+03
        -0.37300E+03
        -0.37300E+03
        -0.37300E+03
        -0.37300E+03
        -0.37300E+03
        -0.37300E+03
        -0.37300E+03
        -0.37300E+03
        -0.37300E+03
        -0.37300E+03
        -0.37300E+03
        -0.37300E+03
        -0.37300E+03
        -0.37300E+03
        -0.37300E+03
        -0.37300E+03
        -0.37300E+03
        -0.37300E+03
        -0.37300E+03
        -0.37300E+03
        -0.37300E+03
        -0.37300E+03
        -0.37300E+03
        -0.37300E+03
        -0.37300E+03
        -0.37300E+03
        -0.37300E+03
        -0.37300E+03
        -0.37300E+03
        -0.37300E+03
        -0.37300E+03
        -0.37300E+03
        -0.37300E+03
        -0.37300E+03
        -0.37300E+03
        -0.37300E+03
        -0.37300E+03
        -0.37300E+03
        -0.37300E+03
        -0.37300E+03
        -0.37300E+03
        -0.37300E+03
        -0.37300E+03
        -0.37300E+03
        -0.37300E+03
        -0.37300E+03
        -0.37300E+03
        -0.37300E+03
        -0.37300E+03
        -0.37300E+03
        -0.37300E+03
        -0.37300E+03
        -0.37300E+03
        -0.37300E+03
        -0.37300E+03
        -0.37300E+03
        -0.37300E+03
        -0.37300E+03
        -0.37300E+03
        -0.37300E+03
        -0.37300E+03
        -0.37300E+03
        -0.37300E+03
        -0.37300E+03
        -0.37300E+03
        -0.37300E+03
        -0.37300E+03
        -0.37300E+03
        -0.37300E+03
        -0.37300E+03
        -0.37300E+03
        -0.37300E+03
        -0.37300E+03
        -0.37300E+03
        -0.37300E+03
        -0.37300E+03
        -0.37300E+03
        -0.37300E+03
        -0.37300E+03
        -0.37300E+03
        -0.37300E+03
        -0.37300E+03
        -0.37300E+03
        -0.37300E+03
        -0.37300E+03
        -0.37300E+03
        -0.37300E+03
        -0.37300E+03
        -0.37300E+03
        -0.37300E+03
        -0.37300E+03
        -0.37300E+03
        -0.37300E+03
        -0.37300E+03
        -0.37300E+03
        -0.37300E+03
        -0.37300E+03
        -0.37300E+03
        -0.37300E+03
        -0.37300E+03
        -0.37300E+03
        -0.37300E+03
        -0.37300E+03
        -0.37300E+03
        -0.37300E+03
        -0.37300E+03
        -0.37300E+03
        -0.37300E+03
        -0.37300E+03
        -0.37300E+03
        -0.37300E+03
        -0.37300E+03
        -0.37300E+03
        -0.37300E+03
        -0.37300E+03
        -0.37300E+03
        -0.37300E+03
        -0.37300E+03
        -0.37300E+03
        -0.37300E+03
        -0.37300E+03
        -0.37300E+03
        -0.37300E+03
        -0.37300E+03
        -0.37300E+03
        -0.37300E+03
        -0.37300E+03
        -0.37300E+03
        -0.37300E+03
        -0.37300E+03
        -0.37300E+03
        -0.37300E+03
        -0.37300E+03
        -0.37300E+03
        -0.37300E+03
        -0.37300E+03
        -0.37300E+03
        -0.37300E+03
        -0.37300E+03
        -0.37300E+03
        -0.37300E+03
        -0.37300E+03
        -0.37300E+03
        -0.37300E+03
        -0.37300E+03
        -0.37300E+03
        -0.37300E+03
        -0.37300E+03
        -0.37300E+03
        -0.37300E+03
        -0.37300E+03
        -0.37300E+03
        -0.37300E+03
        -0.37300E+03
        -0.37300E+03
        -0.37300E+03
        -0.37300E+03
        -0.37300E+03
        -0.37300E+03
        -0.37300E+03
        -0.37300E+03
        -0.37300E+03
        -0.37300E+03
        -0.37300E+03
        -0.37300E+03
        -0.37300E+03
        -0.37300E+03
        -0.37300E+03
        -0.37300E+03
        -0.37300E+03
        -0.37300E+03
        -0.37300E+03
        -0.37300E+03
        -0.37300E+03
        -0.37300E+03
        -0.37300E+03
        -0.37300E+03
        -0.37300E+03
        -0.37300E+03
        -0.37300E+03
        -0.37300E+03
        -0.37300E+03
        -0.37300E+03
        -0.37300E+03
        -0.37300E+03
        -0.37300E+03
        -0.37300E+03
        -0.37300E+03
        -0.37300E+03
        -0.37300E+03
        -0.37300E+03
        -0.37300E+03
        -0.37300E+03
        -0.37300E+03
        -0.37300E+03
        -0.37300E+03
        -0.37300E+03
        -0.37300E+03
        -0.37300E+03
        -0.37300E+03
        -0.37300E+03
        -0.37300E+03
        -0.37300E+03
        -0.37300E+03
        -0.37300E+03
        -0.37300E+03
        -0.37300E+03
        -0.37300E+03
        -0.37300E+03
        -0.37300E+03
        -0.37300E+03
        -0.37300E+03
        -0.37300E+03
        -0.37300E+03
        -0.37300E+03
        -0.37300E+03
        -0.37300E+03
        -0.37300E+03
        -0.37300E+03
        -0.37300E+03
        -0.37300E+03
        -0.37300E+03
        -0.37300E+03
        -0.37300E+03
        -0.37300E+03
        -0.37300E+03
        -0.37300E+03
        -0.37300E+03
        -0.37300E+03
        -0.37300E+03
        -0.37300E+03
        -0.37300E+03
        -0.37300E+03
        -0.37300E+03
        -0.37300E+03
        -0.37300E+03
        -0.37300E+03
        -0.37300E+03
        -0.37300E+03
        -0.37300E+03
        -0.37300E+03
        -0.37300E+03
        -0.37300E+03
        -0.37300E+03
        -0.37300E+03
        -0.37300E+03
        -0.37300E+03
        -0.37300E+03
        -0.37300E+03
        -0.37300E+03
        -0.37300E+03
        -0.37300E+03
        -0.37300E+03
        -0.37300E+03
        -0.37300E+03
        -0.37300E+03
        -0.37300E+03
        -0.37300E+03
        -0.37300E+03
        -0.37300E+03
        -0.37300E+03
        -0.37300E+03
        -0.37300E+03
        -0.37300E+03
        -0.37300E+03
        -0.37300E+03
        -0.37300E+03
        -0.37300E+03
        -0.37300E+03
        -0.37300E+03
        -0.37300E+03
        -0.37300E+03
        -0.37300E+03
        -0.37300E+03
        -0.37300E+03
        -0.37300E+03
        -0.37300E+03
        -0.37300E+03
        -0.37300E+03
        -0.37300E+03
        -0.37300E+03
        -0.37300E+03
        -0.37300E+03
        -0.37300E+03
        -0.37300E+03
        -0.37300E+03
        -0.37300E+03
        -0.37300E+03
        -0.37300E+03
        -0.37300E+03
        -0.37300E+03
        -0.37300E+03
  
SCALARS              normalized_window  double 1
LOOKUP_TABLE default
         0.27500E+01
         0.27500E+01
         0.27500E+01
         0.27500E+01
         0.27500E+01
         0.27500E+01
         0.27500E+01
         0.27500E+01
         0.27500E+01
         0.27500E+01
         0.27500E+01
         0.27500E+01
         0.27500E+01
         0.27500E+01
         0.27500E+01
         0.27500E+01
         0.27500E+01
         0.27500E+01
         0.27500E+01
         0.27500E+01
         0.27500E+01
         0.27500E+01
         0.27500E+01
         0.27500E+01
         0.27500E+01
         0.27500E+01
         0.27500E+01
         0.27500E+01
         0.27500E+01
         0.27500E+01
         0.27500E+01
         0.27500E+01
         0.27500E+01
         0.27500E+01
         0.27500E+01
         0.27500E+01
         0.27500E+01
         0.27500E+01
         0.27500E+01
         0.27500E+01
         0.27500E+01
         0.27500E+01
         0.27500E+01
         0.27500E+01
         0.27500E+01
         0.27500E+01
         0.27500E+01
         0.27500E+01
         0.27500E+01
         0.27500E+01
         0.27500E+01
         0.27500E+01
         0.27500E+01
         0.27500E+01
         0.27500E+01
         0.27500E+01
         0.27500E+01
         0.27500E+01
         0.27500E+01
         0.27500E+01
         0.27500E+01
         0.27500E+01
         0.27500E+01
         0.27500E+01
         0.27500E+01
         0.27500E+01
         0.27500E+01
         0.27500E+01
         0.27500E+01
         0.27500E+01
         0.27500E+01
         0.27500E+01
         0.27500E+01
         0.27500E+01
         0.27500E+01
         0.27500E+01
         0.27500E+01
         0.27500E+01
         0.27500E+01
         0.27500E+01
         0.27500E+01
         0.27500E+01
         0.27500E+01
         0.27500E+01
         0.27500E+01
         0.27500E+01
         0.27500E+01
         0.27500E+01
         0.27500E+01
         0.27500E+01
         0.27500E+01
         0.27500E+01
         0.27500E+01
         0.27500E+01
         0.27500E+01
         0.27500E+01
         0.27500E+01
         0.27500E+01
         0.27500E+01
         0.27500E+01
         0.27500E+01
         0.27500E+01
         0.27500E+01
         0.27500E+01
         0.27500E+01
         0.27500E+01
         0.27500E+01
         0.27500E+01
         0.27500E+01
         0.27500E+01
         0.27500E+01
         0.27500E+01
         0.27500E+01
         0.27500E+01
         0.27500E+01
         0.27500E+01
         0.27500E+01
         0.27500E+01
         0.27500E+01
         0.27500E+01
         0.27500E+01
         0.27500E+01
         0.27500E+01
         0.27500E+01
         0.27500E+01
         0.27500E+01
         0.27500E+01
         0.27500E+01
         0.27500E+01
         0.27500E+01
         0.27500E+01
         0.27500E+01
         0.27500E+01
         0.27500E+01
         0.27500E+01
         0.27500E+01
         0.27500E+01
         0.27500E+01
         0.27500E+01
         0.27500E+01
         0.27500E+01
         0.27500E+01
         0.27500E+01
         0.27500E+01
         0.27500E+01
         0.27500E+01
         0.27500E+01
         0.27500E+01
         0.27500E+01
         0.27500E+01
         0.27500E+01
         0.27500E+01
         0.27500E+01
         0.27500E+01
         0.27500E+01
         0.27500E+01
         0.27500E+01
         0.27500E+01
         0.27500E+01
         0.27500E+01
         0.27500E+01
         0.27500E+01
         0.27500E+01
         0.27500E+01
         0.27500E+01
         0.27500E+01
         0.27500E+01
         0.27500E+01
         0.27500E+01
         0.27500E+01
         0.27500E+01
         0.27500E+01
         0.27500E+01
         0.27500E+01
         0.27500E+01
         0.27500E+01
         0.27500E+01
         0.27500E+01
         0.27500E+01
         0.27500E+01
         0.27500E+01
         0.27500E+01
         0.27500E+01
         0.27500E+01
         0.27500E+01
         0.27500E+01
         0.27500E+01
         0.27500E+01
         0.27500E+01
         0.27500E+01
         0.27500E+01
         0.27500E+01
         0.27500E+01
         0.27500E+01
         0.27500E+01
         0.27500E+01
         0.27500E+01
         0.27500E+01
         0.27500E+01
         0.27500E+01
         0.27500E+01
         0.27500E+01
         0.27500E+01
         0.27500E+01
         0.27500E+01
         0.27500E+01
         0.27500E+01
         0.27500E+01
         0.27500E+01
         0.27500E+01
         0.27500E+01
         0.27500E+01
         0.27500E+01
         0.27500E+01
         0.27500E+01
         0.27500E+01
         0.27500E+01
         0.27500E+01
         0.27500E+01
         0.27500E+01
         0.27500E+01
         0.27500E+01
         0.27500E+01
         0.27500E+01
         0.27500E+01
         0.27500E+01
         0.27500E+01
         0.27500E+01
         0.27500E+01
         0.27500E+01
         0.27500E+01
         0.27500E+01
         0.27500E+01
         0.27500E+01
         0.27500E+01
         0.27500E+01
         0.27500E+01
         0.27500E+01
         0.27500E+01
         0.27500E+01
         0.27500E+01
         0.27500E+01
         0.27500E+01
         0.27500E+01
         0.27500E+01
         0.27500E+01
         0.27500E+01
         0.27500E+01
         0.27500E+01
         0.27500E+01
         0.27500E+01
         0.27500E+01
         0.27500E+01
         0.27500E+01
         0.27500E+01
         0.27500E+01
         0.27500E+01
         0.27500E+01
         0.27500E+01
         0.27500E+01
         0.27500E+01
         0.27500E+01
         0.27500E+01
         0.27500E+01
         0.27500E+01
         0.27500E+01
         0.27500E+01
         0.27500E+01
         0.27500E+01
         0.27500E+01
         0.27500E+01
         0.27500E+01
         0.27500E+01
         0.27500E+01
         0.27500E+01
         0.27500E+01
         0.27500E+01
         0.27500E+01
         0.27500E+01
         0.27500E+01
         0.27500E+01
         0.27500E+01
         0.27500E+01
         0.27500E+01
         0.27500E+01
         0.27500E+01
         0.27500E+01
         0.27500E+01
         0.27500E+01
         0.27500E+01
         0.27500E+01
         0.27500E+01
         0.27500E+01
         0.27500E+01
         0.27500E+01
         0.27500E+01
         0.27500E+01
         0.27500E+01
         0.27500E+01
         0.27500E+01
         0.27500E+01
         0.27500E+01
         0.27500E+01
         0.27500E+01
         0.27500E+01
         0.27500E+01
         0.27500E+01
         0.27500E+01
         0.27500E+01
         0.27500E+01
         0.27500E+01
         0.27500E+01
         0.27500E+01
         0.27500E+01
         0.27500E+01
         0.27500E+01
         0.27500E+01
         0.27500E+01
         0.27500E+01
         0.27500E+01
         0.27500E+01
         0.27500E+01
         0.27500E+01
         0.27500E+01
         0.27500E+01
         0.27500E+01
         0.27500E+01
         0.27500E+01
         0.27500E+01
         0.27500E+01
         0.27500E+01
         0.27500E+01
         0.27500E+01
         0.27500E+01
         0.27500E+01
         0.27500E+01
         0.27500E+01
         0.27500E+01
         0.27500E+01
         0.27500E+01
         0.27500E+01
         0.27500E+01
         0.27500E+01
         0.27500E+01
         0.27500E+01
         0.27500E+01
         0.27500E+01
         0.27500E+01
         0.27500E+01
         0.27500E+01
         0.27500E+01
         0.27500E+01
         0.27500E+01
         0.27500E+01
         0.27500E+01
         0.27500E+01
         0.27500E+01
         0.27500E+01
         0.27500E+01
         0.27500E+01
         0.27500E+01
         0.27500E+01
         0.27500E+01
         0.27500E+01
         0.27500E+01
         0.27500E+01
         0.27500E+01
         0.27500E+01
         0.27500E+01
         0.27500E+01
         0.27500E+01
         0.27500E+01
         0.27500E+01
         0.27500E+01
         0.27500E+01
         0.27500E+01
         0.27500E+01
         0.27500E+01
         0.27500E+01
         0.27500E+01
         0.27500E+01
         0.27500E+01
         0.27500E+01
         0.27500E+01
         0.27500E+01
         0.27500E+01
         0.27500E+01
         0.27500E+01
         0.27500E+01
         0.27500E+01
         0.27500E+01
         0.27500E+01
         0.27500E+01
         0.27500E+01
         0.27500E+01
         0.27500E+01
         0.27500E+01
         0.27500E+01
         0.27500E+01
         0.27500E+01
         0.27500E+01
         0.27500E+01
         0.27500E+01
         0.27500E+01
         0.27500E+01
         0.27500E+01
         0.27500E+01
         0.27500E+01
         0.27500E+01
         0.27500E+01
         0.27500E+01
         0.27500E+01
         0.27500E+01
         0.27500E+01
         0.27500E+01
         0.27500E+01
         0.27500E+01
         0.27500E+01
         0.27500E+01
         0.27500E+01
         0.27500E+01
         0.27500E+01
         0.27500E+01
         0.27500E+01
         0.27500E+01
         0.27500E+01
         0.27500E+01
         0.27500E+01
         0.27500E+01
         0.27500E+01
         0.27500E+01
         0.27500E+01
         0.27500E+01
         0.27500E+01
         0.27500E+01
         0.27500E+01
         0.27500E+01
         0.27500E+01
         0.27500E+01
         0.27500E+01
         0.27500E+01
         0.27500E+01
         0.27500E+01
         0.27500E+01
         0.27500E+01
         0.27500E+01
         0.27500E+01
         0.27500E+01
         0.27500E+01
         0.27500E+01
         0.27500E+01
         0.27500E+01
         0.27500E+01
         0.27500E+01
         0.27500E+01
         0.27500E+01
         0.27500E+01
         0.27500E+01
         0.27500E+01
         0.27500E+01
         0.27500E+01
         0.27500E+01
         0.27500E+01
         0.27500E+01
         0.27500E+01
         0.27500E+01
         0.27500E+01
         0.27500E+01
         0.27500E+01
         0.27500E+01
         0.27500E+01
         0.27500E+01
         0.27500E+01
         0.27500E+01
         0.27500E+01
         0.27500E+01
         0.27500E+01
         0.27500E+01
         0.27500E+01
         0.27500E+01
         0.27500E+01
         0.27500E+01
         0.27500E+01
         0.27500E+01
         0.27500E+01
         0.27500E+01
         0.27500E+01
         0.27500E+01
         0.27500E+01
         0.27500E+01
         0.27500E+01
         0.27500E+01
         0.27500E+01
         0.27500E+01
         0.27500E+01
         0.27500E+01
         0.27500E+01
         0.27500E+01
         0.27500E+01
         0.27500E+01
         0.27500E+01
         0.27500E+01
         0.27500E+01
         0.27500E+01
         0.27500E+01
         0.27500E+01
         0.27500E+01
         0.27500E+01
         0.27500E+01
         0.27500E+01
         0.27500E+01
         0.27500E+01
         0.27500E+01
         0.27500E+01
         0.27500E+01
         0.27500E+01
         0.27500E+01
         0.27500E+01
         0.27500E+01
         0.27500E+01
         0.27500E+01
         0.27500E+01
         0.27500E+01
         0.27500E+01
         0.27500E+01
         0.27500E+01
         0.27500E+01
         0.27500E+01
         0.27500E+01
         0.27500E+01
         0.27500E+01
         0.27500E+01
         0.27500E+01
         0.27500E+01
         0.27500E+01
         0.27500E+01
         0.27500E+01
         0.27500E+01
         0.27500E+01
         0.27500E+01
         0.27500E+01
         0.27500E+01
         0.27500E+01
         0.27500E+01
         0.27500E+01
         0.27500E+01
         0.27500E+01
         0.27500E+01
         0.27500E+01
         0.27500E+01
         0.27500E+01
         0.27500E+01
         0.27500E+01
         0.27500E+01
         0.27500E+01
         0.27500E+01
         0.27500E+01
         0.27500E+01
         0.27500E+01
         0.27500E+01
         0.27500E+01
         0.27500E+01
         0.27500E+01
         0.27500E+01
         0.27500E+01
         0.27500E+01
         0.27500E+01
         0.27500E+01
         0.27500E+01
         0.27500E+01
         0.27500E+01
         0.27500E+01
         0.27500E+01
         0.27500E+01
         0.27500E+01
         0.27500E+01
         0.27500E+01
         0.27500E+01
         0.27500E+01
         0.27500E+01
         0.27500E+01
         0.27500E+01
         0.27500E+01
         0.27500E+01
         0.27500E+01
         0.27500E+01
         0.27500E+01
         0.27500E+01
         0.27500E+01
         0.27500E+01
         0.27500E+01
         0.27500E+01
         0.27500E+01
         0.27500E+01
         0.27500E+01
         0.27500E+01
         0.27500E+01
         0.27500E+01
         0.27500E+01
         0.27500E+01
         0.27500E+01
         0.27500E+01
         0.27500E+01
         0.27500E+01
         0.27500E+01
         0.27500E+01
         0.27500E+01
         0.27500E+01
         0.27500E+01
         0.27500E+01
         0.27500E+01
         0.27500E+01
         0.27500E+01
         0.27500E+01
         0.27500E+01
         0.27500E+01
         0.27500E+01
         0.27500E+01
         0.27500E+01
         0.27500E+01
         0.27500E+01
         0.27500E+01
         0.27500E+01
         0.27500E+01
         0.27500E+01
         0.27500E+01
         0.27500E+01
         0.27500E+01
         0.27500E+01
         0.27500E+01
         0.27500E+01
         0.27500E+01
         0.27500E+01
         0.27500E+01
         0.27500E+01
         0.27500E+01
         0.27500E+01
         0.27500E+01
         0.27500E+01
         0.27500E+01
         0.27500E+01
         0.27500E+01
         0.27500E+01
         0.27500E+01
         0.27500E+01
         0.27500E+01
         0.27500E+01
         0.27500E+01
         0.27500E+01
         0.27500E+01
         0.27500E+01
         0.27500E+01
         0.27500E+01
         0.27500E+01
         0.27500E+01
         0.27500E+01
         0.27500E+01
         0.27500E+01
         0.27500E+01
         0.27500E+01
         0.27500E+01
         0.27500E+01
         0.27500E+01
         0.27500E+01
         0.27500E+01
         0.27500E+01
         0.27500E+01
         0.27500E+01
         0.27500E+01
         0.27500E+01
         0.27500E+01
         0.27500E+01
         0.27500E+01
         0.27500E+01
         0.27500E+01
         0.27500E+01
         0.27500E+01
         0.27500E+01
         0.27500E+01
         0.27500E+01
         0.27500E+01
         0.27500E+01
         0.27500E+01
         0.27500E+01
         0.27500E+01
         0.27500E+01
         0.27500E+01
         0.27500E+01
         0.27500E+01
         0.27500E+01
         0.27500E+01
         0.27500E+01
         0.27500E+01
         0.27500E+01
         0.27500E+01
         0.27500E+01
         0.27500E+01
         0.27500E+01
         0.27500E+01
         0.27500E+01
         0.27500E+01
         0.27500E+01
         0.27500E+01
         0.27500E+01
         0.27500E+01
         0.27500E+01
         0.27500E+01
         0.27500E+01
         0.27500E+01
         0.27500E+01
         0.27500E+01
         0.27500E+01
         0.27500E+01
         0.27500E+01
         0.27500E+01
         0.27500E+01
         0.27500E+01
         0.27500E+01
         0.27500E+01
         0.27500E+01
         0.27500E+01
         0.27500E+01
         0.27500E+01
         0.27500E+01
         0.27500E+01
         0.27500E+01
         0.27500E+01
         0.27500E+01
         0.27500E+01
         0.27500E+01
         0.27500E+01
         0.27500E+01
         0.27500E+01
         0.27500E+01
         0.27500E+01
         0.27500E+01
         0.27500E+01
         0.27500E+01
         0.27500E+01
         0.27500E+01
         0.27500E+01
         0.27500E+01
         0.27500E+01
         0.27500E+01
         0.27500E+01
         0.27500E+01
         0.27500E+01
         0.27500E+01
         0.27500E+01
         0.27500E+01
         0.27500E+01
         0.27500E+01
         0.27500E+01
         0.27500E+01
         0.27500E+01
         0.27500E+01
         0.27500E+01
         0.27500E+01
         0.27500E+01
         0.27500E+01
         0.27500E+01
         0.27500E+01
         0.27500E+01
         0.27500E+01
         0.27500E+01
         0.27500E+01
         0.27500E+01
         0.27500E+01
         0.27500E+01
         0.27500E+01
         0.27500E+01
         0.27500E+01
         0.27500E+01
         0.27500E+01
         0.27500E+01
         0.27500E+01
         0.27500E+01
         0.27500E+01
         0.27500E+01
         0.27500E+01
         0.27500E+01
         0.27500E+01
         0.27500E+01
         0.27500E+01
         0.27500E+01
         0.27500E+01
         0.27500E+01
         0.27500E+01
         0.27500E+01
         0.27500E+01
         0.27500E+01
         0.27500E+01
         0.27500E+01
         0.27500E+01
         0.27500E+01
         0.27500E+01
         0.27500E+01
         0.27500E+01
         0.27500E+01
         0.27500E+01
         0.27500E+01
         0.27500E+01
         0.27500E+01
         0.27500E+01
         0.27500E+01
         0.27500E+01
         0.27500E+01
         0.27500E+01
         0.27500E+01
         0.27500E+01
         0.27500E+01
         0.27500E+01
         0.27500E+01
         0.27500E+01
         0.27500E+01
         0.27500E+01
         0.27500E+01
         0.27500E+01
         0.27500E+01
         0.27500E+01
         0.27500E+01
         0.27500E+01
         0.27500E+01
         0.27500E+01
         0.27500E+01
         0.27500E+01
         0.27500E+01
         0.27500E+01
         0.27500E+01
         0.27500E+01
         0.27500E+01
         0.27500E+01
         0.27500E+01
         0.27500E+01
         0.27500E+01
         0.27500E+01
         0.27500E+01
         0.27500E+01
         0.27500E+01
         0.27500E+01
         0.27500E+01
         0.27500E+01
         0.27500E+01
         0.27500E+01
         0.27500E+01
         0.27500E+01
         0.27500E+01
         0.27500E+01
         0.27500E+01
         0.27500E+01
         0.27500E+01
         0.27500E+01
         0.27500E+01
         0.27500E+01
         0.27500E+01
         0.27500E+01
         0.27500E+01
         0.27500E+01
         0.27500E+01
         0.27500E+01
         0.27500E+01
         0.27500E+01
         0.27500E+01
         0.27500E+01
         0.27500E+01
         0.27500E+01
         0.27500E+01
         0.27500E+01
         0.27500E+01
         0.27500E+01
         0.27500E+01
         0.27500E+01
         0.27500E+01
         0.27500E+01
         0.27500E+01
         0.27500E+01
         0.27500E+01
         0.27500E+01
         0.27500E+01
         0.27500E+01
         0.27500E+01
         0.27500E+01
         0.27500E+01
         0.27500E+01
         0.27500E+01
         0.27500E+01
         0.27500E+01
         0.27500E+01
         0.27500E+01
         0.27500E+01
         0.27500E+01
         0.27500E+01
         0.27500E+01
         0.27500E+01
         0.27500E+01
         0.27500E+01
         0.27500E+01
         0.27500E+01
         0.27500E+01
         0.27500E+01
         0.27500E+01
         0.27500E+01
         0.27500E+01
         0.27500E+01
         0.27500E+01
         0.27500E+01
         0.27500E+01
         0.27500E+01
         0.27500E+01
         0.27500E+01
         0.27500E+01
         0.27500E+01
         0.27500E+01
         0.27500E+01
         0.27500E+01
         0.27500E+01
         0.27500E+01
         0.27500E+01
         0.27500E+01
         0.27500E+01
         0.27500E+01
         0.27500E+01
         0.27500E+01
         0.27500E+01
         0.27500E+01
         0.27500E+01
         0.27500E+01
         0.27500E+01
         0.27500E+01
         0.27500E+01
         0.27500E+01
         0.27500E+01
         0.27500E+01
         0.27500E+01
         0.27500E+01
         0.27500E+01
         0.27500E+01
         0.27500E+01
         0.27500E+01
         0.27500E+01
         0.27500E+01
         0.27500E+01
         0.27500E+01
         0.27500E+01
         0.27500E+01
         0.27500E+01
         0.27500E+01
         0.27500E+01
         0.27500E+01
         0.27500E+01
         0.27500E+01
         0.27500E+01
         0.27500E+01
         0.27500E+01
         0.27500E+01
         0.27500E+01
         0.27500E+01
         0.27500E+01
         0.27500E+01
         0.27500E+01
         0.27500E+01
         0.27500E+01
         0.27500E+01
         0.27500E+01
         0.27500E+01
         0.27500E+01
         0.27500E+01
         0.27500E+01
         0.27500E+01
         0.27500E+01
         0.27500E+01
         0.27500E+01
         0.27500E+01
         0.27500E+01
         0.27500E+01
         0.27500E+01
         0.27500E+01
         0.27500E+01
         0.27500E+01
         0.27500E+01
         0.27500E+01
         0.27500E+01
         0.27500E+01
         0.27500E+01
         0.27500E+01
         0.27500E+01
         0.27500E+01
         0.27500E+01
         0.27500E+01
         0.27500E+01
         0.27500E+01
         0.27500E+01
         0.27500E+01
         0.27500E+01
         0.27500E+01
         0.27500E+01
         0.27500E+01
         0.27500E+01
         0.27500E+01
         0.27500E+01
         0.27500E+01
         0.27500E+01
         0.27500E+01
         0.27500E+01
         0.27500E+01
         0.27500E+01
         0.27500E+01
         0.27500E+01
         0.27500E+01
         0.27500E+01
         0.27500E+01
         0.27500E+01
         0.27500E+01
         0.27500E+01
         0.27500E+01
         0.27500E+01
         0.27500E+01
         0.27500E+01
         0.27500E+01
         0.27500E+01
         0.27500E+01
         0.27500E+01
         0.27500E+01
         0.27500E+01
         0.27500E+01
         0.27500E+01
         0.27500E+01
         0.27500E+01
         0.27500E+01
         0.27500E+01
         0.27500E+01
         0.27500E+01
         0.27500E+01
         0.27500E+01
         0.27500E+01
         0.27500E+01
         0.27500E+01
         0.27500E+01
         0.27500E+01
         0.27500E+01
         0.27500E+01
         0.27500E+01
         0.27500E+01
         0.27500E+01
         0.27500E+01
         0.27500E+01
         0.27500E+01
         0.27500E+01
         0.27500E+01
         0.27500E+01
         0.27500E+01
         0.27500E+01
         0.27500E+01
         0.27500E+01
         0.27500E+01
         0.27500E+01
         0.27500E+01
         0.27500E+01
         0.27500E+01
         0.27500E+01
         0.27500E+01
         0.27500E+01
         0.27500E+01
         0.27500E+01
         0.27500E+01
         0.27500E+01
         0.27500E+01
         0.27500E+01
         0.27500E+01
         0.27500E+01
         0.27500E+01
         0.27500E+01
         0.27500E+01
         0.27500E+01
         0.27500E+01
         0.27500E+01
         0.27500E+01
         0.27500E+01
         0.27500E+01
         0.27500E+01
         0.27500E+01
         0.27500E+01
         0.27500E+01
         0.27500E+01
         0.27500E+01
         0.27500E+01
         0.27500E+01
         0.27500E+01
         0.27500E+01
         0.27500E+01
         0.27500E+01
         0.27500E+01
         0.27500E+01
         0.27500E+01
         0.27500E+01
         0.27500E+01
         0.27500E+01
         0.27500E+01
         0.27500E+01
         0.27500E+01
         0.27500E+01
         0.27500E+01
         0.27500E+01
         0.27500E+01
         0.27500E+01
         0.27500E+01
         0.27500E+01
         0.27500E+01
         0.27500E+01
         0.27500E+01
         0.27500E+01
         0.27500E+01
         0.27500E+01
         0.27500E+01
         0.27500E+01
         0.27500E+01
         0.27500E+01
         0.27500E+01
         0.27500E+01
         0.27500E+01
         0.27500E+01
         0.27500E+01
         0.27500E+01
         0.27500E+01
         0.27500E+01
         0.27500E+01
         0.27500E+01
         0.27500E+01
         0.27500E+01
         0.27500E+01
         0.27500E+01
         0.27500E+01
         0.27500E+01
         0.27500E+01
         0.27500E+01
         0.27500E+01
         0.27500E+01
         0.27500E+01
         0.27500E+01
         0.27500E+01
         0.27500E+01
         0.27500E+01
         0.27500E+01
         0.27500E+01
         0.27500E+01
         0.27500E+01
         0.27500E+01
         0.27500E+01
         0.27500E+01
         0.27500E+01
         0.27500E+01
         0.27500E+01
         0.27500E+01
         0.27500E+01
         0.27500E+01
         0.27500E+01
         0.27500E+01
         0.27500E+01
         0.27500E+01
         0.27500E+01
         0.27500E+01
         0.27500E+01
         0.27500E+01
         0.27500E+01
         0.27500E+01
         0.27500E+01
         0.27500E+01
         0.27500E+01
         0.27500E+01
         0.27500E+01
         0.27500E+01
         0.27500E+01
         0.27500E+01
         0.27500E+01
         0.27500E+01
         0.27500E+01
         0.27500E+01
         0.27500E+01
         0.27500E+01
         0.27500E+01
         0.27500E+01
         0.27500E+01
         0.27500E+01
         0.27500E+01
         0.27500E+01
         0.27500E+01
         0.27500E+01
         0.27500E+01
         0.27500E+01
         0.27500E+01
         0.27500E+01
         0.27500E+01
         0.27500E+01
         0.27500E+01
         0.27500E+01
         0.27500E+01
         0.27500E+01
         0.27500E+01
         0.27500E+01
         0.27500E+01
         0.27500E+01
         0.27500E+01
         0.27500E+01
         0.27500E+01
         0.27500E+01
         0.27500E+01
         0.27500E+01
         0.27500E+01
         0.27500E+01
         0.27500E+01
         0.27500E+01
         0.27500E+01
         0.27500E+01
         0.27500E+01
         0.27500E+01
         0.27500E+01
         0.27500E+01
         0.27500E+01
         0.27500E+01
         0.27500E+01
         0.27500E+01
         0.27500E+01
         0.27500E+01
         0.27500E+01
         0.27500E+01
         0.27500E+01
         0.27500E+01
         0.27500E+01
         0.27500E+01
         0.27500E+01
         0.27500E+01
         0.27500E+01
         0.27500E+01
         0.27500E+01
         0.27500E+01
         0.27500E+01
         0.27500E+01
         0.27500E+01
         0.27500E+01
         0.27500E+01
         0.27500E+01
         0.27500E+01
         0.27500E+01
         0.27500E+01
         0.27500E+01
         0.27500E+01
         0.27500E+01
         0.27500E+01
         0.27500E+01
         0.27500E+01
         0.27500E+01
         0.27500E+01
         0.27500E+01
         0.27500E+01
         0.27500E+01
         0.27500E+01
         0.27500E+01
         0.27500E+01
         0.27500E+01
         0.27500E+01
         0.27500E+01
         0.27500E+01
         0.27500E+01
         0.27500E+01
         0.27500E+01
         0.27500E+01
         0.27500E+01
         0.27500E+01
         0.27500E+01
         0.27500E+01
         0.27500E+01
         0.27500E+01
         0.27500E+01
         0.27500E+01
         0.27500E+01
         0.27500E+01
         0.27500E+01
         0.27500E+01
         0.27500E+01
         0.27500E+01
         0.27500E+01
         0.27500E+01
         0.27500E+01
         0.27500E+01
         0.27500E+01
         0.27500E+01
         0.27500E+01
         0.27500E+01
         0.27500E+01
         0.27500E+01
         0.27500E+01
         0.27500E+01
         0.27500E+01
         0.27500E+01
         0.27500E+01
         0.27500E+01
         0.27500E+01
         0.27500E+01
         0.27500E+01
         0.27500E+01
         0.27500E+01
         0.27500E+01
         0.27500E+01
         0.27500E+01
         0.27500E+01
         0.27500E+01
         0.27500E+01
         0.27500E+01
         0.27500E+01
         0.27500E+01
         0.27500E+01
         0.27500E+01
         0.27500E+01
         0.27500E+01
         0.27500E+01
         0.27500E+01
         0.27500E+01
         0.27500E+01
         0.27500E+01
         0.27500E+01
         0.27500E+01
         0.27500E+01
         0.27500E+01
         0.27500E+01
         0.27500E+01
         0.27500E+01
         0.27500E+01
         0.27500E+01
         0.27500E+01
         0.27500E+01
         0.27500E+01
         0.27500E+01
         0.27500E+01
         0.27500E+01
         0.27500E+01
         0.27500E+01
         0.27500E+01
         0.27500E+01
         0.27500E+01
         0.27500E+01
         0.27500E+01
         0.27500E+01
         0.27500E+01
         0.27500E+01
         0.27500E+01
         0.27500E+01
         0.27500E+01
         0.27500E+01
         0.27500E+01
         0.27500E+01
         0.27500E+01
         0.27500E+01
         0.27500E+01
         0.27500E+01
         0.27500E+01
         0.27500E+01
         0.27500E+01
         0.27500E+01
         0.27500E+01
         0.27500E+01
         0.27500E+01
         0.27500E+01
         0.27500E+01
         0.27500E+01
         0.27500E+01
         0.27500E+01
         0.27500E+01
         0.27500E+01
         0.27500E+01
         0.27500E+01
         0.27500E+01
         0.27500E+01
         0.27500E+01
         0.27500E+01
         0.27500E+01
         0.27500E+01
         0.27500E+01
         0.27500E+01
         0.27500E+01
         0.27500E+01
         0.27500E+01
         0.27500E+01
         0.27500E+01
         0.27500E+01
         0.27500E+01
         0.27500E+01
         0.27500E+01
         0.27500E+01
         0.27500E+01
         0.27500E+01
         0.27500E+01
         0.27500E+01
         0.27500E+01
         0.27500E+01
         0.27500E+01
         0.27500E+01
         0.27500E+01
         0.27500E+01
         0.27500E+01
         0.27500E+01
         0.27500E+01
         0.27500E+01
         0.27500E+01
         0.27500E+01
         0.27500E+01
         0.27500E+01
         0.27500E+01
         0.27500E+01
         0.27500E+01
         0.27500E+01
         0.27500E+01
         0.27500E+01
         0.27500E+01
         0.27500E+01
         0.27500E+01
         0.27500E+01
         0.27500E+01
         0.27500E+01
         0.27500E+01
         0.27500E+01
         0.27500E+01
         0.27500E+01
         0.27500E+01
         0.27500E+01
         0.27500E+01
         0.27500E+01
         0.27500E+01
         0.27500E+01
         0.27500E+01
         0.27500E+01
         0.27500E+01
         0.27500E+01
         0.27500E+01
         0.27500E+01
         0.27500E+01
         0.27500E+01
         0.27500E+01
         0.27500E+01
         0.27500E+01
         0.27500E+01
         0.27500E+01
         0.27500E+01
         0.27500E+01
         0.27500E+01
         0.27500E+01
         0.27500E+01
         0.27500E+01
         0.27500E+01
         0.27500E+01
         0.27500E+01
         0.27500E+01
         0.27500E+01
         0.27500E+01
         0.27500E+01
         0.27500E+01
         0.27500E+01
         0.27500E+01
         0.27500E+01
         0.27500E+01
         0.27500E+01
         0.27500E+01
         0.27500E+01
         0.27500E+01
         0.27500E+01
         0.27500E+01
         0.27500E+01
         0.27500E+01
         0.27500E+01
         0.27500E+01
         0.27500E+01
         0.27500E+01
         0.27500E+01
         0.27500E+01
         0.27500E+01
         0.27500E+01
         0.27500E+01
         0.27500E+01
         0.27500E+01
         0.27500E+01
         0.27500E+01
         0.27500E+01
         0.27500E+01
         0.27500E+01
         0.27500E+01
         0.27500E+01
         0.27500E+01
         0.27500E+01
         0.27500E+01
         0.27500E+01
         0.27500E+01
         0.27500E+01
         0.27500E+01
         0.27500E+01
         0.27500E+01
         0.27500E+01
         0.27500E+01
         0.27500E+01
         0.27500E+01
         0.27500E+01
         0.27500E+01
         0.27500E+01
         0.27500E+01
         0.27500E+01
         0.27500E+01
         0.27500E+01
         0.27500E+01
         0.27500E+01
         0.27500E+01
         0.27500E+01
         0.27500E+01
         0.27500E+01
         0.27500E+01
         0.27500E+01
         0.27500E+01
         0.27500E+01
         0.27500E+01
         0.27500E+01
         0.27500E+01
         0.27500E+01
         0.27500E+01
         0.27500E+01
         0.27500E+01
         0.27500E+01
         0.27500E+01
         0.27500E+01
         0.27500E+01
         0.27500E+01
         0.27500E+01
         0.27500E+01
         0.27500E+01
         0.27500E+01
         0.27500E+01
         0.27500E+01
         0.27500E+01
         0.27500E+01
         0.27500E+01
         0.27500E+01
         0.27500E+01
         0.27500E+01
         0.27500E+01
         0.27500E+01
         0.27500E+01
         0.27500E+01
         0.27500E+01
         0.27500E+01
         0.27500E+01
         0.27500E+01
         0.27500E+01
         0.27500E+01
         0.27500E+01
         0.27500E+01
         0.27500E+01
         0.27500E+01
         0.27500E+01
         0.27500E+01
         0.27500E+01
         0.27500E+01
         0.27500E+01
         0.27500E+01
         0.27500E+01
         0.27500E+01
         0.27500E+01
         0.27500E+01
         0.27500E+01
         0.27500E+01
         0.27500E+01
         0.27500E+01
         0.27500E+01
         0.27500E+01
         0.27500E+01
         0.27500E+01
         0.27500E+01
         0.27500E+01
         0.27500E+01
         0.27500E+01
         0.27500E+01
         0.27500E+01
         0.27500E+01
         0.27500E+01
         0.27500E+01
         0.27500E+01
         0.27500E+01
         0.27500E+01
         0.27500E+01
         0.27500E+01
         0.27500E+01
         0.27500E+01
         0.27500E+01
         0.27500E+01
         0.27500E+01
         0.27500E+01
         0.27500E+01
         0.27500E+01
         0.27500E+01
         0.27500E+01
         0.27500E+01
         0.27500E+01
         0.27500E+01
         0.27500E+01
         0.27500E+01
         0.27500E+01
         0.27500E+01
         0.27500E+01
         0.27500E+01
         0.27500E+01
         0.27500E+01
         0.27500E+01
         0.27500E+01
         0.27500E+01
         0.27500E+01
         0.27500E+01
         0.27500E+01
         0.27500E+01
         0.27500E+01
         0.27500E+01
         0.27500E+01
         0.27500E+01
         0.27500E+01
         0.27500E+01
         0.27500E+01
         0.27500E+01
         0.27500E+01
         0.27500E+01
         0.27500E+01
         0.27500E+01
         0.27500E+01
         0.27500E+01
         0.27500E+01
         0.27500E+01
         0.27500E+01
         0.27500E+01
         0.27500E+01
         0.27500E+01
         0.27500E+01
         0.27500E+01
         0.27500E+01
         0.27500E+01
         0.27500E+01
         0.27500E+01
         0.27500E+01
         0.27500E+01
         0.27500E+01
         0.27500E+01
         0.27500E+01
         0.27500E+01
         0.27500E+01
         0.27500E+01
         0.27500E+01
         0.27500E+01
         0.27500E+01
         0.27500E+01
         0.27500E+01
         0.27500E+01
         0.27500E+01
         0.27500E+01
         0.27500E+01
         0.27500E+01
         0.27500E+01
         0.27500E+01
         0.27500E+01
         0.27500E+01
         0.27500E+01
         0.27500E+01
         0.27500E+01
         0.27500E+01
         0.27500E+01
         0.27500E+01
         0.27500E+01
         0.27500E+01
         0.27500E+01
         0.27500E+01
         0.27500E+01
         0.27500E+01
         0.27500E+01
         0.27500E+01
         0.27500E+01
         0.27500E+01
         0.27500E+01
         0.27500E+01
         0.27500E+01
         0.27500E+01
         0.27500E+01
         0.27500E+01
         0.27500E+01
         0.27500E+01
         0.27500E+01
         0.27500E+01
         0.27500E+01
         0.27500E+01
         0.27500E+01
         0.27500E+01
         0.27500E+01
         0.27500E+01
         0.27500E+01
         0.27500E+01
         0.27500E+01
         0.27500E+01
         0.27500E+01
         0.27500E+01
         0.27500E+01
         0.27500E+01
         0.27500E+01
         0.27500E+01
         0.27500E+01
         0.27500E+01
         0.27500E+01
         0.27500E+01
         0.27500E+01
         0.27500E+01
         0.27500E+01
         0.27500E+01
         0.27500E+01
         0.27500E+01
         0.27500E+01
         0.27500E+01
         0.27500E+01
         0.27500E+01
         0.27500E+01
         0.27500E+01
         0.27500E+01
         0.27500E+01
         0.27500E+01
         0.27500E+01
         0.27500E+01
         0.27500E+01
         0.27500E+01
         0.27500E+01
         0.27500E+01
         0.27500E+01
         0.27500E+01
         0.27500E+01
         0.27500E+01
         0.27500E+01
         0.27500E+01
         0.27500E+01
         0.27500E+01
         0.27500E+01
         0.27500E+01
         0.27500E+01
         0.27500E+01
         0.27500E+01
         0.27500E+01
         0.27500E+01
         0.27500E+01
         0.27500E+01
         0.27500E+01
         0.27500E+01
         0.27500E+01
         0.27500E+01
         0.27500E+01
         0.27500E+01
         0.27500E+01
         0.27500E+01
         0.27500E+01
         0.27500E+01
         0.27500E+01
         0.27500E+01
         0.27500E+01
         0.27500E+01
         0.27500E+01
         0.27500E+01
         0.27500E+01
         0.27500E+01
         0.27500E+01
         0.27500E+01
         0.27500E+01
         0.27500E+01
         0.27500E+01
         0.27500E+01
         0.27500E+01
         0.27500E+01
         0.27500E+01
         0.27500E+01
         0.27500E+01
         0.27500E+01
         0.27500E+01
         0.27500E+01
         0.27500E+01
         0.27500E+01
         0.27500E+01
         0.27500E+01
         0.27500E+01
         0.27500E+01
         0.27500E+01
         0.27500E+01
         0.27500E+01
         0.27500E+01
         0.27500E+01
         0.27500E+01
         0.27500E+01
         0.27500E+01
         0.27500E+01
         0.27500E+01
         0.27500E+01
         0.27500E+01
         0.27500E+01
         0.27500E+01
         0.27500E+01
         0.27500E+01
         0.27500E+01
         0.27500E+01
         0.27500E+01
         0.27500E+01
         0.27500E+01
         0.27500E+01
         0.27500E+01
         0.27500E+01
         0.27500E+01
         0.27500E+01
         0.27500E+01
         0.27500E+01
         0.27500E+01
         0.27500E+01
         0.27500E+01
         0.27500E+01
         0.27500E+01
         0.27500E+01
         0.27500E+01
         0.27500E+01
         0.27500E+01
         0.27500E+01
         0.27500E+01
         0.27500E+01
         0.27500E+01
         0.27500E+01
         0.27500E+01
         0.27500E+01
         0.27500E+01
         0.27500E+01
         0.27500E+01
         0.27500E+01
         0.27500E+01
         0.27500E+01
         0.27500E+01
         0.27500E+01
         0.27500E+01
         0.27500E+01
         0.27500E+01
         0.27500E+01
         0.27500E+01
         0.27500E+01
         0.27500E+01
         0.27500E+01
         0.27500E+01
         0.27500E+01
         0.27500E+01
         0.27500E+01
         0.27500E+01
         0.27500E+01
         0.27500E+01
         0.27500E+01
         0.27500E+01
         0.27500E+01
         0.27500E+01
         0.27500E+01
         0.27500E+01
         0.27500E+01
         0.27500E+01
         0.27500E+01
         0.27500E+01
         0.27500E+01
         0.27500E+01
         0.27500E+01
         0.27500E+01
         0.27500E+01
         0.27500E+01
         0.27500E+01
         0.27500E+01
         0.27500E+01
         0.27500E+01
         0.27500E+01
         0.27500E+01
         0.27500E+01
         0.27500E+01
         0.27500E+01
         0.27500E+01
         0.27500E+01
         0.27500E+01
         0.27500E+01
         0.27500E+01
         0.27500E+01
         0.27500E+01
         0.27500E+01
         0.27500E+01
         0.27500E+01
         0.27500E+01
         0.27500E+01
         0.27500E+01
         0.27500E+01
         0.27500E+01
         0.27500E+01
         0.27500E+01
         0.27500E+01
         0.27500E+01
         0.27500E+01
         0.27500E+01
         0.27500E+01
         0.27500E+01
         0.27500E+01
         0.27500E+01
         0.27500E+01
         0.27500E+01
         0.27500E+01
         0.27500E+01
         0.27500E+01
         0.27500E+01
         0.27500E+01
         0.27500E+01
         0.27500E+01
         0.27500E+01
         0.27500E+01
         0.27500E+01
         0.27500E+01
         0.27500E+01
         0.27500E+01
         0.27500E+01
         0.27500E+01
         0.27500E+01
         0.27500E+01
         0.27500E+01
         0.27500E+01
         0.27500E+01
         0.27500E+01
         0.27500E+01
         0.27500E+01
         0.27500E+01
         0.27500E+01
         0.27500E+01
         0.27500E+01
         0.27500E+01
         0.27500E+01
         0.27500E+01
         0.27500E+01
         0.27500E+01
         0.27500E+01
         0.27500E+01
         0.27500E+01
         0.27500E+01
         0.27500E+01
         0.27500E+01
         0.27500E+01
         0.27500E+01
         0.27500E+01
         0.27500E+01
         0.27500E+01
         0.27500E+01
         0.27500E+01
         0.27500E+01
         0.27500E+01
         0.27500E+01
  
SCALARS              physical_window_x  double 1
LOOKUP_TABLE default
         0.42419E-02
         0.35201E-02
         0.37624E-02
         0.42419E-02
         0.42417E-02
         0.35201E-02
         0.37618E-02
         0.42417E-02
         0.37624E-02
         0.37624E-02
         0.37618E-02
         0.37618E-02
         0.30086E-02
         0.32069E-02
         0.30084E-02
         0.32067E-02
         0.42419E-02
         0.32069E-02
         0.42417E-02
         0.32067E-02
         0.24180E-02
         0.29942E-02
         0.32396E-02
         0.24180E-02
         0.29933E-02
         0.32385E-02
         0.26608E-02
         0.27190E-02
         0.26608E-02
         0.27190E-02
         0.42687E-02
         0.36511E-02
         0.42687E-02
         0.42687E-02
         0.36511E-02
         0.42687E-02
         0.32069E-02
         0.29739E-02
         0.32066E-02
         0.29739E-02
         0.34652E-02
         0.32621E-02
         0.34652E-02
         0.32621E-02
         0.37123E-02
         0.32069E-02
         0.37123E-02
         0.32066E-02
         0.30844E-02
         0.30844E-02
         0.35191E-02
         0.35189E-02
         0.26925E-02
         0.26925E-02
         0.26925E-02
         0.26925E-02
         0.24643E-02
         0.27651E-02
         0.24643E-02
         0.27651E-02
         0.42687E-02
         0.35191E-02
         0.42687E-02
         0.35189E-02
         0.42687E-02
         0.42687E-02
         0.34658E-02
         0.34648E-02
         0.27274E-02
         0.31799E-02
         0.27273E-02
         0.31796E-02
         0.32396E-02
         0.32385E-02
         0.26964E-02
         0.26960E-02
         0.27828E-02
         0.27828E-02
         0.27828E-02
         0.27828E-02
         0.27004E-02
         0.31883E-02
         0.27003E-02
         0.31880E-02
         0.31883E-02
         0.31880E-02
         0.37123E-02
         0.37123E-02
         0.36245E-02
         0.36245E-02
         0.28253E-02
         0.31642E-02
         0.28253E-02
         0.31636E-02
         0.33485E-02
         0.33485E-02
         0.33485E-02
         0.33485E-02
         0.31978E-02
         0.31969E-02
         0.29849E-02
         0.32843E-02
         0.29849E-02
         0.32843E-02
         0.27274E-02
         0.31109E-02
         0.27273E-02
         0.31109E-02
         0.31799E-02
         0.31796E-02
         0.32396E-02
         0.32385E-02
         0.32396E-02
         0.32385E-02
         0.29942E-02
         0.29933E-02
         0.27190E-02
         0.27190E-02
         0.26964E-02
         0.26960E-02
         0.27828E-02
         0.27828E-02
         0.27828E-02
         0.27828E-02
         0.27004E-02
         0.27003E-02
         0.31883E-02
         0.31880E-02
         0.31883E-02
         0.31880E-02
         0.32621E-02
         0.32621E-02
         0.34652E-02
         0.34652E-02
         0.37123E-02
         0.37123E-02
         0.37123E-02
         0.37123E-02
         0.36245E-02
         0.36245E-02
         0.28253E-02
         0.28253E-02
         0.29097E-02
         0.29087E-02
         0.32389E-02
         0.32378E-02
         0.32389E-02
         0.32378E-02
         0.31978E-02
         0.31969E-02
         0.29849E-02
         0.29849E-02
         0.32843E-02
         0.32843E-02
         0.32843E-02
         0.32843E-02
         0.42420E-02
         0.35201E-02
         0.37629E-02
         0.42420E-02
         0.37629E-02
         0.37629E-02
         0.30087E-02
         0.32071E-02
         0.42420E-02
         0.32071E-02
         0.24178E-02
         0.29952E-02
         0.32407E-02
         0.26596E-02
         0.27191E-02
         0.42679E-02
         0.36502E-02
         0.42679E-02
         0.32071E-02
         0.29727E-02
         0.34648E-02
         0.32622E-02
         0.37119E-02
         0.32071E-02
         0.30833E-02
         0.35193E-02
         0.26910E-02
         0.26910E-02
         0.24638E-02
         0.27644E-02
         0.42679E-02
         0.35193E-02
         0.42679E-02
         0.34670E-02
         0.27274E-02
         0.31802E-02
         0.32407E-02
         0.26968E-02
         0.27828E-02
         0.27828E-02
         0.27005E-02
         0.31885E-02
         0.31885E-02
         0.37119E-02
         0.36244E-02
         0.28250E-02
         0.31647E-02
         0.33484E-02
         0.33484E-02
         0.31986E-02
         0.29848E-02
         0.32841E-02
         0.27274E-02
         0.31099E-02
         0.31802E-02
         0.32407E-02
         0.32407E-02
         0.29952E-02
         0.27191E-02
         0.26968E-02
         0.27828E-02
         0.27828E-02
         0.27005E-02
         0.31885E-02
         0.31885E-02
         0.32622E-02
         0.34648E-02
         0.37119E-02
         0.37119E-02
         0.36244E-02
         0.28250E-02
         0.29106E-02
         0.32401E-02
         0.32401E-02
         0.31986E-02
         0.29848E-02
         0.32841E-02
         0.32841E-02
         0.42421E-02
         0.35201E-02
         0.37634E-02
         0.42421E-02
         0.37634E-02
         0.37634E-02
         0.30089E-02
         0.32073E-02
         0.42421E-02
         0.32073E-02
         0.24177E-02
         0.29961E-02
         0.32418E-02
         0.26584E-02
         0.27191E-02
         0.42670E-02
         0.36493E-02
         0.42670E-02
         0.32073E-02
         0.29714E-02
         0.34644E-02
         0.32623E-02
         0.37115E-02
         0.32073E-02
         0.30822E-02
         0.35195E-02
         0.26896E-02
         0.26896E-02
         0.24633E-02
         0.27638E-02
         0.42670E-02
         0.35195E-02
         0.42670E-02
         0.34681E-02
         0.27275E-02
         0.31805E-02
         0.32418E-02
         0.26972E-02
         0.27828E-02
         0.27828E-02
         0.27006E-02
         0.31888E-02
         0.31888E-02
         0.37115E-02
         0.36243E-02
         0.28247E-02
         0.31652E-02
         0.33483E-02
         0.33483E-02
         0.31995E-02
         0.29847E-02
         0.32839E-02
         0.27275E-02
         0.31090E-02
         0.31805E-02
         0.32418E-02
         0.32418E-02
         0.29961E-02
         0.27191E-02
         0.26972E-02
         0.27828E-02
         0.27828E-02
         0.27006E-02
         0.31888E-02
         0.31888E-02
         0.32623E-02
         0.34644E-02
         0.37115E-02
         0.37115E-02
         0.36243E-02
         0.28247E-02
         0.29116E-02
         0.32412E-02
         0.32412E-02
         0.31995E-02
         0.29847E-02
         0.32839E-02
         0.32839E-02
         0.42423E-02
         0.35200E-02
         0.37639E-02
         0.42423E-02
         0.37639E-02
         0.37639E-02
         0.30091E-02
         0.32075E-02
         0.42423E-02
         0.32075E-02
         0.24176E-02
         0.29970E-02
         0.32428E-02
         0.26572E-02
         0.27192E-02
         0.42662E-02
         0.36483E-02
         0.42662E-02
         0.32075E-02
         0.29702E-02
         0.34639E-02
         0.32624E-02
         0.37111E-02
         0.32075E-02
         0.30811E-02
         0.35197E-02
         0.26881E-02
         0.26881E-02
         0.24628E-02
         0.27631E-02
         0.42662E-02
         0.35197E-02
         0.42662E-02
         0.34692E-02
         0.27276E-02
         0.31808E-02
         0.32428E-02
         0.26975E-02
         0.27828E-02
         0.27828E-02
         0.27007E-02
         0.31890E-02
         0.31890E-02
         0.37111E-02
         0.36242E-02
         0.28243E-02
         0.31658E-02
         0.33482E-02
         0.33482E-02
         0.32003E-02
         0.29846E-02
         0.32837E-02
         0.27276E-02
         0.31081E-02
         0.31808E-02
         0.32428E-02
         0.32428E-02
         0.29970E-02
         0.27192E-02
         0.26975E-02
         0.27828E-02
         0.27828E-02
         0.27007E-02
         0.31890E-02
         0.31890E-02
         0.32624E-02
         0.34639E-02
         0.37111E-02
         0.37111E-02
         0.36242E-02
         0.28243E-02
         0.29125E-02
         0.32423E-02
         0.32423E-02
         0.32003E-02
         0.29846E-02
         0.32837E-02
         0.32837E-02
         0.42424E-02
         0.35200E-02
         0.37644E-02
         0.42424E-02
         0.37644E-02
         0.37644E-02
         0.30093E-02
         0.32077E-02
         0.42424E-02
         0.32077E-02
         0.24174E-02
         0.29979E-02
         0.32439E-02
         0.26559E-02
         0.27192E-02
         0.42653E-02
         0.36474E-02
         0.42653E-02
         0.32077E-02
         0.29690E-02
         0.34635E-02
         0.32624E-02
         0.37108E-02
         0.32077E-02
         0.30799E-02
         0.35199E-02
         0.26867E-02
         0.26867E-02
         0.24623E-02
         0.27625E-02
         0.42653E-02
         0.35199E-02
         0.42653E-02
         0.34703E-02
         0.27276E-02
         0.31812E-02
         0.32439E-02
         0.26979E-02
         0.27828E-02
         0.27828E-02
         0.27008E-02
         0.31893E-02
         0.31893E-02
         0.37108E-02
         0.36241E-02
         0.28240E-02
         0.31663E-02
         0.33481E-02
         0.33481E-02
         0.32012E-02
         0.29844E-02
         0.32835E-02
         0.27276E-02
         0.31071E-02
         0.31812E-02
         0.32439E-02
         0.32439E-02
         0.29979E-02
         0.27192E-02
         0.26979E-02
         0.27828E-02
         0.27828E-02
         0.27008E-02
         0.31893E-02
         0.31893E-02
         0.32624E-02
         0.34635E-02
         0.37108E-02
         0.37108E-02
         0.36241E-02
         0.28240E-02
         0.29135E-02
         0.32434E-02
         0.32434E-02
         0.32012E-02
         0.29844E-02
         0.32835E-02
         0.32835E-02
         0.42425E-02
         0.35200E-02
         0.37649E-02
         0.42425E-02
         0.37649E-02
         0.37649E-02
         0.30095E-02
         0.32079E-02
         0.42425E-02
         0.32079E-02
         0.24173E-02
         0.29989E-02
         0.32450E-02
         0.26547E-02
         0.27193E-02
         0.42645E-02
         0.36465E-02
         0.42645E-02
         0.32079E-02
         0.29677E-02
         0.34631E-02
         0.32625E-02
         0.37104E-02
         0.32079E-02
         0.30788E-02
         0.35201E-02
         0.26852E-02
         0.26852E-02
         0.24618E-02
         0.27618E-02
         0.42645E-02
         0.35201E-02
         0.42645E-02
         0.34715E-02
         0.27277E-02
         0.31815E-02
         0.32450E-02
         0.26983E-02
         0.27828E-02
         0.27828E-02
         0.27009E-02
         0.31895E-02
         0.31895E-02
         0.37104E-02
         0.36239E-02
         0.28237E-02
         0.31668E-02
         0.33480E-02
         0.33480E-02
         0.32020E-02
         0.29843E-02
         0.32833E-02
         0.27277E-02
         0.31062E-02
         0.31815E-02
         0.32450E-02
         0.32450E-02
         0.29989E-02
         0.27193E-02
         0.26983E-02
         0.27828E-02
         0.27828E-02
         0.27009E-02
         0.31895E-02
         0.31895E-02
         0.32625E-02
         0.34631E-02
         0.37104E-02
         0.37104E-02
         0.36239E-02
         0.28237E-02
         0.29145E-02
         0.32445E-02
         0.32445E-02
         0.32020E-02
         0.29843E-02
         0.32833E-02
         0.32833E-02
         0.42427E-02
         0.35200E-02
         0.37654E-02
         0.42427E-02
         0.37654E-02
         0.37654E-02
         0.30097E-02
         0.32081E-02
         0.42427E-02
         0.32081E-02
         0.24171E-02
         0.29998E-02
         0.32461E-02
         0.26535E-02
         0.27193E-02
         0.42636E-02
         0.36455E-02
         0.42636E-02
         0.32081E-02
         0.29665E-02
         0.34626E-02
         0.32626E-02
         0.37100E-02
         0.32081E-02
         0.30777E-02
         0.35203E-02
         0.26838E-02
         0.26838E-02
         0.24613E-02
         0.27611E-02
         0.42636E-02
         0.35203E-02
         0.42636E-02
         0.34726E-02
         0.27278E-02
         0.31818E-02
         0.32461E-02
         0.26987E-02
         0.27827E-02
         0.27827E-02
         0.27010E-02
         0.31898E-02
         0.31898E-02
         0.37100E-02
         0.36238E-02
         0.28234E-02
         0.31673E-02
         0.33479E-02
         0.33479E-02
         0.32029E-02
         0.29842E-02
         0.32831E-02
         0.27278E-02
         0.31052E-02
         0.31818E-02
         0.32461E-02
         0.32461E-02
         0.29998E-02
         0.27193E-02
         0.26987E-02
         0.27827E-02
         0.27827E-02
         0.27010E-02
         0.31898E-02
         0.31898E-02
         0.32626E-02
         0.34626E-02
         0.37100E-02
         0.37100E-02
         0.36238E-02
         0.28234E-02
         0.29154E-02
         0.32457E-02
         0.32457E-02
         0.32029E-02
         0.29842E-02
         0.32831E-02
         0.32831E-02
         0.42428E-02
         0.35199E-02
         0.37660E-02
         0.42428E-02
         0.37660E-02
         0.37660E-02
         0.30099E-02
         0.32083E-02
         0.42428E-02
         0.32083E-02
         0.24170E-02
         0.30007E-02
         0.32471E-02
         0.26523E-02
         0.27194E-02
         0.42628E-02
         0.36446E-02
         0.42628E-02
         0.32083E-02
         0.29652E-02
         0.34622E-02
         0.32627E-02
         0.37096E-02
         0.32083E-02
         0.30766E-02
         0.35205E-02
         0.26823E-02
         0.26823E-02
         0.24608E-02
         0.27605E-02
         0.42628E-02
         0.35205E-02
         0.42628E-02
         0.34737E-02
         0.27279E-02
         0.31821E-02
         0.32471E-02
         0.26991E-02
         0.27827E-02
         0.27827E-02
         0.27011E-02
         0.31900E-02
         0.31900E-02
         0.37096E-02
         0.36237E-02
         0.28231E-02
         0.31679E-02
         0.33478E-02
         0.33478E-02
         0.32038E-02
         0.29841E-02
         0.32829E-02
         0.27279E-02
         0.31043E-02
         0.31821E-02
         0.32471E-02
         0.32471E-02
         0.30007E-02
         0.27194E-02
         0.26991E-02
         0.27827E-02
         0.27827E-02
         0.27011E-02
         0.31900E-02
         0.31900E-02
         0.32627E-02
         0.34622E-02
         0.37096E-02
         0.37096E-02
         0.36237E-02
         0.28231E-02
         0.29164E-02
         0.32468E-02
         0.32468E-02
         0.32038E-02
         0.29841E-02
         0.32829E-02
         0.32829E-02
         0.42429E-02
         0.35199E-02
         0.37665E-02
         0.42429E-02
         0.37665E-02
         0.37665E-02
         0.30101E-02
         0.32085E-02
         0.42429E-02
         0.32085E-02
         0.24168E-02
         0.30017E-02
         0.32482E-02
         0.26510E-02
         0.27194E-02
         0.42619E-02
         0.36437E-02
         0.42619E-02
         0.32085E-02
         0.29640E-02
         0.34618E-02
         0.32627E-02
         0.37092E-02
         0.32085E-02
         0.30755E-02
         0.35207E-02
         0.26808E-02
         0.26808E-02
         0.24603E-02
         0.27599E-02
         0.42619E-02
         0.35207E-02
         0.42619E-02
         0.34748E-02
         0.27279E-02
         0.31824E-02
         0.32482E-02
         0.26994E-02
         0.27827E-02
         0.27827E-02
         0.27012E-02
         0.31902E-02
         0.31902E-02
         0.37092E-02
         0.36236E-02
         0.28227E-02
         0.31684E-02
         0.33477E-02
         0.33477E-02
         0.32046E-02
         0.29840E-02
         0.32827E-02
         0.27279E-02
         0.31034E-02
         0.31824E-02
         0.32482E-02
         0.32482E-02
         0.30017E-02
         0.27194E-02
         0.26994E-02
         0.27827E-02
         0.27827E-02
         0.27012E-02
         0.31902E-02
         0.31902E-02
         0.32627E-02
         0.34618E-02
         0.37092E-02
         0.37092E-02
         0.36236E-02
         0.28227E-02
         0.29173E-02
         0.32479E-02
         0.32479E-02
         0.32046E-02
         0.29840E-02
         0.32827E-02
         0.32827E-02
         0.42431E-02
         0.35199E-02
         0.37670E-02
         0.42431E-02
         0.37670E-02
         0.37670E-02
         0.30102E-02
         0.32087E-02
         0.42431E-02
         0.32087E-02
         0.24167E-02
         0.30026E-02
         0.32493E-02
         0.26498E-02
         0.27194E-02
         0.42611E-02
         0.36427E-02
         0.42611E-02
         0.32087E-02
         0.29628E-02
         0.34613E-02
         0.32628E-02
         0.37089E-02
         0.32087E-02
         0.30744E-02
         0.35209E-02
         0.26794E-02
         0.26794E-02
         0.24598E-02
         0.27592E-02
         0.42611E-02
         0.35209E-02
         0.42611E-02
         0.34759E-02
         0.27280E-02
         0.31827E-02
         0.32493E-02
         0.26998E-02
         0.27827E-02
         0.27827E-02
         0.27013E-02
         0.31905E-02
         0.31905E-02
         0.37089E-02
         0.36235E-02
         0.28224E-02
         0.31689E-02
         0.33476E-02
         0.33476E-02
         0.32055E-02
         0.29839E-02
         0.32825E-02
         0.27280E-02
         0.31024E-02
         0.31827E-02
         0.32493E-02
         0.32493E-02
         0.30026E-02
         0.27194E-02
         0.26998E-02
         0.27827E-02
         0.27827E-02
         0.27013E-02
         0.31905E-02
         0.31905E-02
         0.32628E-02
         0.34613E-02
         0.37089E-02
         0.37089E-02
         0.36235E-02
         0.28224E-02
         0.29183E-02
         0.32490E-02
         0.32490E-02
         0.32055E-02
         0.29839E-02
         0.32825E-02
         0.32825E-02
         0.42432E-02
         0.35199E-02
         0.37675E-02
         0.42432E-02
         0.37675E-02
         0.37675E-02
         0.30104E-02
         0.32089E-02
         0.42432E-02
         0.32089E-02
         0.24166E-02
         0.30035E-02
         0.32504E-02
         0.26486E-02
         0.27195E-02
         0.42603E-02
         0.36418E-02
         0.42603E-02
         0.32089E-02
         0.29615E-02
         0.34609E-02
         0.32629E-02
         0.37085E-02
         0.32089E-02
         0.30732E-02
         0.35211E-02
         0.26779E-02
         0.26779E-02
         0.24593E-02
         0.27585E-02
         0.42603E-02
         0.35211E-02
         0.42603E-02
         0.34771E-02
         0.27281E-02
         0.31830E-02
         0.32504E-02
         0.27002E-02
         0.27827E-02
         0.27827E-02
         0.27014E-02
         0.31907E-02
         0.31907E-02
         0.37085E-02
         0.36233E-02
         0.28221E-02
         0.31694E-02
         0.33475E-02
         0.33475E-02
         0.32063E-02
         0.29838E-02
         0.32823E-02
         0.27281E-02
         0.31015E-02
         0.31830E-02
         0.32504E-02
         0.32504E-02
         0.30035E-02
         0.27195E-02
         0.27002E-02
         0.27827E-02
         0.27827E-02
         0.27014E-02
         0.31907E-02
         0.31907E-02
         0.32629E-02
         0.34609E-02
         0.37085E-02
         0.37085E-02
         0.36233E-02
         0.28221E-02
         0.29193E-02
         0.32501E-02
         0.32501E-02
         0.32063E-02
         0.29838E-02
         0.32823E-02
         0.32823E-02
         0.42433E-02
         0.35199E-02
         0.37680E-02
         0.42433E-02
         0.37680E-02
         0.37680E-02
         0.30106E-02
         0.32091E-02
         0.42433E-02
         0.32091E-02
         0.24164E-02
         0.30045E-02
         0.32514E-02
         0.26474E-02
         0.27195E-02
         0.42594E-02
         0.36409E-02
         0.42594E-02
         0.32091E-02
         0.29603E-02
         0.34605E-02
         0.32630E-02
         0.37081E-02
         0.32091E-02
         0.30721E-02
         0.35213E-02
         0.26765E-02
         0.26765E-02
         0.24588E-02
         0.27579E-02
         0.42594E-02
         0.35213E-02
         0.42594E-02
         0.34782E-02
         0.27281E-02
         0.31833E-02
         0.32514E-02
         0.27006E-02
         0.27826E-02
         0.27826E-02
         0.27015E-02
         0.31910E-02
         0.31910E-02
         0.37081E-02
         0.36232E-02
         0.28218E-02
         0.31700E-02
         0.33474E-02
         0.33474E-02
         0.32072E-02
         0.29836E-02
         0.32821E-02
         0.27281E-02
         0.31005E-02
         0.31833E-02
         0.32514E-02
         0.32514E-02
         0.30045E-02
         0.27195E-02
         0.27006E-02
         0.27826E-02
         0.27826E-02
         0.27015E-02
         0.31910E-02
         0.31910E-02
         0.32630E-02
         0.34605E-02
         0.37081E-02
         0.37081E-02
         0.36232E-02
         0.28218E-02
         0.29202E-02
         0.32512E-02
         0.32512E-02
         0.32072E-02
         0.29836E-02
         0.32821E-02
         0.32821E-02
         0.42435E-02
         0.35199E-02
         0.37685E-02
         0.42435E-02
         0.37685E-02
         0.37685E-02
         0.30108E-02
         0.32093E-02
         0.42435E-02
         0.32093E-02
         0.24163E-02
         0.30054E-02
         0.32525E-02
         0.26461E-02
         0.27196E-02
         0.42586E-02
         0.36399E-02
         0.42586E-02
         0.32093E-02
         0.29591E-02
         0.34601E-02
         0.32630E-02
         0.37077E-02
         0.32093E-02
         0.30710E-02
         0.35215E-02
         0.26750E-02
         0.26750E-02
         0.24583E-02
         0.27572E-02
         0.42586E-02
         0.35215E-02
         0.42586E-02
         0.34793E-02
         0.27282E-02
         0.31836E-02
         0.32525E-02
         0.27010E-02
         0.27826E-02
         0.27826E-02
         0.27016E-02
         0.31912E-02
         0.31912E-02
         0.37077E-02
         0.36231E-02
         0.28215E-02
         0.31705E-02
         0.33473E-02
         0.33473E-02
         0.32080E-02
         0.29835E-02
         0.32819E-02
         0.27282E-02
         0.30996E-02
         0.31836E-02
         0.32525E-02
         0.32525E-02
         0.30054E-02
         0.27196E-02
         0.27010E-02
         0.27826E-02
         0.27826E-02
         0.27016E-02
         0.31912E-02
         0.31912E-02
         0.32630E-02
         0.34601E-02
         0.37077E-02
         0.37077E-02
         0.36231E-02
         0.28215E-02
         0.29212E-02
         0.32524E-02
         0.32524E-02
         0.32080E-02
         0.29835E-02
         0.32819E-02
         0.32819E-02
         0.42436E-02
         0.35198E-02
         0.37690E-02
         0.42436E-02
         0.37690E-02
         0.37690E-02
         0.30110E-02
         0.32095E-02
         0.42436E-02
         0.32095E-02
         0.24162E-02
         0.30064E-02
         0.32536E-02
         0.26449E-02
         0.27196E-02
         0.42577E-02
         0.36390E-02
         0.42577E-02
         0.32096E-02
         0.29578E-02
         0.34596E-02
         0.32631E-02
         0.37074E-02
         0.32096E-02
         0.30699E-02
         0.35217E-02
         0.26735E-02
         0.26735E-02
         0.24578E-02
         0.27566E-02
         0.42577E-02
         0.35217E-02
         0.42577E-02
         0.34804E-02
         0.27283E-02
         0.31839E-02
         0.32536E-02
         0.27013E-02
         0.27826E-02
         0.27826E-02
         0.27017E-02
         0.31915E-02
         0.31915E-02
         0.37074E-02
         0.36230E-02
         0.28211E-02
         0.31710E-02
         0.33472E-02
         0.33472E-02
         0.32089E-02
         0.29834E-02
         0.32817E-02
         0.27283E-02
         0.30986E-02
         0.31839E-02
         0.32536E-02
         0.32536E-02
         0.30064E-02
         0.27196E-02
         0.27013E-02
         0.27826E-02
         0.27826E-02
         0.27017E-02
         0.31915E-02
         0.31915E-02
         0.32631E-02
         0.34596E-02
         0.37074E-02
         0.37074E-02
         0.36230E-02
         0.28211E-02
         0.29221E-02
         0.32535E-02
         0.32535E-02
         0.32089E-02
         0.29834E-02
         0.32817E-02
         0.32817E-02
         0.42437E-02
         0.35198E-02
         0.37695E-02
         0.42437E-02
         0.37695E-02
         0.37695E-02
         0.30112E-02
         0.32097E-02
         0.42437E-02
         0.32097E-02
         0.24160E-02
         0.30073E-02
         0.32547E-02
         0.26437E-02
         0.27197E-02
         0.42569E-02
         0.36381E-02
         0.42569E-02
         0.32098E-02
         0.29566E-02
         0.34592E-02
         0.32632E-02
         0.37070E-02
         0.32098E-02
         0.30688E-02
         0.35219E-02
         0.26721E-02
         0.26721E-02
         0.24573E-02
         0.27560E-02
         0.42569E-02
         0.35219E-02
         0.42569E-02
         0.34815E-02
         0.27284E-02
         0.31843E-02
         0.32547E-02
         0.27017E-02
         0.27826E-02
         0.27826E-02
         0.27018E-02
         0.31917E-02
         0.31917E-02
         0.37070E-02
         0.36229E-02
         0.28208E-02
         0.31716E-02
         0.33471E-02
         0.33471E-02
         0.32097E-02
         0.29833E-02
         0.32815E-02
         0.27284E-02
         0.30977E-02
         0.31843E-02
         0.32547E-02
         0.32547E-02
         0.30073E-02
         0.27197E-02
         0.27017E-02
         0.27826E-02
         0.27826E-02
         0.27018E-02
         0.31917E-02
         0.31917E-02
         0.32632E-02
         0.34592E-02
         0.37070E-02
         0.37070E-02
         0.36229E-02
         0.28208E-02
         0.29231E-02
         0.32546E-02
         0.32546E-02
         0.32097E-02
         0.29833E-02
         0.32815E-02
         0.32815E-02
         0.42439E-02
         0.35198E-02
         0.37701E-02
         0.42439E-02
         0.37701E-02
         0.37701E-02
         0.30113E-02
         0.32099E-02
         0.42439E-02
         0.32099E-02
         0.24159E-02
         0.30082E-02
         0.32558E-02
         0.26425E-02
         0.27197E-02
         0.42560E-02
         0.36371E-02
         0.42560E-02
         0.32100E-02
         0.29554E-02
         0.34588E-02
         0.32633E-02
         0.37066E-02
         0.32100E-02
         0.30677E-02
         0.35221E-02
         0.26706E-02
         0.26706E-02
         0.24568E-02
         0.27553E-02
         0.42560E-02
         0.35221E-02
         0.42560E-02
         0.34827E-02
         0.27284E-02
         0.31846E-02
         0.32558E-02
         0.27021E-02
         0.27826E-02
         0.27826E-02
         0.27019E-02
         0.31920E-02
         0.31920E-02
         0.37066E-02
         0.36227E-02
         0.28205E-02
         0.31721E-02
         0.33470E-02
         0.33470E-02
         0.32106E-02
         0.29831E-02
         0.32813E-02
         0.27284E-02
         0.30968E-02
         0.31846E-02
         0.32558E-02
         0.32558E-02
         0.30082E-02
         0.27197E-02
         0.27021E-02
         0.27826E-02
         0.27826E-02
         0.27019E-02
         0.31920E-02
         0.31920E-02
         0.32633E-02
         0.34588E-02
         0.37066E-02
         0.37066E-02
         0.36227E-02
         0.28205E-02
         0.29241E-02
         0.32557E-02
         0.32557E-02
         0.32106E-02
         0.29831E-02
         0.32813E-02
         0.32813E-02
         0.42440E-02
         0.35198E-02
         0.37706E-02
         0.42440E-02
         0.37706E-02
         0.37706E-02
         0.30115E-02
         0.32101E-02
         0.42440E-02
         0.32101E-02
         0.24158E-02
         0.30091E-02
         0.32568E-02
         0.26412E-02
         0.27198E-02
         0.42552E-02
         0.36362E-02
         0.42552E-02
         0.32102E-02
         0.29541E-02
         0.34583E-02
         0.32633E-02
         0.37062E-02
         0.32102E-02
         0.30665E-02
         0.35223E-02
         0.26692E-02
         0.26692E-02
         0.24563E-02
         0.27546E-02
         0.42552E-02
         0.35223E-02
         0.42552E-02
         0.34838E-02
         0.27285E-02
         0.31849E-02
         0.32568E-02
         0.27025E-02
         0.27826E-02
         0.27826E-02
         0.27020E-02
         0.31922E-02
         0.31922E-02
         0.37062E-02
         0.36226E-02
         0.28202E-02
         0.31726E-02
         0.33469E-02
         0.33469E-02
         0.32114E-02
         0.29830E-02
         0.32811E-02
         0.27285E-02
         0.30958E-02
         0.31849E-02
         0.32568E-02
         0.32568E-02
         0.30091E-02
         0.27198E-02
         0.27025E-02
         0.27826E-02
         0.27826E-02
         0.27020E-02
         0.31922E-02
         0.31922E-02
         0.32633E-02
         0.34583E-02
         0.37062E-02
         0.37062E-02
         0.36226E-02
         0.28202E-02
         0.29250E-02
         0.32568E-02
         0.32568E-02
         0.32114E-02
         0.29830E-02
         0.32811E-02
         0.32811E-02
         0.42441E-02
         0.35198E-02
         0.37711E-02
         0.42441E-02
         0.37711E-02
         0.37711E-02
         0.30117E-02
         0.32103E-02
         0.42441E-02
         0.32103E-02
         0.24156E-02
         0.30101E-02
         0.32579E-02
         0.26400E-02
         0.27198E-02
         0.42543E-02
         0.36353E-02
         0.42543E-02
         0.32104E-02
         0.29529E-02
         0.34579E-02
         0.32634E-02
         0.37058E-02
         0.32104E-02
         0.30654E-02
         0.35225E-02
         0.26677E-02
         0.26677E-02
         0.24558E-02
         0.27540E-02
         0.42543E-02
         0.35225E-02
         0.42543E-02
         0.34849E-02
         0.27286E-02
         0.31852E-02
         0.32579E-02
         0.27029E-02
         0.27826E-02
         0.27826E-02
         0.27021E-02
         0.31924E-02
         0.31924E-02
         0.37058E-02
         0.36225E-02
         0.28198E-02
         0.31731E-02
         0.33468E-02
         0.33468E-02
         0.32123E-02
         0.29829E-02
         0.32809E-02
         0.27286E-02
         0.30949E-02
         0.31852E-02
         0.32579E-02
         0.32579E-02
         0.30101E-02
         0.27198E-02
         0.27029E-02
         0.27826E-02
         0.27826E-02
         0.27021E-02
         0.31924E-02
         0.31924E-02
         0.32634E-02
         0.34579E-02
         0.37058E-02
         0.37058E-02
         0.36225E-02
         0.28198E-02
         0.29260E-02
         0.32579E-02
         0.32579E-02
         0.32123E-02
         0.29829E-02
         0.32809E-02
         0.32809E-02
         0.42443E-02
         0.35197E-02
         0.37716E-02
         0.42443E-02
         0.37716E-02
         0.37716E-02
         0.30119E-02
         0.32105E-02
         0.42443E-02
         0.32105E-02
         0.24155E-02
         0.30110E-02
         0.32590E-02
         0.26388E-02
         0.27199E-02
         0.42535E-02
         0.36343E-02
         0.42535E-02
         0.32106E-02
         0.29517E-02
         0.34575E-02
         0.32635E-02
         0.37055E-02
         0.32106E-02
         0.30643E-02
         0.35227E-02
         0.26663E-02
         0.26663E-02
         0.24553E-02
         0.27533E-02
         0.42535E-02
         0.35227E-02
         0.42535E-02
         0.34860E-02
         0.27286E-02
         0.31855E-02
         0.32590E-02
         0.27032E-02
         0.27826E-02
         0.27826E-02
         0.27022E-02
         0.31927E-02
         0.31927E-02
         0.37055E-02
         0.36224E-02
         0.28195E-02
         0.31737E-02
         0.33467E-02
         0.33467E-02
         0.32132E-02
         0.29828E-02
         0.32807E-02
         0.27286E-02
         0.30939E-02
         0.31855E-02
         0.32590E-02
         0.32590E-02
         0.30110E-02
         0.27199E-02
         0.27032E-02
         0.27826E-02
         0.27826E-02
         0.27022E-02
         0.31927E-02
         0.31927E-02
         0.32635E-02
         0.34575E-02
         0.37055E-02
         0.37055E-02
         0.36224E-02
         0.28195E-02
         0.29269E-02
         0.32591E-02
         0.32591E-02
         0.32132E-02
         0.29828E-02
         0.32807E-02
         0.32807E-02
         0.42444E-02
         0.35197E-02
         0.37721E-02
         0.42444E-02
         0.37721E-02
         0.37721E-02
         0.30121E-02
         0.32107E-02
         0.42444E-02
         0.32107E-02
         0.24154E-02
         0.30119E-02
         0.32601E-02
         0.26376E-02
         0.27199E-02
         0.42527E-02
         0.36334E-02
         0.42527E-02
         0.32108E-02
         0.29504E-02
         0.34571E-02
         0.32636E-02
         0.37051E-02
         0.32108E-02
         0.30632E-02
         0.35229E-02
         0.26648E-02
         0.26648E-02
         0.24552E-02
         0.27527E-02
         0.42527E-02
         0.35229E-02
         0.42527E-02
         0.34871E-02
         0.27287E-02
         0.31858E-02
         0.32601E-02
         0.27036E-02
         0.27825E-02
         0.27825E-02
         0.27023E-02
         0.31929E-02
         0.31929E-02
         0.37051E-02
         0.36223E-02
         0.28192E-02
         0.31742E-02
         0.33466E-02
         0.33466E-02
         0.32140E-02
         0.29827E-02
         0.32805E-02
         0.27287E-02
         0.30930E-02
         0.31858E-02
         0.32601E-02
         0.32601E-02
         0.30119E-02
         0.27199E-02
         0.27036E-02
         0.27825E-02
         0.27825E-02
         0.27023E-02
         0.31929E-02
         0.31929E-02
         0.32636E-02
         0.34571E-02
         0.37051E-02
         0.37051E-02
         0.36223E-02
         0.28192E-02
         0.29279E-02
         0.32602E-02
         0.32602E-02
         0.32140E-02
         0.29827E-02
         0.32805E-02
         0.32805E-02
         0.42445E-02
         0.35197E-02
         0.37726E-02
         0.42445E-02
         0.37726E-02
         0.37726E-02
         0.30123E-02
         0.32108E-02
         0.42445E-02
         0.32108E-02
         0.24152E-02
         0.30129E-02
         0.32611E-02
         0.26363E-02
         0.27200E-02
         0.42518E-02
         0.36325E-02
         0.42518E-02
         0.32110E-02
         0.29492E-02
         0.34566E-02
         0.32636E-02
         0.37047E-02
         0.32110E-02
         0.30621E-02
         0.35231E-02
         0.26633E-02
         0.26633E-02
         0.24554E-02
         0.27520E-02
         0.42518E-02
         0.35231E-02
         0.42518E-02
         0.34882E-02
         0.27288E-02
         0.31861E-02
         0.32611E-02
         0.27040E-02
         0.27825E-02
         0.27825E-02
         0.27024E-02
         0.31932E-02
         0.31932E-02
         0.37047E-02
         0.36222E-02
         0.28189E-02
         0.31747E-02
         0.33465E-02
         0.33465E-02
         0.32149E-02
         0.29826E-02
         0.32803E-02
         0.27288E-02
         0.30921E-02
         0.31861E-02
         0.32611E-02
         0.32611E-02
         0.30129E-02
         0.27200E-02
         0.27040E-02
         0.27825E-02
         0.27825E-02
         0.27024E-02
         0.31932E-02
         0.31932E-02
         0.32636E-02
         0.34566E-02
         0.37047E-02
         0.37047E-02
         0.36222E-02
         0.28189E-02
         0.29289E-02
         0.32613E-02
         0.32613E-02
         0.32149E-02
         0.29826E-02
         0.32803E-02
         0.32803E-02
         0.42447E-02
         0.35196E-02
         0.37732E-02
         0.42447E-02
         0.37732E-02
         0.37732E-02
         0.30125E-02
         0.32111E-02
         0.42447E-02
         0.32111E-02
         0.24151E-02
         0.30138E-02
         0.32622E-02
         0.26351E-02
         0.27200E-02
         0.42510E-02
         0.36315E-02
         0.42510E-02
         0.32112E-02
         0.29480E-02
         0.34562E-02
         0.32637E-02
         0.37043E-02
         0.32112E-02
         0.30610E-02
         0.35233E-02
         0.26619E-02
         0.26619E-02
         0.24557E-02
         0.27514E-02
         0.42510E-02
         0.35233E-02
         0.42510E-02
         0.34894E-02
         0.27289E-02
         0.31864E-02
         0.32622E-02
         0.27044E-02
         0.27825E-02
         0.27825E-02
         0.27025E-02
         0.31934E-02
         0.31934E-02
         0.37043E-02
         0.36220E-02
         0.28186E-02
         0.31753E-02
         0.33464E-02
         0.33464E-02
         0.32157E-02
         0.29824E-02
         0.32801E-02
         0.27289E-02
         0.30911E-02
         0.31864E-02
         0.32622E-02
         0.32622E-02
         0.30138E-02
         0.27200E-02
         0.27044E-02
         0.27825E-02
         0.27825E-02
         0.27025E-02
         0.31934E-02
         0.31934E-02
         0.32637E-02
         0.34562E-02
         0.37043E-02
         0.37043E-02
         0.36220E-02
         0.28186E-02
         0.29298E-02
         0.32624E-02
         0.32624E-02
         0.32157E-02
         0.29824E-02
         0.32801E-02
         0.32801E-02
         0.42448E-02
         0.35196E-02
         0.37737E-02
         0.42448E-02
         0.37737E-02
         0.37737E-02
         0.30126E-02
         0.32112E-02
         0.42448E-02
         0.32112E-02
         0.24150E-02
         0.30147E-02
         0.32633E-02
         0.26339E-02
         0.27200E-02
         0.42501E-02
         0.36306E-02
         0.42501E-02
         0.32114E-02
         0.29467E-02
         0.34558E-02
         0.32638E-02
         0.37039E-02
         0.32114E-02
         0.30598E-02
         0.35235E-02
         0.26604E-02
         0.26604E-02
         0.24559E-02
         0.27507E-02
         0.42501E-02
         0.35235E-02
         0.42501E-02
         0.34905E-02
         0.27289E-02
         0.31867E-02
         0.32633E-02
         0.27048E-02
         0.27825E-02
         0.27825E-02
         0.27026E-02
         0.31937E-02
         0.31937E-02
         0.37039E-02
         0.36219E-02
         0.28183E-02
         0.31758E-02
         0.33463E-02
         0.33463E-02
         0.32166E-02
         0.29823E-02
         0.32799E-02
         0.27289E-02
         0.30902E-02
         0.31867E-02
         0.32633E-02
         0.32633E-02
         0.30147E-02
         0.27200E-02
         0.27048E-02
         0.27825E-02
         0.27825E-02
         0.27026E-02
         0.31937E-02
         0.31937E-02
         0.32638E-02
         0.34558E-02
         0.37039E-02
         0.37039E-02
         0.36219E-02
         0.28183E-02
         0.29308E-02
         0.32635E-02
         0.32635E-02
         0.32166E-02
         0.29823E-02
         0.32799E-02
         0.32799E-02
         0.42448E-02
         0.35196E-02
         0.37737E-02
         0.42448E-02
         0.37737E-02
         0.37737E-02
         0.30126E-02
         0.32112E-02
         0.42448E-02
         0.32112E-02
         0.24148E-02
         0.30147E-02
         0.32633E-02
         0.26327E-02
         0.27200E-02
         0.42493E-02
         0.36297E-02
         0.42493E-02
         0.32114E-02
         0.29455E-02
         0.34553E-02
         0.32638E-02
         0.37036E-02
         0.32114E-02
         0.30587E-02
         0.35235E-02
         0.26590E-02
         0.26590E-02
         0.24559E-02
         0.27501E-02
         0.42493E-02
         0.35235E-02
         0.42493E-02
         0.34905E-02
         0.27289E-02
         0.31867E-02
         0.32633E-02
         0.27048E-02
         0.27825E-02
         0.27825E-02
         0.27026E-02
         0.31937E-02
         0.31937E-02
         0.37036E-02
         0.36218E-02
         0.28180E-02
         0.31758E-02
         0.33462E-02
         0.33462E-02
         0.32166E-02
         0.29822E-02
         0.32797E-02
         0.27289E-02
         0.30892E-02
         0.31867E-02
         0.32633E-02
         0.32633E-02
         0.30147E-02
         0.27200E-02
         0.27048E-02
         0.27825E-02
         0.27825E-02
         0.27026E-02
         0.31937E-02
         0.31937E-02
         0.32638E-02
         0.34553E-02
         0.37036E-02
         0.37036E-02
         0.36218E-02
         0.28180E-02
         0.29308E-02
         0.32635E-02
         0.32635E-02
         0.32166E-02
         0.29822E-02
         0.32797E-02
         0.32797E-02
  
SCALARS              physical_window_y  double 1
LOOKUP_TABLE default
         0.43155E-02
         0.43155E-02
         0.43155E-02
         0.43155E-02
         0.43155E-02
         0.43155E-02
         0.43155E-02
         0.43155E-02
         0.34883E-02
         0.34883E-02
         0.34882E-02
         0.34882E-02
         0.32826E-02
         0.32142E-02
         0.32826E-02
         0.32142E-02
         0.37863E-02
         0.31884E-02
         0.37863E-02
         0.31884E-02
         0.27172E-02
         0.33887E-02
         0.37164E-02
         0.27172E-02
         0.33887E-02
         0.37164E-02
         0.27582E-02
         0.28966E-02
         0.27582E-02
         0.28954E-02
         0.37007E-02
         0.35859E-02
         0.37863E-02
         0.37007E-02
         0.35824E-02
         0.37863E-02
         0.29875E-02
         0.29875E-02
         0.29867E-02
         0.29867E-02
         0.28561E-02
         0.26860E-02
         0.28556E-02
         0.26852E-02
         0.29518E-02
         0.28068E-02
         0.29517E-02
         0.28066E-02
         0.29975E-02
         0.29949E-02
         0.37007E-02
         0.37007E-02
         0.28693E-02
         0.28693E-02
         0.28693E-02
         0.28693E-02
         0.27602E-02
         0.26193E-02
         0.27602E-02
         0.26193E-02
         0.37007E-02
         0.37007E-02
         0.37007E-02
         0.37007E-02
         0.37685E-02
         0.37665E-02
         0.37685E-02
         0.37665E-02
         0.30230E-02
         0.37003E-02
         0.30229E-02
         0.37003E-02
         0.37164E-02
         0.37164E-02
         0.31934E-02
         0.31921E-02
         0.32777E-02
         0.32771E-02
         0.32777E-02
         0.32771E-02
         0.27006E-02
         0.25920E-02
         0.27006E-02
         0.25920E-02
         0.25916E-02
         0.25916E-02
         0.29715E-02
         0.29715E-02
         0.29715E-02
         0.29715E-02
         0.26477E-02
         0.29102E-02
         0.26477E-02
         0.29102E-02
         0.34085E-02
         0.34085E-02
         0.35350E-02
         0.35350E-02
         0.35350E-02
         0.35350E-02
         0.29766E-02
         0.32272E-02
         0.29763E-02
         0.32254E-02
         0.29087E-02
         0.29835E-02
         0.29087E-02
         0.29825E-02
         0.37003E-02
         0.37003E-02
         0.37164E-02
         0.37164E-02
         0.37164E-02
         0.37164E-02
         0.33887E-02
         0.33887E-02
         0.28966E-02
         0.28954E-02
         0.31934E-02
         0.31921E-02
         0.32777E-02
         0.32771E-02
         0.32777E-02
         0.32771E-02
         0.27006E-02
         0.27006E-02
         0.25920E-02
         0.25920E-02
         0.25916E-02
         0.25916E-02
         0.26860E-02
         0.26852E-02
         0.28561E-02
         0.28556E-02
         0.29518E-02
         0.29517E-02
         0.29715E-02
         0.29715E-02
         0.29715E-02
         0.29715E-02
         0.26477E-02
         0.26477E-02
         0.27685E-02
         0.27685E-02
         0.34085E-02
         0.34085E-02
         0.35350E-02
         0.35350E-02
         0.35350E-02
         0.35350E-02
         0.29766E-02
         0.29763E-02
         0.31381E-02
         0.31368E-02
         0.31381E-02
         0.31368E-02
         0.43153E-02
         0.43153E-02
         0.43153E-02
         0.43153E-02
         0.34883E-02
         0.34883E-02
         0.32812E-02
         0.32132E-02
         0.37858E-02
         0.31880E-02
         0.27155E-02
         0.33883E-02
         0.37163E-02
         0.27535E-02
         0.28978E-02
         0.37004E-02
         0.35894E-02
         0.37858E-02
         0.29882E-02
         0.29882E-02
         0.28566E-02
         0.26867E-02
         0.29519E-02
         0.28071E-02
         0.30001E-02
         0.37004E-02
         0.28667E-02
         0.28667E-02
         0.27589E-02
         0.26183E-02
         0.37004E-02
         0.37004E-02
         0.37706E-02
         0.37706E-02
         0.30232E-02
         0.36991E-02
         0.37163E-02
         0.31947E-02
         0.32784E-02
         0.32784E-02
         0.27006E-02
         0.25920E-02
         0.25909E-02
         0.29715E-02
         0.29715E-02
         0.26476E-02
         0.29101E-02
         0.34078E-02
         0.35344E-02
         0.35344E-02
         0.29769E-02
         0.32290E-02
         0.29059E-02
         0.29845E-02
         0.36991E-02
         0.37163E-02
         0.37163E-02
         0.33883E-02
         0.28978E-02
         0.31947E-02
         0.32784E-02
         0.32784E-02
         0.27006E-02
         0.25920E-02
         0.25909E-02
         0.26867E-02
         0.28566E-02
         0.29519E-02
         0.29715E-02
         0.29715E-02
         0.26476E-02
         0.27685E-02
         0.34078E-02
         0.35344E-02
         0.35344E-02
         0.29769E-02
         0.31395E-02
         0.31395E-02
         0.43150E-02
         0.43150E-02
         0.43150E-02
         0.43150E-02
         0.34884E-02
         0.34884E-02
         0.32798E-02
         0.32122E-02
         0.37853E-02
         0.31876E-02
         0.27137E-02
         0.33879E-02
         0.37162E-02
         0.27488E-02
         0.28990E-02
         0.37001E-02
         0.35930E-02
         0.37853E-02
         0.29889E-02
         0.29889E-02
         0.28571E-02
         0.26875E-02
         0.29521E-02
         0.28074E-02
         0.30027E-02
         0.37001E-02
         0.28641E-02
         0.28641E-02
         0.27576E-02
         0.26173E-02
         0.37001E-02
         0.37001E-02
         0.37727E-02
         0.37727E-02
         0.30234E-02
         0.36979E-02
         0.37162E-02
         0.31960E-02
         0.32790E-02
         0.32790E-02
         0.27006E-02
         0.25920E-02
         0.25902E-02
         0.29715E-02
         0.29715E-02
         0.26476E-02
         0.29100E-02
         0.34071E-02
         0.35339E-02
         0.35339E-02
         0.29772E-02
         0.32307E-02
         0.29032E-02
         0.29855E-02
         0.36979E-02
         0.37162E-02
         0.37162E-02
         0.33879E-02
         0.28990E-02
         0.31960E-02
         0.32790E-02
         0.32790E-02
         0.27006E-02
         0.25920E-02
         0.25902E-02
         0.26875E-02
         0.28571E-02
         0.29521E-02
         0.29715E-02
         0.29715E-02
         0.26476E-02
         0.27684E-02
         0.34071E-02
         0.35339E-02
         0.35339E-02
         0.29772E-02
         0.31408E-02
         0.31408E-02
         0.43148E-02
         0.43148E-02
         0.43148E-02
         0.43148E-02
         0.34885E-02
         0.34885E-02
         0.32783E-02
         0.32112E-02
         0.37849E-02
         0.31872E-02
         0.27120E-02
         0.33875E-02
         0.37161E-02
         0.27441E-02
         0.29003E-02
         0.36998E-02
         0.35965E-02
         0.37849E-02
         0.29896E-02
         0.29896E-02
         0.28575E-02
         0.26882E-02
         0.29522E-02
         0.28077E-02
         0.30053E-02
         0.36998E-02
         0.28615E-02
         0.28615E-02
         0.27563E-02
         0.26163E-02
         0.36998E-02
         0.36998E-02
         0.37747E-02
         0.37747E-02
         0.30236E-02
         0.36967E-02
         0.37161E-02
         0.31973E-02
         0.32796E-02
         0.32796E-02
         0.27006E-02
         0.25920E-02
         0.25895E-02
         0.29714E-02
         0.29714E-02
         0.26475E-02
         0.29099E-02
         0.34063E-02
         0.35333E-02
         0.35333E-02
         0.29775E-02
         0.32325E-02
         0.29004E-02
         0.29865E-02
         0.36967E-02
         0.37161E-02
         0.37161E-02
         0.33875E-02
         0.29003E-02
         0.31973E-02
         0.32796E-02
         0.32796E-02
         0.27006E-02
         0.25920E-02
         0.25895E-02
         0.26882E-02
         0.28575E-02
         0.29522E-02
         0.29714E-02
         0.29714E-02
         0.26475E-02
         0.27684E-02
         0.34063E-02
         0.35333E-02
         0.35333E-02
         0.29775E-02
         0.31422E-02
         0.31422E-02
         0.43145E-02
         0.43145E-02
         0.43145E-02
         0.43145E-02
         0.34886E-02
         0.34886E-02
         0.32769E-02
         0.32102E-02
         0.37844E-02
         0.31868E-02
         0.27103E-02
         0.33871E-02
         0.37160E-02
         0.27394E-02
         0.29015E-02
         0.36995E-02
         0.36000E-02
         0.37844E-02
         0.29903E-02
         0.29903E-02
         0.28580E-02
         0.26890E-02
         0.29523E-02
         0.28079E-02
         0.30079E-02
         0.36995E-02
         0.28589E-02
         0.28589E-02
         0.27550E-02
         0.26152E-02
         0.36995E-02
         0.36995E-02
         0.37768E-02
         0.37768E-02
         0.30238E-02
         0.36956E-02
         0.37160E-02
         0.31986E-02
         0.32802E-02
         0.32802E-02
         0.27006E-02
         0.25920E-02
         0.25887E-02
         0.29714E-02
         0.29714E-02
         0.26475E-02
         0.29098E-02
         0.34056E-02
         0.35327E-02
         0.35327E-02
         0.29778E-02
         0.32342E-02
         0.28977E-02
         0.29875E-02
         0.36956E-02
         0.37160E-02
         0.37160E-02
         0.33871E-02
         0.29015E-02
         0.31986E-02
         0.32802E-02
         0.32802E-02
         0.27006E-02
         0.25920E-02
         0.25887E-02
         0.26890E-02
         0.28580E-02
         0.29523E-02
         0.29714E-02
         0.29714E-02
         0.26475E-02
         0.27683E-02
         0.34056E-02
         0.35327E-02
         0.35327E-02
         0.29778E-02
         0.31435E-02
         0.31435E-02
         0.43143E-02
         0.43143E-02
         0.43143E-02
         0.43143E-02
         0.34887E-02
         0.34887E-02
         0.32755E-02
         0.32091E-02
         0.37839E-02
         0.31864E-02
         0.27086E-02
         0.33867E-02
         0.37159E-02
         0.27347E-02
         0.29027E-02
         0.36991E-02
         0.36036E-02
         0.37839E-02
         0.29920E-02
         0.29920E-02
         0.28585E-02
         0.26897E-02
         0.29525E-02
         0.28082E-02
         0.30105E-02
         0.36991E-02
         0.28563E-02
         0.28563E-02
         0.27537E-02
         0.26142E-02
         0.36991E-02
         0.36991E-02
         0.37789E-02
         0.37789E-02
         0.30240E-02
         0.36944E-02
         0.37159E-02
         0.31999E-02
         0.32808E-02
         0.32808E-02
         0.27006E-02
         0.25920E-02
         0.25880E-02
         0.29714E-02
         0.29714E-02
         0.26474E-02
         0.29097E-02
         0.34049E-02
         0.35322E-02
         0.35322E-02
         0.29781E-02
         0.32360E-02
         0.28949E-02
         0.29885E-02
         0.36944E-02
         0.37159E-02
         0.37159E-02
         0.33867E-02
         0.29027E-02
         0.31999E-02
         0.32808E-02
         0.32808E-02
         0.27006E-02
         0.25920E-02
         0.25880E-02
         0.26897E-02
         0.28585E-02
         0.29525E-02
         0.29714E-02
         0.29714E-02
         0.26474E-02
         0.27683E-02
         0.34049E-02
         0.35322E-02
         0.35322E-02
         0.29781E-02
         0.31449E-02
         0.31449E-02
         0.43140E-02
         0.43140E-02
         0.43140E-02
         0.43140E-02
         0.34888E-02
         0.34888E-02
         0.32740E-02
         0.32081E-02
         0.37834E-02
         0.31860E-02
         0.27069E-02
         0.33863E-02
         0.37158E-02
         0.27299E-02
         0.29039E-02
         0.36988E-02
         0.36071E-02
         0.37834E-02
         0.29946E-02
         0.29946E-02
         0.28589E-02
         0.26905E-02
         0.29526E-02
         0.28085E-02
         0.30131E-02
         0.36988E-02
         0.28538E-02
         0.28538E-02
         0.27524E-02
         0.26132E-02
         0.36988E-02
         0.36988E-02
         0.37809E-02
         0.37809E-02
         0.30241E-02
         0.36932E-02
         0.37158E-02
         0.32012E-02
         0.32814E-02
         0.32814E-02
         0.27006E-02
         0.25920E-02
         0.25873E-02
         0.29714E-02
         0.29714E-02
         0.26473E-02
         0.29097E-02
         0.34041E-02
         0.35316E-02
         0.35316E-02
         0.29784E-02
         0.32378E-02
         0.28921E-02
         0.29895E-02
         0.36932E-02
         0.37158E-02
         0.37158E-02
         0.33863E-02
         0.29039E-02
         0.32012E-02
         0.32814E-02
         0.32814E-02
         0.27006E-02
         0.25920E-02
         0.25873E-02
         0.26905E-02
         0.28589E-02
         0.29526E-02
         0.29714E-02
         0.29714E-02
         0.26473E-02
         0.27683E-02
         0.34041E-02
         0.35316E-02
         0.35316E-02
         0.29784E-02
         0.31463E-02
         0.31463E-02
         0.43138E-02
         0.43138E-02
         0.43138E-02
         0.43138E-02
         0.34888E-02
         0.34888E-02
         0.32726E-02
         0.32071E-02
         0.37830E-02
         0.31856E-02
         0.27051E-02
         0.33859E-02
         0.37157E-02
         0.27252E-02
         0.29051E-02
         0.36985E-02
         0.36106E-02
         0.37830E-02
         0.29972E-02
         0.29972E-02
         0.28594E-02
         0.26912E-02
         0.29528E-02
         0.28087E-02
         0.30156E-02
         0.36985E-02
         0.28512E-02
         0.28512E-02
         0.27512E-02
         0.26122E-02
         0.36985E-02
         0.36985E-02
         0.37830E-02
         0.37830E-02
         0.30243E-02
         0.36920E-02
         0.37157E-02
         0.32025E-02
         0.32821E-02
         0.32821E-02
         0.27006E-02
         0.25920E-02
         0.25866E-02
         0.29714E-02
         0.29714E-02
         0.26473E-02
         0.29096E-02
         0.34034E-02
         0.35310E-02
         0.35310E-02
         0.29787E-02
         0.32396E-02
         0.28894E-02
         0.29905E-02
         0.36920E-02
         0.37157E-02
         0.37157E-02
         0.33859E-02
         0.29051E-02
         0.32025E-02
         0.32821E-02
         0.32821E-02
         0.27006E-02
         0.25920E-02
         0.25866E-02
         0.26912E-02
         0.28594E-02
         0.29528E-02
         0.29714E-02
         0.29714E-02
         0.26473E-02
         0.27682E-02
         0.34034E-02
         0.35310E-02
         0.35310E-02
         0.29787E-02
         0.31476E-02
         0.31476E-02
         0.43135E-02
         0.43135E-02
         0.43135E-02
         0.43135E-02
         0.34889E-02
         0.34889E-02
         0.32712E-02
         0.32061E-02
         0.37825E-02
         0.31852E-02
         0.27034E-02
         0.33856E-02
         0.37156E-02
         0.27205E-02
         0.29063E-02
         0.36982E-02
         0.36142E-02
         0.37851E-02
         0.29998E-02
         0.29998E-02
         0.28599E-02
         0.26920E-02
         0.29529E-02
         0.28090E-02
         0.30182E-02
         0.36982E-02
         0.28486E-02
         0.28486E-02
         0.27499E-02
         0.26112E-02
         0.36982E-02
         0.36982E-02
         0.37851E-02
         0.37851E-02
         0.30245E-02
         0.36908E-02
         0.37156E-02
         0.32038E-02
         0.32827E-02
         0.32827E-02
         0.27006E-02
         0.25920E-02
         0.25859E-02
         0.29714E-02
         0.29714E-02
         0.26472E-02
         0.29095E-02
         0.34027E-02
         0.35304E-02
         0.35304E-02
         0.29790E-02
         0.32413E-02
         0.28866E-02
         0.29915E-02
         0.36908E-02
         0.37156E-02
         0.37156E-02
         0.33856E-02
         0.29063E-02
         0.32038E-02
         0.32827E-02
         0.32827E-02
         0.27006E-02
         0.25920E-02
         0.25859E-02
         0.26920E-02
         0.28599E-02
         0.29529E-02
         0.29714E-02
         0.29714E-02
         0.26472E-02
         0.27682E-02
         0.34027E-02
         0.35304E-02
         0.35304E-02
         0.29790E-02
         0.31490E-02
         0.31490E-02
         0.43133E-02
         0.43133E-02
         0.43133E-02
         0.43133E-02
         0.34890E-02
         0.34890E-02
         0.32698E-02
         0.32051E-02
         0.37820E-02
         0.31848E-02
         0.27017E-02
         0.33851E-02
         0.37155E-02
         0.27158E-02
         0.29075E-02
         0.36979E-02
         0.36177E-02
         0.37871E-02
         0.30024E-02
         0.30024E-02
         0.28603E-02
         0.26927E-02
         0.29530E-02
         0.28093E-02
         0.30208E-02
         0.36979E-02
         0.28460E-02
         0.28460E-02
         0.27486E-02
         0.26101E-02
         0.36979E-02
         0.36979E-02
         0.37871E-02
         0.37871E-02
         0.30247E-02
         0.36896E-02
         0.37155E-02
         0.32051E-02
         0.32833E-02
         0.32833E-02
         0.27006E-02
         0.25920E-02
         0.25851E-02
         0.29714E-02
         0.29714E-02
         0.26472E-02
         0.29094E-02
         0.34019E-02
         0.35299E-02
         0.35299E-02
         0.29793E-02
         0.32431E-02
         0.28838E-02
         0.29925E-02
         0.36896E-02
         0.37155E-02
         0.37155E-02
         0.33851E-02
         0.29075E-02
         0.32051E-02
         0.32833E-02
         0.32833E-02
         0.27006E-02
         0.25920E-02
         0.25851E-02
         0.26927E-02
         0.28603E-02
         0.29530E-02
         0.29714E-02
         0.29714E-02
         0.26472E-02
         0.27681E-02
         0.34019E-02
         0.35299E-02
         0.35299E-02
         0.29793E-02
         0.31503E-02
         0.31503E-02
         0.43130E-02
         0.43130E-02
         0.43130E-02
         0.43130E-02
         0.34891E-02
         0.34891E-02
         0.32683E-02
         0.32041E-02
         0.37816E-02
         0.31844E-02
         0.27000E-02
         0.33848E-02
         0.37154E-02
         0.27111E-02
         0.29087E-02
         0.36976E-02
         0.36213E-02
         0.37892E-02
         0.30050E-02
         0.30050E-02
         0.28608E-02
         0.26935E-02
         0.29532E-02
         0.28096E-02
         0.30234E-02
         0.36976E-02
         0.28434E-02
         0.28434E-02
         0.27472E-02
         0.26091E-02
         0.36976E-02
         0.36976E-02
         0.37892E-02
         0.37892E-02
         0.30249E-02
         0.36885E-02
         0.37154E-02
         0.32064E-02
         0.32839E-02
         0.32839E-02
         0.27006E-02
         0.25920E-02
         0.25844E-02
         0.29714E-02
         0.29714E-02
         0.26471E-02
         0.29094E-02
         0.34012E-02
         0.35293E-02
         0.35293E-02
         0.29797E-02
         0.32449E-02
         0.28811E-02
         0.29935E-02
         0.36885E-02
         0.37154E-02
         0.37154E-02
         0.33848E-02
         0.29087E-02
         0.32064E-02
         0.32839E-02
         0.32839E-02
         0.27006E-02
         0.25920E-02
         0.25844E-02
         0.26935E-02
         0.28608E-02
         0.29532E-02
         0.29714E-02
         0.29714E-02
         0.26471E-02
         0.27681E-02
         0.34012E-02
         0.35293E-02
         0.35293E-02
         0.29797E-02
         0.31517E-02
         0.31517E-02
         0.43128E-02
         0.43128E-02
         0.43128E-02
         0.43128E-02
         0.34892E-02
         0.34892E-02
         0.32669E-02
         0.32031E-02
         0.37811E-02
         0.31840E-02
         0.26982E-02
         0.33844E-02
         0.37152E-02
         0.27063E-02
         0.29099E-02
         0.36973E-02
         0.36248E-02
         0.37913E-02
         0.30076E-02
         0.30076E-02
         0.28613E-02
         0.26942E-02
         0.29533E-02
         0.28099E-02
         0.30260E-02
         0.36973E-02
         0.28408E-02
         0.28408E-02
         0.27460E-02
         0.26081E-02
         0.36973E-02
         0.36973E-02
         0.37913E-02
         0.37913E-02
         0.30250E-02
         0.36873E-02
         0.37152E-02
         0.32077E-02
         0.32845E-02
         0.32845E-02
         0.27006E-02
         0.25920E-02
         0.25837E-02
         0.29714E-02
         0.29714E-02
         0.26471E-02
         0.29093E-02
         0.34005E-02
         0.35287E-02
         0.35287E-02
         0.29800E-02
         0.32467E-02
         0.28783E-02
         0.29945E-02
         0.36873E-02
         0.37152E-02
         0.37152E-02
         0.33844E-02
         0.29099E-02
         0.32077E-02
         0.32845E-02
         0.32845E-02
         0.27006E-02
         0.25920E-02
         0.25837E-02
         0.26942E-02
         0.28613E-02
         0.29533E-02
         0.29714E-02
         0.29714E-02
         0.26471E-02
         0.27681E-02
         0.34005E-02
         0.35287E-02
         0.35287E-02
         0.29800E-02
         0.31530E-02
         0.31530E-02
         0.43125E-02
         0.43125E-02
         0.43125E-02
         0.43125E-02
         0.34893E-02
         0.34893E-02
         0.32655E-02
         0.32021E-02
         0.37806E-02
         0.31836E-02
         0.26965E-02
         0.33840E-02
         0.37151E-02
         0.27016E-02
         0.29111E-02
         0.36969E-02
         0.36283E-02
         0.37933E-02
         0.30102E-02
         0.30102E-02
         0.28617E-02
         0.26950E-02
         0.29535E-02
         0.28101E-02
         0.30286E-02
         0.36969E-02
         0.28382E-02
         0.28382E-02
         0.27447E-02
         0.26071E-02
         0.36969E-02
         0.36969E-02
         0.37933E-02
         0.37933E-02
         0.30252E-02
         0.36861E-02
         0.37151E-02
         0.32090E-02
         0.32852E-02
         0.32852E-02
         0.27006E-02
         0.25920E-02
         0.25830E-02
         0.29714E-02
         0.29714E-02
         0.26470E-02
         0.29092E-02
         0.33997E-02
         0.35282E-02
         0.35282E-02
         0.29803E-02
         0.32484E-02
         0.28755E-02
         0.29955E-02
         0.36861E-02
         0.37151E-02
         0.37151E-02
         0.33840E-02
         0.29111E-02
         0.32090E-02
         0.32852E-02
         0.32852E-02
         0.27006E-02
         0.25920E-02
         0.25830E-02
         0.26950E-02
         0.28617E-02
         0.29535E-02
         0.29714E-02
         0.29714E-02
         0.26470E-02
         0.27680E-02
         0.33997E-02
         0.35282E-02
         0.35282E-02
         0.29803E-02
         0.31544E-02
         0.31544E-02
         0.43123E-02
         0.43123E-02
         0.43123E-02
         0.43123E-02
         0.34893E-02
         0.34893E-02
         0.32640E-02
         0.32011E-02
         0.37801E-02
         0.31832E-02
         0.26948E-02
         0.33836E-02
         0.37150E-02
         0.26969E-02
         0.29123E-02
         0.36966E-02
         0.36319E-02
         0.37954E-02
         0.30128E-02
         0.30128E-02
         0.28622E-02
         0.26957E-02
         0.29536E-02
         0.28104E-02
         0.30312E-02
         0.36966E-02
         0.28357E-02
         0.28357E-02
         0.27434E-02
         0.26061E-02
         0.36966E-02
         0.36966E-02
         0.37954E-02
         0.37954E-02
         0.30254E-02
         0.36849E-02
         0.37150E-02
         0.32103E-02
         0.32858E-02
         0.32858E-02
         0.27006E-02
         0.25920E-02
         0.25823E-02
         0.29714E-02
         0.29714E-02
         0.26470E-02
         0.29091E-02
         0.33990E-02
         0.35276E-02
         0.35276E-02
         0.29806E-02
         0.32502E-02
         0.28728E-02
         0.29965E-02
         0.36849E-02
         0.37150E-02
         0.37150E-02
         0.33836E-02
         0.29123E-02
         0.32103E-02
         0.32858E-02
         0.32858E-02
         0.27006E-02
         0.25920E-02
         0.25823E-02
         0.26957E-02
         0.28622E-02
         0.29536E-02
         0.29714E-02
         0.29714E-02
         0.26470E-02
         0.27680E-02
         0.33990E-02
         0.35276E-02
         0.35276E-02
         0.29806E-02
         0.31557E-02
         0.31557E-02
         0.43120E-02
         0.43120E-02
         0.43120E-02
         0.43120E-02
         0.34894E-02
         0.34894E-02
         0.32626E-02
         0.32001E-02
         0.37797E-02
         0.31828E-02
         0.26931E-02
         0.33832E-02
         0.37149E-02
         0.26922E-02
         0.29135E-02
         0.36963E-02
         0.36354E-02
         0.37975E-02
         0.30154E-02
         0.30154E-02
         0.28627E-02
         0.26965E-02
         0.29537E-02
         0.28107E-02
         0.30338E-02
         0.36963E-02
         0.28331E-02
         0.28331E-02
         0.27421E-02
         0.26051E-02
         0.36963E-02
         0.36963E-02
         0.37975E-02
         0.37975E-02
         0.30256E-02
         0.36838E-02
         0.37149E-02
         0.32116E-02
         0.32864E-02
         0.32864E-02
         0.27006E-02
         0.25920E-02
         0.25815E-02
         0.29714E-02
         0.29714E-02
         0.26469E-02
         0.29090E-02
         0.33983E-02
         0.35270E-02
         0.35270E-02
         0.29809E-02
         0.32519E-02
         0.28700E-02
         0.29975E-02
         0.36838E-02
         0.37149E-02
         0.37149E-02
         0.33832E-02
         0.29135E-02
         0.32116E-02
         0.32864E-02
         0.32864E-02
         0.27006E-02
         0.25920E-02
         0.25815E-02
         0.26965E-02
         0.28627E-02
         0.29537E-02
         0.29714E-02
         0.29714E-02
         0.26469E-02
         0.27680E-02
         0.33983E-02
         0.35270E-02
         0.35270E-02
         0.29809E-02
         0.31571E-02
         0.31571E-02
         0.43118E-02
         0.43118E-02
         0.43118E-02
         0.43118E-02
         0.34895E-02
         0.34895E-02
         0.32612E-02
         0.31990E-02
         0.37792E-02
         0.31824E-02
         0.26913E-02
         0.33828E-02
         0.37148E-02
         0.26875E-02
         0.29148E-02
         0.36960E-02
         0.36390E-02
         0.37995E-02
         0.30180E-02
         0.30180E-02
         0.28631E-02
         0.26972E-02
         0.29539E-02
         0.28110E-02
         0.30364E-02
         0.36960E-02
         0.28305E-02
         0.28305E-02
         0.27408E-02
         0.26040E-02
         0.36960E-02
         0.36960E-02
         0.37995E-02
         0.37995E-02
         0.30258E-02
         0.36826E-02
         0.37148E-02
         0.32129E-02
         0.32870E-02
         0.32870E-02
         0.27006E-02
         0.25920E-02
         0.25808E-02
         0.29713E-02
         0.29713E-02
         0.26468E-02
         0.29089E-02
         0.33975E-02
         0.35264E-02
         0.35264E-02
         0.29812E-02
         0.32537E-02
         0.28672E-02
         0.29985E-02
         0.36826E-02
         0.37148E-02
         0.37148E-02
         0.33828E-02
         0.29148E-02
         0.32129E-02
         0.32870E-02
         0.32870E-02
         0.27006E-02
         0.25920E-02
         0.25808E-02
         0.26972E-02
         0.28631E-02
         0.29539E-02
         0.29713E-02
         0.29713E-02
         0.26468E-02
         0.27679E-02
         0.33975E-02
         0.35264E-02
         0.35264E-02
         0.29812E-02
         0.31585E-02
         0.31585E-02
         0.43115E-02
         0.43115E-02
         0.43115E-02
         0.43115E-02
         0.34896E-02
         0.34896E-02
         0.32597E-02
         0.31980E-02
         0.37787E-02
         0.31820E-02
         0.26896E-02
         0.33824E-02
         0.37147E-02
         0.26827E-02
         0.29160E-02
         0.36957E-02
         0.36425E-02
         0.38016E-02
         0.30206E-02
         0.30206E-02
         0.28636E-02
         0.26980E-02
         0.29540E-02
         0.28112E-02
         0.30390E-02
         0.36957E-02
         0.28279E-02
         0.28279E-02
         0.27395E-02
         0.26030E-02
         0.36957E-02
         0.36957E-02
         0.38016E-02
         0.38016E-02
         0.30260E-02
         0.36814E-02
         0.37147E-02
         0.32141E-02
         0.32876E-02
         0.32876E-02
         0.27006E-02
         0.25920E-02
         0.25801E-02
         0.29713E-02
         0.29713E-02
         0.26468E-02
         0.29089E-02
         0.33968E-02
         0.35259E-02
         0.35259E-02
         0.29815E-02
         0.32555E-02
         0.28645E-02
         0.29995E-02
         0.36814E-02
         0.37147E-02
         0.37147E-02
         0.33824E-02
         0.29160E-02
         0.32141E-02
         0.32876E-02
         0.32876E-02
         0.27006E-02
         0.25920E-02
         0.25801E-02
         0.26980E-02
         0.28636E-02
         0.29540E-02
         0.29713E-02
         0.29713E-02
         0.26468E-02
         0.27679E-02
         0.33968E-02
         0.35259E-02
         0.35259E-02
         0.29815E-02
         0.31598E-02
         0.31598E-02
         0.43113E-02
         0.43113E-02
         0.43113E-02
         0.43113E-02
         0.34897E-02
         0.34897E-02
         0.32583E-02
         0.31970E-02
         0.37783E-02
         0.31816E-02
         0.26879E-02
         0.33820E-02
         0.37146E-02
         0.26780E-02
         0.29172E-02
         0.36954E-02
         0.36460E-02
         0.38037E-02
         0.30232E-02
         0.30232E-02
         0.28641E-02
         0.26987E-02
         0.29542E-02
         0.28115E-02
         0.30416E-02
         0.36954E-02
         0.28253E-02
         0.28253E-02
         0.27382E-02
         0.26020E-02
         0.36954E-02
         0.36954E-02
         0.38037E-02
         0.38037E-02
         0.30261E-02
         0.36802E-02
         0.37146E-02
         0.32154E-02
         0.32882E-02
         0.32882E-02
         0.27006E-02
         0.25921E-02
         0.25794E-02
         0.29713E-02
         0.29713E-02
         0.26467E-02
         0.29088E-02
         0.33961E-02
         0.35253E-02
         0.35253E-02
         0.29818E-02
         0.32573E-02
         0.28617E-02
         0.30005E-02
         0.36802E-02
         0.37146E-02
         0.37146E-02
         0.33820E-02
         0.29172E-02
         0.32154E-02
         0.32882E-02
         0.32882E-02
         0.27006E-02
         0.25921E-02
         0.25794E-02
         0.26987E-02
         0.28641E-02
         0.29542E-02
         0.29713E-02
         0.29713E-02
         0.26467E-02
         0.27678E-02
         0.33961E-02
         0.35253E-02
         0.35253E-02
         0.29818E-02
         0.31612E-02
         0.31612E-02
         0.43110E-02
         0.43110E-02
         0.43110E-02
         0.43110E-02
         0.34898E-02
         0.34898E-02
         0.32569E-02
         0.31960E-02
         0.37778E-02
         0.31812E-02
         0.26862E-02
         0.33816E-02
         0.37145E-02
         0.26733E-02
         0.29184E-02
         0.36950E-02
         0.36495E-02
         0.38057E-02
         0.30258E-02
         0.30258E-02
         0.28645E-02
         0.26995E-02
         0.29543E-02
         0.28118E-02
         0.30442E-02
         0.36950E-02
         0.28227E-02
         0.28227E-02
         0.27369E-02
         0.26010E-02
         0.36950E-02
         0.36950E-02
         0.38057E-02
         0.38057E-02
         0.30263E-02
         0.36790E-02
         0.37145E-02
         0.32167E-02
         0.32889E-02
         0.32889E-02
         0.27006E-02
         0.25921E-02
         0.25787E-02
         0.29713E-02
         0.29713E-02
         0.26467E-02
         0.29087E-02
         0.33953E-02
         0.35247E-02
         0.35247E-02
         0.29821E-02
         0.32590E-02
         0.28589E-02
         0.30015E-02
         0.36790E-02
         0.37145E-02
         0.37145E-02
         0.33816E-02
         0.29184E-02
         0.32167E-02
         0.32889E-02
         0.32889E-02
         0.27006E-02
         0.25921E-02
         0.25787E-02
         0.26995E-02
         0.28645E-02
         0.29543E-02
         0.29713E-02
         0.29713E-02
         0.26467E-02
         0.27678E-02
         0.33953E-02
         0.35247E-02
         0.35247E-02
         0.29821E-02
         0.31625E-02
         0.31625E-02
         0.43108E-02
         0.43108E-02
         0.43108E-02
         0.43108E-02
         0.34898E-02
         0.34898E-02
         0.32555E-02
         0.31950E-02
         0.37773E-02
         0.31808E-02
         0.26845E-02
         0.33812E-02
         0.37144E-02
         0.26686E-02
         0.29196E-02
         0.36948E-02
         0.36531E-02
         0.38078E-02
         0.30285E-02
         0.30285E-02
         0.28650E-02
         0.27002E-02
         0.29544E-02
         0.28120E-02
         0.30467E-02
         0.36948E-02
         0.28201E-02
         0.28201E-02
         0.27356E-02
         0.26000E-02
         0.36948E-02
         0.36948E-02
         0.38078E-02
         0.38078E-02
         0.30265E-02
         0.36779E-02
         0.37144E-02
         0.32181E-02
         0.32895E-02
         0.32895E-02
         0.27006E-02
         0.25921E-02
         0.25779E-02
         0.29713E-02
         0.29713E-02
         0.26466E-02
         0.29086E-02
         0.33946E-02
         0.35242E-02
         0.35242E-02
         0.29824E-02
         0.32608E-02
         0.28562E-02
         0.30025E-02
         0.36779E-02
         0.37144E-02
         0.37144E-02
         0.33812E-02
         0.29196E-02
         0.32181E-02
         0.32895E-02
         0.32895E-02
         0.27006E-02
         0.25921E-02
         0.25779E-02
         0.27002E-02
         0.28650E-02
         0.29544E-02
         0.29713E-02
         0.29713E-02
         0.26466E-02
         0.27678E-02
         0.33946E-02
         0.35242E-02
         0.35242E-02
         0.29824E-02
         0.31639E-02
         0.31639E-02
         0.43105E-02
         0.43105E-02
         0.43105E-02
         0.43105E-02
         0.34899E-02
         0.34899E-02
         0.32540E-02
         0.31940E-02
         0.37768E-02
         0.31804E-02
         0.26827E-02
         0.33808E-02
         0.37143E-02
         0.26639E-02
         0.29208E-02
         0.36944E-02
         0.36566E-02
         0.38099E-02
         0.30311E-02
         0.30311E-02
         0.28655E-02
         0.27010E-02
         0.29546E-02
         0.28123E-02
         0.30493E-02
         0.36944E-02
         0.28175E-02
         0.28175E-02
         0.27343E-02
         0.25990E-02
         0.36944E-02
         0.36944E-02
         0.38099E-02
         0.38099E-02
         0.30267E-02
         0.36767E-02
         0.37143E-02
         0.32193E-02
         0.32901E-02
         0.32901E-02
         0.27006E-02
         0.25921E-02
         0.25772E-02
         0.29713E-02
         0.29713E-02
         0.26466E-02
         0.29085E-02
         0.33939E-02
         0.35236E-02
         0.35236E-02
         0.29827E-02
         0.32626E-02
         0.28534E-02
         0.30035E-02
         0.36767E-02
         0.37143E-02
         0.37143E-02
         0.33808E-02
         0.29208E-02
         0.32193E-02
         0.32901E-02
         0.32901E-02
         0.27006E-02
         0.25921E-02
         0.25772E-02
         0.27010E-02
         0.28655E-02
         0.29546E-02
         0.29713E-02
         0.29713E-02
         0.26466E-02
         0.27677E-02
         0.33939E-02
         0.35236E-02
         0.35236E-02
         0.29827E-02
         0.31652E-02
         0.31652E-02
         0.43103E-02
         0.43103E-02
         0.43103E-02
         0.43103E-02
         0.34900E-02
         0.34900E-02
         0.32526E-02
         0.31930E-02
         0.37764E-02
         0.31800E-02
         0.26810E-02
         0.33804E-02
         0.37142E-02
         0.26591E-02
         0.29220E-02
         0.36941E-02
         0.36602E-02
         0.38119E-02
         0.30337E-02
         0.30337E-02
         0.28660E-02
         0.27017E-02
         0.29547E-02
         0.28126E-02
         0.30519E-02
         0.36941E-02
         0.28150E-02
         0.28150E-02
         0.27330E-02
         0.25979E-02
         0.36941E-02
         0.36941E-02
         0.38119E-02
         0.38119E-02
         0.30269E-02
         0.36755E-02
         0.37142E-02
         0.32206E-02
         0.32907E-02
         0.32907E-02
         0.27006E-02
         0.25921E-02
         0.25765E-02
         0.29713E-02
         0.29713E-02
         0.26465E-02
         0.29085E-02
         0.33931E-02
         0.35230E-02
         0.35230E-02
         0.29830E-02
         0.32643E-02
         0.28507E-02
         0.30045E-02
         0.36755E-02
         0.37142E-02
         0.37142E-02
         0.33804E-02
         0.29220E-02
         0.32206E-02
         0.32907E-02
         0.32907E-02
         0.27006E-02
         0.25921E-02
         0.25765E-02
         0.27017E-02
         0.28660E-02
         0.29547E-02
         0.29713E-02
         0.29713E-02
         0.26465E-02
         0.27677E-02
         0.33931E-02
         0.35230E-02
         0.35230E-02
         0.29830E-02
         0.31666E-02
         0.31666E-02
         0.43100E-02
         0.43100E-02
         0.43100E-02
         0.43100E-02
         0.34901E-02
         0.34901E-02
         0.32512E-02
         0.31920E-02
         0.37759E-02
         0.31796E-02
         0.26793E-02
         0.33800E-02
         0.37141E-02
         0.26544E-02
         0.29232E-02
         0.36938E-02
         0.36637E-02
         0.38140E-02
         0.30363E-02
         0.30363E-02
         0.28664E-02
         0.27025E-02
         0.29548E-02
         0.28129E-02
         0.30545E-02
         0.36938E-02
         0.28124E-02
         0.28124E-02
         0.27317E-02
         0.25969E-02
         0.36938E-02
         0.36938E-02
         0.38140E-02
         0.38140E-02
         0.30271E-02
         0.36743E-02
         0.37141E-02
         0.32219E-02
         0.32913E-02
         0.32913E-02
         0.27006E-02
         0.25921E-02
         0.25758E-02
         0.29713E-02
         0.29713E-02
         0.26465E-02
         0.29084E-02
         0.33924E-02
         0.35224E-02
         0.35224E-02
         0.29833E-02
         0.32661E-02
         0.28479E-02
         0.30055E-02
         0.36743E-02
         0.37141E-02
         0.37141E-02
         0.33800E-02
         0.29232E-02
         0.32219E-02
         0.32913E-02
         0.32913E-02
         0.27006E-02
         0.25921E-02
         0.25758E-02
         0.27025E-02
         0.28664E-02
         0.29548E-02
         0.29713E-02
         0.29713E-02
         0.26465E-02
         0.27677E-02
         0.33924E-02
         0.35224E-02
         0.35224E-02
         0.29833E-02
         0.31680E-02
         0.31680E-02
         0.43098E-02
         0.43098E-02
         0.43098E-02
         0.43098E-02
         0.34901E-02
         0.34901E-02
         0.32498E-02
         0.31910E-02
         0.37754E-02
         0.31792E-02
         0.26776E-02
         0.33796E-02
         0.37140E-02
         0.26497E-02
         0.29232E-02
         0.36935E-02
         0.36637E-02
         0.38140E-02
         0.30363E-02
         0.30363E-02
         0.28664E-02
         0.27025E-02
         0.29548E-02
         0.28129E-02
         0.30545E-02
         0.36935E-02
         0.28098E-02
         0.28098E-02
         0.27304E-02
         0.25959E-02
         0.36935E-02
         0.36935E-02
         0.38140E-02
         0.38140E-02
         0.30271E-02
         0.36731E-02
         0.37140E-02
         0.32219E-02
         0.32913E-02
         0.32913E-02
         0.27006E-02
         0.25921E-02
         0.25751E-02
         0.29713E-02
         0.29713E-02
         0.26464E-02
         0.29083E-02
         0.33916E-02
         0.35219E-02
         0.35219E-02
         0.29833E-02
         0.32661E-02
         0.28451E-02
         0.30055E-02
         0.36731E-02
         0.37140E-02
         0.37140E-02
         0.33796E-02
         0.29232E-02
         0.32219E-02
         0.32913E-02
         0.32913E-02
         0.27006E-02
         0.25921E-02
         0.25751E-02
         0.27025E-02
         0.28664E-02
         0.29548E-02
         0.29713E-02
         0.29713E-02
         0.26464E-02
         0.27676E-02
         0.33916E-02
         0.35219E-02
         0.35219E-02
         0.29833E-02
         0.31680E-02
         0.31680E-02
  
SCALARS              physical_window_z  double 1
LOOKUP_TABLE default
         0.26928E-02
         0.26928E-02
         0.26928E-02
         0.26928E-02
         0.26928E-02
         0.26928E-02
         0.26928E-02
         0.26928E-02
         0.26928E-02
         0.26928E-02
         0.26928E-02
         0.26928E-02
         0.26928E-02
         0.26928E-02
         0.26928E-02
         0.26928E-02
         0.26928E-02
         0.26928E-02
         0.26928E-02
         0.26928E-02
         0.26928E-02
         0.26928E-02
         0.26928E-02
         0.26928E-02
         0.26928E-02
         0.26928E-02
         0.26928E-02
         0.26928E-02
         0.26928E-02
         0.26928E-02
         0.26928E-02
         0.26928E-02
         0.26928E-02
         0.26928E-02
         0.26928E-02
         0.26928E-02
         0.26928E-02
         0.26928E-02
         0.26928E-02
         0.26928E-02
         0.26928E-02
         0.26928E-02
         0.26928E-02
         0.26928E-02
         0.26928E-02
         0.26928E-02
         0.26928E-02
         0.26928E-02
         0.26928E-02
         0.26928E-02
         0.26928E-02
         0.26928E-02
         0.26928E-02
         0.26928E-02
         0.26928E-02
         0.26928E-02
         0.26928E-02
         0.26928E-02
         0.26928E-02
         0.26928E-02
         0.26928E-02
         0.26928E-02
         0.26928E-02
         0.26928E-02
         0.26928E-02
         0.26928E-02
         0.26928E-02
         0.26928E-02
         0.26928E-02
         0.26928E-02
         0.26928E-02
         0.26928E-02
         0.26928E-02
         0.26928E-02
         0.26928E-02
         0.26928E-02
         0.26928E-02
         0.26928E-02
         0.26928E-02
         0.26928E-02
         0.26928E-02
         0.26928E-02
         0.26928E-02
         0.26928E-02
         0.26928E-02
         0.26928E-02
         0.26928E-02
         0.26928E-02
         0.26928E-02
         0.26928E-02
         0.26928E-02
         0.26928E-02
         0.26928E-02
         0.26928E-02
         0.26928E-02
         0.26928E-02
         0.26928E-02
         0.26928E-02
         0.26928E-02
         0.26928E-02
         0.26928E-02
         0.26928E-02
         0.26928E-02
         0.26928E-02
         0.26928E-02
         0.26928E-02
         0.26928E-02
         0.26928E-02
         0.26928E-02
         0.26928E-02
         0.26928E-02
         0.26928E-02
         0.26928E-02
         0.26928E-02
         0.26928E-02
         0.26928E-02
         0.26928E-02
         0.26928E-02
         0.26928E-02
         0.26928E-02
         0.26928E-02
         0.26928E-02
         0.26928E-02
         0.26928E-02
         0.26928E-02
         0.26928E-02
         0.26928E-02
         0.26928E-02
         0.26928E-02
         0.26928E-02
         0.26928E-02
         0.26928E-02
         0.26928E-02
         0.26928E-02
         0.26928E-02
         0.26928E-02
         0.26928E-02
         0.26928E-02
         0.26928E-02
         0.26928E-02
         0.26928E-02
         0.26928E-02
         0.26928E-02
         0.26928E-02
         0.26928E-02
         0.26928E-02
         0.26928E-02
         0.26928E-02
         0.26928E-02
         0.26928E-02
         0.26928E-02
         0.26928E-02
         0.26928E-02
         0.26928E-02
         0.26928E-02
         0.26928E-02
         0.26927E-02
         0.26927E-02
         0.26927E-02
         0.26927E-02
         0.26927E-02
         0.26927E-02
         0.26927E-02
         0.26927E-02
         0.26927E-02
         0.26927E-02
         0.26927E-02
         0.26927E-02
         0.26927E-02
         0.26927E-02
         0.26927E-02
         0.26927E-02
         0.26927E-02
         0.26927E-02
         0.26927E-02
         0.26927E-02
         0.26927E-02
         0.26927E-02
         0.26927E-02
         0.26927E-02
         0.26927E-02
         0.26927E-02
         0.26927E-02
         0.26927E-02
         0.26927E-02
         0.26927E-02
         0.26927E-02
         0.26927E-02
         0.26927E-02
         0.26927E-02
         0.26927E-02
         0.26927E-02
         0.26927E-02
         0.26927E-02
         0.26927E-02
         0.26927E-02
         0.26927E-02
         0.26927E-02
         0.26927E-02
         0.26927E-02
         0.26927E-02
         0.26927E-02
         0.26927E-02
         0.26927E-02
         0.26927E-02
         0.26927E-02
         0.26927E-02
         0.26927E-02
         0.26927E-02
         0.26927E-02
         0.26927E-02
         0.26927E-02
         0.26927E-02
         0.26927E-02
         0.26927E-02
         0.26927E-02
         0.26927E-02
         0.26927E-02
         0.26927E-02
         0.26927E-02
         0.26927E-02
         0.26927E-02
         0.26927E-02
         0.26927E-02
         0.26927E-02
         0.26927E-02
         0.26927E-02
         0.26927E-02
         0.26927E-02
         0.26927E-02
         0.26927E-02
         0.26927E-02
         0.26927E-02
         0.26927E-02
         0.26927E-02
         0.26927E-02
         0.26927E-02
         0.26927E-02
         0.26927E-02
         0.26927E-02
         0.26927E-02
         0.26927E-02
         0.26927E-02
         0.26927E-02
         0.26927E-02
         0.26927E-02
         0.26927E-02
         0.26927E-02
         0.26927E-02
         0.26927E-02
         0.26927E-02
         0.26927E-02
         0.26927E-02
         0.26927E-02
         0.26927E-02
         0.26927E-02
         0.26927E-02
         0.26927E-02
         0.26927E-02
         0.26927E-02
         0.26927E-02
         0.26927E-02
         0.26927E-02
         0.26927E-02
         0.26927E-02
         0.26927E-02
         0.26927E-02
         0.26927E-02
         0.26927E-02
         0.26927E-02
         0.26927E-02
         0.26927E-02
         0.26927E-02
         0.26927E-02
         0.26927E-02
         0.26927E-02
         0.26927E-02
         0.26927E-02
         0.26927E-02
         0.26927E-02
         0.26927E-02
         0.26927E-02
         0.26927E-02
         0.26927E-02
         0.26927E-02
         0.26927E-02
         0.26927E-02
         0.26927E-02
         0.26927E-02
         0.26927E-02
         0.26927E-02
         0.26927E-02
         0.26927E-02
         0.26927E-02
         0.26927E-02
         0.26927E-02
         0.26927E-02
         0.26927E-02
         0.26927E-02
         0.26927E-02
         0.26927E-02
         0.26927E-02
         0.26927E-02
         0.26927E-02
         0.26927E-02
         0.26927E-02
         0.26927E-02
         0.26927E-02
         0.26927E-02
         0.26927E-02
         0.26927E-02
         0.26927E-02
         0.26927E-02
         0.26927E-02
         0.26927E-02
         0.26927E-02
         0.26927E-02
         0.26927E-02
         0.26927E-02
         0.26927E-02
         0.26927E-02
         0.26927E-02
         0.26927E-02
         0.26927E-02
         0.26927E-02
         0.26927E-02
         0.26927E-02
         0.26927E-02
         0.26927E-02
         0.26927E-02
         0.26927E-02
         0.26927E-02
         0.26927E-02
         0.26927E-02
         0.26927E-02
         0.26927E-02
         0.26927E-02
         0.26927E-02
         0.26927E-02
         0.26927E-02
         0.26927E-02
         0.26927E-02
         0.26927E-02
         0.26927E-02
         0.26927E-02
         0.26927E-02
         0.26927E-02
         0.26927E-02
         0.26927E-02
         0.26927E-02
         0.26927E-02
         0.26927E-02
         0.26927E-02
         0.26927E-02
         0.26927E-02
         0.26927E-02
         0.26927E-02
         0.26927E-02
         0.26927E-02
         0.26927E-02
         0.26927E-02
         0.26927E-02
         0.26927E-02
         0.26927E-02
         0.26927E-02
         0.26927E-02
         0.26927E-02
         0.26927E-02
         0.26927E-02
         0.26927E-02
         0.26927E-02
         0.26927E-02
         0.26927E-02
         0.26927E-02
         0.26927E-02
         0.26927E-02
         0.26927E-02
         0.26927E-02
         0.26927E-02
         0.26927E-02
         0.26927E-02
         0.26927E-02
         0.26927E-02
         0.26927E-02
         0.26927E-02
         0.26927E-02
         0.26927E-02
         0.26927E-02
         0.26927E-02
         0.26927E-02
         0.26927E-02
         0.26927E-02
         0.26927E-02
         0.26927E-02
         0.26927E-02
         0.26927E-02
         0.26927E-02
         0.26927E-02
         0.26927E-02
         0.26927E-02
         0.26927E-02
         0.26927E-02
         0.26927E-02
         0.26927E-02
         0.26927E-02
         0.26927E-02
         0.26927E-02
         0.26927E-02
         0.26927E-02
         0.26927E-02
         0.26927E-02
         0.26927E-02
         0.26927E-02
         0.26927E-02
         0.26927E-02
         0.26927E-02
         0.26927E-02
         0.26927E-02
         0.26927E-02
         0.26927E-02
         0.26927E-02
         0.26927E-02
         0.26927E-02
         0.26927E-02
         0.26927E-02
         0.26927E-02
         0.26927E-02
         0.26927E-02
         0.26927E-02
         0.26927E-02
         0.26927E-02
         0.26927E-02
         0.26927E-02
         0.26927E-02
         0.26927E-02
         0.26927E-02
         0.26927E-02
         0.26927E-02
         0.26927E-02
         0.26927E-02
         0.26927E-02
         0.26927E-02
         0.26927E-02
         0.26927E-02
         0.26927E-02
         0.26927E-02
         0.26927E-02
         0.26927E-02
         0.26927E-02
         0.26927E-02
         0.26927E-02
         0.26927E-02
         0.26927E-02
         0.26927E-02
         0.26927E-02
         0.26927E-02
         0.26927E-02
         0.26927E-02
         0.26927E-02
         0.26927E-02
         0.26927E-02
         0.26927E-02
         0.26927E-02
         0.26927E-02
         0.26927E-02
         0.26927E-02
         0.26927E-02
         0.26927E-02
         0.26927E-02
         0.26927E-02
         0.26927E-02
         0.26927E-02
         0.26927E-02
         0.26927E-02
         0.26927E-02
         0.26927E-02
         0.26927E-02
         0.26927E-02
         0.26927E-02
         0.26927E-02
         0.26927E-02
         0.26927E-02
         0.26927E-02
         0.26927E-02
         0.26927E-02
         0.26927E-02
         0.26927E-02
         0.26927E-02
         0.26927E-02
         0.26927E-02
         0.26927E-02
         0.26927E-02
         0.26927E-02
         0.26927E-02
         0.26927E-02
         0.26927E-02
         0.26927E-02
         0.26927E-02
         0.26927E-02
         0.26927E-02
         0.26927E-02
         0.26927E-02
         0.26927E-02
         0.26927E-02
         0.26927E-02
         0.26927E-02
         0.26927E-02
         0.26927E-02
         0.26927E-02
         0.26927E-02
         0.26927E-02
         0.26927E-02
         0.26927E-02
         0.26927E-02
         0.26927E-02
         0.26927E-02
         0.26927E-02
         0.26927E-02
         0.26927E-02
         0.26927E-02
         0.26927E-02
         0.26927E-02
         0.26927E-02
         0.26927E-02
         0.26927E-02
         0.26927E-02
         0.26927E-02
         0.26927E-02
         0.26927E-02
         0.26927E-02
         0.26927E-02
         0.26927E-02
         0.26927E-02
         0.26927E-02
         0.26927E-02
         0.26927E-02
         0.26927E-02
         0.26927E-02
         0.26927E-02
         0.26927E-02
         0.26927E-02
         0.26927E-02
         0.26927E-02
         0.26927E-02
         0.26927E-02
         0.26927E-02
         0.26927E-02
         0.26927E-02
         0.26927E-02
         0.26927E-02
         0.26927E-02
         0.26927E-02
         0.26927E-02
         0.26927E-02
         0.26927E-02
         0.26927E-02
         0.26927E-02
         0.26927E-02
         0.26927E-02
         0.26927E-02
         0.26927E-02
         0.26927E-02
         0.26927E-02
         0.26927E-02
         0.26927E-02
         0.26927E-02
         0.26927E-02
         0.26927E-02
         0.26927E-02
         0.26927E-02
         0.26927E-02
         0.26927E-02
         0.26927E-02
         0.26927E-02
         0.26927E-02
         0.26927E-02
         0.26927E-02
         0.26927E-02
         0.26927E-02
         0.26927E-02
         0.26927E-02
         0.26927E-02
         0.26927E-02
         0.26927E-02
         0.26927E-02
         0.26927E-02
         0.26927E-02
         0.26927E-02
         0.26927E-02
         0.26927E-02
         0.26927E-02
         0.26927E-02
         0.26927E-02
         0.26927E-02
         0.26927E-02
         0.26927E-02
         0.26927E-02
         0.26927E-02
         0.26927E-02
         0.26927E-02
         0.26927E-02
         0.26927E-02
         0.26927E-02
         0.26927E-02
         0.26927E-02
         0.26927E-02
         0.26927E-02
         0.26927E-02
         0.26927E-02
         0.26927E-02
         0.26927E-02
         0.26927E-02
         0.26927E-02
         0.26927E-02
         0.26927E-02
         0.26927E-02
         0.26927E-02
         0.26927E-02
         0.26927E-02
         0.26927E-02
         0.26927E-02
         0.26927E-02
         0.26927E-02
         0.26927E-02
         0.26927E-02
         0.26927E-02
         0.26927E-02
         0.26927E-02
         0.26927E-02
         0.26927E-02
         0.26927E-02
         0.26927E-02
         0.26927E-02
         0.26927E-02
         0.26927E-02
         0.26927E-02
         0.26927E-02
         0.26927E-02
         0.26927E-02
         0.26927E-02
         0.26927E-02
         0.26927E-02
         0.26927E-02
         0.26927E-02
         0.26927E-02
         0.26927E-02
         0.26927E-02
         0.26927E-02
         0.26927E-02
         0.26927E-02
         0.26927E-02
         0.26927E-02
         0.26927E-02
         0.26927E-02
         0.26927E-02
         0.26927E-02
         0.26927E-02
         0.26927E-02
         0.26927E-02
         0.26927E-02
         0.26927E-02
         0.26927E-02
         0.26927E-02
         0.26927E-02
         0.26927E-02
         0.26927E-02
         0.26927E-02
         0.26927E-02
         0.26927E-02
         0.26927E-02
         0.26927E-02
         0.26927E-02
         0.26927E-02
         0.26927E-02
         0.26927E-02
         0.26927E-02
         0.26927E-02
         0.26927E-02
         0.26927E-02
         0.26927E-02
         0.26927E-02
         0.26927E-02
         0.26927E-02
         0.26927E-02
         0.26927E-02
         0.26927E-02
         0.26927E-02
         0.26927E-02
         0.26927E-02
         0.26927E-02
         0.26927E-02
         0.26927E-02
         0.26927E-02
         0.26927E-02
         0.26927E-02
         0.26927E-02
         0.26927E-02
         0.26927E-02
         0.26927E-02
         0.26927E-02
         0.26927E-02
         0.26927E-02
         0.26927E-02
         0.26927E-02
         0.26927E-02
         0.26927E-02
         0.26927E-02
         0.26927E-02
         0.26927E-02
         0.26927E-02
         0.26927E-02
         0.26927E-02
         0.26927E-02
         0.26927E-02
         0.26927E-02
         0.26927E-02
         0.26927E-02
         0.26927E-02
         0.26927E-02
         0.26927E-02
         0.26927E-02
         0.26927E-02
         0.26927E-02
         0.26927E-02
         0.26927E-02
         0.26927E-02
         0.26927E-02
         0.26927E-02
         0.26927E-02
         0.26927E-02
         0.26927E-02
         0.26927E-02
         0.26927E-02
         0.26927E-02
         0.26927E-02
         0.26927E-02
         0.26927E-02
         0.26927E-02
         0.26927E-02
         0.26927E-02
         0.26927E-02
         0.26927E-02
         0.26927E-02
         0.26927E-02
         0.26927E-02
         0.26927E-02
         0.26927E-02
         0.26927E-02
         0.26927E-02
         0.26927E-02
         0.26927E-02
         0.26927E-02
         0.26927E-02
         0.26927E-02
         0.26927E-02
         0.26927E-02
         0.26927E-02
         0.26927E-02
         0.26927E-02
         0.26927E-02
         0.26927E-02
         0.26927E-02
         0.26927E-02
         0.26927E-02
         0.26927E-02
         0.26927E-02
         0.26927E-02
         0.26927E-02
         0.26927E-02
         0.26927E-02
         0.26927E-02
         0.26927E-02
         0.26927E-02
         0.26927E-02
         0.26927E-02
         0.26927E-02
         0.26927E-02
         0.26927E-02
         0.26927E-02
         0.26927E-02
         0.26927E-02
         0.26927E-02
         0.26927E-02
         0.26927E-02
         0.26927E-02
         0.26927E-02
         0.26927E-02
         0.26927E-02
         0.26927E-02
         0.26927E-02
         0.26927E-02
         0.26927E-02
         0.26927E-02
         0.26927E-02
         0.26927E-02
         0.26927E-02
         0.26927E-02
         0.26927E-02
         0.26927E-02
         0.26927E-02
         0.26927E-02
         0.26927E-02
         0.26927E-02
         0.26927E-02
         0.26927E-02
         0.26927E-02
         0.26927E-02
         0.26927E-02
         0.26927E-02
         0.26927E-02
         0.26927E-02
         0.26927E-02
         0.26927E-02
         0.26927E-02
         0.26927E-02
         0.26927E-02
         0.26927E-02
         0.26927E-02
         0.26927E-02
         0.26927E-02
         0.26927E-02
         0.26927E-02
         0.26927E-02
         0.26927E-02
         0.26927E-02
         0.26927E-02
         0.26927E-02
         0.26927E-02
         0.26927E-02
         0.26927E-02
         0.26927E-02
         0.26927E-02
         0.26927E-02
         0.26927E-02
         0.26927E-02
         0.26927E-02
         0.26927E-02
         0.26927E-02
         0.26927E-02
         0.26927E-02
         0.26927E-02
         0.26927E-02
         0.26927E-02
         0.26927E-02
         0.26927E-02
         0.26927E-02
         0.26927E-02
         0.26927E-02
         0.26927E-02
         0.26927E-02
         0.26927E-02
         0.26927E-02
         0.26927E-02
         0.26927E-02
         0.26927E-02
         0.26927E-02
         0.26927E-02
         0.26927E-02
         0.26927E-02
         0.26927E-02
         0.26927E-02
         0.26927E-02
         0.26927E-02
         0.26927E-02
         0.26927E-02
         0.26927E-02
         0.26927E-02
         0.26927E-02
         0.26927E-02
         0.26927E-02
         0.26927E-02
         0.26927E-02
         0.26927E-02
         0.26927E-02
         0.26927E-02
         0.26927E-02
         0.26927E-02
         0.26927E-02
         0.26927E-02
         0.26927E-02
         0.26927E-02
         0.26927E-02
         0.26927E-02
         0.26927E-02
         0.26927E-02
         0.26927E-02
         0.26927E-02
         0.26927E-02
         0.26927E-02
         0.26927E-02
         0.26927E-02
         0.26927E-02
         0.26927E-02
         0.26927E-02
         0.26927E-02
         0.26927E-02
         0.26927E-02
         0.26927E-02
         0.26927E-02
         0.26927E-02
         0.26927E-02
         0.26927E-02
         0.26927E-02
         0.26927E-02
         0.26927E-02
         0.26927E-02
         0.26927E-02
         0.26927E-02
         0.26927E-02
         0.26927E-02
         0.26927E-02
         0.26927E-02
         0.26927E-02
         0.26927E-02
         0.26927E-02
         0.26927E-02
         0.26927E-02
         0.26927E-02
         0.26927E-02
         0.26927E-02
         0.26927E-02
         0.26927E-02
         0.26927E-02
         0.26927E-02
         0.26927E-02
         0.26927E-02
         0.26927E-02
         0.26927E-02
         0.26927E-02
         0.26927E-02
         0.26927E-02
         0.26927E-02
         0.26927E-02
         0.26927E-02
         0.26927E-02
         0.26927E-02
         0.26927E-02
         0.26927E-02
         0.26927E-02
         0.26927E-02
         0.26927E-02
         0.26927E-02
         0.26927E-02
         0.26927E-02
         0.26927E-02
         0.26927E-02
         0.26927E-02
         0.26927E-02
         0.26927E-02
         0.26927E-02
         0.26927E-02
         0.26927E-02
         0.26927E-02
         0.26927E-02
         0.26927E-02
         0.26927E-02
         0.26927E-02
         0.26927E-02
         0.26927E-02
         0.26927E-02
         0.26927E-02
         0.26927E-02
         0.26927E-02
         0.26927E-02
         0.26927E-02
         0.26927E-02
         0.26927E-02
         0.26927E-02
         0.26927E-02
         0.26927E-02
         0.26927E-02
         0.26927E-02
         0.26927E-02
         0.26927E-02
         0.26927E-02
         0.26927E-02
         0.26927E-02
         0.26927E-02
         0.26927E-02
         0.26927E-02
         0.26927E-02
         0.26927E-02
         0.26927E-02
         0.26927E-02
         0.26927E-02
         0.26927E-02
         0.26927E-02
         0.26927E-02
         0.26927E-02
         0.26927E-02
         0.26927E-02
         0.26927E-02
         0.26927E-02
         0.26927E-02
         0.26927E-02
         0.26927E-02
         0.26927E-02
         0.26927E-02
         0.26927E-02
         0.26927E-02
         0.26927E-02
         0.26927E-02
         0.26927E-02
         0.26927E-02
         0.26927E-02
         0.26927E-02
         0.26927E-02
         0.26927E-02
         0.26927E-02
         0.26927E-02
         0.26927E-02
         0.26927E-02
         0.26927E-02
         0.26927E-02
         0.26927E-02
         0.26927E-02
         0.26927E-02
         0.26927E-02
         0.26927E-02
         0.26927E-02
         0.26927E-02
         0.26927E-02
         0.26927E-02
         0.26927E-02
         0.26927E-02
         0.26927E-02
         0.26927E-02
         0.26927E-02
         0.26927E-02
         0.26927E-02
         0.26927E-02
         0.26927E-02
         0.26927E-02
         0.26927E-02
         0.26927E-02
         0.26927E-02
         0.26927E-02
         0.26927E-02
         0.26927E-02
         0.26927E-02
         0.26927E-02
         0.26927E-02
         0.26927E-02
         0.26927E-02
         0.26927E-02
         0.26927E-02
         0.26927E-02
         0.26927E-02
         0.26927E-02
         0.26927E-02
         0.26927E-02
         0.26927E-02
         0.26927E-02
         0.26927E-02
         0.26927E-02
         0.26927E-02
         0.26927E-02
         0.26927E-02
         0.26927E-02
         0.26927E-02
         0.26927E-02
         0.26927E-02
         0.26927E-02
         0.26927E-02
         0.26927E-02
         0.26927E-02
         0.26927E-02
         0.26927E-02
         0.26927E-02
         0.26927E-02
         0.26927E-02
         0.26927E-02
         0.26927E-02
         0.26927E-02
         0.26927E-02
         0.26927E-02
         0.26927E-02
         0.26927E-02
         0.26927E-02
         0.26927E-02
         0.26927E-02
         0.26927E-02
         0.26927E-02
         0.26927E-02
         0.26927E-02
         0.26927E-02
         0.26927E-02
         0.26927E-02
         0.26927E-02
         0.26927E-02
         0.26927E-02
         0.26927E-02
         0.26927E-02
         0.26927E-02
         0.26927E-02
         0.26927E-02
         0.26927E-02
         0.26927E-02
         0.26927E-02
         0.26927E-02
         0.26927E-02
         0.26927E-02
         0.26927E-02
         0.26927E-02
         0.26927E-02
         0.26927E-02
         0.26927E-02
         0.26927E-02
         0.26927E-02
         0.26927E-02
         0.26927E-02
         0.26927E-02
         0.26927E-02
         0.26927E-02
         0.26927E-02
         0.26927E-02
         0.26927E-02
         0.26927E-02
         0.26927E-02
         0.26927E-02
         0.26927E-02
         0.26927E-02
         0.26927E-02
         0.26927E-02
         0.26927E-02
         0.26927E-02
         0.26927E-02
         0.26927E-02
         0.26927E-02
         0.26927E-02
         0.26927E-02
         0.26927E-02
         0.26927E-02
         0.26927E-02
         0.26927E-02
         0.26927E-02
         0.26927E-02
         0.26927E-02
         0.26927E-02
         0.26927E-02
         0.26927E-02
         0.26927E-02
         0.26927E-02
         0.26927E-02
         0.26927E-02
         0.26927E-02
         0.26927E-02
         0.26927E-02
         0.26927E-02
         0.26927E-02
         0.26927E-02
         0.26927E-02
         0.26927E-02
         0.26927E-02
         0.26927E-02
         0.26927E-02
         0.26927E-02
         0.26927E-02
         0.26927E-02
         0.26927E-02
         0.26927E-02
         0.26927E-02
         0.26927E-02
         0.26927E-02
         0.26927E-02
         0.26927E-02
         0.26927E-02
         0.26927E-02
         0.26927E-02
         0.26927E-02
         0.26927E-02
         0.26927E-02
         0.26927E-02
         0.26927E-02
         0.26927E-02
         0.26927E-02
         0.26927E-02
         0.26927E-02
         0.26927E-02
         0.26927E-02
         0.26927E-02
         0.26927E-02
         0.26927E-02
         0.26927E-02
         0.26927E-02
         0.26927E-02
         0.26927E-02
         0.26927E-02
         0.26927E-02
         0.26927E-02
         0.26927E-02
         0.26927E-02
         0.26927E-02
         0.26927E-02
         0.26927E-02
         0.26927E-02
         0.26927E-02
         0.26927E-02
         0.26927E-02
         0.26927E-02
         0.26927E-02
         0.26927E-02
         0.26927E-02
         0.26927E-02
         0.26927E-02
         0.26927E-02
         0.26927E-02
         0.26927E-02
         0.26927E-02
         0.26927E-02
         0.26927E-02
         0.26927E-02
         0.26927E-02
         0.26927E-02
         0.26927E-02
         0.26927E-02
         0.26927E-02
         0.26927E-02
         0.26927E-02
         0.26927E-02
         0.26927E-02
         0.26927E-02
         0.26927E-02
         0.26927E-02
         0.26927E-02
         0.26927E-02
         0.26927E-02
         0.26927E-02
         0.26927E-02
         0.26927E-02
         0.26927E-02
         0.26927E-02
         0.26927E-02
         0.26927E-02
         0.26927E-02
         0.26927E-02
         0.26927E-02
         0.26927E-02
         0.26927E-02
         0.26927E-02
         0.26927E-02
         0.26927E-02
         0.26927E-02
         0.26927E-02
         0.26927E-02
         0.26927E-02
         0.26927E-02
         0.26927E-02
         0.26927E-02
         0.26927E-02
         0.26927E-02
         0.26927E-02
         0.26927E-02
         0.26927E-02
         0.26927E-02
         0.26927E-02
         0.26927E-02
         0.26927E-02
         0.26927E-02
         0.26927E-02
         0.26927E-02
         0.26927E-02
         0.26927E-02
         0.26927E-02
         0.26927E-02
         0.26927E-02
         0.26927E-02
         0.26927E-02
         0.26927E-02
         0.26927E-02
         0.26927E-02
         0.26927E-02
         0.26927E-02
         0.26927E-02
         0.26927E-02
         0.26927E-02
         0.26927E-02
         0.26927E-02
         0.26927E-02
         0.26927E-02
         0.26927E-02
         0.26927E-02
         0.26927E-02
         0.26927E-02
         0.26927E-02
         0.26927E-02
         0.26927E-02
         0.26927E-02
         0.26927E-02
         0.26927E-02
         0.26927E-02
         0.26927E-02
         0.26927E-02
         0.26927E-02
         0.26927E-02
         0.26927E-02
         0.26927E-02
         0.26927E-02
         0.26927E-02
         0.26927E-02
         0.26927E-02
         0.26927E-02
         0.26927E-02
         0.26927E-02
         0.26927E-02
         0.26927E-02
         0.26927E-02
         0.26927E-02
         0.26927E-02
         0.26927E-02
         0.26927E-02
         0.26927E-02
         0.26927E-02
         0.26927E-02
         0.26927E-02
         0.26927E-02
         0.26927E-02
         0.26927E-02
         0.26927E-02
         0.26927E-02
         0.26927E-02
         0.26927E-02
         0.26927E-02
         0.26927E-02
         0.26927E-02
         0.26927E-02
         0.26927E-02
         0.26927E-02
         0.26927E-02
         0.26927E-02
         0.26927E-02
         0.26927E-02
         0.26927E-02
         0.26927E-02
         0.26927E-02
         0.26927E-02
         0.26927E-02
         0.26927E-02
         0.26927E-02
         0.26927E-02
         0.26927E-02
         0.26927E-02
         0.26927E-02
         0.26927E-02
         0.26927E-02
         0.26927E-02
         0.26927E-02
         0.26927E-02
         0.26927E-02
         0.26927E-02
         0.26927E-02
         0.26927E-02
         0.26927E-02
         0.26927E-02
         0.26927E-02
         0.26927E-02
         0.26927E-02
         0.26927E-02
         0.26927E-02
         0.26927E-02
         0.26927E-02
         0.26927E-02
         0.26927E-02
         0.26927E-02
         0.26927E-02
         0.26927E-02
         0.26927E-02
         0.26927E-02
         0.26927E-02
         0.26927E-02
         0.26927E-02
         0.26927E-02
         0.26927E-02
         0.26927E-02
         0.26927E-02
         0.26927E-02
         0.26927E-02
         0.26927E-02
         0.26927E-02
         0.26927E-02
         0.26927E-02
         0.26927E-02
         0.26927E-02
         0.26927E-02
         0.26927E-02
         0.26927E-02
         0.26927E-02
         0.26927E-02
         0.26927E-02
         0.26927E-02
         0.26927E-02
         0.26927E-02
         0.26927E-02
         0.26927E-02
         0.26927E-02
         0.26927E-02
         0.26927E-02
         0.26927E-02
         0.26927E-02
         0.26927E-02
         0.26927E-02
         0.26927E-02
         0.26927E-02
         0.26927E-02
         0.26927E-02
         0.26927E-02
         0.26927E-02
         0.26927E-02
         0.26927E-02
         0.26927E-02
         0.26927E-02
         0.26927E-02
         0.26927E-02
         0.26927E-02
         0.26927E-02
         0.26927E-02
         0.26927E-02
         0.26927E-02
         0.26927E-02
         0.26927E-02
         0.26927E-02
         0.26927E-02
         0.26927E-02
         0.26927E-02
         0.26927E-02
         0.26927E-02
         0.26927E-02
         0.26927E-02
         0.26927E-02
         0.26927E-02
         0.26927E-02
         0.26927E-02
         0.26927E-02
         0.26927E-02
         0.26927E-02
         0.26927E-02
         0.26927E-02
         0.26927E-02
         0.26927E-02
         0.26927E-02
         0.26927E-02
         0.26927E-02
         0.26927E-02
         0.26927E-02
         0.26927E-02
         0.26927E-02
         0.26927E-02
         0.26927E-02
         0.26927E-02
         0.26927E-02
         0.26927E-02
         0.26927E-02
         0.26927E-02
         0.26927E-02
         0.26927E-02
         0.26927E-02
         0.26927E-02
         0.26927E-02
         0.26927E-02
         0.26927E-02
         0.26927E-02
         0.26927E-02
         0.26927E-02
         0.26927E-02
         0.26927E-02
         0.26927E-02
         0.26927E-02
         0.26927E-02
         0.26927E-02
         0.26927E-02
         0.26927E-02
         0.26927E-02
         0.26927E-02
         0.26927E-02
         0.26927E-02
         0.26927E-02
         0.26927E-02
         0.26927E-02
         0.26927E-02
         0.26927E-02
         0.26927E-02
         0.26927E-02
         0.26927E-02
         0.26927E-02
         0.26927E-02
         0.26927E-02
         0.26927E-02
         0.26927E-02
         0.26927E-02
         0.26927E-02
         0.26927E-02
         0.26927E-02
         0.26927E-02
         0.26927E-02
         0.26927E-02
         0.26927E-02
         0.26927E-02
         0.26927E-02
         0.26927E-02
         0.26927E-02
         0.26927E-02
         0.26927E-02
         0.26927E-02
         0.26927E-02
         0.26927E-02
         0.26927E-02
         0.26927E-02
         0.26927E-02
         0.26927E-02
         0.26927E-02
         0.26927E-02
         0.26927E-02
         0.26927E-02
         0.26927E-02
         0.26927E-02
         0.26927E-02
         0.26927E-02
         0.26927E-02
         0.26927E-02
         0.26927E-02
         0.26927E-02
         0.26927E-02
         0.26927E-02
         0.26927E-02
         0.26927E-02
         0.26927E-02
         0.26927E-02
         0.26927E-02
         0.26927E-02
         0.26927E-02
         0.26927E-02
         0.26927E-02
         0.26927E-02
         0.26927E-02
         0.26927E-02
         0.26927E-02
         0.26927E-02
         0.26927E-02
         0.26927E-02
         0.26927E-02
         0.26927E-02
         0.26927E-02
         0.26927E-02
         0.26927E-02
         0.26927E-02
         0.26927E-02
         0.26927E-02
         0.26927E-02
         0.26927E-02
         0.26927E-02
         0.26927E-02
         0.26927E-02
         0.26927E-02
         0.26927E-02
         0.26927E-02
         0.26927E-02
         0.26927E-02
         0.26927E-02
         0.26927E-02
         0.26927E-02
         0.26927E-02
         0.26927E-02
         0.26927E-02
         0.26927E-02
         0.26927E-02
         0.26927E-02
         0.26927E-02
         0.26927E-02
         0.26927E-02
         0.26927E-02
         0.26927E-02
         0.26927E-02
         0.26927E-02
         0.26927E-02
         0.26927E-02
         0.26927E-02
         0.26927E-02
         0.26927E-02
         0.26927E-02
         0.26927E-02
         0.26927E-02
         0.26927E-02
         0.26927E-02
         0.26927E-02
         0.26927E-02
         0.26927E-02
         0.26927E-02
         0.26927E-02
         0.26927E-02
         0.26927E-02
         0.26927E-02
         0.26927E-02
         0.26927E-02
         0.26927E-02
         0.26927E-02
         0.26927E-02
         0.26927E-02
         0.26927E-02
         0.26927E-02
         0.26927E-02
         0.26927E-02
         0.26927E-02
         0.26927E-02
         0.26927E-02
         0.26927E-02
         0.26927E-02
         0.26927E-02
         0.26927E-02
         0.26927E-02
         0.26927E-02
         0.26927E-02
         0.26927E-02
         0.26927E-02
         0.26927E-02
         0.26927E-02
         0.26927E-02
         0.26927E-02
         0.26927E-02
         0.26927E-02
         0.26927E-02
         0.26927E-02
         0.26927E-02
         0.26927E-02
         0.26927E-02
         0.26927E-02
         0.26927E-02
         0.26927E-02
         0.26927E-02
         0.26927E-02
         0.26927E-02
         0.26927E-02
         0.26927E-02
         0.26927E-02
         0.26927E-02
         0.26927E-02
         0.26927E-02
         0.26927E-02
         0.26927E-02
         0.26927E-02
         0.26927E-02
         0.26927E-02
         0.26927E-02
         0.26927E-02
         0.26927E-02
         0.26927E-02
         0.26927E-02
         0.26927E-02
         0.26927E-02
         0.26927E-02
         0.26927E-02
         0.26927E-02
         0.26927E-02
         0.26927E-02
         0.26927E-02
         0.26927E-02
         0.26927E-02
         0.26927E-02
         0.26927E-02
         0.26927E-02
         0.26927E-02
         0.26927E-02
         0.26927E-02
         0.26927E-02
         0.26927E-02
         0.26927E-02
         0.26927E-02
         0.26927E-02
         0.26927E-02
         0.26927E-02
         0.26927E-02
         0.26927E-02
         0.26927E-02
         0.26927E-02
         0.26927E-02
         0.26927E-02
         0.26927E-02
         0.26927E-02
         0.26927E-02
         0.26927E-02
         0.26927E-02
         0.26927E-02
         0.26927E-02
         0.26927E-02
         0.26927E-02
         0.26927E-02
         0.26927E-02
         0.26927E-02
         0.26927E-02
         0.26927E-02
         0.26927E-02
         0.26927E-02
         0.26927E-02
         0.26927E-02
         0.26927E-02
         0.26927E-02
         0.26927E-02
         0.26927E-02
         0.26927E-02
         0.26927E-02
         0.26927E-02
         0.26927E-02
         0.26927E-02
         0.26927E-02
         0.26927E-02
         0.26927E-02
         0.26927E-02
         0.26927E-02
         0.26927E-02
         0.26927E-02
         0.26927E-02
         0.26927E-02
         0.26927E-02
         0.26927E-02
         0.26927E-02
         0.26927E-02
         0.26927E-02
         0.26927E-02
         0.26927E-02
         0.26927E-02
         0.26927E-02
         0.26927E-02
         0.26927E-02
         0.26927E-02
         0.26927E-02
         0.26927E-02
         0.26927E-02
         0.26927E-02
         0.26927E-02
         0.26927E-02
         0.26927E-02
         0.26927E-02
         0.26927E-02
         0.26927E-02
         0.26927E-02
         0.26927E-02
         0.26927E-02
         0.26927E-02
         0.26927E-02
         0.26927E-02
         0.26927E-02
         0.26927E-02
         0.26927E-02
         0.26927E-02
         0.26927E-02
         0.26927E-02
         0.26927E-02
         0.26927E-02
         0.26927E-02
         0.26927E-02
         0.26927E-02
         0.26927E-02
         0.26927E-02
         0.26927E-02
         0.26927E-02
         0.26927E-02
         0.26927E-02
         0.26927E-02
         0.26927E-02
         0.26927E-02
         0.26927E-02
         0.26927E-02
         0.26927E-02
         0.26927E-02
         0.26927E-02
         0.26927E-02
         0.26927E-02
         0.26927E-02
         0.26927E-02
         0.26927E-02
         0.26927E-02
         0.26927E-02
         0.26927E-02
         0.26927E-02
         0.26927E-02
         0.26927E-02
         0.26927E-02
         0.26927E-02
         0.26927E-02
         0.26927E-02
         0.26927E-02
         0.26927E-02
         0.26927E-02
         0.26927E-02
         0.26927E-02
         0.26927E-02
         0.26927E-02
         0.26927E-02
         0.26927E-02
         0.26927E-02
         0.26927E-02
         0.26927E-02
         0.26927E-02
         0.26927E-02
         0.26927E-02
         0.26928E-02
         0.26928E-02
         0.26928E-02
         0.26928E-02
         0.26928E-02
         0.26928E-02
         0.26928E-02
         0.26928E-02
         0.26928E-02
         0.26928E-02
         0.26928E-02
         0.26928E-02
         0.26928E-02
         0.26928E-02
         0.26928E-02
         0.26928E-02
         0.26928E-02
         0.26928E-02
         0.26928E-02
         0.26928E-02
         0.26928E-02
         0.26928E-02
         0.26928E-02
         0.26928E-02
         0.26928E-02
         0.26928E-02
         0.26928E-02
         0.26928E-02
         0.26928E-02
         0.26928E-02
         0.26928E-02
         0.26928E-02
         0.26928E-02
         0.26928E-02
         0.26928E-02
         0.26928E-02
         0.26928E-02
         0.26928E-02
         0.26928E-02
         0.26928E-02
         0.26928E-02
         0.26928E-02
         0.26928E-02
         0.26928E-02
         0.26928E-02
         0.26928E-02
         0.26928E-02
         0.26928E-02
         0.26928E-02
         0.26928E-02
         0.26928E-02
         0.26928E-02
         0.26928E-02
         0.26928E-02
         0.26928E-02
         0.26928E-02
         0.26928E-02
         0.26928E-02
         0.26928E-02
         0.26928E-02
         0.26928E-02
         0.26928E-02
         0.26928E-02
         0.26928E-02
         0.26928E-02
         0.26928E-02
         0.26928E-02
         0.26928E-02
         0.26928E-02
         0.26928E-02
         0.26928E-02
         0.26928E-02
         0.26928E-02
         0.26928E-02
         0.26928E-02
         0.26928E-02
         0.26928E-02
         0.26928E-02
         0.26928E-02
         0.26928E-02
         0.26928E-02
         0.26928E-02
         0.26928E-02
         0.26928E-02
         0.26928E-02
         0.26928E-02
         0.26928E-02
         0.26928E-02
         0.26928E-02
         0.26928E-02
         0.26928E-02
         0.26928E-02
         0.26928E-02
         0.26928E-02
         0.26928E-02
         0.26928E-02
         0.26928E-02
         0.26928E-02
         0.26928E-02
         0.26928E-02
         0.26928E-02
         0.26928E-02
         0.26928E-02
         0.26928E-02
         0.26928E-02
         0.26928E-02
         0.26928E-02
         0.26928E-02
         0.26928E-02
         0.26928E-02
         0.26928E-02
         0.26928E-02
         0.26928E-02
         0.26928E-02
         0.26928E-02
         0.26928E-02
         0.26928E-02
         0.26928E-02
         0.26928E-02
         0.26928E-02
         0.26928E-02
         0.26928E-02
         0.26928E-02
         0.26928E-02
         0.26928E-02
         0.26928E-02
         0.26928E-02
         0.26928E-02
         0.26928E-02
         0.26928E-02
         0.26928E-02
         0.26928E-02
         0.26928E-02
         0.26928E-02
         0.26928E-02
         0.26928E-02
         0.26928E-02
         0.26928E-02
         0.26928E-02
         0.26928E-02
         0.26928E-02
         0.26928E-02
         0.26928E-02
         0.26928E-02
         0.26928E-02
         0.26928E-02
         0.26928E-02
         0.26928E-02
         0.26928E-02
         0.26928E-02
         0.26928E-02
         0.26928E-02
         0.26928E-02
         0.26928E-02
         0.26928E-02
         0.26928E-02
  
SCALARS                   nodal_volume  double 1
LOOKUP_TABLE default
         0.91140E-09
         0.72412E-09
         0.77574E-09
         0.13316E-08
         0.45570E-09
         0.36211E-09
         0.38787E-09
         0.66566E-09
         0.71537E-09
         0.91211E-09
         0.35767E-09
         0.45600E-09
         0.51195E-09
         0.61532E-09
         0.25605E-09
         0.30776E-09
         0.10101E-08
         0.74536E-09
         0.50500E-09
         0.37281E-09
         0.30273E-09
         0.57012E-09
         0.62699E-09
         0.15144E-09
         0.28509E-09
         0.31352E-09
         0.51329E-09
         0.64933E-09
         0.25683E-09
         0.32471E-09
         0.12026E-08
         0.93909E-09
         0.11935E-08
         0.60122E-09
         0.46945E-09
         0.59663E-09
         0.70296E-09
         0.80270E-09
         0.35149E-09
         0.40134E-09
         0.75859E-09
         0.84013E-09
         0.37932E-09
         0.42007E-09
         0.64542E-09
         0.40086E-09
         0.32274E-09
         0.20045E-09
         0.76288E-09
         0.38153E-09
         0.63346E-09
         0.31675E-09
         0.66583E-09
         0.33318E-09
         0.68008E-09
         0.34022E-09
         0.58930E-09
         0.71738E-09
         0.29472E-09
         0.35874E-09
         0.90938E-09
         0.64302E-09
         0.45469E-09
         0.32154E-09
         0.10152E-08
         0.50747E-09
         0.88120E-09
         0.44042E-09
         0.40077E-09
         0.61872E-09
         0.20039E-09
         0.30940E-09
         0.70206E-09
         0.35106E-09
         0.74172E-09
         0.37089E-09
         0.71539E-09
         0.35770E-09
         0.56226E-09
         0.28113E-09
         0.35349E-09
         0.58452E-09
         0.17675E-09
         0.29229E-09
         0.77354E-09
         0.38679E-09
         0.62469E-09
         0.31238E-09
         0.54957E-09
         0.27483E-09
         0.36009E-09
         0.61365E-09
         0.18007E-09
         0.30685E-09
         0.83268E-09
         0.41635E-09
         0.87287E-09
         0.43642E-09
         0.70438E-09
         0.35217E-09
         0.43365E-09
         0.74413E-09
         0.21683E-09
         0.37198E-09
         0.27660E-09
         0.35144E-09
         0.13833E-09
         0.17573E-09
         0.32921E-09
         0.16465E-09
         0.38764E-09
         0.19382E-09
         0.37797E-09
         0.18897E-09
         0.36707E-09
         0.18352E-09
         0.39112E-09
         0.19552E-09
         0.41268E-09
         0.20627E-09
         0.38876E-09
         0.19433E-09
         0.30402E-09
         0.15200E-09
         0.24796E-09
         0.12398E-09
         0.31999E-09
         0.16000E-09
         0.42608E-09
         0.21303E-09
         0.46805E-09
         0.23401E-09
         0.44933E-09
         0.22466E-09
         0.40550E-09
         0.20276E-09
         0.36826E-09
         0.18414E-09
         0.29911E-09
         0.14956E-09
         0.25178E-09
         0.12591E-09
         0.32888E-09
         0.16445E-09
         0.43529E-09
         0.21765E-09
         0.44963E-09
         0.22482E-09
         0.36384E-09
         0.18194E-09
         0.29543E-09
         0.14774E-09
         0.36126E-09
         0.18063E-09
         0.42771E-09
         0.21386E-09
         0.91143E-09
         0.72396E-09
         0.77579E-09
         0.13322E-08
         0.71547E-09
         0.91237E-09
         0.51167E-09
         0.61494E-09
         0.10105E-08
         0.74486E-09
         0.30244E-09
         0.57001E-09
         0.62694E-09
         0.51257E-09
         0.64918E-09
         0.12029E-08
         0.93950E-09
         0.11941E-08
         0.70298E-09
         0.80279E-09
         0.75855E-09
         0.84015E-09
         0.64535E-09
         0.40081E-09
         0.76254E-09
         0.63339E-09
         0.66483E-09
         0.67941E-09
         0.58904E-09
         0.71721E-09
         0.90946E-09
         0.64293E-09
         0.10157E-08
         0.88199E-09
         0.40076E-09
         0.61859E-09
         0.70195E-09
         0.74166E-09
         0.71543E-09
         0.56228E-09
         0.35349E-09
         0.58443E-09
         0.77349E-09
         0.62459E-09
         0.54943E-09
         0.35999E-09
         0.61359E-09
         0.83268E-09
         0.87299E-09
         0.70451E-09
         0.43366E-09
         0.74449E-09
         0.27651E-09
         0.35143E-09
         0.32904E-09
         0.38765E-09
         0.37805E-09
         0.36714E-09
         0.39129E-09
         0.41297E-09
         0.38899E-09
         0.30408E-09
         0.24798E-09
         0.31999E-09
         0.42613E-09
         0.46815E-09
         0.44938E-09
         0.40548E-09
         0.36823E-09
         0.29908E-09
         0.25174E-09
         0.32885E-09
         0.43527E-09
         0.44962E-09
         0.36376E-09
         0.29536E-09
         0.36130E-09
         0.42769E-09
         0.91151E-09
         0.72383E-09
         0.77587E-09
         0.13329E-08
         0.71560E-09
         0.91267E-09
         0.51142E-09
         0.61459E-09
         0.10109E-08
         0.74439E-09
         0.30216E-09
         0.56992E-09
         0.62691E-09
         0.51187E-09
         0.64906E-09
         0.12033E-08
         0.93995E-09
         0.11947E-08
         0.70302E-09
         0.80291E-09
         0.75853E-09
         0.84020E-09
         0.64530E-09
         0.40078E-09
         0.76223E-09
         0.63335E-09
         0.66385E-09
         0.67875E-09
         0.58880E-09
         0.71706E-09
         0.90957E-09
         0.64286E-09
         0.10162E-08
         0.88281E-09
         0.40076E-09
         0.61849E-09
         0.70188E-09
         0.74162E-09
         0.71550E-09
         0.56232E-09
         0.35350E-09
         0.58436E-09
         0.77347E-09
         0.62452E-09
         0.54931E-09
         0.35990E-09
         0.61355E-09
         0.83270E-09
         0.87315E-09
         0.70467E-09
         0.43368E-09
         0.74487E-09
         0.27643E-09
         0.35143E-09
         0.32889E-09
         0.38767E-09
         0.37814E-09
         0.36723E-09
         0.39147E-09
         0.41328E-09
         0.38923E-09
         0.30416E-09
         0.24800E-09
         0.32001E-09
         0.42620E-09
         0.46826E-09
         0.44944E-09
         0.40548E-09
         0.36821E-09
         0.29906E-09
         0.25171E-09
         0.32883E-09
         0.43527E-09
         0.44963E-09
         0.36369E-09
         0.29530E-09
         0.36135E-09
         0.42769E-09
         0.91156E-09
         0.72368E-09
         0.77594E-09
         0.13335E-08
         0.71571E-09
         0.91295E-09
         0.51115E-09
         0.61422E-09
         0.10112E-08
         0.74389E-09
         0.30187E-09
         0.56982E-09
         0.62686E-09
         0.51116E-09
         0.64892E-09
         0.12036E-08
         0.94038E-09
         0.11953E-08
         0.70304E-09
         0.80300E-09
         0.75850E-09
         0.84023E-09
         0.64523E-09
         0.40073E-09
         0.76190E-09
         0.63330E-09
         0.66285E-09
         0.67809E-09
         0.58855E-09
         0.71689E-09
         0.90966E-09
         0.64278E-09
         0.10168E-08
         0.88361E-09
         0.40076E-09
         0.61837E-09
         0.70178E-09
         0.74156E-09
         0.71554E-09
         0.56234E-09
         0.35350E-09
         0.58428E-09
         0.77343E-09
         0.62442E-09
         0.54918E-09
         0.35981E-09
         0.61349E-09
         0.83271E-09
         0.87328E-09
         0.70481E-09
         0.43369E-09
         0.74524E-09
         0.27634E-09
         0.35142E-09
         0.32873E-09
         0.38768E-09
         0.37823E-09
         0.36731E-09
         0.39163E-09
         0.41358E-09
         0.38945E-09
         0.30422E-09
         0.24802E-09
         0.32001E-09
         0.42625E-09
         0.46837E-09
         0.44949E-09
         0.40546E-09
         0.36819E-09
         0.29904E-09
         0.25167E-09
         0.32881E-09
         0.43526E-09
         0.44963E-09
         0.36362E-09
         0.29523E-09
         0.36139E-09
         0.42768E-09
         0.91161E-09
         0.72353E-09
         0.77600E-09
         0.13341E-08
         0.71583E-09
         0.91323E-09
         0.51088E-09
         0.61386E-09
         0.10116E-08
         0.74341E-09
         0.30158E-09
         0.56972E-09
         0.62682E-09
         0.51045E-09
         0.64879E-09
         0.12040E-08
         0.94081E-09
         0.11959E-08
         0.70307E-09
         0.80310E-09
         0.75847E-09
         0.84027E-09
         0.64517E-09
         0.40069E-09
         0.76158E-09
         0.63325E-09
         0.66186E-09
         0.67742E-09
         0.58831E-09
         0.71673E-09
         0.90975E-09
         0.64270E-09
         0.10173E-08
         0.88441E-09
         0.40075E-09
         0.61825E-09
         0.70169E-09
         0.74151E-09
         0.71559E-09
         0.56237E-09
         0.35350E-09
         0.58420E-09
         0.77339E-09
         0.62433E-09
         0.54905E-09
         0.35972E-09
         0.61344E-09
         0.83272E-09
         0.87341E-09
         0.70496E-09
         0.43370E-09
         0.74562E-09
         0.27626E-09
         0.35142E-09
         0.32857E-09
         0.38770E-09
         0.37832E-09
         0.36739E-09
         0.39181E-09
         0.41387E-09
         0.38968E-09
         0.30429E-09
         0.24804E-09
         0.32002E-09
         0.42631E-09
         0.46847E-09
         0.44954E-09
         0.40545E-09
         0.36816E-09
         0.29901E-09
         0.25163E-09
         0.32878E-09
         0.43525E-09
         0.44963E-09
         0.36354E-09
         0.29517E-09
         0.36144E-09
         0.42766E-09
         0.91167E-09
         0.72338E-09
         0.77607E-09
         0.13348E-08
         0.71594E-09
         0.91351E-09
         0.51062E-09
         0.61349E-09
         0.10119E-08
         0.74292E-09
         0.30129E-09
         0.56962E-09
         0.62678E-09
         0.50974E-09
         0.64865E-09
         0.12044E-08
         0.94125E-09
         0.11965E-08
         0.70310E-09
         0.80321E-09
         0.75844E-09
         0.84031E-09
         0.64511E-09
         0.40065E-09
         0.76125E-09
         0.63320E-09
         0.66087E-09
         0.67676E-09
         0.58806E-09
         0.71657E-09
         0.90984E-09
         0.64263E-09
         0.10179E-08
         0.88522E-09
         0.40075E-09
         0.61813E-09
         0.70160E-09
         0.74146E-09
         0.71564E-09
         0.56240E-09
         0.35350E-09
         0.58412E-09
         0.77336E-09
         0.62425E-09
         0.54892E-09
         0.35963E-09
         0.61339E-09
         0.83274E-09
         0.87355E-09
         0.70511E-09
         0.43371E-09
         0.74599E-09
         0.27618E-09
         0.35141E-09
         0.32841E-09
         0.38771E-09
         0.37841E-09
         0.36747E-09
         0.39198E-09
         0.41417E-09
         0.38992E-09
         0.30436E-09
         0.24806E-09
         0.32003E-09
         0.42637E-09
         0.46858E-09
         0.44960E-09
         0.40544E-09
         0.36814E-09
         0.29899E-09
         0.25159E-09
         0.32876E-09
         0.43525E-09
         0.44963E-09
         0.36347E-09
         0.29511E-09
         0.36148E-09
         0.42766E-09
         0.91171E-09
         0.72323E-09
         0.77613E-09
         0.13354E-08
         0.71606E-09
         0.91379E-09
         0.51035E-09
         0.61313E-09
         0.10123E-08
         0.74243E-09
         0.30101E-09
         0.56952E-09
         0.62674E-09
         0.50903E-09
         0.64851E-09
         0.12047E-08
         0.94167E-09
         0.11971E-08
         0.70312E-09
         0.80331E-09
         0.75840E-09
         0.84034E-09
         0.64504E-09
         0.40061E-09
         0.76092E-09
         0.63314E-09
         0.65988E-09
         0.67609E-09
         0.58781E-09
         0.71641E-09
         0.90993E-09
         0.64255E-09
         0.10184E-08
         0.88601E-09
         0.40075E-09
         0.61801E-09
         0.70151E-09
         0.74140E-09
         0.71569E-09
         0.56243E-09
         0.35350E-09
         0.58404E-09
         0.77332E-09
         0.62416E-09
         0.54879E-09
         0.35953E-09
         0.61334E-09
         0.83274E-09
         0.87368E-09
         0.70525E-09
         0.43372E-09
         0.74636E-09
         0.27609E-09
         0.35141E-09
         0.32825E-09
         0.38772E-09
         0.37849E-09
         0.36754E-09
         0.39215E-09
         0.41447E-09
         0.39014E-09
         0.30443E-09
         0.24808E-09
         0.32004E-09
         0.42642E-09
         0.46868E-09
         0.44965E-09
         0.40543E-09
         0.36812E-09
         0.29897E-09
         0.25155E-09
         0.32874E-09
         0.43524E-09
         0.44963E-09
         0.36340E-09
         0.29504E-09
         0.36153E-09
         0.42764E-09
         0.91176E-09
         0.72308E-09
         0.77620E-09
         0.13360E-08
         0.71617E-09
         0.91407E-09
         0.51008E-09
         0.61276E-09
         0.10126E-08
         0.74195E-09
         0.30072E-09
         0.56942E-09
         0.62670E-09
         0.50832E-09
         0.64838E-09
         0.12051E-08
         0.94210E-09
         0.11977E-08
         0.70314E-09
         0.80341E-09
         0.75837E-09
         0.84038E-09
         0.64498E-09
         0.40056E-09
         0.76060E-09
         0.63309E-09
         0.65888E-09
         0.67542E-09
         0.58756E-09
         0.71624E-09
         0.91002E-09
         0.64247E-09
         0.10189E-08
         0.88682E-09
         0.40074E-09
         0.61790E-09
         0.70142E-09
         0.74135E-09
         0.71574E-09
         0.56245E-09
         0.35351E-09
         0.58396E-09
         0.77328E-09
         0.62407E-09
         0.54866E-09
         0.35944E-09
         0.61329E-09
         0.83275E-09
         0.87382E-09
         0.70539E-09
         0.43373E-09
         0.74673E-09
         0.27601E-09
         0.35140E-09
         0.32809E-09
         0.38774E-09
         0.37858E-09
         0.36762E-09
         0.39232E-09
         0.41477E-09
         0.39037E-09
         0.30450E-09
         0.24810E-09
         0.32005E-09
         0.42648E-09
         0.46879E-09
         0.44970E-09
         0.40541E-09
         0.36809E-09
         0.29894E-09
         0.25151E-09
         0.32871E-09
         0.43523E-09
         0.44963E-09
         0.36333E-09
         0.29497E-09
         0.36157E-09
         0.42763E-09
         0.91182E-09
         0.72293E-09
         0.77627E-09
         0.13367E-08
         0.71629E-09
         0.91436E-09
         0.50982E-09
         0.61240E-09
         0.10130E-08
         0.74146E-09
         0.30043E-09
         0.56932E-09
         0.62666E-09
         0.50762E-09
         0.64825E-09
         0.12054E-08
         0.94253E-09
         0.11983E-08
         0.70317E-09
         0.80351E-09
         0.75834E-09
         0.84041E-09
         0.64491E-09
         0.40053E-09
         0.76028E-09
         0.63304E-09
         0.65790E-09
         0.67476E-09
         0.58731E-09
         0.71609E-09
         0.91012E-09
         0.64239E-09
         0.10195E-08
         0.88762E-09
         0.40074E-09
         0.61778E-09
         0.70133E-09
         0.74130E-09
         0.71579E-09
         0.56249E-09
         0.35351E-09
         0.58388E-09
         0.77324E-09
         0.62398E-09
         0.54853E-09
         0.35935E-09
         0.61324E-09
         0.83277E-09
         0.87396E-09
         0.70554E-09
         0.43375E-09
         0.74711E-09
         0.27592E-09
         0.35140E-09
         0.32793E-09
         0.38775E-09
         0.37867E-09
         0.36770E-09
         0.39249E-09
         0.41507E-09
         0.39061E-09
         0.30457E-09
         0.24812E-09
         0.32006E-09
         0.42654E-09
         0.46890E-09
         0.44975E-09
         0.40540E-09
         0.36807E-09
         0.29892E-09
         0.25148E-09
         0.32869E-09
         0.43522E-09
         0.44963E-09
         0.36325E-09
         0.29491E-09
         0.36162E-09
         0.42762E-09
         0.91187E-09
         0.72278E-09
         0.77633E-09
         0.13373E-08
         0.71640E-09
         0.91463E-09
         0.50955E-09
         0.61204E-09
         0.10134E-08
         0.74098E-09
         0.30015E-09
         0.56922E-09
         0.62662E-09
         0.50691E-09
         0.64811E-09
         0.12058E-08
         0.94296E-09
         0.11989E-08
         0.70320E-09
         0.80361E-09
         0.75831E-09
         0.84045E-09
         0.64485E-09
         0.40048E-09
         0.75995E-09
         0.63298E-09
         0.65690E-09
         0.67409E-09
         0.58706E-09
         0.71592E-09
         0.91020E-09
         0.64231E-09
         0.10200E-08
         0.88843E-09
         0.40074E-09
         0.61766E-09
         0.70124E-09
         0.74124E-09
         0.71584E-09
         0.56251E-09
         0.35351E-09
         0.58380E-09
         0.77320E-09
         0.62389E-09
         0.54840E-09
         0.35926E-09
         0.61318E-09
         0.83277E-09
         0.87409E-09
         0.70568E-09
         0.43376E-09
         0.74748E-09
         0.27584E-09
         0.35139E-09
         0.32777E-09
         0.38777E-09
         0.37876E-09
         0.36778E-09
         0.39266E-09
         0.41536E-09
         0.39084E-09
         0.30464E-09
         0.24814E-09
         0.32006E-09
         0.42659E-09
         0.46900E-09
         0.44980E-09
         0.40539E-09
         0.36805E-09
         0.29890E-09
         0.25144E-09
         0.32867E-09
         0.43521E-09
         0.44963E-09
         0.36318E-09
         0.29485E-09
         0.36166E-09
         0.42761E-09
         0.91192E-09
         0.72263E-09
         0.77640E-09
         0.13380E-08
         0.71652E-09
         0.91491E-09
         0.50928E-09
         0.61167E-09
         0.10137E-08
         0.74049E-09
         0.29986E-09
         0.56912E-09
         0.62657E-09
         0.50620E-09
         0.64797E-09
         0.12061E-08
         0.94339E-09
         0.11995E-08
         0.70322E-09
         0.80371E-09
         0.75827E-09
         0.84048E-09
         0.64478E-09
         0.40044E-09
         0.75962E-09
         0.63293E-09
         0.65591E-09
         0.67343E-09
         0.58681E-09
         0.71576E-09
         0.91029E-09
         0.64223E-09
         0.10205E-08
         0.88923E-09
         0.40073E-09
         0.61754E-09
         0.70114E-09
         0.74119E-09
         0.71588E-09
         0.56254E-09
         0.35351E-09
         0.58372E-09
         0.77316E-09
         0.62380E-09
         0.54827E-09
         0.35917E-09
         0.61313E-09
         0.83278E-09
         0.87422E-09
         0.70582E-09
         0.43377E-09
         0.74785E-09
         0.27575E-09
         0.35138E-09
         0.32761E-09
         0.38778E-09
         0.37885E-09
         0.36786E-09
         0.39283E-09
         0.41566E-09
         0.39107E-09
         0.30470E-09
         0.24816E-09
         0.32007E-09
         0.42665E-09
         0.46911E-09
         0.44985E-09
         0.40538E-09
         0.36802E-09
         0.29887E-09
         0.25140E-09
         0.32864E-09
         0.43520E-09
         0.44963E-09
         0.36310E-09
         0.29478E-09
         0.36170E-09
         0.42760E-09
         0.91198E-09
         0.72248E-09
         0.77646E-09
         0.13386E-08
         0.71663E-09
         0.91520E-09
         0.50901E-09
         0.61131E-09
         0.10141E-08
         0.74000E-09
         0.29957E-09
         0.56902E-09
         0.62653E-09
         0.50549E-09
         0.64784E-09
         0.12065E-08
         0.94382E-09
         0.12002E-08
         0.70325E-09
         0.80381E-09
         0.75824E-09
         0.84052E-09
         0.64472E-09
         0.40040E-09
         0.75929E-09
         0.63288E-09
         0.65492E-09
         0.67276E-09
         0.58657E-09
         0.71560E-09
         0.91038E-09
         0.64216E-09
         0.10211E-08
         0.89003E-09
         0.40073E-09
         0.61742E-09
         0.70105E-09
         0.74114E-09
         0.71593E-09
         0.56257E-09
         0.35351E-09
         0.58364E-09
         0.77313E-09
         0.62371E-09
         0.54814E-09
         0.35908E-09
         0.61308E-09
         0.83280E-09
         0.87436E-09
         0.70597E-09
         0.43378E-09
         0.74823E-09
         0.27567E-09
         0.35138E-09
         0.32745E-09
         0.38779E-09
         0.37893E-09
         0.36794E-09
         0.39300E-09
         0.41596E-09
         0.39130E-09
         0.30477E-09
         0.24818E-09
         0.32008E-09
         0.42671E-09
         0.46921E-09
         0.44991E-09
         0.40537E-09
         0.36800E-09
         0.29885E-09
         0.25136E-09
         0.32862E-09
         0.43520E-09
         0.44963E-09
         0.36303E-09
         0.29472E-09
         0.36175E-09
         0.42759E-09
         0.91203E-09
         0.72233E-09
         0.77653E-09
         0.13392E-08
         0.71675E-09
         0.91547E-09
         0.50875E-09
         0.61094E-09
         0.10144E-08
         0.73952E-09
         0.29928E-09
         0.56892E-09
         0.62649E-09
         0.50478E-09
         0.64770E-09
         0.12068E-08
         0.94424E-09
         0.12008E-08
         0.70327E-09
         0.80391E-09
         0.75821E-09
         0.84055E-09
         0.64465E-09
         0.40035E-09
         0.75896E-09
         0.63282E-09
         0.65393E-09
         0.67210E-09
         0.58632E-09
         0.71543E-09
         0.91047E-09
         0.64208E-09
         0.10216E-08
         0.89084E-09
         0.40073E-09
         0.61730E-09
         0.70096E-09
         0.74108E-09
         0.71598E-09
         0.56259E-09
         0.35351E-09
         0.58356E-09
         0.77309E-09
         0.62362E-09
         0.54801E-09
         0.35898E-09
         0.61303E-09
         0.83281E-09
         0.87449E-09
         0.70611E-09
         0.43379E-09
         0.74860E-09
         0.27558E-09
         0.35137E-09
         0.32729E-09
         0.38781E-09
         0.37902E-09
         0.36802E-09
         0.39317E-09
         0.41625E-09
         0.39153E-09
         0.30484E-09
         0.24820E-09
         0.32009E-09
         0.42677E-09
         0.46932E-09
         0.44996E-09
         0.40536E-09
         0.36798E-09
         0.29883E-09
         0.25132E-09
         0.32859E-09
         0.43519E-09
         0.44963E-09
         0.36296E-09
         0.29465E-09
         0.36179E-09
         0.42758E-09
         0.91208E-09
         0.72218E-09
         0.77659E-09
         0.13399E-08
         0.71686E-09
         0.91576E-09
         0.50848E-09
         0.61058E-09
         0.10148E-08
         0.73903E-09
         0.29900E-09
         0.56882E-09
         0.62645E-09
         0.50408E-09
         0.64757E-09
         0.12072E-08
         0.94467E-09
         0.12014E-08
         0.70330E-09
         0.80401E-09
         0.75818E-09
         0.84059E-09
         0.64459E-09
         0.40031E-09
         0.75864E-09
         0.63277E-09
         0.65294E-09
         0.67143E-09
         0.58607E-09
         0.71527E-09
         0.91057E-09
         0.64200E-09
         0.10221E-08
         0.89164E-09
         0.40072E-09
         0.61719E-09
         0.70087E-09
         0.74103E-09
         0.71603E-09
         0.56262E-09
         0.35352E-09
         0.58348E-09
         0.77305E-09
         0.62354E-09
         0.54788E-09
         0.35889E-09
         0.61298E-09
         0.83282E-09
         0.87463E-09
         0.70626E-09
         0.43380E-09
         0.74897E-09
         0.27550E-09
         0.35137E-09
         0.32713E-09
         0.38782E-09
         0.37911E-09
         0.36810E-09
         0.39334E-09
         0.41655E-09
         0.39176E-09
         0.30491E-09
         0.24822E-09
         0.32010E-09
         0.42682E-09
         0.46942E-09
         0.45001E-09
         0.40534E-09
         0.36796E-09
         0.29881E-09
         0.25128E-09
         0.32857E-09
         0.43518E-09
         0.44963E-09
         0.36288E-09
         0.29459E-09
         0.36184E-09
         0.42757E-09
         0.91214E-09
         0.72204E-09
         0.77666E-09
         0.13405E-08
         0.71698E-09
         0.91604E-09
         0.50822E-09
         0.61022E-09
         0.10151E-08
         0.73855E-09
         0.29871E-09
         0.56872E-09
         0.62641E-09
         0.50337E-09
         0.64743E-09
         0.12075E-08
         0.94510E-09
         0.12020E-08
         0.70333E-09
         0.80411E-09
         0.75815E-09
         0.84063E-09
         0.64453E-09
         0.40027E-09
         0.75831E-09
         0.63272E-09
         0.65196E-09
         0.67077E-09
         0.58582E-09
         0.71511E-09
         0.91066E-09
         0.64192E-09
         0.10227E-08
         0.89245E-09
         0.40072E-09
         0.61707E-09
         0.70078E-09
         0.74098E-09
         0.71608E-09
         0.56265E-09
         0.35352E-09
         0.58340E-09
         0.77301E-09
         0.62345E-09
         0.54775E-09
         0.35880E-09
         0.61293E-09
         0.83283E-09
         0.87476E-09
         0.70641E-09
         0.43382E-09
         0.74935E-09
         0.27541E-09
         0.35136E-09
         0.32697E-09
         0.38784E-09
         0.37920E-09
         0.36818E-09
         0.39352E-09
         0.41685E-09
         0.39199E-09
         0.30498E-09
         0.24824E-09
         0.32011E-09
         0.42688E-09
         0.46953E-09
         0.45007E-09
         0.40533E-09
         0.36793E-09
         0.29878E-09
         0.25124E-09
         0.32855E-09
         0.43517E-09
         0.44963E-09
         0.36281E-09
         0.29452E-09
         0.36188E-09
         0.42756E-09
         0.91219E-09
         0.72188E-09
         0.77672E-09
         0.13412E-08
         0.71709E-09
         0.91632E-09
         0.50795E-09
         0.60986E-09
         0.10155E-08
         0.73806E-09
         0.29842E-09
         0.56862E-09
         0.62636E-09
         0.50266E-09
         0.64730E-09
         0.12079E-08
         0.94552E-09
         0.12026E-08
         0.70335E-09
         0.80421E-09
         0.75811E-09
         0.84066E-09
         0.64446E-09
         0.40023E-09
         0.75798E-09
         0.63267E-09
         0.65096E-09
         0.67010E-09
         0.58557E-09
         0.71494E-09
         0.91074E-09
         0.64184E-09
         0.10232E-08
         0.89325E-09
         0.40072E-09
         0.61695E-09
         0.70069E-09
         0.74092E-09
         0.71612E-09
         0.56268E-09
         0.35352E-09
         0.58332E-09
         0.77297E-09
         0.62336E-09
         0.54762E-09
         0.35871E-09
         0.61287E-09
         0.83284E-09
         0.87489E-09
         0.70655E-09
         0.43383E-09
         0.74972E-09
         0.27533E-09
         0.35136E-09
         0.32681E-09
         0.38785E-09
         0.37929E-09
         0.36825E-09
         0.39369E-09
         0.41715E-09
         0.39222E-09
         0.30505E-09
         0.24826E-09
         0.32011E-09
         0.42694E-09
         0.46963E-09
         0.45011E-09
         0.40532E-09
         0.36791E-09
         0.29876E-09
         0.25120E-09
         0.32853E-09
         0.43516E-09
         0.44962E-09
         0.36274E-09
         0.29445E-09
         0.36192E-09
         0.42755E-09
         0.91224E-09
         0.72173E-09
         0.77679E-09
         0.13418E-08
         0.71720E-09
         0.91660E-09
         0.50768E-09
         0.60949E-09
         0.10158E-08
         0.73758E-09
         0.29814E-09
         0.56852E-09
         0.62632E-09
         0.50195E-09
         0.64716E-09
         0.12082E-08
         0.94595E-09
         0.12032E-08
         0.70337E-09
         0.80431E-09
         0.75808E-09
         0.84069E-09
         0.64440E-09
         0.40018E-09
         0.75766E-09
         0.63262E-09
         0.64998E-09
         0.66943E-09
         0.58532E-09
         0.71478E-09
         0.91083E-09
         0.64176E-09
         0.10238E-08
         0.89406E-09
         0.40071E-09
         0.61683E-09
         0.70059E-09
         0.74087E-09
         0.71617E-09
         0.56270E-09
         0.35352E-09
         0.58324E-09
         0.77294E-09
         0.62327E-09
         0.54749E-09
         0.35861E-09
         0.61282E-09
         0.83284E-09
         0.87503E-09
         0.70669E-09
         0.43384E-09
         0.75009E-09
         0.27524E-09
         0.35135E-09
         0.32665E-09
         0.38786E-09
         0.37937E-09
         0.36833E-09
         0.39386E-09
         0.41745E-09
         0.39245E-09
         0.30512E-09
         0.24828E-09
         0.32012E-09
         0.42699E-09
         0.46974E-09
         0.45017E-09
         0.40531E-09
         0.36788E-09
         0.29873E-09
         0.25117E-09
         0.32850E-09
         0.43515E-09
         0.44962E-09
         0.36266E-09
         0.29439E-09
         0.36197E-09
         0.42754E-09
         0.91230E-09
         0.72159E-09
         0.77686E-09
         0.13425E-08
         0.71732E-09
         0.91688E-09
         0.50742E-09
         0.60913E-09
         0.10162E-08
         0.73710E-09
         0.29785E-09
         0.56842E-09
         0.62628E-09
         0.50125E-09
         0.64703E-09
         0.12086E-08
         0.94638E-09
         0.12038E-08
         0.70340E-09
         0.80441E-09
         0.75805E-09
         0.84073E-09
         0.64433E-09
         0.40014E-09
         0.75733E-09
         0.63257E-09
         0.64899E-09
         0.66877E-09
         0.58508E-09
         0.71462E-09
         0.91093E-09
         0.64169E-09
         0.10243E-08
         0.89487E-09
         0.40071E-09
         0.61671E-09
         0.70051E-09
         0.74082E-09
         0.71622E-09
         0.56273E-09
         0.35352E-09
         0.58316E-09
         0.77290E-09
         0.62318E-09
         0.54737E-09
         0.35852E-09
         0.61277E-09
         0.83286E-09
         0.87517E-09
         0.70684E-09
         0.43385E-09
         0.75047E-09
         0.27516E-09
         0.35135E-09
         0.32649E-09
         0.38788E-09
         0.37946E-09
         0.36841E-09
         0.39403E-09
         0.41775E-09
         0.39268E-09
         0.30519E-09
         0.24830E-09
         0.32013E-09
         0.42705E-09
         0.46985E-09
         0.45022E-09
         0.40530E-09
         0.36786E-09
         0.29871E-09
         0.25113E-09
         0.32848E-09
         0.43515E-09
         0.44962E-09
         0.36259E-09
         0.29433E-09
         0.36201E-09
         0.42753E-09
         0.91235E-09
         0.72143E-09
         0.77692E-09
         0.13431E-08
         0.71743E-09
         0.91716E-09
         0.50715E-09
         0.60877E-09
         0.10165E-08
         0.73661E-09
         0.29757E-09
         0.56832E-09
         0.62624E-09
         0.50054E-09
         0.64689E-09
         0.12089E-08
         0.94680E-09
         0.12044E-08
         0.70342E-09
         0.80450E-09
         0.75802E-09
         0.84076E-09
         0.64427E-09
         0.40010E-09
         0.75700E-09
         0.63251E-09
         0.64800E-09
         0.66810E-09
         0.58482E-09
         0.71445E-09
         0.91101E-09
         0.64161E-09
         0.10248E-08
         0.89567E-09
         0.40071E-09
         0.61659E-09
         0.70041E-09
         0.74077E-09
         0.71627E-09
         0.56276E-09
         0.35352E-09
         0.58308E-09
         0.77286E-09
         0.62309E-09
         0.54723E-09
         0.35843E-09
         0.61272E-09
         0.83287E-09
         0.87530E-09
         0.70698E-09
         0.43386E-09
         0.75084E-09
         0.27507E-09
         0.35134E-09
         0.32633E-09
         0.38789E-09
         0.37955E-09
         0.36849E-09
         0.39420E-09
         0.41804E-09
         0.39291E-09
         0.30525E-09
         0.24832E-09
         0.32014E-09
         0.42711E-09
         0.46995E-09
         0.45027E-09
         0.40528E-09
         0.36784E-09
         0.29869E-09
         0.25109E-09
         0.32845E-09
         0.43514E-09
         0.44962E-09
         0.36252E-09
         0.29426E-09
         0.36206E-09
         0.42751E-09
         0.91240E-09
         0.72128E-09
         0.77698E-09
         0.13437E-08
         0.71755E-09
         0.91744E-09
         0.50688E-09
         0.60841E-09
         0.10169E-08
         0.73612E-09
         0.29728E-09
         0.56822E-09
         0.62619E-09
         0.49984E-09
         0.64676E-09
         0.12093E-08
         0.94723E-09
         0.12050E-08
         0.70345E-09
         0.80460E-09
         0.75798E-09
         0.84080E-09
         0.64420E-09
         0.40006E-09
         0.75667E-09
         0.63246E-09
         0.64701E-09
         0.66744E-09
         0.58457E-09
         0.71429E-09
         0.91110E-09
         0.64153E-09
         0.10254E-08
         0.89648E-09
         0.40070E-09
         0.61647E-09
         0.70032E-09
         0.74071E-09
         0.71632E-09
         0.56279E-09
         0.35353E-09
         0.58300E-09
         0.77282E-09
         0.62300E-09
         0.54710E-09
         0.35834E-09
         0.61266E-09
         0.83288E-09
         0.87543E-09
         0.70713E-09
         0.43387E-09
         0.75122E-09
         0.27499E-09
         0.35133E-09
         0.32617E-09
         0.38790E-09
         0.37964E-09
         0.36857E-09
         0.39437E-09
         0.41834E-09
         0.39314E-09
         0.30532E-09
         0.24834E-09
         0.32014E-09
         0.42716E-09
         0.47005E-09
         0.45032E-09
         0.40527E-09
         0.36781E-09
         0.29866E-09
         0.25105E-09
         0.32843E-09
         0.43513E-09
         0.44962E-09
         0.36244E-09
         0.29419E-09
         0.36210E-09
         0.42750E-09
         0.91246E-09
         0.72114E-09
         0.77705E-09
         0.13444E-08
         0.71767E-09
         0.91773E-09
         0.50662E-09
         0.60805E-09
         0.10173E-08
         0.73564E-09
         0.29700E-09
         0.56812E-09
         0.62616E-09
         0.49914E-09
         0.64663E-09
         0.12097E-08
         0.94766E-09
         0.12056E-08
         0.70348E-09
         0.80471E-09
         0.75796E-09
         0.84084E-09
         0.64414E-09
         0.40002E-09
         0.75635E-09
         0.63241E-09
         0.64603E-09
         0.66678E-09
         0.58433E-09
         0.71413E-09
         0.91120E-09
         0.64146E-09
         0.10259E-08
         0.89729E-09
         0.40070E-09
         0.61636E-09
         0.70023E-09
         0.74067E-09
         0.71637E-09
         0.56282E-09
         0.35353E-09
         0.58293E-09
         0.77279E-09
         0.62291E-09
         0.54698E-09
         0.35825E-09
         0.61261E-09
         0.83289E-09
         0.87557E-09
         0.70728E-09
         0.43389E-09
         0.75160E-09
         0.27491E-09
         0.35133E-09
         0.32601E-09
         0.38792E-09
         0.37972E-09
         0.36865E-09
         0.39454E-09
         0.41864E-09
         0.39337E-09
         0.30539E-09
         0.24836E-09
         0.32015E-09
         0.42722E-09
         0.47016E-09
         0.45038E-09
         0.40526E-09
         0.36779E-09
         0.29864E-09
         0.25101E-09
         0.32841E-09
         0.43512E-09
         0.44962E-09
         0.36237E-09
         0.29413E-09
         0.36215E-09
         0.42750E-09
         0.91249E-09
         0.72097E-09
         0.77710E-09
         0.13450E-08
         0.71777E-09
         0.91799E-09
         0.50634E-09
         0.60767E-09
         0.10176E-08
         0.73514E-09
         0.29670E-09
         0.56801E-09
         0.62610E-09
         0.49842E-09
         0.64648E-09
         0.12100E-08
         0.94806E-09
         0.12062E-08
         0.70349E-09
         0.80479E-09
         0.75791E-09
         0.84086E-09
         0.64406E-09
         0.39997E-09
         0.75600E-09
         0.63234E-09
         0.64503E-09
         0.66610E-09
         0.58407E-09
         0.71395E-09
         0.91127E-09
         0.64136E-09
         0.10264E-08
         0.89808E-09
         0.40069E-09
         0.61622E-09
         0.70012E-09
         0.74060E-09
         0.71641E-09
         0.56283E-09
         0.35352E-09
         0.58283E-09
         0.77273E-09
         0.62281E-09
         0.54684E-09
         0.35815E-09
         0.61255E-09
         0.83288E-09
         0.87569E-09
         0.70741E-09
         0.43389E-09
         0.75195E-09
         0.27482E-09
         0.35132E-09
         0.32584E-09
         0.38793E-09
         0.37980E-09
         0.36872E-09
         0.39470E-09
         0.41893E-09
         0.39360E-09
         0.30545E-09
         0.24837E-09
         0.32016E-09
         0.42727E-09
         0.47026E-09
         0.45042E-09
         0.40524E-09
         0.36776E-09
         0.29861E-09
         0.25097E-09
         0.32838E-09
         0.43510E-09
         0.44961E-09
         0.36229E-09
         0.29406E-09
         0.36218E-09
         0.42748E-09
         0.91256E-09
         0.72083E-09
         0.77718E-09
         0.13457E-08
         0.71789E-09
         0.91829E-09
         0.50608E-09
         0.60732E-09
         0.10180E-08
         0.73467E-09
         0.29642E-09
         0.56792E-09
         0.62607E-09
         0.49772E-09
         0.64636E-09
         0.12103E-08
         0.94850E-09
         0.12068E-08
         0.70352E-09
         0.80490E-09
         0.75789E-09
         0.84091E-09
         0.64401E-09
         0.39993E-09
         0.75569E-09
         0.63230E-09
         0.64405E-09
         0.66544E-09
         0.58382E-09
         0.71379E-09
         0.91137E-09
         0.64129E-09
         0.10270E-08
         0.89890E-09
         0.40069E-09
         0.61611E-09
         0.70004E-09
         0.74056E-09
         0.71646E-09
         0.56287E-09
         0.35353E-09
         0.58276E-09
         0.77271E-09
         0.62273E-09
         0.54672E-09
         0.35806E-09
         0.61251E-09
         0.83291E-09
         0.87583E-09
         0.70756E-09
         0.43391E-09
         0.75234E-09
         0.27474E-09
         0.35132E-09
         0.32569E-09
         0.38794E-09
         0.37990E-09
         0.36881E-09
         0.39488E-09
         0.41923E-09
         0.39383E-09
         0.30553E-09
         0.24840E-09
         0.32017E-09
         0.42734E-09
         0.47037E-09
         0.45048E-09
         0.40524E-09
         0.36774E-09
         0.29859E-09
         0.25093E-09
         0.32836E-09
         0.43510E-09
         0.44962E-09
         0.36222E-09
         0.29400E-09
         0.36223E-09
         0.42747E-09
         0.45631E-09
         0.36039E-09
         0.38862E-09
         0.67302E-09
         0.35899E-09
         0.45923E-09
         0.25298E-09
         0.30358E-09
         0.50909E-09
         0.36723E-09
         0.14815E-09
         0.28394E-09
         0.31303E-09
         0.24869E-09
         0.32316E-09
         0.60528E-09
         0.47437E-09
         0.60357E-09
         0.35178E-09
         0.40249E-09
         0.37895E-09
         0.42048E-09
         0.32200E-09
         0.19996E-09
         0.37777E-09
         0.31615E-09
         0.32179E-09
         0.33257E-09
         0.29186E-09
         0.35687E-09
         0.45572E-09
         0.32064E-09
         0.51365E-09
         0.44967E-09
         0.20035E-09
         0.30804E-09
         0.35001E-09
         0.37028E-09
         0.35826E-09
         0.28145E-09
         0.17677E-09
         0.29137E-09
         0.38636E-09
         0.31135E-09
         0.27333E-09
         0.17901E-09
         0.30625E-09
         0.41647E-09
         0.43797E-09
         0.35383E-09
         0.21697E-09
         0.37628E-09
         0.13735E-09
         0.17566E-09
         0.16281E-09
         0.19398E-09
         0.18998E-09
         0.18443E-09
         0.19749E-09
         0.20970E-09
         0.19698E-09
         0.15279E-09
         0.12421E-09
         0.16009E-09
         0.21369E-09
         0.23522E-09
         0.22526E-09
         0.20262E-09
         0.18387E-09
         0.14930E-09
         0.12546E-09
         0.16418E-09
         0.21756E-09
         0.22482E-09
         0.18110E-09
         0.14699E-09
         0.18113E-09
         0.21374E-09
  
SCALARS               pre_disp_force_x  double 1
LOOKUP_TABLE default
         0.00000E+00
         0.00000E+00
         0.00000E+00
         0.00000E+00
         0.00000E+00
         0.00000E+00
         0.00000E+00
         0.00000E+00
         0.00000E+00
         0.00000E+00
         0.00000E+00
         0.00000E+00
         0.00000E+00
         0.00000E+00
         0.00000E+00
         0.00000E+00
         0.00000E+00
         0.00000E+00
         0.00000E+00
         0.00000E+00
         0.00000E+00
         0.00000E+00
         0.00000E+00
         0.00000E+00
         0.00000E+00
         0.00000E+00
         0.00000E+00
         0.00000E+00
         0.00000E+00
         0.00000E+00
         0.00000E+00
         0.00000E+00
         0.00000E+00
         0.00000E+00
         0.00000E+00
         0.00000E+00
         0.00000E+00
         0.00000E+00
         0.00000E+00
         0.00000E+00
         0.00000E+00
         0.00000E+00
         0.00000E+00
         0.00000E+00
         0.00000E+00
         0.00000E+00
         0.00000E+00
         0.00000E+00
         0.00000E+00
         0.00000E+00
         0.00000E+00
         0.00000E+00
         0.00000E+00
         0.00000E+00
         0.00000E+00
         0.00000E+00
         0.00000E+00
         0.00000E+00
         0.00000E+00
         0.00000E+00
         0.00000E+00
         0.00000E+00
         0.00000E+00
         0.00000E+00
         0.00000E+00
         0.00000E+00
         0.00000E+00
         0.00000E+00
         0.00000E+00
         0.00000E+00
         0.00000E+00
         0.00000E+00
         0.00000E+00
         0.00000E+00
         0.00000E+00
         0.00000E+00
         0.00000E+00
         0.00000E+00
         0.00000E+00
         0.00000E+00
         0.00000E+00
         0.00000E+00
         0.00000E+00
         0.00000E+00
         0.00000E+00
         0.00000E+00
         0.00000E+00
         0.00000E+00
         0.00000E+00
         0.00000E+00
         0.00000E+00
         0.00000E+00
         0.00000E+00
         0.00000E+00
         0.00000E+00
         0.00000E+00
         0.00000E+00
         0.00000E+00
         0.00000E+00
         0.00000E+00
         0.00000E+00
         0.00000E+00
         0.00000E+00
         0.00000E+00
         0.00000E+00
         0.00000E+00
         0.00000E+00
         0.00000E+00
         0.00000E+00
         0.00000E+00
         0.00000E+00
         0.00000E+00
         0.00000E+00
         0.00000E+00
         0.00000E+00
         0.00000E+00
         0.00000E+00
         0.00000E+00
         0.00000E+00
         0.00000E+00
         0.00000E+00
         0.00000E+00
         0.00000E+00
         0.00000E+00
         0.00000E+00
         0.00000E+00
         0.00000E+00
         0.00000E+00
         0.00000E+00
         0.00000E+00
         0.00000E+00
         0.00000E+00
         0.00000E+00
         0.00000E+00
         0.00000E+00
         0.00000E+00
         0.00000E+00
         0.00000E+00
         0.00000E+00
         0.00000E+00
         0.00000E+00
         0.00000E+00
         0.00000E+00
         0.00000E+00
         0.00000E+00
         0.00000E+00
         0.00000E+00
         0.00000E+00
         0.00000E+00
         0.00000E+00
         0.00000E+00
         0.00000E+00
         0.00000E+00
         0.00000E+00
         0.00000E+00
         0.00000E+00
         0.00000E+00
         0.00000E+00
         0.00000E+00
         0.00000E+00
         0.00000E+00
         0.00000E+00
         0.00000E+00
         0.00000E+00
         0.00000E+00
         0.00000E+00
         0.00000E+00
         0.00000E+00
         0.00000E+00
         0.00000E+00
         0.00000E+00
         0.00000E+00
         0.00000E+00
         0.00000E+00
         0.00000E+00
         0.00000E+00
         0.00000E+00
         0.00000E+00
         0.00000E+00
         0.00000E+00
         0.00000E+00
         0.00000E+00
         0.00000E+00
         0.00000E+00
         0.00000E+00
         0.00000E+00
         0.00000E+00
         0.00000E+00
         0.00000E+00
         0.00000E+00
         0.00000E+00
         0.00000E+00
         0.00000E+00
         0.00000E+00
         0.00000E+00
         0.00000E+00
         0.00000E+00
         0.00000E+00
         0.00000E+00
         0.00000E+00
         0.00000E+00
         0.00000E+00
         0.00000E+00
         0.00000E+00
         0.00000E+00
         0.00000E+00
         0.00000E+00
         0.00000E+00
         0.00000E+00
         0.00000E+00
         0.00000E+00
         0.00000E+00
         0.00000E+00
         0.00000E+00
         0.00000E+00
         0.00000E+00
         0.00000E+00
         0.00000E+00
         0.00000E+00
         0.00000E+00
         0.00000E+00
         0.00000E+00
         0.00000E+00
         0.00000E+00
         0.00000E+00
         0.00000E+00
         0.00000E+00
         0.00000E+00
         0.00000E+00
         0.00000E+00
         0.00000E+00
         0.00000E+00
         0.00000E+00
         0.00000E+00
         0.00000E+00
         0.00000E+00
         0.00000E+00
         0.00000E+00
         0.00000E+00
         0.00000E+00
         0.00000E+00
         0.00000E+00
         0.00000E+00
         0.00000E+00
         0.00000E+00
         0.00000E+00
         0.00000E+00
         0.00000E+00
         0.00000E+00
         0.00000E+00
         0.00000E+00
         0.00000E+00
         0.00000E+00
         0.00000E+00
         0.00000E+00
         0.00000E+00
         0.00000E+00
         0.00000E+00
         0.00000E+00
         0.00000E+00
         0.00000E+00
         0.00000E+00
         0.00000E+00
         0.00000E+00
         0.00000E+00
         0.00000E+00
         0.00000E+00
         0.00000E+00
         0.00000E+00
         0.00000E+00
         0.00000E+00
         0.00000E+00
         0.00000E+00
         0.00000E+00
         0.00000E+00
         0.00000E+00
         0.00000E+00
         0.00000E+00
         0.00000E+00
         0.00000E+00
         0.00000E+00
         0.00000E+00
         0.00000E+00
         0.00000E+00
         0.00000E+00
         0.00000E+00
         0.00000E+00
         0.00000E+00
         0.00000E+00
         0.00000E+00
         0.00000E+00
         0.00000E+00
         0.00000E+00
         0.00000E+00
         0.00000E+00
         0.00000E+00
         0.00000E+00
         0.00000E+00
         0.00000E+00
         0.00000E+00
         0.00000E+00
         0.00000E+00
         0.00000E+00
         0.00000E+00
         0.00000E+00
         0.00000E+00
         0.00000E+00
         0.00000E+00
         0.00000E+00
         0.00000E+00
         0.00000E+00
         0.00000E+00
         0.00000E+00
         0.00000E+00
         0.00000E+00
         0.00000E+00
         0.00000E+00
         0.00000E+00
         0.00000E+00
         0.00000E+00
         0.00000E+00
         0.00000E+00
         0.00000E+00
         0.00000E+00
         0.00000E+00
         0.00000E+00
         0.00000E+00
         0.00000E+00
         0.00000E+00
         0.00000E+00
         0.00000E+00
         0.00000E+00
         0.00000E+00
         0.00000E+00
         0.00000E+00
         0.00000E+00
         0.00000E+00
         0.00000E+00
         0.00000E+00
         0.00000E+00
         0.00000E+00
         0.00000E+00
         0.00000E+00
         0.00000E+00
         0.00000E+00
         0.00000E+00
         0.00000E+00
         0.00000E+00
         0.00000E+00
         0.00000E+00
         0.00000E+00
         0.00000E+00
         0.00000E+00
         0.00000E+00
         0.00000E+00
         0.00000E+00
         0.00000E+00
         0.00000E+00
         0.00000E+00
         0.00000E+00
         0.00000E+00
         0.00000E+00
         0.00000E+00
         0.00000E+00
         0.00000E+00
         0.00000E+00
         0.00000E+00
         0.00000E+00
         0.00000E+00
         0.00000E+00
         0.00000E+00
         0.00000E+00
         0.00000E+00
         0.00000E+00
         0.00000E+00
         0.00000E+00
         0.00000E+00
         0.00000E+00
         0.00000E+00
         0.00000E+00
         0.00000E+00
         0.00000E+00
         0.00000E+00
         0.00000E+00
         0.00000E+00
         0.00000E+00
         0.00000E+00
         0.00000E+00
         0.00000E+00
         0.00000E+00
         0.00000E+00
         0.00000E+00
         0.00000E+00
         0.00000E+00
         0.00000E+00
         0.00000E+00
         0.00000E+00
         0.00000E+00
         0.00000E+00
         0.00000E+00
         0.00000E+00
         0.00000E+00
         0.00000E+00
         0.00000E+00
         0.00000E+00
         0.00000E+00
         0.00000E+00
         0.00000E+00
         0.00000E+00
         0.00000E+00
         0.00000E+00
         0.00000E+00
         0.00000E+00
         0.00000E+00
         0.00000E+00
         0.00000E+00
         0.00000E+00
         0.00000E+00
         0.00000E+00
         0.00000E+00
         0.00000E+00
         0.00000E+00
         0.00000E+00
         0.00000E+00
         0.00000E+00
         0.00000E+00
         0.00000E+00
         0.00000E+00
         0.00000E+00
         0.00000E+00
         0.00000E+00
         0.00000E+00
         0.00000E+00
         0.00000E+00
         0.00000E+00
         0.00000E+00
         0.00000E+00
         0.00000E+00
         0.00000E+00
         0.00000E+00
         0.00000E+00
         0.00000E+00
         0.00000E+00
         0.00000E+00
         0.00000E+00
         0.00000E+00
         0.00000E+00
         0.00000E+00
         0.00000E+00
         0.00000E+00
         0.00000E+00
         0.00000E+00
         0.00000E+00
         0.00000E+00
         0.00000E+00
         0.00000E+00
         0.00000E+00
         0.00000E+00
         0.00000E+00
         0.00000E+00
         0.00000E+00
         0.00000E+00
         0.00000E+00
         0.00000E+00
         0.00000E+00
         0.00000E+00
         0.00000E+00
         0.00000E+00
         0.00000E+00
         0.00000E+00
         0.00000E+00
         0.00000E+00
         0.00000E+00
         0.00000E+00
         0.00000E+00
         0.00000E+00
         0.00000E+00
         0.00000E+00
         0.00000E+00
         0.00000E+00
         0.00000E+00
         0.00000E+00
         0.00000E+00
         0.00000E+00
         0.00000E+00
         0.00000E+00
         0.00000E+00
         0.00000E+00
         0.00000E+00
         0.00000E+00
         0.00000E+00
         0.00000E+00
         0.00000E+00
         0.00000E+00
         0.00000E+00
         0.00000E+00
         0.00000E+00
         0.00000E+00
         0.00000E+00
         0.00000E+00
         0.00000E+00
         0.00000E+00
         0.00000E+00
         0.00000E+00
         0.00000E+00
         0.00000E+00
         0.00000E+00
         0.00000E+00
         0.00000E+00
         0.00000E+00
         0.00000E+00
         0.00000E+00
         0.00000E+00
         0.00000E+00
         0.00000E+00
         0.00000E+00
         0.00000E+00
         0.00000E+00
         0.00000E+00
         0.00000E+00
         0.00000E+00
         0.00000E+00
         0.00000E+00
         0.00000E+00
         0.00000E+00
         0.00000E+00
         0.00000E+00
         0.00000E+00
         0.00000E+00
         0.00000E+00
         0.00000E+00
         0.00000E+00
         0.00000E+00
         0.00000E+00
         0.00000E+00
         0.00000E+00
         0.00000E+00
         0.00000E+00
         0.00000E+00
         0.00000E+00
         0.00000E+00
         0.00000E+00
         0.00000E+00
         0.00000E+00
         0.00000E+00
         0.00000E+00
         0.00000E+00
         0.00000E+00
         0.00000E+00
         0.00000E+00
         0.00000E+00
         0.00000E+00
         0.00000E+00
         0.00000E+00
         0.00000E+00
         0.00000E+00
         0.00000E+00
         0.00000E+00
         0.00000E+00
         0.00000E+00
         0.00000E+00
         0.00000E+00
         0.00000E+00
         0.00000E+00
         0.00000E+00
         0.00000E+00
         0.00000E+00
         0.00000E+00
         0.00000E+00
         0.00000E+00
         0.00000E+00
         0.00000E+00
         0.00000E+00
         0.00000E+00
         0.00000E+00
         0.00000E+00
         0.00000E+00
         0.00000E+00
         0.00000E+00
         0.00000E+00
         0.00000E+00
         0.00000E+00
         0.00000E+00
         0.00000E+00
         0.00000E+00
         0.00000E+00
         0.00000E+00
         0.00000E+00
         0.00000E+00
         0.00000E+00
         0.00000E+00
         0.00000E+00
         0.00000E+00
         0.00000E+00
         0.00000E+00
         0.00000E+00
         0.00000E+00
         0.00000E+00
         0.00000E+00
         0.00000E+00
         0.00000E+00
         0.00000E+00
         0.00000E+00
         0.00000E+00
         0.00000E+00
         0.00000E+00
         0.00000E+00
         0.00000E+00
         0.00000E+00
         0.00000E+00
         0.00000E+00
         0.00000E+00
         0.00000E+00
         0.00000E+00
         0.00000E+00
         0.00000E+00
         0.00000E+00
         0.00000E+00
         0.00000E+00
         0.00000E+00
         0.00000E+00
         0.00000E+00
         0.00000E+00
         0.00000E+00
         0.00000E+00
         0.00000E+00
         0.00000E+00
         0.00000E+00
         0.00000E+00
         0.00000E+00
         0.00000E+00
         0.00000E+00
         0.00000E+00
         0.00000E+00
         0.00000E+00
         0.00000E+00
         0.00000E+00
         0.00000E+00
         0.00000E+00
         0.00000E+00
         0.00000E+00
         0.00000E+00
         0.00000E+00
         0.00000E+00
         0.00000E+00
         0.00000E+00
         0.00000E+00
         0.00000E+00
         0.00000E+00
         0.00000E+00
         0.00000E+00
         0.00000E+00
         0.00000E+00
         0.00000E+00
         0.00000E+00
         0.00000E+00
         0.00000E+00
         0.00000E+00
         0.00000E+00
         0.00000E+00
         0.00000E+00
         0.00000E+00
         0.00000E+00
         0.00000E+00
         0.00000E+00
         0.00000E+00
         0.00000E+00
         0.00000E+00
         0.00000E+00
         0.00000E+00
         0.00000E+00
         0.00000E+00
         0.00000E+00
         0.00000E+00
         0.00000E+00
         0.00000E+00
         0.00000E+00
         0.00000E+00
         0.00000E+00
         0.00000E+00
         0.00000E+00
         0.00000E+00
         0.00000E+00
         0.00000E+00
         0.00000E+00
         0.00000E+00
         0.00000E+00
         0.00000E+00
         0.00000E+00
         0.00000E+00
         0.00000E+00
         0.00000E+00
         0.00000E+00
         0.00000E+00
         0.00000E+00
         0.00000E+00
         0.00000E+00
         0.00000E+00
         0.00000E+00
         0.00000E+00
         0.00000E+00
         0.00000E+00
         0.00000E+00
         0.00000E+00
         0.00000E+00
         0.00000E+00
         0.00000E+00
         0.00000E+00
         0.00000E+00
         0.00000E+00
         0.00000E+00
         0.00000E+00
         0.00000E+00
         0.00000E+00
         0.00000E+00
         0.00000E+00
         0.00000E+00
         0.00000E+00
         0.00000E+00
         0.00000E+00
         0.00000E+00
         0.00000E+00
         0.00000E+00
         0.00000E+00
         0.00000E+00
         0.00000E+00
         0.00000E+00
         0.00000E+00
         0.00000E+00
         0.00000E+00
         0.00000E+00
         0.00000E+00
         0.00000E+00
         0.00000E+00
         0.00000E+00
         0.00000E+00
         0.00000E+00
         0.00000E+00
         0.00000E+00
         0.00000E+00
         0.00000E+00
         0.00000E+00
         0.00000E+00
         0.00000E+00
         0.00000E+00
         0.00000E+00
         0.00000E+00
         0.00000E+00
         0.00000E+00
         0.00000E+00
         0.00000E+00
         0.00000E+00
         0.00000E+00
         0.00000E+00
         0.00000E+00
         0.00000E+00
         0.00000E+00
         0.00000E+00
         0.00000E+00
         0.00000E+00
         0.00000E+00
         0.00000E+00
         0.00000E+00
         0.00000E+00
         0.00000E+00
         0.00000E+00
         0.00000E+00
         0.00000E+00
         0.00000E+00
         0.00000E+00
         0.00000E+00
         0.00000E+00
         0.00000E+00
         0.00000E+00
         0.00000E+00
         0.00000E+00
         0.00000E+00
         0.00000E+00
         0.00000E+00
         0.00000E+00
         0.00000E+00
         0.00000E+00
         0.00000E+00
         0.00000E+00
         0.00000E+00
         0.00000E+00
         0.00000E+00
         0.00000E+00
         0.00000E+00
         0.00000E+00
         0.00000E+00
         0.00000E+00
         0.00000E+00
         0.00000E+00
         0.00000E+00
         0.00000E+00
         0.00000E+00
         0.00000E+00
         0.00000E+00
         0.00000E+00
         0.00000E+00
         0.00000E+00
         0.00000E+00
         0.00000E+00
         0.00000E+00
         0.00000E+00
         0.00000E+00
         0.00000E+00
         0.00000E+00
         0.00000E+00
         0.00000E+00
         0.00000E+00
         0.00000E+00
         0.00000E+00
         0.00000E+00
         0.00000E+00
         0.00000E+00
         0.00000E+00
         0.00000E+00
         0.00000E+00
         0.00000E+00
         0.00000E+00
         0.00000E+00
         0.00000E+00
         0.00000E+00
         0.00000E+00
         0.00000E+00
         0.00000E+00
         0.00000E+00
         0.00000E+00
         0.00000E+00
         0.00000E+00
         0.00000E+00
         0.00000E+00
         0.00000E+00
         0.00000E+00
         0.00000E+00
         0.00000E+00
         0.00000E+00
         0.00000E+00
         0.00000E+00
         0.00000E+00
         0.00000E+00
         0.00000E+00
         0.00000E+00
         0.00000E+00
         0.00000E+00
         0.00000E+00
         0.00000E+00
         0.00000E+00
         0.00000E+00
         0.00000E+00
         0.00000E+00
         0.00000E+00
         0.00000E+00
         0.00000E+00
         0.00000E+00
         0.00000E+00
         0.00000E+00
         0.00000E+00
         0.00000E+00
         0.00000E+00
         0.00000E+00
         0.00000E+00
         0.00000E+00
         0.00000E+00
         0.00000E+00
         0.00000E+00
         0.00000E+00
         0.00000E+00
         0.00000E+00
         0.00000E+00
         0.00000E+00
         0.00000E+00
         0.00000E+00
         0.00000E+00
         0.00000E+00
         0.00000E+00
         0.00000E+00
         0.00000E+00
         0.00000E+00
         0.00000E+00
         0.00000E+00
         0.00000E+00
         0.00000E+00
         0.00000E+00
         0.00000E+00
         0.00000E+00
         0.00000E+00
         0.00000E+00
         0.00000E+00
         0.00000E+00
         0.00000E+00
         0.00000E+00
         0.00000E+00
         0.00000E+00
         0.00000E+00
         0.00000E+00
         0.00000E+00
         0.00000E+00
         0.00000E+00
         0.00000E+00
         0.00000E+00
         0.00000E+00
         0.00000E+00
         0.00000E+00
         0.00000E+00
         0.00000E+00
         0.00000E+00
         0.00000E+00
         0.00000E+00
         0.00000E+00
         0.00000E+00
         0.00000E+00
         0.00000E+00
         0.00000E+00
         0.00000E+00
         0.00000E+00
         0.00000E+00
         0.00000E+00
         0.00000E+00
         0.00000E+00
         0.00000E+00
         0.00000E+00
         0.00000E+00
         0.00000E+00
         0.00000E+00
         0.00000E+00
         0.00000E+00
         0.00000E+00
         0.00000E+00
         0.00000E+00
         0.00000E+00
         0.00000E+00
         0.00000E+00
         0.00000E+00
         0.00000E+00
         0.00000E+00
         0.00000E+00
         0.00000E+00
         0.00000E+00
         0.00000E+00
         0.00000E+00
         0.00000E+00
         0.00000E+00
         0.00000E+00
         0.00000E+00
         0.00000E+00
         0.00000E+00
         0.00000E+00
         0.00000E+00
         0.00000E+00
         0.00000E+00
         0.00000E+00
         0.00000E+00
         0.00000E+00
         0.00000E+00
         0.00000E+00
         0.00000E+00
         0.00000E+00
         0.00000E+00
         0.00000E+00
         0.00000E+00
         0.00000E+00
         0.00000E+00
         0.00000E+00
         0.00000E+00
         0.00000E+00
         0.00000E+00
         0.00000E+00
         0.00000E+00
         0.00000E+00
         0.00000E+00
         0.00000E+00
         0.00000E+00
         0.00000E+00
         0.00000E+00
         0.00000E+00
         0.00000E+00
         0.00000E+00
         0.00000E+00
         0.00000E+00
         0.00000E+00
         0.00000E+00
         0.00000E+00
         0.00000E+00
         0.00000E+00
         0.00000E+00
         0.00000E+00
         0.00000E+00
         0.00000E+00
         0.00000E+00
         0.00000E+00
         0.00000E+00
         0.00000E+00
         0.00000E+00
         0.00000E+00
         0.00000E+00
         0.00000E+00
         0.00000E+00
         0.00000E+00
         0.00000E+00
         0.00000E+00
         0.00000E+00
         0.00000E+00
         0.00000E+00
         0.00000E+00
         0.00000E+00
         0.00000E+00
         0.00000E+00
         0.00000E+00
         0.00000E+00
         0.00000E+00
         0.00000E+00
         0.00000E+00
         0.00000E+00
         0.00000E+00
         0.00000E+00
         0.00000E+00
         0.00000E+00
         0.00000E+00
         0.00000E+00
         0.00000E+00
         0.00000E+00
         0.00000E+00
         0.00000E+00
         0.00000E+00
         0.00000E+00
         0.00000E+00
         0.00000E+00
         0.00000E+00
         0.00000E+00
         0.00000E+00
         0.00000E+00
         0.00000E+00
         0.00000E+00
         0.00000E+00
         0.00000E+00
         0.00000E+00
         0.00000E+00
         0.00000E+00
         0.00000E+00
         0.00000E+00
         0.00000E+00
         0.00000E+00
         0.00000E+00
         0.00000E+00
         0.00000E+00
         0.00000E+00
         0.00000E+00
         0.00000E+00
         0.00000E+00
         0.00000E+00
         0.00000E+00
         0.00000E+00
         0.00000E+00
         0.00000E+00
         0.00000E+00
         0.00000E+00
         0.00000E+00
         0.00000E+00
         0.00000E+00
         0.00000E+00
         0.00000E+00
         0.00000E+00
         0.00000E+00
         0.00000E+00
         0.00000E+00
         0.00000E+00
         0.00000E+00
         0.00000E+00
         0.00000E+00
         0.00000E+00
         0.00000E+00
         0.00000E+00
         0.00000E+00
         0.00000E+00
         0.00000E+00
         0.00000E+00
         0.00000E+00
         0.00000E+00
         0.00000E+00
         0.00000E+00
         0.00000E+00
         0.00000E+00
         0.00000E+00
         0.00000E+00
         0.00000E+00
         0.00000E+00
         0.00000E+00
         0.00000E+00
         0.00000E+00
         0.00000E+00
         0.00000E+00
         0.00000E+00
         0.00000E+00
         0.00000E+00
         0.00000E+00
         0.00000E+00
         0.00000E+00
         0.00000E+00
         0.00000E+00
         0.00000E+00
         0.00000E+00
         0.00000E+00
         0.00000E+00
         0.00000E+00
         0.00000E+00
         0.00000E+00
         0.00000E+00
         0.00000E+00
         0.00000E+00
         0.00000E+00
         0.00000E+00
         0.00000E+00
         0.00000E+00
         0.00000E+00
         0.00000E+00
         0.00000E+00
         0.00000E+00
         0.00000E+00
         0.00000E+00
         0.00000E+00
         0.00000E+00
         0.00000E+00
         0.00000E+00
         0.00000E+00
         0.00000E+00
         0.00000E+00
         0.00000E+00
         0.00000E+00
         0.00000E+00
         0.00000E+00
         0.00000E+00
         0.00000E+00
         0.00000E+00
         0.00000E+00
         0.00000E+00
         0.00000E+00
         0.00000E+00
         0.00000E+00
         0.00000E+00
         0.00000E+00
         0.00000E+00
         0.00000E+00
         0.00000E+00
         0.00000E+00
         0.00000E+00
         0.00000E+00
         0.00000E+00
         0.00000E+00
         0.00000E+00
         0.00000E+00
         0.00000E+00
         0.00000E+00
         0.00000E+00
         0.00000E+00
         0.00000E+00
         0.00000E+00
         0.00000E+00
         0.00000E+00
         0.00000E+00
         0.00000E+00
         0.00000E+00
         0.00000E+00
         0.00000E+00
         0.00000E+00
         0.00000E+00
         0.00000E+00
         0.00000E+00
         0.00000E+00
         0.00000E+00
         0.00000E+00
         0.00000E+00
         0.00000E+00
         0.00000E+00
         0.00000E+00
         0.00000E+00
         0.00000E+00
         0.00000E+00
         0.00000E+00
         0.00000E+00
         0.00000E+00
         0.00000E+00
         0.00000E+00
         0.00000E+00
         0.00000E+00
         0.00000E+00
         0.00000E+00
         0.00000E+00
         0.00000E+00
         0.00000E+00
         0.00000E+00
         0.00000E+00
         0.00000E+00
         0.00000E+00
         0.00000E+00
         0.00000E+00
         0.00000E+00
         0.00000E+00
         0.00000E+00
         0.00000E+00
         0.00000E+00
         0.00000E+00
         0.00000E+00
         0.00000E+00
         0.00000E+00
         0.00000E+00
         0.00000E+00
         0.00000E+00
         0.00000E+00
         0.00000E+00
         0.00000E+00
         0.00000E+00
         0.00000E+00
         0.00000E+00
         0.00000E+00
         0.00000E+00
         0.00000E+00
         0.00000E+00
         0.00000E+00
         0.00000E+00
         0.00000E+00
         0.00000E+00
         0.00000E+00
         0.00000E+00
         0.00000E+00
         0.00000E+00
         0.00000E+00
         0.00000E+00
         0.00000E+00
         0.00000E+00
         0.00000E+00
         0.00000E+00
         0.00000E+00
         0.00000E+00
         0.00000E+00
         0.00000E+00
         0.00000E+00
         0.00000E+00
         0.00000E+00
         0.00000E+00
         0.00000E+00
         0.00000E+00
         0.00000E+00
         0.00000E+00
         0.00000E+00
         0.00000E+00
         0.00000E+00
         0.00000E+00
         0.00000E+00
         0.00000E+00
         0.00000E+00
         0.00000E+00
         0.00000E+00
         0.00000E+00
         0.00000E+00
         0.00000E+00
         0.00000E+00
         0.00000E+00
         0.00000E+00
         0.00000E+00
         0.00000E+00
         0.00000E+00
         0.00000E+00
         0.00000E+00
         0.00000E+00
         0.00000E+00
         0.00000E+00
         0.00000E+00
         0.00000E+00
         0.00000E+00
         0.00000E+00
         0.00000E+00
         0.00000E+00
         0.00000E+00
         0.00000E+00
         0.00000E+00
         0.00000E+00
         0.00000E+00
         0.00000E+00
         0.00000E+00
         0.00000E+00
         0.00000E+00
         0.00000E+00
         0.00000E+00
         0.00000E+00
         0.00000E+00
         0.00000E+00
         0.00000E+00
         0.00000E+00
         0.00000E+00
         0.00000E+00
         0.00000E+00
         0.00000E+00
         0.00000E+00
         0.00000E+00
         0.00000E+00
         0.00000E+00
         0.00000E+00
         0.00000E+00
         0.00000E+00
         0.00000E+00
         0.00000E+00
         0.00000E+00
         0.00000E+00
         0.00000E+00
         0.00000E+00
         0.00000E+00
         0.00000E+00
         0.00000E+00
         0.00000E+00
         0.00000E+00
         0.00000E+00
         0.00000E+00
         0.00000E+00
         0.00000E+00
         0.00000E+00
         0.00000E+00
         0.00000E+00
         0.00000E+00
         0.00000E+00
         0.00000E+00
         0.00000E+00
         0.00000E+00
         0.00000E+00
         0.00000E+00
         0.00000E+00
         0.00000E+00
         0.00000E+00
         0.00000E+00
         0.00000E+00
         0.00000E+00
         0.00000E+00
         0.00000E+00
         0.00000E+00
         0.00000E+00
         0.00000E+00
         0.00000E+00
         0.00000E+00
         0.00000E+00
         0.00000E+00
         0.00000E+00
         0.00000E+00
         0.00000E+00
         0.00000E+00
         0.00000E+00
         0.00000E+00
         0.00000E+00
         0.00000E+00
         0.00000E+00
         0.00000E+00
         0.00000E+00
         0.00000E+00
         0.00000E+00
         0.00000E+00
         0.00000E+00
         0.00000E+00
         0.00000E+00
         0.00000E+00
         0.00000E+00
         0.00000E+00
         0.00000E+00
         0.00000E+00
         0.00000E+00
         0.00000E+00
         0.00000E+00
         0.00000E+00
         0.00000E+00
         0.00000E+00
         0.00000E+00
         0.00000E+00
         0.00000E+00
         0.00000E+00
         0.00000E+00
         0.00000E+00
         0.00000E+00
         0.00000E+00
         0.00000E+00
         0.00000E+00
         0.00000E+00
         0.00000E+00
         0.00000E+00
         0.00000E+00
         0.00000E+00
         0.00000E+00
         0.00000E+00
         0.00000E+00
         0.00000E+00
         0.00000E+00
         0.00000E+00
         0.00000E+00
         0.00000E+00
         0.00000E+00
         0.00000E+00
         0.00000E+00
         0.00000E+00
         0.00000E+00
         0.00000E+00
         0.00000E+00
         0.00000E+00
         0.00000E+00
         0.00000E+00
         0.00000E+00
         0.00000E+00
         0.00000E+00
         0.00000E+00
         0.00000E+00
         0.00000E+00
         0.00000E+00
         0.00000E+00
         0.00000E+00
         0.00000E+00
         0.00000E+00
         0.00000E+00
         0.00000E+00
         0.00000E+00
         0.00000E+00
         0.00000E+00
         0.00000E+00
         0.00000E+00
         0.00000E+00
         0.00000E+00
         0.00000E+00
         0.00000E+00
         0.00000E+00
         0.00000E+00
         0.00000E+00
         0.00000E+00
         0.00000E+00
         0.00000E+00
         0.00000E+00
         0.00000E+00
         0.00000E+00
         0.00000E+00
         0.00000E+00
         0.00000E+00
         0.00000E+00
         0.00000E+00
         0.00000E+00
         0.00000E+00
         0.00000E+00
         0.00000E+00
         0.00000E+00
         0.00000E+00
         0.00000E+00
         0.00000E+00
         0.00000E+00
         0.00000E+00
         0.00000E+00
         0.00000E+00
         0.00000E+00
         0.00000E+00
         0.00000E+00
         0.00000E+00
         0.00000E+00
         0.00000E+00
         0.00000E+00
         0.00000E+00
         0.00000E+00
         0.00000E+00
         0.00000E+00
         0.00000E+00
         0.00000E+00
         0.00000E+00
         0.00000E+00
         0.00000E+00
         0.00000E+00
         0.00000E+00
         0.00000E+00
         0.00000E+00
         0.00000E+00
         0.00000E+00
         0.00000E+00
         0.00000E+00
         0.00000E+00
         0.00000E+00
         0.00000E+00
         0.00000E+00
         0.00000E+00
         0.00000E+00
         0.00000E+00
         0.00000E+00
         0.00000E+00
         0.00000E+00
         0.00000E+00
         0.00000E+00
         0.00000E+00
         0.00000E+00
         0.00000E+00
         0.00000E+00
         0.00000E+00
         0.00000E+00
         0.00000E+00
         0.00000E+00
         0.00000E+00
         0.00000E+00
         0.00000E+00
         0.00000E+00
         0.00000E+00
         0.00000E+00
         0.00000E+00
         0.00000E+00
         0.00000E+00
         0.00000E+00
         0.00000E+00
         0.00000E+00
         0.00000E+00
         0.00000E+00
         0.00000E+00
         0.00000E+00
         0.00000E+00
         0.00000E+00
         0.00000E+00
         0.00000E+00
         0.00000E+00
         0.00000E+00
         0.00000E+00
         0.00000E+00
         0.00000E+00
         0.00000E+00
         0.00000E+00
         0.00000E+00
         0.00000E+00
         0.00000E+00
         0.00000E+00
         0.00000E+00
         0.00000E+00
         0.00000E+00
         0.00000E+00
         0.00000E+00
         0.00000E+00
         0.00000E+00
         0.00000E+00
         0.00000E+00
         0.00000E+00
         0.00000E+00
         0.00000E+00
         0.00000E+00
         0.00000E+00
         0.00000E+00
         0.00000E+00
         0.00000E+00
         0.00000E+00
         0.00000E+00
         0.00000E+00
         0.00000E+00
         0.00000E+00
         0.00000E+00
         0.00000E+00
         0.00000E+00
         0.00000E+00
         0.00000E+00
         0.00000E+00
         0.00000E+00
         0.00000E+00
         0.00000E+00
         0.00000E+00
         0.00000E+00
         0.00000E+00
         0.00000E+00
         0.00000E+00
         0.00000E+00
         0.00000E+00
         0.00000E+00
         0.00000E+00
         0.00000E+00
         0.00000E+00
         0.00000E+00
         0.00000E+00
         0.00000E+00
         0.00000E+00
         0.00000E+00
         0.00000E+00
         0.00000E+00
         0.00000E+00
         0.00000E+00
         0.00000E+00
         0.00000E+00
         0.00000E+00
         0.00000E+00
         0.00000E+00
         0.00000E+00
         0.00000E+00
         0.00000E+00
         0.00000E+00
         0.00000E+00
         0.00000E+00
         0.00000E+00
         0.00000E+00
         0.00000E+00
         0.00000E+00
         0.00000E+00
         0.00000E+00
         0.00000E+00
         0.00000E+00
         0.00000E+00
         0.00000E+00
         0.00000E+00
         0.00000E+00
         0.00000E+00
         0.00000E+00
         0.00000E+00
         0.00000E+00
         0.00000E+00
         0.00000E+00
         0.00000E+00
         0.00000E+00
         0.00000E+00
         0.00000E+00
         0.00000E+00
         0.00000E+00
         0.00000E+00
         0.00000E+00
         0.00000E+00
         0.00000E+00
         0.00000E+00
         0.00000E+00
         0.00000E+00
         0.00000E+00
         0.00000E+00
         0.00000E+00
         0.00000E+00
         0.00000E+00
         0.00000E+00
         0.00000E+00
         0.00000E+00
         0.00000E+00
         0.00000E+00
         0.00000E+00
         0.00000E+00
         0.00000E+00
         0.00000E+00
         0.00000E+00
         0.00000E+00
         0.00000E+00
         0.00000E+00
         0.00000E+00
         0.00000E+00
         0.00000E+00
         0.00000E+00
         0.00000E+00
         0.00000E+00
         0.00000E+00
         0.00000E+00
         0.00000E+00
         0.00000E+00
         0.00000E+00
         0.00000E+00
         0.00000E+00
         0.00000E+00
         0.00000E+00
         0.00000E+00
         0.00000E+00
         0.00000E+00
         0.00000E+00
         0.00000E+00
         0.00000E+00
         0.00000E+00
         0.00000E+00
         0.00000E+00
         0.00000E+00
         0.00000E+00
         0.00000E+00
         0.00000E+00
         0.00000E+00
         0.00000E+00
         0.00000E+00
         0.00000E+00
         0.00000E+00
         0.00000E+00
         0.00000E+00
         0.00000E+00
         0.00000E+00
         0.00000E+00
         0.00000E+00
         0.00000E+00
         0.00000E+00
         0.00000E+00
         0.00000E+00
         0.00000E+00
         0.00000E+00
         0.00000E+00
         0.00000E+00
         0.00000E+00
         0.00000E+00
         0.00000E+00
         0.00000E+00
         0.00000E+00
         0.00000E+00
         0.00000E+00
         0.00000E+00
         0.00000E+00
         0.00000E+00
         0.00000E+00
         0.00000E+00
         0.00000E+00
         0.00000E+00
         0.00000E+00
         0.00000E+00
         0.00000E+00
         0.00000E+00
         0.00000E+00
         0.00000E+00
         0.00000E+00
         0.00000E+00
         0.00000E+00
         0.00000E+00
         0.00000E+00
         0.00000E+00
         0.00000E+00
         0.00000E+00
         0.00000E+00
         0.00000E+00
         0.00000E+00
         0.00000E+00
         0.00000E+00
         0.00000E+00
         0.00000E+00
         0.00000E+00
         0.00000E+00
         0.00000E+00
         0.00000E+00
         0.00000E+00
         0.00000E+00
         0.00000E+00
         0.00000E+00
         0.00000E+00
         0.00000E+00
         0.00000E+00
         0.00000E+00
         0.00000E+00
         0.00000E+00
         0.00000E+00
         0.00000E+00
         0.00000E+00
         0.00000E+00
         0.00000E+00
         0.00000E+00
         0.00000E+00
         0.00000E+00
         0.00000E+00
         0.00000E+00
         0.00000E+00
         0.00000E+00
         0.00000E+00
         0.00000E+00
         0.00000E+00
         0.00000E+00
         0.00000E+00
         0.00000E+00
         0.00000E+00
         0.00000E+00
         0.00000E+00
         0.00000E+00
         0.00000E+00
         0.00000E+00
         0.00000E+00
         0.00000E+00
         0.00000E+00
         0.00000E+00
         0.00000E+00
         0.00000E+00
         0.00000E+00
         0.00000E+00
         0.00000E+00
         0.00000E+00
         0.00000E+00
         0.00000E+00
         0.00000E+00
         0.00000E+00
         0.00000E+00
         0.00000E+00
         0.00000E+00
         0.00000E+00
         0.00000E+00
         0.00000E+00
         0.00000E+00
         0.00000E+00
         0.00000E+00
         0.00000E+00
         0.00000E+00
         0.00000E+00
         0.00000E+00
         0.00000E+00
         0.00000E+00
         0.00000E+00
         0.00000E+00
         0.00000E+00
         0.00000E+00
         0.00000E+00
         0.00000E+00
         0.00000E+00
         0.00000E+00
         0.00000E+00
         0.00000E+00
         0.00000E+00
         0.00000E+00
         0.00000E+00
         0.00000E+00
         0.00000E+00
         0.00000E+00
         0.00000E+00
         0.00000E+00
         0.00000E+00
         0.00000E+00
         0.00000E+00
         0.00000E+00
         0.00000E+00
         0.00000E+00
         0.00000E+00
         0.00000E+00
         0.00000E+00
         0.00000E+00
         0.00000E+00
         0.00000E+00
         0.00000E+00
         0.00000E+00
         0.00000E+00
         0.00000E+00
         0.00000E+00
         0.00000E+00
         0.00000E+00
         0.00000E+00
         0.00000E+00
         0.00000E+00
         0.00000E+00
         0.00000E+00
         0.00000E+00
         0.00000E+00
         0.00000E+00
         0.00000E+00
         0.00000E+00
         0.00000E+00
         0.00000E+00
         0.00000E+00
         0.00000E+00
         0.00000E+00
         0.00000E+00
         0.00000E+00
         0.00000E+00
         0.00000E+00
         0.00000E+00
         0.00000E+00
         0.00000E+00
         0.00000E+00
         0.00000E+00
         0.00000E+00
         0.00000E+00
         0.00000E+00
         0.00000E+00
         0.00000E+00
         0.00000E+00
         0.00000E+00
         0.00000E+00
         0.00000E+00
         0.00000E+00
         0.00000E+00
         0.00000E+00
         0.00000E+00
         0.00000E+00
         0.00000E+00
         0.00000E+00
         0.00000E+00
         0.00000E+00
         0.00000E+00
         0.00000E+00
         0.00000E+00
         0.00000E+00
         0.00000E+00
         0.00000E+00
         0.00000E+00
         0.00000E+00
         0.00000E+00
         0.00000E+00
         0.00000E+00
         0.00000E+00
         0.00000E+00
         0.00000E+00
         0.00000E+00
         0.00000E+00
         0.00000E+00
         0.00000E+00
         0.00000E+00
         0.00000E+00
         0.00000E+00
         0.00000E+00
         0.00000E+00
         0.00000E+00
         0.00000E+00
         0.00000E+00
         0.00000E+00
         0.00000E+00
         0.00000E+00
         0.00000E+00
         0.00000E+00
         0.00000E+00
         0.00000E+00
         0.00000E+00
         0.00000E+00
         0.00000E+00
         0.00000E+00
         0.00000E+00
         0.00000E+00
         0.00000E+00
         0.00000E+00
         0.00000E+00
         0.00000E+00
         0.00000E+00
         0.00000E+00
         0.00000E+00
         0.00000E+00
         0.00000E+00
         0.00000E+00
         0.00000E+00
         0.00000E+00
         0.00000E+00
         0.00000E+00
         0.00000E+00
         0.00000E+00
         0.00000E+00
         0.00000E+00
         0.00000E+00
         0.00000E+00
         0.00000E+00
         0.00000E+00
         0.00000E+00
         0.00000E+00
         0.00000E+00
         0.00000E+00
         0.00000E+00
         0.00000E+00
         0.00000E+00
         0.00000E+00
         0.00000E+00
         0.00000E+00
         0.00000E+00
         0.00000E+00
         0.00000E+00
         0.00000E+00
         0.00000E+00
         0.00000E+00
         0.00000E+00
         0.00000E+00
         0.00000E+00
         0.00000E+00
         0.00000E+00
         0.00000E+00
         0.00000E+00
         0.00000E+00
  
SCALARS               pre_disp_force_y  double 1
LOOKUP_TABLE default
         0.00000E+00
         0.00000E+00
         0.00000E+00
         0.00000E+00
         0.00000E+00
         0.00000E+00
         0.00000E+00
         0.00000E+00
         0.00000E+00
         0.00000E+00
         0.00000E+00
         0.00000E+00
         0.00000E+00
         0.00000E+00
         0.00000E+00
         0.00000E+00
         0.00000E+00
         0.00000E+00
         0.00000E+00
         0.00000E+00
         0.00000E+00
         0.00000E+00
         0.00000E+00
         0.00000E+00
         0.00000E+00
         0.00000E+00
         0.00000E+00
         0.00000E+00
         0.00000E+00
         0.00000E+00
         0.00000E+00
         0.00000E+00
         0.00000E+00
         0.00000E+00
         0.00000E+00
         0.00000E+00
         0.00000E+00
         0.00000E+00
         0.00000E+00
         0.00000E+00
         0.00000E+00
         0.00000E+00
         0.00000E+00
         0.00000E+00
         0.00000E+00
         0.00000E+00
         0.00000E+00
         0.00000E+00
         0.00000E+00
         0.00000E+00
         0.00000E+00
         0.00000E+00
         0.00000E+00
         0.00000E+00
         0.00000E+00
         0.00000E+00
         0.00000E+00
         0.00000E+00
         0.00000E+00
         0.00000E+00
         0.00000E+00
         0.00000E+00
         0.00000E+00
         0.00000E+00
         0.00000E+00
         0.00000E+00
         0.00000E+00
         0.00000E+00
         0.00000E+00
         0.00000E+00
         0.00000E+00
         0.00000E+00
         0.00000E+00
         0.00000E+00
         0.00000E+00
         0.00000E+00
         0.00000E+00
         0.00000E+00
         0.00000E+00
         0.00000E+00
         0.00000E+00
         0.00000E+00
         0.00000E+00
         0.00000E+00
         0.00000E+00
         0.00000E+00
         0.00000E+00
         0.00000E+00
         0.00000E+00
         0.00000E+00
         0.00000E+00
         0.00000E+00
         0.00000E+00
         0.00000E+00
         0.00000E+00
         0.00000E+00
         0.00000E+00
         0.00000E+00
         0.00000E+00
         0.00000E+00
         0.00000E+00
         0.00000E+00
         0.00000E+00
         0.00000E+00
         0.00000E+00
         0.00000E+00
         0.00000E+00
         0.00000E+00
         0.00000E+00
         0.00000E+00
         0.00000E+00
         0.00000E+00
         0.00000E+00
         0.00000E+00
         0.00000E+00
         0.00000E+00
         0.00000E+00
         0.00000E+00
         0.00000E+00
         0.00000E+00
         0.00000E+00
         0.00000E+00
         0.00000E+00
         0.00000E+00
         0.00000E+00
         0.00000E+00
         0.00000E+00
         0.00000E+00
         0.00000E+00
         0.00000E+00
         0.00000E+00
         0.00000E+00
         0.00000E+00
         0.00000E+00
         0.00000E+00
         0.00000E+00
         0.00000E+00
         0.00000E+00
         0.00000E+00
         0.00000E+00
         0.00000E+00
         0.00000E+00
         0.00000E+00
         0.00000E+00
         0.00000E+00
         0.00000E+00
         0.00000E+00
         0.00000E+00
         0.00000E+00
         0.00000E+00
         0.00000E+00
         0.00000E+00
         0.00000E+00
         0.00000E+00
         0.00000E+00
         0.00000E+00
         0.00000E+00
         0.00000E+00
         0.00000E+00
         0.00000E+00
         0.00000E+00
         0.00000E+00
         0.00000E+00
         0.00000E+00
         0.00000E+00
         0.00000E+00
         0.00000E+00
         0.00000E+00
         0.00000E+00
         0.00000E+00
         0.00000E+00
         0.00000E+00
         0.00000E+00
         0.00000E+00
         0.00000E+00
         0.00000E+00
         0.00000E+00
         0.00000E+00
         0.00000E+00
         0.00000E+00
         0.00000E+00
         0.00000E+00
         0.00000E+00
         0.00000E+00
         0.00000E+00
         0.00000E+00
         0.00000E+00
         0.00000E+00
         0.00000E+00
         0.00000E+00
         0.00000E+00
         0.00000E+00
         0.00000E+00
         0.00000E+00
         0.00000E+00
         0.00000E+00
         0.00000E+00
         0.00000E+00
         0.00000E+00
         0.00000E+00
         0.00000E+00
         0.00000E+00
         0.00000E+00
         0.00000E+00
         0.00000E+00
         0.00000E+00
         0.00000E+00
         0.00000E+00
         0.00000E+00
         0.00000E+00
         0.00000E+00
         0.00000E+00
         0.00000E+00
         0.00000E+00
         0.00000E+00
         0.00000E+00
         0.00000E+00
         0.00000E+00
         0.00000E+00
         0.00000E+00
         0.00000E+00
         0.00000E+00
         0.00000E+00
         0.00000E+00
         0.00000E+00
         0.00000E+00
         0.00000E+00
         0.00000E+00
         0.00000E+00
         0.00000E+00
         0.00000E+00
         0.00000E+00
         0.00000E+00
         0.00000E+00
         0.00000E+00
         0.00000E+00
         0.00000E+00
         0.00000E+00
         0.00000E+00
         0.00000E+00
         0.00000E+00
         0.00000E+00
         0.00000E+00
         0.00000E+00
         0.00000E+00
         0.00000E+00
         0.00000E+00
         0.00000E+00
         0.00000E+00
         0.00000E+00
         0.00000E+00
         0.00000E+00
         0.00000E+00
         0.00000E+00
         0.00000E+00
         0.00000E+00
         0.00000E+00
         0.00000E+00
         0.00000E+00
         0.00000E+00
         0.00000E+00
         0.00000E+00
         0.00000E+00
         0.00000E+00
         0.00000E+00
         0.00000E+00
         0.00000E+00
         0.00000E+00
         0.00000E+00
         0.00000E+00
         0.00000E+00
         0.00000E+00
         0.00000E+00
         0.00000E+00
         0.00000E+00
         0.00000E+00
         0.00000E+00
         0.00000E+00
         0.00000E+00
         0.00000E+00
         0.00000E+00
         0.00000E+00
         0.00000E+00
         0.00000E+00
         0.00000E+00
         0.00000E+00
         0.00000E+00
         0.00000E+00
         0.00000E+00
         0.00000E+00
         0.00000E+00
         0.00000E+00
         0.00000E+00
         0.00000E+00
         0.00000E+00
         0.00000E+00
         0.00000E+00
         0.00000E+00
         0.00000E+00
         0.00000E+00
         0.00000E+00
         0.00000E+00
         0.00000E+00
         0.00000E+00
         0.00000E+00
         0.00000E+00
         0.00000E+00
         0.00000E+00
         0.00000E+00
         0.00000E+00
         0.00000E+00
         0.00000E+00
         0.00000E+00
         0.00000E+00
         0.00000E+00
         0.00000E+00
         0.00000E+00
         0.00000E+00
         0.00000E+00
         0.00000E+00
         0.00000E+00
         0.00000E+00
         0.00000E+00
         0.00000E+00
         0.00000E+00
         0.00000E+00
         0.00000E+00
         0.00000E+00
         0.00000E+00
         0.00000E+00
         0.00000E+00
         0.00000E+00
         0.00000E+00
         0.00000E+00
         0.00000E+00
         0.00000E+00
         0.00000E+00
         0.00000E+00
         0.00000E+00
         0.00000E+00
         0.00000E+00
         0.00000E+00
         0.00000E+00
         0.00000E+00
         0.00000E+00
         0.00000E+00
         0.00000E+00
         0.00000E+00
         0.00000E+00
         0.00000E+00
         0.00000E+00
         0.00000E+00
         0.00000E+00
         0.00000E+00
         0.00000E+00
         0.00000E+00
         0.00000E+00
         0.00000E+00
         0.00000E+00
         0.00000E+00
         0.00000E+00
         0.00000E+00
         0.00000E+00
         0.00000E+00
         0.00000E+00
         0.00000E+00
         0.00000E+00
         0.00000E+00
         0.00000E+00
         0.00000E+00
         0.00000E+00
         0.00000E+00
         0.00000E+00
         0.00000E+00
         0.00000E+00
         0.00000E+00
         0.00000E+00
         0.00000E+00
         0.00000E+00
         0.00000E+00
         0.00000E+00
         0.00000E+00
         0.00000E+00
         0.00000E+00
         0.00000E+00
         0.00000E+00
         0.00000E+00
         0.00000E+00
         0.00000E+00
         0.00000E+00
         0.00000E+00
         0.00000E+00
         0.00000E+00
         0.00000E+00
         0.00000E+00
         0.00000E+00
         0.00000E+00
         0.00000E+00
         0.00000E+00
         0.00000E+00
         0.00000E+00
         0.00000E+00
         0.00000E+00
         0.00000E+00
         0.00000E+00
         0.00000E+00
         0.00000E+00
         0.00000E+00
         0.00000E+00
         0.00000E+00
         0.00000E+00
         0.00000E+00
         0.00000E+00
         0.00000E+00
         0.00000E+00
         0.00000E+00
         0.00000E+00
         0.00000E+00
         0.00000E+00
         0.00000E+00
         0.00000E+00
         0.00000E+00
         0.00000E+00
         0.00000E+00
         0.00000E+00
         0.00000E+00
         0.00000E+00
         0.00000E+00
         0.00000E+00
         0.00000E+00
         0.00000E+00
         0.00000E+00
         0.00000E+00
         0.00000E+00
         0.00000E+00
         0.00000E+00
         0.00000E+00
         0.00000E+00
         0.00000E+00
         0.00000E+00
         0.00000E+00
         0.00000E+00
         0.00000E+00
         0.00000E+00
         0.00000E+00
         0.00000E+00
         0.00000E+00
         0.00000E+00
         0.00000E+00
         0.00000E+00
         0.00000E+00
         0.00000E+00
         0.00000E+00
         0.00000E+00
         0.00000E+00
         0.00000E+00
         0.00000E+00
         0.00000E+00
         0.00000E+00
         0.00000E+00
         0.00000E+00
         0.00000E+00
         0.00000E+00
         0.00000E+00
         0.00000E+00
         0.00000E+00
         0.00000E+00
         0.00000E+00
         0.00000E+00
         0.00000E+00
         0.00000E+00
         0.00000E+00
         0.00000E+00
         0.00000E+00
         0.00000E+00
         0.00000E+00
         0.00000E+00
         0.00000E+00
         0.00000E+00
         0.00000E+00
         0.00000E+00
         0.00000E+00
         0.00000E+00
         0.00000E+00
         0.00000E+00
         0.00000E+00
         0.00000E+00
         0.00000E+00
         0.00000E+00
         0.00000E+00
         0.00000E+00
         0.00000E+00
         0.00000E+00
         0.00000E+00
         0.00000E+00
         0.00000E+00
         0.00000E+00
         0.00000E+00
         0.00000E+00
         0.00000E+00
         0.00000E+00
         0.00000E+00
         0.00000E+00
         0.00000E+00
         0.00000E+00
         0.00000E+00
         0.00000E+00
         0.00000E+00
         0.00000E+00
         0.00000E+00
         0.00000E+00
         0.00000E+00
         0.00000E+00
         0.00000E+00
         0.00000E+00
         0.00000E+00
         0.00000E+00
         0.00000E+00
         0.00000E+00
         0.00000E+00
         0.00000E+00
         0.00000E+00
         0.00000E+00
         0.00000E+00
         0.00000E+00
         0.00000E+00
         0.00000E+00
         0.00000E+00
         0.00000E+00
         0.00000E+00
         0.00000E+00
         0.00000E+00
         0.00000E+00
         0.00000E+00
         0.00000E+00
         0.00000E+00
         0.00000E+00
         0.00000E+00
         0.00000E+00
         0.00000E+00
         0.00000E+00
         0.00000E+00
         0.00000E+00
         0.00000E+00
         0.00000E+00
         0.00000E+00
         0.00000E+00
         0.00000E+00
         0.00000E+00
         0.00000E+00
         0.00000E+00
         0.00000E+00
         0.00000E+00
         0.00000E+00
         0.00000E+00
         0.00000E+00
         0.00000E+00
         0.00000E+00
         0.00000E+00
         0.00000E+00
         0.00000E+00
         0.00000E+00
         0.00000E+00
         0.00000E+00
         0.00000E+00
         0.00000E+00
         0.00000E+00
         0.00000E+00
         0.00000E+00
         0.00000E+00
         0.00000E+00
         0.00000E+00
         0.00000E+00
         0.00000E+00
         0.00000E+00
         0.00000E+00
         0.00000E+00
         0.00000E+00
         0.00000E+00
         0.00000E+00
         0.00000E+00
         0.00000E+00
         0.00000E+00
         0.00000E+00
         0.00000E+00
         0.00000E+00
         0.00000E+00
         0.00000E+00
         0.00000E+00
         0.00000E+00
         0.00000E+00
         0.00000E+00
         0.00000E+00
         0.00000E+00
         0.00000E+00
         0.00000E+00
         0.00000E+00
         0.00000E+00
         0.00000E+00
         0.00000E+00
         0.00000E+00
         0.00000E+00
         0.00000E+00
         0.00000E+00
         0.00000E+00
         0.00000E+00
         0.00000E+00
         0.00000E+00
         0.00000E+00
         0.00000E+00
         0.00000E+00
         0.00000E+00
         0.00000E+00
         0.00000E+00
         0.00000E+00
         0.00000E+00
         0.00000E+00
         0.00000E+00
         0.00000E+00
         0.00000E+00
         0.00000E+00
         0.00000E+00
         0.00000E+00
         0.00000E+00
         0.00000E+00
         0.00000E+00
         0.00000E+00
         0.00000E+00
         0.00000E+00
         0.00000E+00
         0.00000E+00
         0.00000E+00
         0.00000E+00
         0.00000E+00
         0.00000E+00
         0.00000E+00
         0.00000E+00
         0.00000E+00
         0.00000E+00
         0.00000E+00
         0.00000E+00
         0.00000E+00
         0.00000E+00
         0.00000E+00
         0.00000E+00
         0.00000E+00
         0.00000E+00
         0.00000E+00
         0.00000E+00
         0.00000E+00
         0.00000E+00
         0.00000E+00
         0.00000E+00
         0.00000E+00
         0.00000E+00
         0.00000E+00
         0.00000E+00
         0.00000E+00
         0.00000E+00
         0.00000E+00
         0.00000E+00
         0.00000E+00
         0.00000E+00
         0.00000E+00
         0.00000E+00
         0.00000E+00
         0.00000E+00
         0.00000E+00
         0.00000E+00
         0.00000E+00
         0.00000E+00
         0.00000E+00
         0.00000E+00
         0.00000E+00
         0.00000E+00
         0.00000E+00
         0.00000E+00
         0.00000E+00
         0.00000E+00
         0.00000E+00
         0.00000E+00
         0.00000E+00
         0.00000E+00
         0.00000E+00
         0.00000E+00
         0.00000E+00
         0.00000E+00
         0.00000E+00
         0.00000E+00
         0.00000E+00
         0.00000E+00
         0.00000E+00
         0.00000E+00
         0.00000E+00
         0.00000E+00
         0.00000E+00
         0.00000E+00
         0.00000E+00
         0.00000E+00
         0.00000E+00
         0.00000E+00
         0.00000E+00
         0.00000E+00
         0.00000E+00
         0.00000E+00
         0.00000E+00
         0.00000E+00
         0.00000E+00
         0.00000E+00
         0.00000E+00
         0.00000E+00
         0.00000E+00
         0.00000E+00
         0.00000E+00
         0.00000E+00
         0.00000E+00
         0.00000E+00
         0.00000E+00
         0.00000E+00
         0.00000E+00
         0.00000E+00
         0.00000E+00
         0.00000E+00
         0.00000E+00
         0.00000E+00
         0.00000E+00
         0.00000E+00
         0.00000E+00
         0.00000E+00
         0.00000E+00
         0.00000E+00
         0.00000E+00
         0.00000E+00
         0.00000E+00
         0.00000E+00
         0.00000E+00
         0.00000E+00
         0.00000E+00
         0.00000E+00
         0.00000E+00
         0.00000E+00
         0.00000E+00
         0.00000E+00
         0.00000E+00
         0.00000E+00
         0.00000E+00
         0.00000E+00
         0.00000E+00
         0.00000E+00
         0.00000E+00
         0.00000E+00
         0.00000E+00
         0.00000E+00
         0.00000E+00
         0.00000E+00
         0.00000E+00
         0.00000E+00
         0.00000E+00
         0.00000E+00
         0.00000E+00
         0.00000E+00
         0.00000E+00
         0.00000E+00
         0.00000E+00
         0.00000E+00
         0.00000E+00
         0.00000E+00
         0.00000E+00
         0.00000E+00
         0.00000E+00
         0.00000E+00
         0.00000E+00
         0.00000E+00
         0.00000E+00
         0.00000E+00
         0.00000E+00
         0.00000E+00
         0.00000E+00
         0.00000E+00
         0.00000E+00
         0.00000E+00
         0.00000E+00
         0.00000E+00
         0.00000E+00
         0.00000E+00
         0.00000E+00
         0.00000E+00
         0.00000E+00
         0.00000E+00
         0.00000E+00
         0.00000E+00
         0.00000E+00
         0.00000E+00
         0.00000E+00
         0.00000E+00
         0.00000E+00
         0.00000E+00
         0.00000E+00
         0.00000E+00
         0.00000E+00
         0.00000E+00
         0.00000E+00
         0.00000E+00
         0.00000E+00
         0.00000E+00
         0.00000E+00
         0.00000E+00
         0.00000E+00
         0.00000E+00
         0.00000E+00
         0.00000E+00
         0.00000E+00
         0.00000E+00
         0.00000E+00
         0.00000E+00
         0.00000E+00
         0.00000E+00
         0.00000E+00
         0.00000E+00
         0.00000E+00
         0.00000E+00
         0.00000E+00
         0.00000E+00
         0.00000E+00
         0.00000E+00
         0.00000E+00
         0.00000E+00
         0.00000E+00
         0.00000E+00
         0.00000E+00
         0.00000E+00
         0.00000E+00
         0.00000E+00
         0.00000E+00
         0.00000E+00
         0.00000E+00
         0.00000E+00
         0.00000E+00
         0.00000E+00
         0.00000E+00
         0.00000E+00
         0.00000E+00
         0.00000E+00
         0.00000E+00
         0.00000E+00
         0.00000E+00
         0.00000E+00
         0.00000E+00
         0.00000E+00
         0.00000E+00
         0.00000E+00
         0.00000E+00
         0.00000E+00
         0.00000E+00
         0.00000E+00
         0.00000E+00
         0.00000E+00
         0.00000E+00
         0.00000E+00
         0.00000E+00
         0.00000E+00
         0.00000E+00
         0.00000E+00
         0.00000E+00
         0.00000E+00
         0.00000E+00
         0.00000E+00
         0.00000E+00
         0.00000E+00
         0.00000E+00
         0.00000E+00
         0.00000E+00
         0.00000E+00
         0.00000E+00
         0.00000E+00
         0.00000E+00
         0.00000E+00
         0.00000E+00
         0.00000E+00
         0.00000E+00
         0.00000E+00
         0.00000E+00
         0.00000E+00
         0.00000E+00
         0.00000E+00
         0.00000E+00
         0.00000E+00
         0.00000E+00
         0.00000E+00
         0.00000E+00
         0.00000E+00
         0.00000E+00
         0.00000E+00
         0.00000E+00
         0.00000E+00
         0.00000E+00
         0.00000E+00
         0.00000E+00
         0.00000E+00
         0.00000E+00
         0.00000E+00
         0.00000E+00
         0.00000E+00
         0.00000E+00
         0.00000E+00
         0.00000E+00
         0.00000E+00
         0.00000E+00
         0.00000E+00
         0.00000E+00
         0.00000E+00
         0.00000E+00
         0.00000E+00
         0.00000E+00
         0.00000E+00
         0.00000E+00
         0.00000E+00
         0.00000E+00
         0.00000E+00
         0.00000E+00
         0.00000E+00
         0.00000E+00
         0.00000E+00
         0.00000E+00
         0.00000E+00
         0.00000E+00
         0.00000E+00
         0.00000E+00
         0.00000E+00
         0.00000E+00
         0.00000E+00
         0.00000E+00
         0.00000E+00
         0.00000E+00
         0.00000E+00
         0.00000E+00
         0.00000E+00
         0.00000E+00
         0.00000E+00
         0.00000E+00
         0.00000E+00
         0.00000E+00
         0.00000E+00
         0.00000E+00
         0.00000E+00
         0.00000E+00
         0.00000E+00
         0.00000E+00
         0.00000E+00
         0.00000E+00
         0.00000E+00
         0.00000E+00
         0.00000E+00
         0.00000E+00
         0.00000E+00
         0.00000E+00
         0.00000E+00
         0.00000E+00
         0.00000E+00
         0.00000E+00
         0.00000E+00
         0.00000E+00
         0.00000E+00
         0.00000E+00
         0.00000E+00
         0.00000E+00
         0.00000E+00
         0.00000E+00
         0.00000E+00
         0.00000E+00
         0.00000E+00
         0.00000E+00
         0.00000E+00
         0.00000E+00
         0.00000E+00
         0.00000E+00
         0.00000E+00
         0.00000E+00
         0.00000E+00
         0.00000E+00
         0.00000E+00
         0.00000E+00
         0.00000E+00
         0.00000E+00
         0.00000E+00
         0.00000E+00
         0.00000E+00
         0.00000E+00
         0.00000E+00
         0.00000E+00
         0.00000E+00
         0.00000E+00
         0.00000E+00
         0.00000E+00
         0.00000E+00
         0.00000E+00
         0.00000E+00
         0.00000E+00
         0.00000E+00
         0.00000E+00
         0.00000E+00
         0.00000E+00
         0.00000E+00
         0.00000E+00
         0.00000E+00
         0.00000E+00
         0.00000E+00
         0.00000E+00
         0.00000E+00
         0.00000E+00
         0.00000E+00
         0.00000E+00
         0.00000E+00
         0.00000E+00
         0.00000E+00
         0.00000E+00
         0.00000E+00
         0.00000E+00
         0.00000E+00
         0.00000E+00
         0.00000E+00
         0.00000E+00
         0.00000E+00
         0.00000E+00
         0.00000E+00
         0.00000E+00
         0.00000E+00
         0.00000E+00
         0.00000E+00
         0.00000E+00
         0.00000E+00
         0.00000E+00
         0.00000E+00
         0.00000E+00
         0.00000E+00
         0.00000E+00
         0.00000E+00
         0.00000E+00
         0.00000E+00
         0.00000E+00
         0.00000E+00
         0.00000E+00
         0.00000E+00
         0.00000E+00
         0.00000E+00
         0.00000E+00
         0.00000E+00
         0.00000E+00
         0.00000E+00
         0.00000E+00
         0.00000E+00
         0.00000E+00
         0.00000E+00
         0.00000E+00
         0.00000E+00
         0.00000E+00
         0.00000E+00
         0.00000E+00
         0.00000E+00
         0.00000E+00
         0.00000E+00
         0.00000E+00
         0.00000E+00
         0.00000E+00
         0.00000E+00
         0.00000E+00
         0.00000E+00
         0.00000E+00
         0.00000E+00
         0.00000E+00
         0.00000E+00
         0.00000E+00
         0.00000E+00
         0.00000E+00
         0.00000E+00
         0.00000E+00
         0.00000E+00
         0.00000E+00
         0.00000E+00
         0.00000E+00
         0.00000E+00
         0.00000E+00
         0.00000E+00
         0.00000E+00
         0.00000E+00
         0.00000E+00
         0.00000E+00
         0.00000E+00
         0.00000E+00
         0.00000E+00
         0.00000E+00
         0.00000E+00
         0.00000E+00
         0.00000E+00
         0.00000E+00
         0.00000E+00
         0.00000E+00
         0.00000E+00
         0.00000E+00
         0.00000E+00
         0.00000E+00
         0.00000E+00
         0.00000E+00
         0.00000E+00
         0.00000E+00
         0.00000E+00
         0.00000E+00
         0.00000E+00
         0.00000E+00
         0.00000E+00
         0.00000E+00
         0.00000E+00
         0.00000E+00
         0.00000E+00
         0.00000E+00
         0.00000E+00
         0.00000E+00
         0.00000E+00
         0.00000E+00
         0.00000E+00
         0.00000E+00
         0.00000E+00
         0.00000E+00
         0.00000E+00
         0.00000E+00
         0.00000E+00
         0.00000E+00
         0.00000E+00
         0.00000E+00
         0.00000E+00
         0.00000E+00
         0.00000E+00
         0.00000E+00
         0.00000E+00
         0.00000E+00
         0.00000E+00
         0.00000E+00
         0.00000E+00
         0.00000E+00
         0.00000E+00
         0.00000E+00
         0.00000E+00
         0.00000E+00
         0.00000E+00
         0.00000E+00
         0.00000E+00
         0.00000E+00
         0.00000E+00
         0.00000E+00
         0.00000E+00
         0.00000E+00
         0.00000E+00
         0.00000E+00
         0.00000E+00
         0.00000E+00
         0.00000E+00
         0.00000E+00
         0.00000E+00
         0.00000E+00
         0.00000E+00
         0.00000E+00
         0.00000E+00
         0.00000E+00
         0.00000E+00
         0.00000E+00
         0.00000E+00
         0.00000E+00
         0.00000E+00
         0.00000E+00
         0.00000E+00
         0.00000E+00
         0.00000E+00
         0.00000E+00
         0.00000E+00
         0.00000E+00
         0.00000E+00
         0.00000E+00
         0.00000E+00
         0.00000E+00
         0.00000E+00
         0.00000E+00
         0.00000E+00
         0.00000E+00
         0.00000E+00
         0.00000E+00
         0.00000E+00
         0.00000E+00
         0.00000E+00
         0.00000E+00
         0.00000E+00
         0.00000E+00
         0.00000E+00
         0.00000E+00
         0.00000E+00
         0.00000E+00
         0.00000E+00
         0.00000E+00
         0.00000E+00
         0.00000E+00
         0.00000E+00
         0.00000E+00
         0.00000E+00
         0.00000E+00
         0.00000E+00
         0.00000E+00
         0.00000E+00
         0.00000E+00
         0.00000E+00
         0.00000E+00
         0.00000E+00
         0.00000E+00
         0.00000E+00
         0.00000E+00
         0.00000E+00
         0.00000E+00
         0.00000E+00
         0.00000E+00
         0.00000E+00
         0.00000E+00
         0.00000E+00
         0.00000E+00
         0.00000E+00
         0.00000E+00
         0.00000E+00
         0.00000E+00
         0.00000E+00
         0.00000E+00
         0.00000E+00
         0.00000E+00
         0.00000E+00
         0.00000E+00
         0.00000E+00
         0.00000E+00
         0.00000E+00
         0.00000E+00
         0.00000E+00
         0.00000E+00
         0.00000E+00
         0.00000E+00
         0.00000E+00
         0.00000E+00
         0.00000E+00
         0.00000E+00
         0.00000E+00
         0.00000E+00
         0.00000E+00
         0.00000E+00
         0.00000E+00
         0.00000E+00
         0.00000E+00
         0.00000E+00
         0.00000E+00
         0.00000E+00
         0.00000E+00
         0.00000E+00
         0.00000E+00
         0.00000E+00
         0.00000E+00
         0.00000E+00
         0.00000E+00
         0.00000E+00
         0.00000E+00
         0.00000E+00
         0.00000E+00
         0.00000E+00
         0.00000E+00
         0.00000E+00
         0.00000E+00
         0.00000E+00
         0.00000E+00
         0.00000E+00
         0.00000E+00
         0.00000E+00
         0.00000E+00
         0.00000E+00
         0.00000E+00
         0.00000E+00
         0.00000E+00
         0.00000E+00
         0.00000E+00
         0.00000E+00
         0.00000E+00
         0.00000E+00
         0.00000E+00
         0.00000E+00
         0.00000E+00
         0.00000E+00
         0.00000E+00
         0.00000E+00
         0.00000E+00
         0.00000E+00
         0.00000E+00
         0.00000E+00
         0.00000E+00
         0.00000E+00
         0.00000E+00
         0.00000E+00
         0.00000E+00
         0.00000E+00
         0.00000E+00
         0.00000E+00
         0.00000E+00
         0.00000E+00
         0.00000E+00
         0.00000E+00
         0.00000E+00
         0.00000E+00
         0.00000E+00
         0.00000E+00
         0.00000E+00
         0.00000E+00
         0.00000E+00
         0.00000E+00
         0.00000E+00
         0.00000E+00
         0.00000E+00
         0.00000E+00
         0.00000E+00
         0.00000E+00
         0.00000E+00
         0.00000E+00
         0.00000E+00
         0.00000E+00
         0.00000E+00
         0.00000E+00
         0.00000E+00
         0.00000E+00
         0.00000E+00
         0.00000E+00
         0.00000E+00
         0.00000E+00
         0.00000E+00
         0.00000E+00
         0.00000E+00
         0.00000E+00
         0.00000E+00
         0.00000E+00
         0.00000E+00
         0.00000E+00
         0.00000E+00
         0.00000E+00
         0.00000E+00
         0.00000E+00
         0.00000E+00
         0.00000E+00
         0.00000E+00
         0.00000E+00
         0.00000E+00
         0.00000E+00
         0.00000E+00
         0.00000E+00
         0.00000E+00
         0.00000E+00
         0.00000E+00
         0.00000E+00
         0.00000E+00
         0.00000E+00
         0.00000E+00
         0.00000E+00
         0.00000E+00
         0.00000E+00
         0.00000E+00
         0.00000E+00
         0.00000E+00
         0.00000E+00
         0.00000E+00
         0.00000E+00
         0.00000E+00
         0.00000E+00
         0.00000E+00
         0.00000E+00
         0.00000E+00
         0.00000E+00
         0.00000E+00
         0.00000E+00
         0.00000E+00
         0.00000E+00
         0.00000E+00
         0.00000E+00
         0.00000E+00
         0.00000E+00
         0.00000E+00
         0.00000E+00
         0.00000E+00
         0.00000E+00
         0.00000E+00
         0.00000E+00
         0.00000E+00
         0.00000E+00
         0.00000E+00
         0.00000E+00
         0.00000E+00
         0.00000E+00
         0.00000E+00
         0.00000E+00
         0.00000E+00
         0.00000E+00
         0.00000E+00
         0.00000E+00
         0.00000E+00
         0.00000E+00
         0.00000E+00
         0.00000E+00
         0.00000E+00
         0.00000E+00
         0.00000E+00
         0.00000E+00
         0.00000E+00
         0.00000E+00
         0.00000E+00
         0.00000E+00
         0.00000E+00
         0.00000E+00
         0.00000E+00
         0.00000E+00
         0.00000E+00
         0.00000E+00
         0.00000E+00
         0.00000E+00
         0.00000E+00
         0.00000E+00
         0.00000E+00
         0.00000E+00
         0.00000E+00
         0.00000E+00
         0.00000E+00
         0.00000E+00
         0.00000E+00
         0.00000E+00
         0.00000E+00
         0.00000E+00
         0.00000E+00
         0.00000E+00
         0.00000E+00
         0.00000E+00
         0.00000E+00
         0.00000E+00
         0.00000E+00
         0.00000E+00
         0.00000E+00
         0.00000E+00
         0.00000E+00
         0.00000E+00
         0.00000E+00
         0.00000E+00
         0.00000E+00
         0.00000E+00
         0.00000E+00
         0.00000E+00
         0.00000E+00
         0.00000E+00
         0.00000E+00
         0.00000E+00
         0.00000E+00
         0.00000E+00
         0.00000E+00
         0.00000E+00
         0.00000E+00
         0.00000E+00
         0.00000E+00
         0.00000E+00
         0.00000E+00
         0.00000E+00
         0.00000E+00
         0.00000E+00
         0.00000E+00
         0.00000E+00
         0.00000E+00
         0.00000E+00
         0.00000E+00
         0.00000E+00
         0.00000E+00
         0.00000E+00
         0.00000E+00
         0.00000E+00
         0.00000E+00
         0.00000E+00
         0.00000E+00
         0.00000E+00
         0.00000E+00
         0.00000E+00
         0.00000E+00
         0.00000E+00
         0.00000E+00
         0.00000E+00
         0.00000E+00
         0.00000E+00
         0.00000E+00
         0.00000E+00
         0.00000E+00
         0.00000E+00
         0.00000E+00
         0.00000E+00
         0.00000E+00
         0.00000E+00
         0.00000E+00
         0.00000E+00
         0.00000E+00
         0.00000E+00
         0.00000E+00
         0.00000E+00
         0.00000E+00
         0.00000E+00
         0.00000E+00
         0.00000E+00
         0.00000E+00
         0.00000E+00
         0.00000E+00
         0.00000E+00
         0.00000E+00
         0.00000E+00
         0.00000E+00
         0.00000E+00
         0.00000E+00
         0.00000E+00
         0.00000E+00
         0.00000E+00
         0.00000E+00
         0.00000E+00
         0.00000E+00
         0.00000E+00
         0.00000E+00
         0.00000E+00
         0.00000E+00
         0.00000E+00
         0.00000E+00
         0.00000E+00
         0.00000E+00
         0.00000E+00
         0.00000E+00
         0.00000E+00
         0.00000E+00
         0.00000E+00
         0.00000E+00
         0.00000E+00
         0.00000E+00
         0.00000E+00
         0.00000E+00
         0.00000E+00
         0.00000E+00
         0.00000E+00
         0.00000E+00
         0.00000E+00
         0.00000E+00
         0.00000E+00
         0.00000E+00
         0.00000E+00
         0.00000E+00
         0.00000E+00
         0.00000E+00
         0.00000E+00
         0.00000E+00
         0.00000E+00
         0.00000E+00
         0.00000E+00
         0.00000E+00
         0.00000E+00
         0.00000E+00
         0.00000E+00
         0.00000E+00
         0.00000E+00
         0.00000E+00
         0.00000E+00
         0.00000E+00
         0.00000E+00
         0.00000E+00
         0.00000E+00
         0.00000E+00
         0.00000E+00
         0.00000E+00
         0.00000E+00
         0.00000E+00
         0.00000E+00
         0.00000E+00
         0.00000E+00
         0.00000E+00
         0.00000E+00
         0.00000E+00
         0.00000E+00
         0.00000E+00
         0.00000E+00
         0.00000E+00
         0.00000E+00
         0.00000E+00
         0.00000E+00
         0.00000E+00
         0.00000E+00
         0.00000E+00
         0.00000E+00
         0.00000E+00
         0.00000E+00
         0.00000E+00
         0.00000E+00
         0.00000E+00
         0.00000E+00
         0.00000E+00
         0.00000E+00
         0.00000E+00
         0.00000E+00
         0.00000E+00
         0.00000E+00
         0.00000E+00
         0.00000E+00
         0.00000E+00
         0.00000E+00
         0.00000E+00
         0.00000E+00
         0.00000E+00
         0.00000E+00
         0.00000E+00
         0.00000E+00
         0.00000E+00
         0.00000E+00
         0.00000E+00
         0.00000E+00
         0.00000E+00
         0.00000E+00
         0.00000E+00
         0.00000E+00
         0.00000E+00
         0.00000E+00
         0.00000E+00
         0.00000E+00
         0.00000E+00
         0.00000E+00
         0.00000E+00
         0.00000E+00
         0.00000E+00
         0.00000E+00
         0.00000E+00
         0.00000E+00
         0.00000E+00
         0.00000E+00
         0.00000E+00
         0.00000E+00
         0.00000E+00
         0.00000E+00
         0.00000E+00
         0.00000E+00
         0.00000E+00
         0.00000E+00
         0.00000E+00
         0.00000E+00
         0.00000E+00
         0.00000E+00
         0.00000E+00
         0.00000E+00
         0.00000E+00
         0.00000E+00
         0.00000E+00
         0.00000E+00
         0.00000E+00
         0.00000E+00
         0.00000E+00
         0.00000E+00
         0.00000E+00
         0.00000E+00
         0.00000E+00
         0.00000E+00
         0.00000E+00
         0.00000E+00
         0.00000E+00
         0.00000E+00
         0.00000E+00
         0.00000E+00
         0.00000E+00
         0.00000E+00
         0.00000E+00
         0.00000E+00
         0.00000E+00
         0.00000E+00
         0.00000E+00
         0.00000E+00
         0.00000E+00
         0.00000E+00
         0.00000E+00
         0.00000E+00
         0.00000E+00
         0.00000E+00
         0.00000E+00
         0.00000E+00
         0.00000E+00
         0.00000E+00
         0.00000E+00
         0.00000E+00
         0.00000E+00
         0.00000E+00
         0.00000E+00
         0.00000E+00
         0.00000E+00
         0.00000E+00
         0.00000E+00
         0.00000E+00
         0.00000E+00
         0.00000E+00
         0.00000E+00
         0.00000E+00
         0.00000E+00
         0.00000E+00
         0.00000E+00
         0.00000E+00
         0.00000E+00
         0.00000E+00
         0.00000E+00
         0.00000E+00
         0.00000E+00
         0.00000E+00
         0.00000E+00
         0.00000E+00
         0.00000E+00
         0.00000E+00
         0.00000E+00
         0.00000E+00
         0.00000E+00
         0.00000E+00
         0.00000E+00
         0.00000E+00
         0.00000E+00
         0.00000E+00
         0.00000E+00
         0.00000E+00
         0.00000E+00
         0.00000E+00
         0.00000E+00
         0.00000E+00
         0.00000E+00
         0.00000E+00
         0.00000E+00
         0.00000E+00
         0.00000E+00
         0.00000E+00
         0.00000E+00
         0.00000E+00
         0.00000E+00
         0.00000E+00
         0.00000E+00
         0.00000E+00
         0.00000E+00
         0.00000E+00
         0.00000E+00
         0.00000E+00
         0.00000E+00
         0.00000E+00
         0.00000E+00
         0.00000E+00
         0.00000E+00
         0.00000E+00
         0.00000E+00
         0.00000E+00
         0.00000E+00
         0.00000E+00
         0.00000E+00
         0.00000E+00
         0.00000E+00
         0.00000E+00
         0.00000E+00
         0.00000E+00
         0.00000E+00
         0.00000E+00
         0.00000E+00
         0.00000E+00
         0.00000E+00
         0.00000E+00
         0.00000E+00
         0.00000E+00
         0.00000E+00
         0.00000E+00
         0.00000E+00
         0.00000E+00
         0.00000E+00
         0.00000E+00
         0.00000E+00
         0.00000E+00
         0.00000E+00
         0.00000E+00
         0.00000E+00
         0.00000E+00
         0.00000E+00
         0.00000E+00
         0.00000E+00
         0.00000E+00
         0.00000E+00
         0.00000E+00
         0.00000E+00
         0.00000E+00
         0.00000E+00
         0.00000E+00
         0.00000E+00
         0.00000E+00
         0.00000E+00
         0.00000E+00
         0.00000E+00
         0.00000E+00
         0.00000E+00
         0.00000E+00
         0.00000E+00
         0.00000E+00
         0.00000E+00
         0.00000E+00
         0.00000E+00
         0.00000E+00
         0.00000E+00
         0.00000E+00
         0.00000E+00
         0.00000E+00
         0.00000E+00
         0.00000E+00
         0.00000E+00
         0.00000E+00
         0.00000E+00
         0.00000E+00
         0.00000E+00
         0.00000E+00
         0.00000E+00
         0.00000E+00
         0.00000E+00
         0.00000E+00
         0.00000E+00
         0.00000E+00
         0.00000E+00
         0.00000E+00
         0.00000E+00
         0.00000E+00
         0.00000E+00
         0.00000E+00
         0.00000E+00
         0.00000E+00
         0.00000E+00
         0.00000E+00
         0.00000E+00
         0.00000E+00
         0.00000E+00
         0.00000E+00
         0.00000E+00
         0.00000E+00
         0.00000E+00
         0.00000E+00
         0.00000E+00
         0.00000E+00
         0.00000E+00
         0.00000E+00
         0.00000E+00
         0.00000E+00
         0.00000E+00
         0.00000E+00
         0.00000E+00
         0.00000E+00
         0.00000E+00
         0.00000E+00
         0.00000E+00
         0.00000E+00
         0.00000E+00
         0.00000E+00
         0.00000E+00
         0.00000E+00
         0.00000E+00
         0.00000E+00
         0.00000E+00
         0.00000E+00
         0.00000E+00
         0.00000E+00
         0.00000E+00
         0.00000E+00
         0.00000E+00
         0.00000E+00
         0.00000E+00
         0.00000E+00
         0.00000E+00
         0.00000E+00
         0.00000E+00
         0.00000E+00
         0.00000E+00
         0.00000E+00
         0.00000E+00
         0.00000E+00
         0.00000E+00
         0.00000E+00
         0.00000E+00
         0.00000E+00
         0.00000E+00
         0.00000E+00
         0.00000E+00
         0.00000E+00
         0.00000E+00
         0.00000E+00
         0.00000E+00
         0.00000E+00
         0.00000E+00
         0.00000E+00
         0.00000E+00
         0.00000E+00
         0.00000E+00
         0.00000E+00
         0.00000E+00
         0.00000E+00
         0.00000E+00
         0.00000E+00
         0.00000E+00
         0.00000E+00
         0.00000E+00
         0.00000E+00
         0.00000E+00
         0.00000E+00
         0.00000E+00
         0.00000E+00
         0.00000E+00
         0.00000E+00
         0.00000E+00
         0.00000E+00
         0.00000E+00
         0.00000E+00
         0.00000E+00
         0.00000E+00
         0.00000E+00
         0.00000E+00
         0.00000E+00
         0.00000E+00
         0.00000E+00
         0.00000E+00
         0.00000E+00
         0.00000E+00
         0.00000E+00
         0.00000E+00
         0.00000E+00
         0.00000E+00
         0.00000E+00
         0.00000E+00
         0.00000E+00
         0.00000E+00
         0.00000E+00
         0.00000E+00
         0.00000E+00
         0.00000E+00
         0.00000E+00
         0.00000E+00
         0.00000E+00
         0.00000E+00
         0.00000E+00
         0.00000E+00
         0.00000E+00
         0.00000E+00
         0.00000E+00
         0.00000E+00
         0.00000E+00
         0.00000E+00
         0.00000E+00
         0.00000E+00
         0.00000E+00
         0.00000E+00
         0.00000E+00
  
SCALARS               pre_disp_force_z  double 1
LOOKUP_TABLE default
         0.00000E+00
         0.00000E+00
         0.00000E+00
         0.00000E+00
        -0.00000E+00
        -0.00000E+00
        -0.00000E+00
        -0.00000E+00
         0.00000E+00
         0.00000E+00
        -0.00000E+00
        -0.00000E+00
         0.00000E+00
         0.00000E+00
        -0.00000E+00
        -0.00000E+00
         0.00000E+00
         0.00000E+00
        -0.00000E+00
        -0.00000E+00
         0.00000E+00
         0.00000E+00
         0.00000E+00
        -0.00000E+00
        -0.00000E+00
        -0.00000E+00
         0.00000E+00
         0.00000E+00
        -0.00000E+00
        -0.00000E+00
         0.00000E+00
         0.00000E+00
         0.00000E+00
        -0.00000E+00
        -0.00000E+00
        -0.00000E+00
         0.00000E+00
         0.00000E+00
        -0.00000E+00
        -0.00000E+00
         0.00000E+00
         0.00000E+00
        -0.00000E+00
        -0.00000E+00
         0.00000E+00
         0.00000E+00
        -0.00000E+00
        -0.00000E+00
         0.00000E+00
        -0.00000E+00
         0.00000E+00
        -0.00000E+00
         0.00000E+00
        -0.00000E+00
         0.00000E+00
        -0.00000E+00
         0.00000E+00
         0.00000E+00
        -0.00000E+00
        -0.00000E+00
         0.00000E+00
         0.00000E+00
        -0.00000E+00
        -0.00000E+00
         0.00000E+00
        -0.00000E+00
         0.00000E+00
        -0.00000E+00
         0.00000E+00
         0.00000E+00
        -0.00000E+00
        -0.00000E+00
         0.00000E+00
        -0.00000E+00
         0.00000E+00
        -0.00000E+00
         0.00000E+00
        -0.00000E+00
         0.00000E+00
        -0.00000E+00
         0.00000E+00
         0.00000E+00
        -0.00000E+00
        -0.00000E+00
         0.00000E+00
        -0.00000E+00
         0.00000E+00
        -0.00000E+00
         0.00000E+00
        -0.00000E+00
         0.00000E+00
         0.00000E+00
        -0.00000E+00
        -0.00000E+00
         0.00000E+00
        -0.00000E+00
         0.00000E+00
        -0.00000E+00
         0.00000E+00
        -0.00000E+00
         0.00000E+00
         0.00000E+00
        -0.00000E+00
        -0.00000E+00
         0.00000E+00
         0.00000E+00
        -0.00000E+00
        -0.00000E+00
         0.00000E+00
        -0.00000E+00
         0.00000E+00
        -0.00000E+00
         0.00000E+00
        -0.00000E+00
         0.00000E+00
        -0.00000E+00
         0.00000E+00
        -0.00000E+00
         0.00000E+00
        -0.00000E+00
         0.00000E+00
        -0.00000E+00
         0.00000E+00
        -0.00000E+00
         0.00000E+00
        -0.00000E+00
         0.00000E+00
        -0.00000E+00
         0.00000E+00
        -0.00000E+00
         0.00000E+00
        -0.00000E+00
         0.00000E+00
        -0.00000E+00
         0.00000E+00
        -0.00000E+00
         0.00000E+00
        -0.00000E+00
         0.00000E+00
        -0.00000E+00
         0.00000E+00
        -0.00000E+00
         0.00000E+00
        -0.00000E+00
         0.00000E+00
        -0.00000E+00
         0.00000E+00
        -0.00000E+00
         0.00000E+00
        -0.00000E+00
         0.00000E+00
        -0.00000E+00
         0.00000E+00
        -0.00000E+00
         0.00000E+00
        -0.00000E+00
         0.00000E+00
         0.00000E+00
         0.00000E+00
         0.00000E+00
         0.00000E+00
         0.00000E+00
         0.00000E+00
         0.00000E+00
         0.00000E+00
         0.00000E+00
         0.00000E+00
         0.00000E+00
         0.00000E+00
         0.00000E+00
         0.00000E+00
         0.00000E+00
         0.00000E+00
         0.00000E+00
         0.00000E+00
         0.00000E+00
         0.00000E+00
         0.00000E+00
         0.00000E+00
         0.00000E+00
         0.00000E+00
         0.00000E+00
         0.00000E+00
         0.00000E+00
         0.00000E+00
         0.00000E+00
         0.00000E+00
         0.00000E+00
         0.00000E+00
         0.00000E+00
         0.00000E+00
         0.00000E+00
         0.00000E+00
         0.00000E+00
         0.00000E+00
         0.00000E+00
         0.00000E+00
         0.00000E+00
         0.00000E+00
         0.00000E+00
         0.00000E+00
         0.00000E+00
         0.00000E+00
         0.00000E+00
         0.00000E+00
         0.00000E+00
         0.00000E+00
         0.00000E+00
         0.00000E+00
         0.00000E+00
         0.00000E+00
         0.00000E+00
         0.00000E+00
         0.00000E+00
         0.00000E+00
         0.00000E+00
         0.00000E+00
         0.00000E+00
         0.00000E+00
         0.00000E+00
         0.00000E+00
         0.00000E+00
         0.00000E+00
         0.00000E+00
         0.00000E+00
         0.00000E+00
         0.00000E+00
         0.00000E+00
         0.00000E+00
         0.00000E+00
         0.00000E+00
         0.00000E+00
         0.00000E+00
         0.00000E+00
         0.00000E+00
         0.00000E+00
         0.00000E+00
         0.00000E+00
         0.00000E+00
         0.00000E+00
         0.00000E+00
         0.00000E+00
         0.00000E+00
         0.00000E+00
         0.00000E+00
         0.00000E+00
         0.00000E+00
         0.00000E+00
         0.00000E+00
         0.00000E+00
         0.00000E+00
         0.00000E+00
         0.00000E+00
         0.00000E+00
         0.00000E+00
         0.00000E+00
         0.00000E+00
         0.00000E+00
         0.00000E+00
         0.00000E+00
         0.00000E+00
         0.00000E+00
         0.00000E+00
         0.00000E+00
         0.00000E+00
         0.00000E+00
         0.00000E+00
         0.00000E+00
         0.00000E+00
         0.00000E+00
         0.00000E+00
         0.00000E+00
         0.00000E+00
         0.00000E+00
         0.00000E+00
         0.00000E+00
         0.00000E+00
         0.00000E+00
         0.00000E+00
         0.00000E+00
         0.00000E+00
         0.00000E+00
         0.00000E+00
         0.00000E+00
         0.00000E+00
         0.00000E+00
         0.00000E+00
         0.00000E+00
         0.00000E+00
         0.00000E+00
         0.00000E+00
         0.00000E+00
         0.00000E+00
         0.00000E+00
         0.00000E+00
         0.00000E+00
         0.00000E+00
         0.00000E+00
         0.00000E+00
         0.00000E+00
         0.00000E+00
         0.00000E+00
         0.00000E+00
         0.00000E+00
         0.00000E+00
         0.00000E+00
         0.00000E+00
         0.00000E+00
         0.00000E+00
         0.00000E+00
         0.00000E+00
         0.00000E+00
         0.00000E+00
         0.00000E+00
         0.00000E+00
         0.00000E+00
         0.00000E+00
         0.00000E+00
         0.00000E+00
         0.00000E+00
         0.00000E+00
         0.00000E+00
         0.00000E+00
         0.00000E+00
         0.00000E+00
         0.00000E+00
         0.00000E+00
         0.00000E+00
         0.00000E+00
         0.00000E+00
         0.00000E+00
         0.00000E+00
         0.00000E+00
         0.00000E+00
         0.00000E+00
         0.00000E+00
         0.00000E+00
         0.00000E+00
         0.00000E+00
         0.00000E+00
         0.00000E+00
         0.00000E+00
         0.00000E+00
         0.00000E+00
         0.00000E+00
         0.00000E+00
         0.00000E+00
         0.00000E+00
         0.00000E+00
         0.00000E+00
         0.00000E+00
         0.00000E+00
         0.00000E+00
         0.00000E+00
         0.00000E+00
         0.00000E+00
         0.00000E+00
         0.00000E+00
         0.00000E+00
         0.00000E+00
         0.00000E+00
         0.00000E+00
         0.00000E+00
         0.00000E+00
         0.00000E+00
         0.00000E+00
         0.00000E+00
         0.00000E+00
         0.00000E+00
         0.00000E+00
         0.00000E+00
         0.00000E+00
         0.00000E+00
         0.00000E+00
         0.00000E+00
         0.00000E+00
         0.00000E+00
         0.00000E+00
         0.00000E+00
         0.00000E+00
         0.00000E+00
         0.00000E+00
         0.00000E+00
         0.00000E+00
         0.00000E+00
         0.00000E+00
         0.00000E+00
         0.00000E+00
         0.00000E+00
         0.00000E+00
         0.00000E+00
         0.00000E+00
         0.00000E+00
         0.00000E+00
         0.00000E+00
         0.00000E+00
         0.00000E+00
         0.00000E+00
         0.00000E+00
         0.00000E+00
         0.00000E+00
         0.00000E+00
         0.00000E+00
         0.00000E+00
         0.00000E+00
         0.00000E+00
         0.00000E+00
         0.00000E+00
         0.00000E+00
         0.00000E+00
         0.00000E+00
         0.00000E+00
         0.00000E+00
         0.00000E+00
         0.00000E+00
         0.00000E+00
         0.00000E+00
         0.00000E+00
         0.00000E+00
         0.00000E+00
         0.00000E+00
         0.00000E+00
         0.00000E+00
         0.00000E+00
         0.00000E+00
         0.00000E+00
         0.00000E+00
         0.00000E+00
         0.00000E+00
         0.00000E+00
         0.00000E+00
         0.00000E+00
         0.00000E+00
         0.00000E+00
         0.00000E+00
         0.00000E+00
         0.00000E+00
         0.00000E+00
         0.00000E+00
         0.00000E+00
         0.00000E+00
         0.00000E+00
         0.00000E+00
         0.00000E+00
         0.00000E+00
         0.00000E+00
         0.00000E+00
         0.00000E+00
         0.00000E+00
         0.00000E+00
         0.00000E+00
         0.00000E+00
         0.00000E+00
         0.00000E+00
         0.00000E+00
         0.00000E+00
         0.00000E+00
         0.00000E+00
         0.00000E+00
         0.00000E+00
         0.00000E+00
         0.00000E+00
         0.00000E+00
         0.00000E+00
         0.00000E+00
         0.00000E+00
         0.00000E+00
         0.00000E+00
         0.00000E+00
         0.00000E+00
         0.00000E+00
         0.00000E+00
         0.00000E+00
         0.00000E+00
         0.00000E+00
         0.00000E+00
         0.00000E+00
         0.00000E+00
         0.00000E+00
         0.00000E+00
         0.00000E+00
         0.00000E+00
         0.00000E+00
         0.00000E+00
         0.00000E+00
         0.00000E+00
         0.00000E+00
         0.00000E+00
         0.00000E+00
         0.00000E+00
         0.00000E+00
         0.00000E+00
         0.00000E+00
         0.00000E+00
         0.00000E+00
         0.00000E+00
         0.00000E+00
         0.00000E+00
         0.00000E+00
         0.00000E+00
         0.00000E+00
         0.00000E+00
         0.00000E+00
         0.00000E+00
         0.00000E+00
         0.00000E+00
         0.00000E+00
         0.00000E+00
         0.00000E+00
         0.00000E+00
         0.00000E+00
         0.00000E+00
         0.00000E+00
         0.00000E+00
         0.00000E+00
         0.00000E+00
         0.00000E+00
         0.00000E+00
         0.00000E+00
         0.00000E+00
         0.00000E+00
         0.00000E+00
         0.00000E+00
         0.00000E+00
         0.00000E+00
         0.00000E+00
         0.00000E+00
         0.00000E+00
         0.00000E+00
         0.00000E+00
         0.00000E+00
         0.00000E+00
         0.00000E+00
         0.00000E+00
         0.00000E+00
         0.00000E+00
         0.00000E+00
         0.00000E+00
         0.00000E+00
         0.00000E+00
         0.00000E+00
         0.00000E+00
         0.00000E+00
         0.00000E+00
         0.00000E+00
         0.00000E+00
         0.00000E+00
         0.00000E+00
         0.00000E+00
         0.00000E+00
         0.00000E+00
         0.00000E+00
         0.00000E+00
         0.00000E+00
         0.00000E+00
         0.00000E+00
         0.00000E+00
         0.00000E+00
         0.00000E+00
         0.00000E+00
         0.00000E+00
         0.00000E+00
         0.00000E+00
         0.00000E+00
         0.00000E+00
         0.00000E+00
         0.00000E+00
         0.00000E+00
         0.00000E+00
         0.00000E+00
         0.00000E+00
         0.00000E+00
         0.00000E+00
         0.00000E+00
         0.00000E+00
         0.00000E+00
         0.00000E+00
         0.00000E+00
         0.00000E+00
         0.00000E+00
         0.00000E+00
         0.00000E+00
         0.00000E+00
         0.00000E+00
         0.00000E+00
         0.00000E+00
         0.00000E+00
         0.00000E+00
         0.00000E+00
         0.00000E+00
         0.00000E+00
         0.00000E+00
         0.00000E+00
         0.00000E+00
         0.00000E+00
         0.00000E+00
         0.00000E+00
         0.00000E+00
         0.00000E+00
         0.00000E+00
         0.00000E+00
         0.00000E+00
         0.00000E+00
         0.00000E+00
         0.00000E+00
         0.00000E+00
         0.00000E+00
         0.00000E+00
         0.00000E+00
         0.00000E+00
         0.00000E+00
         0.00000E+00
         0.00000E+00
         0.00000E+00
         0.00000E+00
         0.00000E+00
         0.00000E+00
         0.00000E+00
         0.00000E+00
         0.00000E+00
         0.00000E+00
         0.00000E+00
         0.00000E+00
         0.00000E+00
         0.00000E+00
         0.00000E+00
         0.00000E+00
         0.00000E+00
         0.00000E+00
         0.00000E+00
         0.00000E+00
         0.00000E+00
         0.00000E+00
         0.00000E+00
         0.00000E+00
         0.00000E+00
         0.00000E+00
         0.00000E+00
         0.00000E+00
         0.00000E+00
         0.00000E+00
         0.00000E+00
         0.00000E+00
         0.00000E+00
         0.00000E+00
         0.00000E+00
         0.00000E+00
         0.00000E+00
         0.00000E+00
         0.00000E+00
         0.00000E+00
         0.00000E+00
         0.00000E+00
         0.00000E+00
         0.00000E+00
         0.00000E+00
         0.00000E+00
         0.00000E+00
         0.00000E+00
         0.00000E+00
         0.00000E+00
         0.00000E+00
         0.00000E+00
         0.00000E+00
         0.00000E+00
         0.00000E+00
         0.00000E+00
         0.00000E+00
         0.00000E+00
         0.00000E+00
         0.00000E+00
         0.00000E+00
         0.00000E+00
         0.00000E+00
         0.00000E+00
         0.00000E+00
         0.00000E+00
         0.00000E+00
         0.00000E+00
         0.00000E+00
         0.00000E+00
         0.00000E+00
         0.00000E+00
         0.00000E+00
         0.00000E+00
         0.00000E+00
         0.00000E+00
         0.00000E+00
         0.00000E+00
         0.00000E+00
         0.00000E+00
         0.00000E+00
         0.00000E+00
         0.00000E+00
         0.00000E+00
         0.00000E+00
         0.00000E+00
         0.00000E+00
         0.00000E+00
         0.00000E+00
         0.00000E+00
         0.00000E+00
         0.00000E+00
         0.00000E+00
         0.00000E+00
         0.00000E+00
         0.00000E+00
         0.00000E+00
         0.00000E+00
         0.00000E+00
         0.00000E+00
         0.00000E+00
         0.00000E+00
         0.00000E+00
         0.00000E+00
         0.00000E+00
         0.00000E+00
         0.00000E+00
         0.00000E+00
         0.00000E+00
         0.00000E+00
         0.00000E+00
         0.00000E+00
         0.00000E+00
         0.00000E+00
         0.00000E+00
         0.00000E+00
         0.00000E+00
         0.00000E+00
         0.00000E+00
         0.00000E+00
         0.00000E+00
         0.00000E+00
         0.00000E+00
         0.00000E+00
         0.00000E+00
         0.00000E+00
         0.00000E+00
         0.00000E+00
         0.00000E+00
         0.00000E+00
         0.00000E+00
         0.00000E+00
         0.00000E+00
         0.00000E+00
         0.00000E+00
         0.00000E+00
         0.00000E+00
         0.00000E+00
         0.00000E+00
         0.00000E+00
         0.00000E+00
         0.00000E+00
         0.00000E+00
         0.00000E+00
         0.00000E+00
         0.00000E+00
         0.00000E+00
         0.00000E+00
         0.00000E+00
         0.00000E+00
         0.00000E+00
         0.00000E+00
         0.00000E+00
         0.00000E+00
         0.00000E+00
         0.00000E+00
         0.00000E+00
         0.00000E+00
         0.00000E+00
         0.00000E+00
         0.00000E+00
         0.00000E+00
         0.00000E+00
         0.00000E+00
         0.00000E+00
         0.00000E+00
         0.00000E+00
         0.00000E+00
         0.00000E+00
         0.00000E+00
         0.00000E+00
         0.00000E+00
         0.00000E+00
         0.00000E+00
         0.00000E+00
         0.00000E+00
         0.00000E+00
         0.00000E+00
         0.00000E+00
         0.00000E+00
         0.00000E+00
         0.00000E+00
         0.00000E+00
         0.00000E+00
         0.00000E+00
         0.00000E+00
         0.00000E+00
         0.00000E+00
         0.00000E+00
         0.00000E+00
         0.00000E+00
         0.00000E+00
         0.00000E+00
         0.00000E+00
         0.00000E+00
         0.00000E+00
         0.00000E+00
         0.00000E+00
         0.00000E+00
         0.00000E+00
         0.00000E+00
         0.00000E+00
         0.00000E+00
         0.00000E+00
         0.00000E+00
         0.00000E+00
         0.00000E+00
         0.00000E+00
         0.00000E+00
         0.00000E+00
         0.00000E+00
         0.00000E+00
         0.00000E+00
         0.00000E+00
         0.00000E+00
         0.00000E+00
         0.00000E+00
         0.00000E+00
         0.00000E+00
         0.00000E+00
         0.00000E+00
         0.00000E+00
         0.00000E+00
         0.00000E+00
         0.00000E+00
         0.00000E+00
         0.00000E+00
         0.00000E+00
         0.00000E+00
         0.00000E+00
         0.00000E+00
         0.00000E+00
         0.00000E+00
         0.00000E+00
         0.00000E+00
         0.00000E+00
         0.00000E+00
         0.00000E+00
         0.00000E+00
         0.00000E+00
         0.00000E+00
         0.00000E+00
         0.00000E+00
         0.00000E+00
         0.00000E+00
         0.00000E+00
         0.00000E+00
         0.00000E+00
         0.00000E+00
         0.00000E+00
         0.00000E+00
         0.00000E+00
         0.00000E+00
         0.00000E+00
         0.00000E+00
         0.00000E+00
         0.00000E+00
         0.00000E+00
         0.00000E+00
         0.00000E+00
         0.00000E+00
         0.00000E+00
         0.00000E+00
         0.00000E+00
         0.00000E+00
         0.00000E+00
         0.00000E+00
         0.00000E+00
         0.00000E+00
         0.00000E+00
         0.00000E+00
         0.00000E+00
         0.00000E+00
         0.00000E+00
         0.00000E+00
         0.00000E+00
         0.00000E+00
         0.00000E+00
         0.00000E+00
         0.00000E+00
         0.00000E+00
         0.00000E+00
         0.00000E+00
         0.00000E+00
         0.00000E+00
         0.00000E+00
         0.00000E+00
         0.00000E+00
         0.00000E+00
         0.00000E+00
         0.00000E+00
         0.00000E+00
         0.00000E+00
         0.00000E+00
         0.00000E+00
         0.00000E+00
         0.00000E+00
         0.00000E+00
         0.00000E+00
         0.00000E+00
         0.00000E+00
         0.00000E+00
         0.00000E+00
         0.00000E+00
         0.00000E+00
         0.00000E+00
         0.00000E+00
         0.00000E+00
         0.00000E+00
         0.00000E+00
         0.00000E+00
         0.00000E+00
         0.00000E+00
         0.00000E+00
         0.00000E+00
         0.00000E+00
         0.00000E+00
         0.00000E+00
         0.00000E+00
         0.00000E+00
         0.00000E+00
         0.00000E+00
         0.00000E+00
         0.00000E+00
         0.00000E+00
         0.00000E+00
         0.00000E+00
         0.00000E+00
         0.00000E+00
         0.00000E+00
         0.00000E+00
         0.00000E+00
         0.00000E+00
         0.00000E+00
         0.00000E+00
         0.00000E+00
         0.00000E+00
         0.00000E+00
         0.00000E+00
         0.00000E+00
         0.00000E+00
         0.00000E+00
         0.00000E+00
         0.00000E+00
         0.00000E+00
         0.00000E+00
         0.00000E+00
         0.00000E+00
         0.00000E+00
         0.00000E+00
         0.00000E+00
         0.00000E+00
         0.00000E+00
         0.00000E+00
         0.00000E+00
         0.00000E+00
         0.00000E+00
         0.00000E+00
         0.00000E+00
         0.00000E+00
         0.00000E+00
         0.00000E+00
         0.00000E+00
         0.00000E+00
         0.00000E+00
         0.00000E+00
         0.00000E+00
         0.00000E+00
         0.00000E+00
         0.00000E+00
         0.00000E+00
         0.00000E+00
         0.00000E+00
         0.00000E+00
         0.00000E+00
         0.00000E+00
         0.00000E+00
         0.00000E+00
         0.00000E+00
         0.00000E+00
         0.00000E+00
         0.00000E+00
         0.00000E+00
         0.00000E+00
         0.00000E+00
         0.00000E+00
         0.00000E+00
         0.00000E+00
         0.00000E+00
         0.00000E+00
         0.00000E+00
         0.00000E+00
         0.00000E+00
         0.00000E+00
         0.00000E+00
         0.00000E+00
         0.00000E+00
         0.00000E+00
         0.00000E+00
         0.00000E+00
         0.00000E+00
         0.00000E+00
         0.00000E+00
         0.00000E+00
         0.00000E+00
         0.00000E+00
         0.00000E+00
         0.00000E+00
         0.00000E+00
         0.00000E+00
         0.00000E+00
         0.00000E+00
         0.00000E+00
         0.00000E+00
         0.00000E+00
         0.00000E+00
         0.00000E+00
         0.00000E+00
         0.00000E+00
         0.00000E+00
         0.00000E+00
         0.00000E+00
         0.00000E+00
         0.00000E+00
         0.00000E+00
         0.00000E+00
         0.00000E+00
         0.00000E+00
         0.00000E+00
         0.00000E+00
         0.00000E+00
         0.00000E+00
         0.00000E+00
         0.00000E+00
         0.00000E+00
         0.00000E+00
         0.00000E+00
         0.00000E+00
         0.00000E+00
         0.00000E+00
         0.00000E+00
         0.00000E+00
         0.00000E+00
         0.00000E+00
         0.00000E+00
         0.00000E+00
         0.00000E+00
         0.00000E+00
         0.00000E+00
         0.00000E+00
         0.00000E+00
         0.00000E+00
         0.00000E+00
         0.00000E+00
         0.00000E+00
         0.00000E+00
         0.00000E+00
         0.00000E+00
         0.00000E+00
         0.00000E+00
         0.00000E+00
         0.00000E+00
         0.00000E+00
         0.00000E+00
         0.00000E+00
         0.00000E+00
         0.00000E+00
         0.00000E+00
         0.00000E+00
         0.00000E+00
         0.00000E+00
         0.00000E+00
         0.00000E+00
         0.00000E+00
         0.00000E+00
         0.00000E+00
         0.00000E+00
         0.00000E+00
         0.00000E+00
         0.00000E+00
         0.00000E+00
         0.00000E+00
         0.00000E+00
         0.00000E+00
         0.00000E+00
         0.00000E+00
         0.00000E+00
         0.00000E+00
         0.00000E+00
         0.00000E+00
         0.00000E+00
         0.00000E+00
         0.00000E+00
         0.00000E+00
         0.00000E+00
         0.00000E+00
         0.00000E+00
         0.00000E+00
         0.00000E+00
         0.00000E+00
         0.00000E+00
         0.00000E+00
         0.00000E+00
         0.00000E+00
         0.00000E+00
         0.00000E+00
         0.00000E+00
         0.00000E+00
         0.00000E+00
         0.00000E+00
         0.00000E+00
         0.00000E+00
         0.00000E+00
         0.00000E+00
         0.00000E+00
         0.00000E+00
         0.00000E+00
         0.00000E+00
         0.00000E+00
         0.00000E+00
         0.00000E+00
         0.00000E+00
         0.00000E+00
         0.00000E+00
         0.00000E+00
         0.00000E+00
         0.00000E+00
         0.00000E+00
         0.00000E+00
         0.00000E+00
         0.00000E+00
         0.00000E+00
         0.00000E+00
         0.00000E+00
         0.00000E+00
         0.00000E+00
         0.00000E+00
         0.00000E+00
         0.00000E+00
         0.00000E+00
         0.00000E+00
         0.00000E+00
         0.00000E+00
         0.00000E+00
         0.00000E+00
         0.00000E+00
         0.00000E+00
         0.00000E+00
         0.00000E+00
         0.00000E+00
         0.00000E+00
         0.00000E+00
         0.00000E+00
         0.00000E+00
         0.00000E+00
         0.00000E+00
         0.00000E+00
         0.00000E+00
         0.00000E+00
         0.00000E+00
         0.00000E+00
         0.00000E+00
         0.00000E+00
         0.00000E+00
         0.00000E+00
         0.00000E+00
         0.00000E+00
         0.00000E+00
         0.00000E+00
         0.00000E+00
         0.00000E+00
         0.00000E+00
         0.00000E+00
         0.00000E+00
         0.00000E+00
         0.00000E+00
         0.00000E+00
         0.00000E+00
         0.00000E+00
         0.00000E+00
         0.00000E+00
         0.00000E+00
         0.00000E+00
         0.00000E+00
         0.00000E+00
         0.00000E+00
         0.00000E+00
         0.00000E+00
         0.00000E+00
         0.00000E+00
         0.00000E+00
         0.00000E+00
         0.00000E+00
         0.00000E+00
         0.00000E+00
         0.00000E+00
         0.00000E+00
         0.00000E+00
         0.00000E+00
         0.00000E+00
         0.00000E+00
         0.00000E+00
         0.00000E+00
         0.00000E+00
         0.00000E+00
         0.00000E+00
         0.00000E+00
         0.00000E+00
         0.00000E+00
         0.00000E+00
         0.00000E+00
         0.00000E+00
         0.00000E+00
         0.00000E+00
         0.00000E+00
         0.00000E+00
         0.00000E+00
         0.00000E+00
         0.00000E+00
         0.00000E+00
         0.00000E+00
         0.00000E+00
         0.00000E+00
         0.00000E+00
         0.00000E+00
         0.00000E+00
         0.00000E+00
         0.00000E+00
         0.00000E+00
         0.00000E+00
         0.00000E+00
         0.00000E+00
         0.00000E+00
         0.00000E+00
         0.00000E+00
         0.00000E+00
         0.00000E+00
         0.00000E+00
         0.00000E+00
         0.00000E+00
         0.00000E+00
         0.00000E+00
         0.00000E+00
         0.00000E+00
         0.00000E+00
         0.00000E+00
         0.00000E+00
         0.00000E+00
         0.00000E+00
         0.00000E+00
         0.00000E+00
         0.00000E+00
         0.00000E+00
         0.00000E+00
         0.00000E+00
         0.00000E+00
         0.00000E+00
         0.00000E+00
         0.00000E+00
         0.00000E+00
         0.00000E+00
         0.00000E+00
         0.00000E+00
         0.00000E+00
         0.00000E+00
         0.00000E+00
         0.00000E+00
         0.00000E+00
         0.00000E+00
         0.00000E+00
         0.00000E+00
         0.00000E+00
         0.00000E+00
         0.00000E+00
         0.00000E+00
         0.00000E+00
         0.00000E+00
         0.00000E+00
         0.00000E+00
         0.00000E+00
         0.00000E+00
         0.00000E+00
         0.00000E+00
         0.00000E+00
         0.00000E+00
         0.00000E+00
         0.00000E+00
         0.00000E+00
         0.00000E+00
         0.00000E+00
         0.00000E+00
         0.00000E+00
         0.00000E+00
         0.00000E+00
         0.00000E+00
         0.00000E+00
         0.00000E+00
         0.00000E+00
         0.00000E+00
         0.00000E+00
         0.00000E+00
         0.00000E+00
         0.00000E+00
         0.00000E+00
         0.00000E+00
         0.00000E+00
         0.00000E+00
         0.00000E+00
         0.00000E+00
         0.00000E+00
         0.00000E+00
         0.00000E+00
         0.00000E+00
         0.00000E+00
         0.00000E+00
         0.00000E+00
         0.00000E+00
         0.00000E+00
         0.00000E+00
         0.00000E+00
         0.00000E+00
         0.00000E+00
         0.00000E+00
         0.00000E+00
         0.00000E+00
         0.00000E+00
         0.00000E+00
         0.00000E+00
         0.00000E+00
         0.00000E+00
         0.00000E+00
         0.00000E+00
         0.00000E+00
         0.00000E+00
         0.00000E+00
         0.00000E+00
         0.00000E+00
         0.00000E+00
         0.00000E+00
         0.00000E+00
         0.00000E+00
         0.00000E+00
         0.00000E+00
         0.00000E+00
         0.00000E+00
         0.00000E+00
         0.00000E+00
         0.00000E+00
         0.00000E+00
         0.00000E+00
         0.00000E+00
         0.00000E+00
         0.00000E+00
         0.00000E+00
         0.00000E+00
         0.00000E+00
         0.00000E+00
         0.00000E+00
         0.00000E+00
         0.00000E+00
         0.00000E+00
         0.00000E+00
         0.00000E+00
         0.00000E+00
         0.00000E+00
         0.00000E+00
         0.00000E+00
         0.00000E+00
         0.00000E+00
         0.00000E+00
         0.00000E+00
         0.00000E+00
         0.00000E+00
         0.00000E+00
         0.00000E+00
         0.00000E+00
         0.00000E+00
         0.00000E+00
         0.00000E+00
         0.00000E+00
         0.00000E+00
         0.00000E+00
         0.00000E+00
         0.00000E+00
         0.00000E+00
         0.00000E+00
         0.00000E+00
         0.00000E+00
         0.00000E+00
         0.00000E+00
         0.00000E+00
         0.00000E+00
         0.00000E+00
         0.00000E+00
         0.00000E+00
         0.00000E+00
         0.00000E+00
         0.00000E+00
         0.00000E+00
         0.00000E+00
         0.00000E+00
         0.00000E+00
         0.00000E+00
         0.00000E+00
         0.00000E+00
         0.00000E+00
         0.00000E+00
         0.00000E+00
         0.00000E+00
         0.00000E+00
         0.00000E+00
         0.00000E+00
         0.00000E+00
         0.00000E+00
         0.00000E+00
         0.00000E+00
         0.00000E+00
         0.00000E+00
         0.00000E+00
         0.00000E+00
         0.00000E+00
         0.00000E+00
         0.00000E+00
         0.00000E+00
         0.00000E+00
         0.00000E+00
         0.00000E+00
         0.00000E+00
         0.00000E+00
         0.00000E+00
         0.00000E+00
         0.00000E+00
         0.00000E+00
         0.00000E+00
         0.00000E+00
         0.00000E+00
         0.00000E+00
         0.00000E+00
         0.00000E+00
         0.00000E+00
         0.00000E+00
         0.00000E+00
         0.00000E+00
         0.00000E+00
         0.00000E+00
         0.00000E+00
         0.00000E+00
         0.00000E+00
         0.00000E+00
         0.00000E+00
         0.00000E+00
         0.00000E+00
         0.00000E+00
         0.00000E+00
         0.00000E+00
         0.00000E+00
         0.00000E+00
         0.00000E+00
         0.00000E+00
         0.00000E+00
         0.00000E+00
         0.00000E+00
         0.00000E+00
         0.00000E+00
         0.00000E+00
         0.00000E+00
         0.00000E+00
         0.00000E+00
         0.00000E+00
         0.00000E+00
         0.00000E+00
         0.00000E+00
         0.00000E+00
         0.00000E+00
         0.00000E+00
         0.00000E+00
         0.00000E+00
         0.00000E+00
         0.00000E+00
         0.00000E+00
         0.00000E+00
         0.00000E+00
         0.00000E+00
         0.00000E+00
         0.00000E+00
         0.00000E+00
         0.00000E+00
         0.00000E+00
         0.00000E+00
         0.00000E+00
         0.00000E+00
         0.00000E+00
         0.00000E+00
         0.00000E+00
         0.00000E+00
         0.00000E+00
         0.00000E+00
         0.00000E+00
         0.00000E+00
         0.00000E+00
         0.00000E+00
         0.00000E+00
         0.00000E+00
         0.00000E+00
         0.00000E+00
         0.00000E+00
         0.00000E+00
         0.00000E+00
         0.00000E+00
         0.00000E+00
         0.00000E+00
         0.00000E+00
         0.00000E+00
         0.00000E+00
         0.00000E+00
         0.00000E+00
         0.00000E+00
         0.00000E+00
         0.00000E+00
         0.00000E+00
         0.00000E+00
         0.00000E+00
         0.00000E+00
         0.00000E+00
         0.00000E+00
         0.00000E+00
         0.00000E+00
         0.00000E+00
         0.00000E+00
         0.00000E+00
         0.00000E+00
         0.00000E+00
         0.00000E+00
         0.00000E+00
         0.00000E+00
         0.00000E+00
         0.00000E+00
         0.00000E+00
         0.00000E+00
         0.00000E+00
         0.00000E+00
         0.00000E+00
         0.00000E+00
         0.00000E+00
         0.00000E+00
         0.00000E+00
         0.00000E+00
         0.00000E+00
         0.00000E+00
         0.00000E+00
         0.00000E+00
         0.00000E+00
         0.00000E+00
         0.00000E+00
         0.00000E+00
         0.00000E+00
         0.00000E+00
         0.00000E+00
         0.00000E+00
         0.00000E+00
         0.00000E+00
         0.00000E+00
         0.00000E+00
         0.00000E+00
         0.00000E+00
         0.00000E+00
         0.00000E+00
         0.00000E+00
         0.00000E+00
         0.00000E+00
         0.00000E+00
         0.00000E+00
         0.00000E+00
         0.00000E+00
         0.00000E+00
         0.00000E+00
         0.00000E+00
         0.00000E+00
         0.00000E+00
         0.00000E+00
         0.00000E+00
         0.00000E+00
         0.00000E+00
         0.00000E+00
         0.00000E+00
         0.00000E+00
         0.00000E+00
         0.00000E+00
         0.00000E+00
         0.00000E+00
         0.00000E+00
         0.00000E+00
         0.00000E+00
         0.00000E+00
         0.00000E+00
         0.00000E+00
         0.00000E+00
         0.00000E+00
         0.00000E+00
         0.00000E+00
         0.00000E+00
         0.00000E+00
         0.00000E+00
         0.00000E+00
         0.00000E+00
         0.00000E+00
         0.00000E+00
         0.00000E+00
         0.00000E+00
         0.00000E+00
         0.00000E+00
         0.00000E+00
         0.00000E+00
         0.00000E+00
         0.00000E+00
         0.00000E+00
         0.00000E+00
         0.00000E+00
         0.00000E+00
         0.00000E+00
         0.00000E+00
         0.00000E+00
         0.00000E+00
         0.00000E+00
         0.00000E+00
         0.00000E+00
         0.00000E+00
         0.00000E+00
         0.00000E+00
         0.00000E+00
         0.00000E+00
         0.00000E+00
         0.00000E+00
         0.00000E+00
         0.00000E+00
         0.00000E+00
         0.00000E+00
         0.00000E+00
         0.00000E+00
         0.00000E+00
         0.00000E+00
         0.00000E+00
         0.00000E+00
         0.00000E+00
         0.00000E+00
         0.00000E+00
         0.00000E+00
         0.00000E+00
         0.00000E+00
         0.00000E+00
         0.00000E+00
         0.00000E+00
         0.00000E+00
         0.00000E+00
         0.00000E+00
         0.00000E+00
         0.00000E+00
         0.00000E+00
         0.00000E+00
         0.00000E+00
         0.00000E+00
         0.00000E+00
         0.00000E+00
         0.00000E+00
         0.00000E+00
         0.00000E+00
         0.00000E+00
         0.00000E+00
         0.00000E+00
         0.00000E+00
         0.00000E+00
         0.00000E+00
         0.00000E+00
         0.00000E+00
         0.00000E+00
         0.00000E+00
         0.00000E+00
         0.00000E+00
         0.00000E+00
         0.00000E+00
         0.00000E+00
         0.00000E+00
         0.00000E+00
         0.00000E+00
         0.00000E+00
         0.00000E+00
         0.00000E+00
         0.00000E+00
         0.00000E+00
         0.00000E+00
         0.00000E+00
         0.00000E+00
         0.00000E+00
         0.00000E+00
         0.00000E+00
         0.00000E+00
         0.00000E+00
         0.00000E+00
         0.00000E+00
         0.00000E+00
         0.00000E+00
         0.00000E+00
         0.00000E+00
         0.00000E+00
         0.00000E+00
         0.00000E+00
         0.00000E+00
         0.00000E+00
         0.00000E+00
         0.00000E+00
         0.00000E+00
         0.00000E+00
         0.00000E+00
         0.00000E+00
         0.00000E+00
         0.00000E+00
         0.00000E+00
         0.00000E+00
         0.00000E+00
         0.00000E+00
         0.00000E+00
         0.00000E+00
         0.00000E+00
         0.00000E+00
         0.00000E+00
         0.00000E+00
         0.00000E+00
         0.00000E+00
         0.00000E+00
         0.00000E+00
         0.00000E+00
         0.00000E+00
         0.00000E+00
         0.00000E+00
         0.00000E+00
         0.00000E+00
         0.00000E+00
         0.00000E+00
         0.00000E+00
         0.00000E+00
         0.00000E+00
         0.00000E+00
         0.00000E+00
         0.00000E+00
         0.00000E+00
         0.00000E+00
         0.00000E+00
         0.00000E+00
         0.00000E+00
         0.00000E+00
         0.00000E+00
         0.00000E+00
         0.00000E+00
         0.00000E+00
         0.00000E+00
         0.00000E+00
         0.00000E+00
         0.00000E+00
         0.00000E+00
         0.00000E+00
         0.00000E+00
         0.00000E+00
         0.00000E+00
         0.00000E+00
         0.00000E+00
         0.00000E+00
         0.00000E+00
         0.00000E+00
         0.00000E+00
         0.00000E+00
         0.00000E+00
         0.00000E+00
         0.00000E+00
         0.00000E+00
         0.00000E+00
         0.00000E+00
         0.00000E+00
         0.00000E+00
         0.00000E+00
         0.00000E+00
         0.00000E+00
         0.00000E+00
         0.00000E+00
         0.00000E+00
         0.00000E+00
         0.00000E+00
         0.00000E+00
         0.00000E+00
         0.00000E+00
         0.00000E+00
         0.00000E+00
         0.00000E+00
         0.00000E+00
         0.00000E+00
         0.00000E+00
         0.00000E+00
         0.00000E+00
         0.00000E+00
         0.00000E+00
         0.00000E+00
         0.00000E+00
         0.00000E+00
         0.00000E+00
         0.00000E+00
         0.00000E+00
         0.00000E+00
         0.00000E+00
         0.00000E+00
         0.00000E+00
         0.00000E+00
         0.00000E+00
         0.00000E+00
         0.00000E+00
         0.00000E+00
         0.00000E+00
         0.00000E+00
         0.00000E+00
         0.00000E+00
         0.00000E+00
         0.00000E+00
         0.00000E+00
         0.00000E+00
         0.00000E+00
         0.00000E+00
         0.00000E+00
         0.00000E+00
         0.00000E+00
         0.00000E+00
         0.00000E+00
         0.00000E+00
         0.00000E+00
         0.00000E+00
         0.00000E+00
         0.00000E+00
         0.00000E+00
         0.00000E+00
         0.00000E+00
         0.00000E+00
         0.00000E+00
         0.00000E+00
         0.00000E+00
         0.00000E+00
         0.00000E+00
         0.00000E+00
         0.00000E+00
         0.00000E+00
         0.00000E+00
         0.00000E+00
         0.00000E+00
         0.00000E+00
         0.00000E+00
         0.00000E+00
         0.00000E+00
         0.00000E+00
         0.00000E+00
         0.00000E+00
         0.00000E+00
         0.00000E+00
         0.00000E+00
         0.00000E+00
         0.00000E+00
         0.00000E+00
         0.00000E+00
         0.00000E+00
         0.00000E+00
         0.00000E+00
         0.00000E+00
         0.00000E+00
         0.00000E+00
         0.00000E+00
         0.00000E+00
         0.00000E+00
         0.00000E+00
         0.00000E+00
         0.00000E+00
         0.00000E+00
         0.00000E+00
         0.00000E+00
         0.00000E+00
         0.00000E+00
         0.00000E+00
         0.00000E+00
         0.00000E+00
         0.00000E+00
         0.00000E+00
         0.00000E+00
         0.00000E+00
         0.00000E+00
         0.00000E+00
         0.00000E+00
         0.00000E+00
         0.00000E+00
         0.00000E+00
         0.00000E+00
         0.00000E+00
         0.00000E+00
         0.00000E+00
         0.00000E+00
         0.00000E+00
         0.00000E+00
         0.00000E+00
         0.00000E+00
         0.00000E+00
         0.00000E+00
         0.00000E+00
         0.00000E+00
         0.00000E+00
         0.00000E+00
         0.00000E+00
         0.00000E+00
         0.00000E+00
         0.00000E+00
         0.00000E+00
         0.00000E+00
         0.00000E+00
         0.00000E+00
         0.00000E+00
         0.00000E+00
         0.00000E+00
         0.00000E+00
         0.00000E+00
         0.00000E+00
         0.00000E+00
         0.00000E+00
         0.00000E+00
         0.00000E+00
         0.00000E+00
         0.00000E+00
         0.00000E+00
         0.00000E+00
         0.00000E+00
         0.00000E+00
         0.00000E+00
         0.00000E+00
         0.00000E+00
         0.00000E+00
         0.00000E+00
         0.00000E+00
         0.00000E+00
  
SCALARS                      stress_xx  double 1
LOOKUP_TABLE default
         0.10237E+13
         0.10104E+13
         0.10189E+13
         0.10340E+13
        -0.17120E+03
        -0.19198E+03
        -0.18382E+03
        -0.16700E+03
         0.10100E+13
         0.10145E+13
        -0.17264E+03
        -0.16707E+03
         0.99116E+12
         0.99044E+12
        -0.20513E+03
        -0.19287E+03
         0.10318E+13
         0.99149E+12
        -0.15157E+03
        -0.16811E+03
         0.97666E+12
         0.96513E+12
         0.98347E+12
        -0.20330E+03
        -0.17755E+03
        -0.18334E+03
         0.96558E+12
         0.94874E+12
        -0.19504E+03
        -0.16448E+03
         0.10311E+13
         0.10135E+13
         0.10480E+13
        -0.16644E+03
        -0.15473E+03
        -0.15044E+03
         0.10209E+13
         0.99858E+12
        -0.17609E+03
        -0.16068E+03
         0.10121E+13
         0.99483E+12
        -0.15219E+03
        -0.13473E+03
         0.10267E+13
         0.10331E+13
        -0.16678E+03
        -0.18635E+03
         0.98099E+12
        -0.16293E+03
         0.10319E+13
        -0.19145E+03
         0.96073E+12
        -0.17206E+03
         0.95544E+12
        -0.16504E+03
         0.95552E+12
         0.97432E+12
        -0.16815E+03
        -0.16376E+03
         0.10307E+13
         0.10240E+13
        -0.16862E+03
        -0.19062E+03
         0.10349E+13
        -0.16270E+03
         0.10269E+13
        -0.17757E+03
         0.10058E+13
         0.10037E+13
        -0.17093E+03
        -0.17910E+03
         0.99895E+12
        -0.18060E+03
         0.94275E+12
        -0.14269E+03
         0.93980E+12
        -0.13850E+03
         0.94127E+12
        -0.14604E+03
         0.94942E+12
         0.95789E+12
        -0.13914E+03
        -0.14506E+03
         0.97493E+12
        -0.13511E+03
         0.10263E+13
        -0.17717E+03
         0.10183E+13
        -0.18133E+03
         0.10117E+13
         0.10081E+13
        -0.17414E+03
        -0.17617E+03
         0.10126E+13
        -0.16001E+03
         0.10157E+13
        -0.15773E+03
         0.10129E+13
        -0.16885E+03
         0.10119E+13
         0.10148E+13
        -0.16559E+03
        -0.17044E+03
         0.99600E+12
         0.10036E+13
        -0.12856E+03
        -0.12092E+03
         0.99456E+12
        -0.12276E+03
         0.10033E+13
        -0.11771E+03
         0.99467E+12
        -0.11607E+03
         0.97546E+12
        -0.10968E+03
         0.95681E+12
        -0.97441E+02
         0.94563E+12
        -0.87740E+02
         0.94449E+12
        -0.87131E+02
         0.94485E+12
        -0.94489E+02
         0.95697E+12
        -0.99305E+02
         0.97960E+12
        -0.90676E+02
         0.10044E+13
        -0.81735E+02
         0.10189E+13
        -0.81641E+02
         0.10333E+13
        -0.91255E+02
         0.10427E+13
        -0.10405E+03
         0.10424E+13
        -0.11178E+03
         0.10194E+13
        -0.12073E+03
         0.10033E+13
        -0.12934E+03
         0.99783E+12
        -0.11848E+03
         0.10064E+13
        -0.10394E+03
         0.10109E+13
        -0.10362E+03
         0.10034E+13
        -0.11337E+03
         0.10035E+13
        -0.12086E+03
         0.10092E+13
        -0.11470E+03
         0.10166E+13
        -0.11089E+03
        -0.30618E+11
        -0.30199E+11
        -0.30258E+11
        -0.30786E+11
        -0.29762E+11
        -0.30307E+11
        -0.29624E+11
        -0.29991E+11
        -0.30707E+11
        -0.30273E+11
        -0.29209E+11
        -0.29077E+11
        -0.29423E+11
        -0.29446E+11
        -0.29225E+11
        -0.30762E+11
        -0.30668E+11
        -0.30927E+11
        -0.30152E+11
        -0.30303E+11
        -0.30086E+11
        -0.30230E+11
        -0.29960E+11
        -0.30032E+11
        -0.30291E+11
        -0.30272E+11
        -0.29821E+11
        -0.29864E+11
        -0.29509E+11
        -0.30038E+11
        -0.30716E+11
        -0.30193E+11
        -0.30712E+11
        -0.30376E+11
        -0.28985E+11
        -0.29463E+11
        -0.29679E+11
        -0.29424E+11
        -0.29390E+11
        -0.28950E+11
        -0.28615E+11
        -0.29409E+11
        -0.30095E+11
        -0.30006E+11
        -0.29659E+11
        -0.29003E+11
        -0.29566E+11
        -0.30123E+11
        -0.30085E+11
        -0.29656E+11
        -0.29188E+11
        -0.29813E+11
        -0.27750E+11
        -0.28407E+11
        -0.28301E+11
        -0.28450E+11
        -0.28412E+11
        -0.28063E+11
        -0.27693E+11
        -0.27570E+11
        -0.27623E+11
        -0.27585E+11
        -0.27422E+11
        -0.28379E+11
        -0.28716E+11
        -0.28843E+11
        -0.29055E+11
        -0.29212E+11
        -0.29205E+11
        -0.28935E+11
        -0.27974E+11
        -0.28212E+11
        -0.28545E+11
        -0.28542E+11
        -0.28485E+11
        -0.28163E+11
        -0.28634E+11
        -0.28802E+11
         0.12941E+07
         0.57830E+06
         0.73357E+06
         0.75833E+06
         0.48034E+06
         0.91261E+06
        -0.48825E+06
        -0.99483E+06
         0.16364E+07
        -0.10973E+07
        -0.12735E+07
        -0.45453E+05
        -0.32031E+05
        -0.37554E+07
        -0.11683E+07
        -0.21282E+06
         0.28797E+06
         0.73446E+06
        -0.16967E+05
        -0.19452E+06
        -0.12183E+07
        -0.51474E+06
        -0.17841E+07
        -0.72932E+06
        -0.12408E+07
        -0.19291E+06
        -0.48212E+07
        -0.25855E+07
        -0.15981E+07
        -0.12032E+07
        -0.10681E+06
        -0.50466E+06
         0.72600E+06
         0.13003E+07
        -0.99206E+06
        -0.68917E+06
        -0.28357E+06
        -0.14701E+07
        -0.98140E+06
        -0.60328E+06
        -0.76248E+06
        -0.13819E+07
        -0.11587E+07
        -0.14625E+07
        -0.11066E+07
        -0.49916E+06
        -0.19948E+06
        -0.21082E+06
         0.69485E+06
         0.11460E+07
         0.50841E+06
         0.68159E+06
        -0.30180E+07
        -0.48126E+06
        -0.17322E+07
         0.52213E+06
         0.24313E+07
         0.37901E+07
         0.31287E+07
         0.34089E+07
         0.27145E+07
         0.14704E+07
         0.46264E+06
        -0.34042E+06
        -0.11161E+07
        -0.10084E+06
        -0.18489E+07
        -0.29914E+07
        -0.25070E+07
        -0.22132E+07
        -0.12053E+07
         0.66899E+06
         0.67068E+06
         0.69603E+05
        -0.98646E+06
        -0.15382E+07
        -0.92095E+06
         0.67023E+05
         0.12152E+07
         0.50171E+06
         0.65864E+06
         0.69734E+06
         0.38679E+06
         0.82892E+06
        -0.56137E+06
        -0.10844E+07
         0.15580E+07
        -0.11948E+07
        -0.13614E+07
        -0.16856E+06
        -0.13839E+06
        -0.38496E+07
        -0.12902E+07
        -0.29580E+06
         0.20951E+06
         0.68052E+06
        -0.10301E+06
        -0.26999E+06
        -0.13235E+07
        -0.61725E+06
        -0.18923E+07
        -0.81070E+06
        -0.13432E+07
        -0.26441E+06
        -0.49137E+07
        -0.26608E+07
        -0.16848E+07
        -0.13094E+07
        -0.18541E+06
        -0.57576E+06
         0.66372E+06
         0.12400E+07
        -0.10997E+07
        -0.77897E+06
        -0.37622E+06
        -0.15934E+07
        -0.10957E+07
        -0.71569E+06
        -0.88385E+06
        -0.15005E+07
        -0.12711E+07
        -0.15660E+07
        -0.12039E+07
        -0.60767E+06
        -0.29694E+06
        -0.30197E+06
         0.61386E+06
         0.10629E+07
         0.40942E+06
         0.59323E+06
        -0.32163E+07
        -0.67466E+06
        -0.19225E+07
         0.33972E+06
         0.22385E+07
         0.35753E+07
         0.29141E+07
         0.31918E+07
         0.24952E+07
         0.12462E+07
         0.23946E+06
        -0.54674E+06
        -0.12884E+07
        -0.26177E+06
        -0.20176E+07
        -0.31715E+07
        -0.26909E+07
        -0.24054E+07
        -0.13983E+07
         0.46488E+06
         0.47811E+06
        -0.10437E+06
        -0.11606E+07
        -0.17166E+07
        -0.11013E+07
        -0.11665E+06
         0.12335E+07
         0.51673E+06
         0.67454E+06
         0.71471E+06
         0.41211E+06
         0.85224E+06
        -0.54890E+06
        -0.10630E+07
         0.15716E+07
        -0.11902E+07
        -0.13426E+07
        -0.14516E+06
        -0.11842E+06
        -0.38238E+07
        -0.12599E+07
        -0.31297E+06
         0.20540E+06
         0.69682E+06
        -0.12414E+06
        -0.28338E+06
        -0.13406E+07
        -0.62378E+06
        -0.19633E+07
        -0.86945E+06
        -0.13878E+07
        -0.31461E+06
        -0.48957E+07
        -0.26692E+07
        -0.17222E+07
        -0.13838E+07
        -0.18607E+06
        -0.59195E+06
         0.68291E+06
         0.12606E+07
        -0.10720E+07
        -0.75585E+06
        -0.35546E+06
        -0.15726E+07
        -0.10780E+07
        -0.71010E+06
        -0.88699E+06
        -0.15438E+07
        -0.13316E+07
        -0.16352E+07
        -0.12204E+07
        -0.59262E+06
        -0.27914E+06
        -0.28189E+06
         0.63613E+06
         0.10885E+07
         0.43777E+06
         0.61851E+06
        -0.31572E+07
        -0.62156E+06
        -0.18636E+07
         0.38492E+06
         0.22721E+07
         0.36086E+07
         0.29567E+07
         0.32344E+07
         0.25385E+07
         0.12911E+07
         0.26587E+06
        -0.54770E+06
        -0.12855E+07
        -0.23209E+06
        -0.19980E+07
        -0.32080E+07
        -0.27305E+07
        -0.23952E+07
        -0.13452E+07
         0.52627E+06
         0.53309E+06
        -0.48845E+05
        -0.10981E+07
        -0.16642E+07
        -0.10587E+07
        -0.75571E+05
         0.12221E+07
         0.51020E+06
         0.66825E+06
         0.70575E+06
         0.40389E+06
         0.84567E+06
        -0.55709E+06
        -0.10738E+07
         0.15493E+07
        -0.12318E+07
        -0.13509E+07
        -0.15800E+06
        -0.12715E+06
        -0.38330E+07
        -0.12748E+07
        -0.37918E+06
         0.15904E+06
         0.68827E+06
        -0.19935E+06
        -0.34670E+06
        -0.14203E+07
        -0.69459E+06
        -0.21285E+07
        -0.10008E+07
        -0.15096E+07
        -0.42863E+06
        -0.49210E+07
        -0.27299E+07
        -0.18278E+07
        -0.15619E+07
        -0.22476E+06
        -0.65617E+06
         0.67497E+06
         0.12513E+07
        -0.10862E+07
        -0.76454E+06
        -0.36269E+06
        -0.15957E+07
        -0.11065E+07
        -0.76149E+06
        -0.95576E+06
        -0.16780E+07
        -0.14960E+07
        -0.17985E+07
        -0.13008E+07
        -0.63625E+06
        -0.31040E+06
        -0.29914E+06
         0.62244E+06
         0.10728E+07
         0.42302E+06
         0.60905E+06
        -0.31848E+07
        -0.64054E+06
        -0.18936E+07
         0.35861E+06
         0.22545E+07
         0.35883E+07
         0.29225E+07
         0.31973E+07
         0.25028E+07
         0.12478E+07
         0.19712E+06
        -0.65867E+06
        -0.13899E+07
        -0.28160E+06
        -0.20537E+07
        -0.33611E+07
        -0.28926E+07
        -0.24712E+07
        -0.13812E+07
         0.49186E+06
         0.50696E+06
        -0.79778E+05
        -0.11303E+07
        -0.16861E+07
        -0.10753E+07
        -0.92203E+05
         0.12016E+07
         0.49700E+06
         0.65733E+06
         0.69646E+06
         0.39429E+06
         0.83628E+06
        -0.56875E+06
        -0.10925E+07
         0.15225E+07
        -0.12750E+07
        -0.13599E+07
        -0.16605E+06
        -0.13687E+06
        -0.38434E+07
        -0.12818E+07
        -0.42423E+06
         0.12226E+06
         0.68045E+06
        -0.24884E+06
        -0.39195E+06
        -0.14715E+07
        -0.74545E+06
        -0.22300E+07
        -0.10822E+07
        -0.15977E+07
        -0.50181E+06
        -0.49430E+07
        -0.27732E+07
        -0.19020E+07
        -0.16803E+07
        -0.26521E+06
        -0.70296E+06
         0.65759E+06
         0.12380E+07
        -0.11007E+07
        -0.77576E+06
        -0.37364E+06
        -0.16130E+07
        -0.11302E+07
        -0.80062E+06
        -0.10042E+07
        -0.17685E+07
        -0.16038E+07
        -0.19022E+07
        -0.13537E+07
        -0.66497E+06
        -0.33813E+06
        -0.32657E+06
         0.59855E+06
         0.10495E+07
         0.39989E+06
         0.59355E+06
        -0.32097E+07
        -0.65709E+06
        -0.19191E+07
         0.33813E+06
         0.22463E+07
         0.35823E+07
         0.29079E+07
         0.31727E+07
         0.24725E+07
         0.12210E+07
         0.15527E+06
        -0.73544E+06
        -0.14611E+07
        -0.31986E+06
        -0.20931E+07
        -0.34604E+07
        -0.30064E+07
        -0.25254E+07
        -0.13976E+07
         0.46061E+06
         0.47230E+06
        -0.11528E+06
        -0.11717E+07
        -0.17217E+07
        -0.10974E+07
        -0.10880E+06
         0.11521E+07
         0.47170E+06
         0.64654E+06
         0.70587E+06
         0.40770E+06
         0.85274E+06
        -0.57753E+06
        -0.11258E+07
         0.14847E+07
        -0.13337E+07
        -0.13516E+07
        -0.13868E+06
        -0.12651E+06
        -0.38372E+07
        -0.12471E+07
        -0.41690E+06
         0.11358E+06
         0.69711E+06
        -0.23862E+06
        -0.38399E+06
        -0.14563E+07
        -0.72748E+06
        -0.22277E+07
        -0.10839E+07
        -0.16360E+07
        -0.51240E+06
        -0.49481E+07
        -0.27766E+07
        -0.19024E+07
        -0.16847E+07
        -0.31339E+06
        -0.72775E+06
         0.62722E+06
         0.12352E+07
        -0.10887E+07
        -0.77416E+06
        -0.37550E+06
        -0.15919E+07
        -0.11122E+07
        -0.78055E+06
        -0.98065E+06
        -0.17547E+07
        -0.15924E+07
        -0.19084E+07
        -0.13600E+07
        -0.66965E+06
        -0.36209E+06
        -0.38140E+06
         0.53984E+06
         0.10180E+07
         0.39242E+06
         0.60122E+06
        -0.31610E+07
        -0.60680E+06
        -0.18781E+07
         0.36552E+06
         0.22751E+07
         0.36213E+07
         0.29521E+07
         0.32151E+07
         0.25213E+07
         0.12855E+07
         0.21167E+06
        -0.70140E+06
        -0.14235E+07
        -0.28067E+06
        -0.20554E+07
        -0.34302E+07
        -0.29845E+07
        -0.25037E+07
        -0.13713E+07
         0.47870E+06
         0.46842E+06
        -0.13996E+06
        -0.11879E+07
        -0.17133E+07
        -0.10730E+07
        -0.73885E+05
         0.10767E+07
         0.42695E+06
         0.62072E+06
         0.70061E+06
         0.39822E+06
         0.85246E+06
        -0.60860E+06
        -0.11918E+07
         0.14205E+07
        -0.14205E+07
        -0.13722E+07
        -0.14932E+06
        -0.14390E+06
        -0.38657E+07
        -0.12542E+07
        -0.43092E+06
         0.83326E+05
         0.69570E+06
        -0.24725E+06
        -0.39360E+06
        -0.14632E+07
        -0.73242E+06
        -0.22358E+07
        -0.10939E+07
        -0.16898E+07
        -0.53111E+06
        -0.49856E+07
        -0.27980E+07
        -0.19143E+07
        -0.16991E+07
        -0.38036E+06
        -0.76812E+06
         0.57992E+06
         0.12174E+07
        -0.11058E+07
        -0.79264E+06
        -0.39717E+06
        -0.16100E+07
        -0.11295E+07
        -0.79025E+06
        -0.98484E+06
        -0.17571E+07
        -0.15935E+07
        -0.19240E+07
        -0.13891E+07
        -0.71037E+06
        -0.41741E+06
        -0.46355E+06
         0.45609E+06
         0.96279E+06
         0.36141E+06
         0.59078E+06
        -0.31813E+07
        -0.62251E+06
        -0.18901E+07
         0.35171E+06
         0.22552E+07
         0.35974E+07
         0.29323E+07
         0.31981E+07
         0.25044E+07
         0.12728E+07
         0.20151E+06
        -0.71375E+06
        -0.14257E+07
        -0.28372E+06
        -0.20637E+07
        -0.34350E+07
        -0.29940E+07
        -0.25380E+07
        -0.14223E+07
         0.42236E+06
         0.40515E+06
        -0.21815E+06
        -0.12564E+07
        -0.17496E+07
        -0.10926E+07
        -0.89296E+05
         0.10546E+07
         0.41029E+06
         0.61011E+06
         0.69319E+06
         0.38795E+06
         0.84338E+06
        -0.62556E+06
        -0.12139E+07
         0.14020E+07
        -0.14463E+07
        -0.13868E+07
        -0.16423E+06
        -0.16102E+06
        -0.38803E+07
        -0.12666E+07
        -0.44362E+06
         0.71026E+05
         0.68993E+06
        -0.25516E+06
        -0.40094E+06
        -0.14742E+07
        -0.74409E+06
        -0.22463E+07
        -0.11015E+07
        -0.17096E+07
        -0.54187E+06
        -0.50016E+07
        -0.28085E+07
        -0.19317E+07
        -0.17129E+07
        -0.40285E+06
        -0.78414E+06
         0.56618E+06
         0.12077E+07
        -0.11202E+07
        -0.80249E+06
        -0.41033E+06
        -0.16328E+07
        -0.11495E+07
        -0.81024E+06
        -0.10052E+07
        -0.17736E+07
        -0.16039E+07
        -0.19379E+07
        -0.14063E+07
        -0.72939E+06
        -0.43554E+06
        -0.48411E+06
         0.43547E+06
         0.94365E+06
         0.34229E+06
         0.57767E+06
        -0.32091E+07
        -0.64982E+06
        -0.19086E+07
         0.33261E+06
         0.22321E+07
         0.35771E+07
         0.29114E+07
         0.31691E+07
         0.24663E+07
         0.12328E+07
         0.16523E+06
        -0.73015E+06
        -0.14387E+07
        -0.31155E+06
        -0.20931E+07
        -0.34629E+07
        -0.30301E+07
        -0.25727E+07
        -0.14514E+07
         0.39879E+06
         0.38593E+06
        -0.24421E+06
        -0.12907E+07
        -0.17817E+07
        -0.11196E+07
        -0.11615E+06
         0.10684E+07
         0.42140E+06
         0.61825E+06
         0.69678E+06
         0.40038E+06
         0.84702E+06
        -0.61793E+06
        -0.11960E+07
         0.14148E+07
        -0.14294E+07
        -0.13755E+07
        -0.14945E+06
        -0.15038E+06
        -0.38605E+07
        -0.12428E+07
        -0.42878E+06
         0.82575E+05
         0.69833E+06
        -0.24017E+06
        -0.38879E+06
        -0.14587E+07
        -0.72969E+06
        -0.22309E+07
        -0.10882E+07
        -0.16972E+07
        -0.53062E+06
        -0.49789E+07
        -0.27924E+07
        -0.19258E+07
        -0.17002E+07
        -0.39120E+06
        -0.77510E+06
         0.57628E+06
         0.12119E+07
        -0.11045E+07
        -0.79041E+06
        -0.39979E+06
        -0.16171E+07
        -0.11374E+07
        -0.79955E+06
        -0.99134E+06
        -0.17589E+07
        -0.15885E+07
        -0.19237E+07
        -0.13944E+07
        -0.71710E+06
        -0.42338E+06
        -0.47020E+06
         0.44933E+06
         0.95439E+06
         0.35063E+06
         0.58115E+06
        -0.31675E+07
        -0.60892E+06
        -0.18841E+07
         0.34261E+06
         0.22525E+07
         0.36088E+07
         0.29467E+07
         0.31942E+07
         0.24761E+07
         0.12477E+07
         0.19202E+06
        -0.69212E+06
        -0.14055E+07
        -0.28999E+06
        -0.20728E+07
        -0.34395E+07
        -0.30062E+07
        -0.25432E+07
        -0.14233E+07
         0.43160E+06
         0.41985E+06
        -0.21396E+06
        -0.12653E+07
        -0.17591E+07
        -0.10971E+07
        -0.91844E+05
         0.10647E+07
         0.42034E+06
         0.61612E+06
         0.69216E+06
         0.39874E+06
         0.84244E+06
        -0.62209E+06
        -0.12012E+07
         0.14059E+07
        -0.14391E+07
        -0.13814E+07
        -0.15853E+06
        -0.15318E+06
        -0.38667E+07
        -0.12558E+07
        -0.43689E+06
         0.74587E+05
         0.69203E+06
        -0.24669E+06
        -0.39425E+06
        -0.14642E+07
        -0.73712E+06
        -0.22363E+07
        -0.10933E+07
        -0.17038E+07
        -0.53523E+06
        -0.49840E+07
        -0.27922E+07
        -0.19338E+07
        -0.17068E+07
        -0.39884E+06
        -0.78006E+06
         0.56980E+06
         0.12049E+07
        -0.11099E+07
        -0.79465E+06
        -0.40271E+06
        -0.16369E+07
        -0.11489E+07
        -0.80996E+06
        -0.10013E+07
        -0.17656E+07
        -0.15973E+07
        -0.19274E+07
        -0.13981E+07
        -0.72310E+06
        -0.43170E+06
        -0.47971E+06
         0.44131E+06
         0.94690E+06
         0.34321E+06
         0.57370E+06
        -0.31795E+07
        -0.61835E+06
        -0.19035E+07
         0.32607E+06
         0.22503E+07
         0.35971E+07
         0.29195E+07
         0.31639E+07
         0.24584E+07
         0.12211E+07
         0.16294E+06
        -0.70659E+06
        -0.14226E+07
        -0.29937E+06
        -0.20817E+07
        -0.34478E+07
        -0.30075E+07
        -0.25491E+07
        -0.14316E+07
         0.40939E+06
         0.39243E+06
        -0.23512E+06
        -0.12759E+07
        -0.17643E+07
        -0.11092E+07
        -0.10902E+06
         0.10545E+07
         0.41179E+06
         0.61003E+06
         0.68992E+06
         0.39172E+06
         0.83976E+06
        -0.63043E+06
        -0.12093E+07
         0.13978E+07
        -0.14489E+07
        -0.13882E+07
        -0.17055E+06
        -0.16109E+06
        -0.38709E+07
        -0.12691E+07
        -0.44792E+06
         0.68244E+05
         0.68899E+06
        -0.25472E+06
        -0.39806E+06
        -0.14715E+07
        -0.74466E+06
        -0.22446E+07
        -0.11011E+07
        -0.17102E+07
        -0.54369E+06
        -0.49878E+07
        -0.27936E+07
        -0.19423E+07
        -0.17117E+07
        -0.40944E+06
        -0.78814E+06
         0.56708E+06
         0.12043E+07
        -0.11227E+07
        -0.80230E+06
        -0.40970E+06
        -0.16560E+07
        -0.11616E+07
        -0.81912E+06
        -0.10070E+07
        -0.17713E+07
        -0.16054E+07
        -0.19347E+07
        -0.14050E+07
        -0.73122E+06
        -0.43946E+06
        -0.48798E+06
         0.43366E+06
         0.94034E+06
         0.33618E+06
         0.57053E+06
        -0.32035E+07
        -0.63830E+06
        -0.19182E+07
         0.32104E+06
         0.22438E+07
         0.35735E+07
         0.28854E+07
         0.31364E+07
         0.24401E+07
         0.12019E+07
         0.15105E+06
        -0.72089E+06
        -0.14432E+07
        -0.31335E+06
        -0.20965E+07
        -0.34650E+07
        -0.30188E+07
        -0.25624E+07
        -0.14479E+07
         0.39108E+06
         0.37163E+06
        -0.25677E+06
        -0.12913E+07
        -0.17790E+07
        -0.11277E+07
        -0.12856E+06
         0.10609E+07
         0.41521E+06
         0.61302E+06
         0.69566E+06
         0.40032E+06
         0.84772E+06
        -0.62634E+06
        -0.11965E+07
         0.14040E+07
        -0.14415E+07
        -0.13776E+07
        -0.16047E+06
        -0.15800E+06
        -0.38525E+07
        -0.12470E+07
        -0.43990E+06
         0.72813E+05
         0.69734E+06
        -0.24568E+06
        -0.38814E+06
        -0.14590E+07
        -0.73178E+06
        -0.22342E+07
        -0.10930E+07
        -0.17050E+07
        -0.53667E+06
        -0.49733E+07
        -0.27828E+07
        -0.19351E+07
        -0.16979E+07
        -0.40042E+06
        -0.78201E+06
         0.57884E+06
         0.12137E+07
        -0.11131E+07
        -0.79443E+06
        -0.40518E+06
        -0.16435E+07
        -0.11496E+07
        -0.80318E+06
        -0.99147E+06
        -0.17602E+07
        -0.15930E+07
        -0.19259E+07
        -0.13977E+07
        -0.72436E+06
        -0.43198E+06
        -0.47963E+06
         0.44285E+06
         0.94949E+06
         0.34492E+06
         0.57980E+06
        -0.31731E+07
        -0.60534E+06
        -0.18871E+07
         0.33620E+06
         0.22390E+07
         0.35751E+07
         0.29099E+07
         0.31634E+07
         0.24585E+07
         0.12297E+07
         0.17738E+06
        -0.70837E+06
        -0.14209E+07
        -0.29076E+06
        -0.20761E+07
        -0.34492E+07
        -0.30080E+07
        -0.25490E+07
        -0.14352E+07
         0.41082E+06
         0.39505E+06
        -0.23428E+06
        -0.12716E+07
        -0.17624E+07
        -0.11033E+07
        -0.10005E+06
         0.10561E+07
         0.40833E+06
         0.60713E+06
         0.69034E+06
         0.39315E+06
         0.84095E+06
        -0.63628E+06
        -0.12038E+07
         0.13976E+07
        -0.14536E+07
        -0.13875E+07
        -0.17539E+06
        -0.17376E+06
        -0.38611E+07
        -0.12564E+07
        -0.44895E+06
         0.64663E+05
         0.69054E+06
        -0.25553E+06
        -0.39475E+06
        -0.14724E+07
        -0.74546E+06
        -0.22484E+07
        -0.11021E+07
        -0.17171E+07
        -0.54413E+06
        -0.49870E+07
        -0.27930E+07
        -0.19494E+07
        -0.17063E+07
        -0.41036E+06
        -0.78963E+06
         0.57057E+06
         0.12075E+07
        -0.11254E+07
        -0.80344E+06
        -0.41682E+06
        -0.16642E+07
        -0.11697E+07
        -0.82053E+06
        -0.10105E+07
        -0.17782E+07
        -0.16068E+07
        -0.19411E+07
        -0.14107E+07
        -0.73621E+06
        -0.44313E+06
        -0.49248E+06
         0.43293E+06
         0.94210E+06
         0.33550E+06
         0.57128E+06
        -0.31968E+07
        -0.62578E+06
        -0.19104E+07
         0.30917E+06
         0.22075E+07
         0.35450E+07
         0.28914E+07
         0.31396E+07
         0.24275E+07
         0.11989E+07
         0.13985E+06
        -0.74543E+06
        -0.14456E+07
        -0.31626E+06
        -0.20981E+07
        -0.34744E+07
        -0.30468E+07
        -0.25838E+07
        -0.14525E+07
         0.38664E+06
         0.37023E+06
        -0.24703E+06
        -0.12802E+07
        -0.17805E+07
        -0.11282E+07
        -0.12494E+06
         0.10551E+07
         0.40600E+06
         0.60535E+06
         0.68938E+06
         0.39286E+06
         0.83949E+06
        -0.63992E+06
        -0.12034E+07
         0.13985E+07
        -0.14536E+07
        -0.13887E+07
        -0.17752E+06
        -0.17647E+06
        -0.38576E+07
        -0.12554E+07
        -0.45124E+06
         0.64931E+05
         0.69019E+06
        -0.25644E+06
        -0.39429E+06
        -0.14750E+07
        -0.74751E+06
        -0.22515E+07
        -0.11039E+07
        -0.17192E+07
        -0.54648E+06
        -0.49841E+07
        -0.27930E+07
        -0.19567E+07
        -0.17084E+07
        -0.41606E+06
        -0.79269E+06
         0.56856E+06
         0.12067E+07
        -0.11285E+07
        -0.80605E+06
        -0.42018E+06
        -0.16744E+07
        -0.11814E+07
        -0.82788E+06
        -0.10127E+07
        -0.17802E+07
        -0.16087E+07
        -0.19434E+07
        -0.14127E+07
        -0.73896E+06
        -0.44658E+06
        -0.49763E+06
         0.42916E+06
         0.94058E+06
         0.33386E+06
         0.56942E+06
        -0.31973E+07
        -0.62526E+06
        -0.19166E+07
         0.29875E+06
         0.22070E+07
         0.35445E+07
         0.28839E+07
         0.31197E+07
         0.24051E+07
         0.11866E+07
         0.13864E+06
        -0.74906E+06
        -0.14517E+07
        -0.32617E+06
        -0.21097E+07
        -0.34826E+07
        -0.30520E+07
        -0.25884E+07
        -0.14574E+07
         0.37791E+06
         0.35932E+06
        -0.25403E+06
        -0.12808E+07
        -0.17827E+07
        -0.11394E+07
        -0.13506E+06
         0.10758E+07
         0.42725E+06
         0.62307E+06
         0.70279E+06
         0.41686E+06
         0.85701E+06
        -0.62078E+06
        -0.11777E+07
         0.14138E+07
        -0.14341E+07
        -0.13641E+07
        -0.14542E+06
        -0.14881E+06
        -0.38280E+07
        -0.12225E+07
        -0.43310E+06
         0.80860E+05
         0.70456E+06
        -0.23669E+06
        -0.37500E+06
        -0.14477E+07
        -0.72208E+06
        -0.22259E+07
        -0.10862E+07
        -0.16980E+07
        -0.53050E+06
        -0.49554E+07
        -0.27671E+07
        -0.19382E+07
        -0.16826E+07
        -0.39695E+06
        -0.77531E+06
         0.58551E+06
         0.12191E+07
        -0.11022E+07
        -0.78394E+06
        -0.39723E+06
        -0.16545E+07
        -0.11570E+07
        -0.80151E+06
        -0.98673E+06
        -0.17545E+07
        -0.15857E+07
        -0.19169E+07
        -0.13863E+07
        -0.71203E+06
        -0.42309E+06
        -0.47612E+06
         0.44754E+06
         0.95706E+06
         0.35192E+06
         0.58538E+06
        -0.31421E+07
        -0.57023E+06
        -0.18703E+07
         0.33226E+06
         0.22479E+07
         0.35963E+07
         0.29273E+07
         0.31526E+07
         0.24423E+07
         0.12272E+07
         0.17524E+06
        -0.70616E+06
        -0.14178E+07
        -0.28837E+06
        -0.20667E+07
        -0.34378E+07
        -0.30014E+07
        -0.25340E+07
        -0.14106E+07
         0.42672E+06
         0.40101E+06
        -0.22304E+06
        -0.12464E+07
        -0.17420E+07
        -0.10952E+07
        -0.90530E+05
         0.10670E+07
         0.42105E+06
         0.61759E+06
         0.69599E+06
         0.40770E+06
         0.85000E+06
        -0.62988E+06
        -0.11875E+07
         0.14044E+07
        -0.14493E+07
        -0.13740E+07
        -0.15690E+06
        -0.15590E+06
        -0.38372E+07
        -0.12362E+07
        -0.44453E+06
         0.70610E+05
         0.69922E+06
        -0.24972E+06
        -0.38341E+06
        -0.14565E+07
        -0.73456E+06
        -0.22347E+07
        -0.10971E+07
        -0.17121E+07
        -0.54093E+06
        -0.49676E+07
        -0.27736E+07
        -0.19450E+07
        -0.16887E+07
        -0.40444E+06
        -0.78395E+06
         0.58053E+06
         0.12113E+07
        -0.11178E+07
        -0.79205E+06
        -0.40279E+06
        -0.16779E+07
        -0.11735E+07
        -0.80946E+06
        -0.99873E+06
        -0.17686E+07
        -0.16015E+07
        -0.19282E+07
        -0.13975E+07
        -0.72318E+06
        -0.43233E+06
        -0.48341E+06
         0.43924E+06
         0.94595E+06
         0.34059E+06
         0.57663E+06
        -0.31771E+07
        -0.59976E+06
        -0.18972E+07
         0.31798E+06
         0.22431E+07
         0.35829E+07
         0.28977E+07
         0.31169E+07
         0.24079E+07
         0.11965E+07
         0.13907E+06
        -0.74757E+06
        -0.14470E+07
        -0.30292E+06
        -0.20736E+07
        -0.34423E+07
        -0.30155E+07
        -0.25586E+07
        -0.14288E+07
         0.40497E+06
         0.38114E+06
        -0.24544E+06
        -0.12703E+07
        -0.17571E+07
        -0.11094E+07
        -0.11407E+06
         0.10523E+07
         0.40538E+06
         0.60256E+06
         0.68655E+06
         0.39264E+06
         0.83616E+06
        -0.64352E+06
        -0.11993E+07
         0.13908E+07
        -0.14764E+07
        -0.13860E+07
        -0.17544E+06
        -0.17131E+06
        -0.38467E+07
        -0.12535E+07
        -0.45840E+06
         0.55019E+05
         0.69283E+06
        -0.26041E+06
        -0.38683E+06
        -0.14675E+07
        -0.74917E+06
        -0.22453E+07
        -0.11065E+07
        -0.17365E+07
        -0.55118E+06
        -0.49959E+07
        -0.27852E+07
        -0.19225E+07
        -0.16704E+07
        -0.41727E+06
        -0.79607E+06
         0.57560E+06
         0.12062E+07
        -0.11354E+07
        -0.80572E+06
        -0.41647E+06
        -0.17124E+07
        -0.11898E+07
        -0.78516E+06
        -0.99979E+06
        -0.17838E+07
        -0.16227E+07
        -0.19404E+07
        -0.14120E+07
        -0.74109E+06
        -0.44860E+06
        -0.49627E+06
         0.42962E+06
         0.93703E+06
         0.33059E+06
         0.56583E+06
        -0.32005E+07
        -0.62122E+06
        -0.19155E+07
         0.30191E+06
         0.22208E+07
         0.35463E+07
         0.28560E+07
         0.30771E+07
         0.23733E+07
         0.11885E+07
         0.75934E+05
        -0.84684E+06
        -0.14882E+07
        -0.32577E+06
        -0.20941E+07
        -0.34606E+07
        -0.30380E+07
        -0.25844E+07
        -0.14587E+07
         0.37096E+06
         0.35833E+06
        -0.26683E+06
        -0.12946E+07
        -0.17751E+07
        -0.11373E+07
        -0.14542E+06
         0.10720E+07
         0.42489E+06
         0.62180E+06
         0.70267E+06
         0.41810E+06
         0.85504E+06
        -0.62694E+06
        -0.11740E+07
         0.14014E+07
        -0.14806E+07
        -0.13640E+07
        -0.15148E+06
        -0.15086E+06
        -0.38186E+07
        -0.12242E+07
        -0.44005E+06
         0.65962E+05
         0.70639E+06
        -0.23762E+06
        -0.35595E+06
        -0.14447E+07
        -0.72694E+06
        -0.22247E+07
        -0.10873E+07
        -0.17319E+07
        -0.53376E+06
        -0.50005E+07
        -0.27685E+07
        -0.18427E+07
        -0.15904E+07
        -0.40109E+06
        -0.77841E+06
         0.59221E+06
         0.12224E+07
        -0.11072E+07
        -0.78112E+06
        -0.39479E+06
        -0.17110E+07
        -0.11616E+07
        -0.69203E+06
        -0.94988E+06
        -0.17578E+07
        -0.16092E+07
        -0.19176E+07
        -0.13861E+07
        -0.71116E+06
        -0.42411E+06
        -0.47661E+06
         0.44976E+06
         0.95945E+06
         0.35458E+06
         0.58470E+06
        -0.31436E+07
        -0.56531E+06
        -0.18583E+07
         0.34183E+06
         0.22464E+07
         0.35758E+07
         0.28967E+07
         0.31182E+07
         0.24187E+07
         0.12769E+07
         0.55472E+05
        -0.92672E+06
        -0.14852E+07
        -0.29443E+06
        -0.20679E+07
        -0.34387E+07
        -0.30106E+07
        -0.25388E+07
        -0.14028E+07
         0.42319E+06
         0.40355E+06
        -0.22028E+06
        -0.12419E+07
        -0.17264E+07
        -0.10979E+07
        -0.10417E+06
         0.99818E+06
         0.35277E+06
         0.55249E+06
         0.64243E+06
         0.33043E+06
         0.77550E+06
        -0.69756E+06
        -0.12591E+07
         0.13254E+07
        -0.15868E+07
        -0.14475E+07
        -0.26593E+06
        -0.25704E+06
        -0.39107E+07
        -0.13404E+07
        -0.51245E+06
        -0.75913E+04
         0.65261E+06
        -0.31395E+06
        -0.41609E+06
        -0.15435E+07
        -0.82392E+06
        -0.23205E+07
        -0.11554E+07
        -0.18291E+07
        -0.59325E+06
        -0.51125E+07
        -0.28412E+07
        -0.18810E+07
        -0.16450E+07
        -0.47182E+06
        -0.84303E+06
         0.53026E+06
         0.11574E+07
        -0.12121E+07
        -0.86965E+06
        -0.48967E+06
        -0.18451E+07
        -0.12667E+07
        -0.75385E+06
        -0.10477E+07
        -0.18634E+07
        -0.17149E+07
        -0.20099E+07
        -0.14820E+07
        -0.82305E+06
        -0.51833E+06
        -0.56102E+06
         0.36954E+06
         0.87062E+06
         0.24811E+06
         0.49420E+06
        -0.33415E+07
        -0.75730E+06
        -0.20580E+07
         0.13843E+06
         0.20437E+07
         0.33805E+07
         0.26981E+07
         0.29050E+07
         0.22189E+07
         0.10949E+07
        -0.19815E+06
        -0.12027E+07
        -0.16807E+07
        -0.45659E+06
        -0.22380E+07
        -0.36155E+07
        -0.31931E+07
        -0.27429E+07
        -0.16125E+07
         0.22206E+06
         0.21710E+06
        -0.39883E+06
        -0.14246E+07
        -0.19142E+07
        -0.12783E+07
        -0.28340E+06
         0.10402E+07
         0.35767E+06
         0.56543E+06
         0.66667E+06
         0.36065E+06
         0.80229E+06
        -0.69008E+06
        -0.12057E+07
         0.13758E+07
        -0.15097E+07
        -0.14242E+07
        -0.26387E+06
        -0.28431E+06
        -0.38472E+07
        -0.12874E+07
        -0.45730E+06
         0.40206E+05
         0.68382E+06
        -0.27268E+06
        -0.37863E+06
        -0.14983E+07
        -0.79053E+06
        -0.22517E+07
        -0.11046E+07
        -0.17459E+07
        -0.55000E+06
        -0.50167E+07
        -0.27545E+07
        -0.18152E+07
        -0.15642E+07
        -0.42970E+06
        -0.81466E+06
         0.55057E+06
         0.11486E+07
        -0.11966E+07
        -0.87604E+06
        -0.51644E+06
        -0.17836E+07
        -0.11928E+07
        -0.68946E+06
        -0.10035E+07
        -0.18040E+07
        -0.16517E+07
        -0.19466E+07
        -0.14465E+07
        -0.80580E+06
        -0.50392E+06
        -0.52525E+06
         0.39665E+06
         0.87218E+06
         0.25512E+06
         0.49620E+06
        -0.32653E+07
        -0.65822E+06
        -0.20329E+07
         0.94542E+05
         0.19527E+07
         0.33250E+07
         0.27889E+07
         0.29983E+07
         0.22933E+07
         0.11391E+07
        -0.18579E+06
        -0.11649E+07
        -0.16068E+07
        -0.42000E+06
        -0.21609E+07
        -0.35052E+07
        -0.30990E+07
        -0.26709E+07
        -0.15813E+07
         0.21843E+06
         0.25863E+06
        -0.33951E+06
        -0.13303E+07
        -0.17998E+07
        -0.11883E+07
        -0.19021E+06
         0.29012E+09
         0.28642E+09
         0.28271E+09
         0.24501E+09
         0.34756E+09
         0.31371E+09
         0.28890E+09
         0.32928E+09
         0.27241E+09
         0.32929E+09
         0.33537E+09
         0.43830E+09
         0.38754E+09
         0.36072E+09
         0.45139E+09
         0.26894E+09
         0.26831E+09
         0.21369E+09
         0.28873E+09
         0.28024E+09
         0.35561E+09
         0.35774E+09
         0.33855E+09
         0.26369E+09
         0.31709E+09
         0.23160E+09
         0.35562E+09
         0.29786E+09
         0.31606E+09
         0.32980E+09
         0.26699E+09
         0.25764E+09
         0.24552E+09
         0.25452E+09
         0.39292E+09
         0.33779E+09
         0.34632E+09
         0.42397E+09
         0.40287E+09
         0.39477E+09
         0.41435E+09
         0.38855E+09
         0.36827E+09
         0.32543E+09
         0.33725E+09
         0.39751E+09
         0.34916E+09
         0.32007E+09
         0.30620E+09
         0.32440E+09
         0.37440E+09
         0.33036E+09
         0.72309E+09
         0.70843E+09
         0.72160E+09
         0.69892E+09
         0.72147E+09
         0.75724E+09
         0.76045E+09
         0.75204E+09
         0.75786E+09
         0.77870E+09
         0.75442E+09
         0.71071E+09
         0.63008E+09
         0.59473E+09
         0.60348E+09
         0.61760E+09
         0.62593E+09
         0.68238E+09
         0.73147E+09
         0.73502E+09
         0.67395E+09
         0.64992E+09
         0.67299E+09
         0.66540E+09
         0.66055E+09
         0.66193E+09
         0.33496E+10
         0.35094E+10
         0.34587E+10
         0.31557E+10
         0.38856E+10
         0.36494E+10
         0.37972E+10
         0.38264E+10
         0.32758E+10
         0.38244E+10
         0.41704E+10
         0.46728E+10
         0.42356E+10
         0.42916E+10
         0.48363E+10
         0.32097E+10
         0.34503E+10
         0.30107E+10
         0.35635E+10
         0.37497E+10
         0.38782E+10
         0.39633E+10
         0.37226E+10
         0.34271E+10
         0.38695E+10
         0.33069E+10
         0.42760E+10
         0.42039E+10
         0.42228E+10
         0.40065E+10
         0.32443E+10
         0.34122E+10
         0.31809E+10
         0.33268E+10
         0.42545E+10
         0.39037E+10
         0.39164E+10
         0.46832E+10
         0.45635E+10
         0.45089E+10
         0.45877E+10
         0.43562E+10
         0.41191E+10
         0.36343E+10
         0.37849E+10
         0.42528E+10
         0.39328E+10
         0.36978E+10
         0.36246E+10
         0.37582E+10
         0.40801E+10
         0.37691E+10
         0.67509E+10
         0.65758E+10
         0.67137E+10
         0.65019E+10
         0.66964E+10
         0.70422E+10
         0.71573E+10
         0.71433E+10
         0.71946E+10
         0.73597E+10
         0.71448E+10
         0.67135E+10
         0.60153E+10
         0.56835E+10
         0.56980E+10
         0.57707E+10
         0.58268E+10
         0.63217E+10
         0.67791E+10
         0.68065E+10
         0.62968E+10
         0.61012E+10
         0.63036E+10
         0.62584E+10
         0.61862E+10
         0.61689E+10
  
SCALARS                      stress_yy  double 1
LOOKUP_TABLE default
         0.10237E+13
         0.10104E+13
         0.10189E+13
         0.10340E+13
        -0.17120E+03
        -0.19198E+03
        -0.18382E+03
        -0.16700E+03
         0.10100E+13
         0.10145E+13
        -0.17264E+03
        -0.16707E+03
         0.99116E+12
         0.99044E+12
        -0.20513E+03
        -0.19287E+03
         0.10318E+13
         0.99149E+12
        -0.15157E+03
        -0.16811E+03
         0.97666E+12
         0.96513E+12
         0.98347E+12
        -0.20330E+03
        -0.17755E+03
        -0.18334E+03
         0.96558E+12
         0.94874E+12
        -0.19504E+03
        -0.16448E+03
         0.10311E+13
         0.10135E+13
         0.10480E+13
        -0.16644E+03
        -0.15473E+03
        -0.15044E+03
         0.10209E+13
         0.99858E+12
        -0.17609E+03
        -0.16068E+03
         0.10121E+13
         0.99483E+12
        -0.15219E+03
        -0.13473E+03
         0.10267E+13
         0.10331E+13
        -0.16678E+03
        -0.18635E+03
         0.98099E+12
        -0.16293E+03
         0.10319E+13
        -0.19145E+03
         0.96073E+12
        -0.17206E+03
         0.95544E+12
        -0.16504E+03
         0.95552E+12
         0.97432E+12
        -0.16815E+03
        -0.16376E+03
         0.10307E+13
         0.10240E+13
        -0.16862E+03
        -0.19062E+03
         0.10349E+13
        -0.16270E+03
         0.10269E+13
        -0.17757E+03
         0.10058E+13
         0.10037E+13
        -0.17093E+03
        -0.17910E+03
         0.99895E+12
        -0.18060E+03
         0.94275E+12
        -0.14269E+03
         0.93980E+12
        -0.13850E+03
         0.94127E+12
        -0.14604E+03
         0.94942E+12
         0.95789E+12
        -0.13914E+03
        -0.14506E+03
         0.97493E+12
        -0.13511E+03
         0.10263E+13
        -0.17717E+03
         0.10183E+13
        -0.18133E+03
         0.10117E+13
         0.10081E+13
        -0.17414E+03
        -0.17617E+03
         0.10126E+13
        -0.16001E+03
         0.10157E+13
        -0.15773E+03
         0.10129E+13
        -0.16885E+03
         0.10119E+13
         0.10148E+13
        -0.16559E+03
        -0.17044E+03
         0.99600E+12
         0.10036E+13
        -0.12856E+03
        -0.12092E+03
         0.99456E+12
        -0.12276E+03
         0.10033E+13
        -0.11771E+03
         0.99467E+12
        -0.11607E+03
         0.97546E+12
        -0.10968E+03
         0.95681E+12
        -0.97441E+02
         0.94563E+12
        -0.87740E+02
         0.94449E+12
        -0.87131E+02
         0.94485E+12
        -0.94489E+02
         0.95697E+12
        -0.99305E+02
         0.97960E+12
        -0.90676E+02
         0.10044E+13
        -0.81735E+02
         0.10189E+13
        -0.81641E+02
         0.10333E+13
        -0.91255E+02
         0.10427E+13
        -0.10405E+03
         0.10424E+13
        -0.11178E+03
         0.10194E+13
        -0.12073E+03
         0.10033E+13
        -0.12934E+03
         0.99783E+12
        -0.11848E+03
         0.10064E+13
        -0.10394E+03
         0.10109E+13
        -0.10362E+03
         0.10034E+13
        -0.11337E+03
         0.10035E+13
        -0.12086E+03
         0.10092E+13
        -0.11470E+03
         0.10166E+13
        -0.11089E+03
        -0.30618E+11
        -0.30199E+11
        -0.30258E+11
        -0.30786E+11
        -0.29762E+11
        -0.30307E+11
        -0.29624E+11
        -0.29991E+11
        -0.30707E+11
        -0.30273E+11
        -0.29209E+11
        -0.29077E+11
        -0.29423E+11
        -0.29446E+11
        -0.29225E+11
        -0.30762E+11
        -0.30668E+11
        -0.30927E+11
        -0.30152E+11
        -0.30303E+11
        -0.30086E+11
        -0.30230E+11
        -0.29960E+11
        -0.30032E+11
        -0.30291E+11
        -0.30272E+11
        -0.29821E+11
        -0.29864E+11
        -0.29509E+11
        -0.30038E+11
        -0.30716E+11
        -0.30193E+11
        -0.30712E+11
        -0.30376E+11
        -0.28985E+11
        -0.29463E+11
        -0.29679E+11
        -0.29424E+11
        -0.29390E+11
        -0.28950E+11
        -0.28615E+11
        -0.29409E+11
        -0.30095E+11
        -0.30006E+11
        -0.29659E+11
        -0.29003E+11
        -0.29566E+11
        -0.30123E+11
        -0.30085E+11
        -0.29656E+11
        -0.29188E+11
        -0.29813E+11
        -0.27750E+11
        -0.28407E+11
        -0.28301E+11
        -0.28450E+11
        -0.28412E+11
        -0.28063E+11
        -0.27693E+11
        -0.27570E+11
        -0.27623E+11
        -0.27585E+11
        -0.27422E+11
        -0.28379E+11
        -0.28716E+11
        -0.28843E+11
        -0.29055E+11
        -0.29212E+11
        -0.29205E+11
        -0.28935E+11
        -0.27974E+11
        -0.28212E+11
        -0.28545E+11
        -0.28542E+11
        -0.28485E+11
        -0.28163E+11
        -0.28634E+11
        -0.28802E+11
         0.50461E+06
        -0.21332E+06
         0.24774E+05
         0.12298E+07
         0.52514E+06
         0.14386E+07
        -0.64394E+06
        -0.16444E+07
         0.96677E+06
        -0.17289E+07
        -0.19152E+07
        -0.11549E+07
        -0.24176E+06
        -0.29493E+07
        -0.20240E+07
         0.24115E+06
         0.76984E+06
         0.92207E+06
        -0.61606E+06
         0.10597E+06
        -0.26632E+06
         0.48921E+06
        -0.73024E+06
        -0.32245E+06
        -0.18852E+07
        -0.21050E+06
        -0.39537E+07
        -0.25616E+07
        -0.13552E+07
        -0.16410E+07
         0.76775E+05
        -0.75111E+05
         0.86756E+06
         0.14227E+07
         0.69653E+05
        -0.50443E+05
         0.46690E+05
        -0.20367E+07
        -0.20190E+07
        -0.14093E+07
        -0.16917E+06
        -0.31498E+06
        -0.21454E+06
        -0.81869E+06
        -0.90201E+06
        -0.13530E+07
        -0.59468E+06
        -0.69903E+05
        -0.13630E+06
         0.25502E+06
         0.73133E+06
         0.16312E+07
        -0.16901E+07
         0.76623E+06
        -0.11815E+07
         0.45724E+06
         0.16581E+07
         0.24439E+07
         0.16759E+07
         0.20897E+07
         0.14918E+07
         0.62101E+06
         0.96086E+06
         0.98605E+06
         0.23992E+06
         0.12464E+07
        -0.46145E+06
        -0.17982E+07
        -0.18988E+07
        -0.21096E+07
        -0.22074E+07
        -0.74363E+06
        -0.57686E+06
        -0.11431E+07
        -0.18812E+07
        -0.13224E+07
         0.18990E+06
         0.12030E+07
         0.42594E+06
        -0.28986E+06
        -0.50177E+05
         0.11677E+07
         0.43050E+06
         0.13538E+07
        -0.71514E+06
        -0.17366E+07
         0.88759E+06
        -0.18295E+07
        -0.20047E+07
        -0.12777E+07
        -0.34777E+06
        -0.30446E+07
        -0.21472E+07
         0.15897E+06
         0.69122E+06
         0.86694E+06
        -0.70259E+06
         0.29795E+05
        -0.37218E+06
         0.38651E+06
        -0.83848E+06
        -0.40369E+06
        -0.19898E+07
        -0.28129E+06
        -0.40462E+07
        -0.26389E+07
        -0.14367E+07
        -0.17486E+07
        -0.72682E+03
        -0.14596E+06
         0.80129E+06
         0.13619E+07
        -0.37680E+05
        -0.14085E+06
        -0.46229E+05
        -0.21601E+07
        -0.21335E+07
        -0.15212E+07
        -0.29058E+06
        -0.43316E+06
        -0.32726E+06
        -0.92262E+06
        -0.99980E+06
        -0.14618E+07
        -0.69239E+06
        -0.16021E+06
        -0.21704E+06
         0.17231E+06
         0.63209E+06
         0.15426E+07
        -0.18884E+07
         0.57267E+06
        -0.13722E+07
         0.27483E+06
         0.14651E+07
         0.22292E+07
         0.14614E+07
         0.18729E+07
         0.12723E+07
         0.39673E+06
         0.73774E+06
         0.77965E+06
         0.67622E+05
         0.10854E+07
        -0.63005E+06
        -0.19783E+07
        -0.20831E+07
        -0.23019E+07
        -0.24005E+07
        -0.94769E+06
        -0.76960E+06
        -0.13172E+07
        -0.20557E+07
        -0.15007E+07
         0.97593E+04
         0.10196E+07
         0.44457E+06
        -0.27481E+06
        -0.34297E+05
         0.11840E+07
         0.45471E+06
         0.13760E+07
        -0.70074E+06
        -0.17177E+07
         0.90040E+06
        -0.18281E+07
        -0.19875E+07
        -0.12541E+07
        -0.32744E+06
        -0.30200E+07
        -0.21180E+07
         0.14262E+06
         0.68695E+06
         0.88203E+06
        -0.72421E+06
         0.15749E+05
        -0.39001E+06
         0.37979E+06
        -0.90948E+06
        -0.46225E+06
        -0.20364E+07
        -0.33070E+06
        -0.40282E+07
        -0.26493E+07
        -0.14690E+07
        -0.18241E+07
        -0.24894E+03
        -0.16181E+06
         0.81647E+06
         0.13819E+07
        -0.96007E+04
        -0.11833E+06
        -0.25724E+05
        -0.21394E+07
        -0.21159E+07
        -0.15150E+07
        -0.29378E+06
        -0.47606E+06
        -0.38804E+06
        -0.99232E+06
        -0.10167E+07
        -0.14469E+07
        -0.67481E+06
        -0.13927E+06
        -0.19453E+06
         0.19823E+06
         0.66019E+06
         0.15676E+07
        -0.18293E+07
         0.62560E+06
        -0.13136E+07
         0.32002E+06
         0.14985E+07
         0.22626E+07
         0.15041E+07
         0.19158E+07
         0.13155E+07
         0.44161E+06
         0.76420E+06
         0.77861E+06
         0.70416E+05
         0.11150E+07
        -0.61038E+06
        -0.20149E+07
        -0.21229E+07
        -0.22918E+07
        -0.23476E+07
        -0.88626E+06
        -0.71480E+06
        -0.12617E+07
        -0.19936E+07
        -0.14481E+07
         0.52585E+05
         0.10610E+07
         0.43350E+06
        -0.28129E+06
        -0.40611E+05
         0.11739E+07
         0.44536E+06
         0.13683E+07
        -0.70707E+06
        -0.17311E+07
         0.87728E+06
        -0.18727E+07
        -0.19974E+07
        -0.12667E+07
        -0.33583E+06
        -0.30304E+07
        -0.21341E+07
         0.77281E+05
         0.64046E+06
         0.87230E+06
        -0.79993E+06
        -0.48252E+05
        -0.47044E+06
         0.30882E+06
        -0.10747E+07
        -0.59329E+06
        -0.21600E+07
        -0.44371E+06
        -0.40535E+07
        -0.27121E+07
        -0.15691E+07
        -0.20033E+07
        -0.37642E+05
        -0.22545E+06
         0.80450E+06
         0.13721E+07
        -0.23381E+05
        -0.12762E+06
        -0.33203E+05
        -0.21627E+07
        -0.21446E+07
        -0.15659E+07
        -0.36269E+06
        -0.60986E+06
        -0.55254E+06
        -0.11564E+07
        -0.10978E+07
        -0.14908E+07
        -0.70634E+06
        -0.15567E+06
        -0.20797E+06
         0.18289E+06
         0.64521E+06
         0.15579E+07
        -0.18569E+07
         0.60647E+06
        -0.13440E+07
         0.29370E+06
         0.14807E+07
         0.22423E+07
         0.14701E+07
         0.18789E+07
         0.12796E+07
         0.39818E+06
         0.69547E+06
         0.66754E+06
        -0.34020E+05
         0.10654E+07
        -0.66602E+06
        -0.21681E+07
        -0.22854E+07
        -0.23678E+07
        -0.23838E+07
        -0.92062E+06
        -0.74111E+06
        -0.12928E+07
        -0.20261E+07
        -0.14699E+07
         0.36132E+05
         0.10447E+07
         0.41326E+06
        -0.29444E+06
        -0.51558E+05
         0.11634E+07
         0.43468E+06
         0.13578E+07
        -0.71678E+06
        -0.17523E+07
         0.84961E+06
        -0.19192E+07
        -0.20080E+07
        -0.12744E+07
        -0.34518E+06
        -0.30420E+07
        -0.21422E+07
         0.33162E+05
         0.60355E+06
         0.86328E+06
        -0.84995E+06
        -0.94170E+05
        -0.52238E+06
         0.25782E+06
        -0.11763E+07
        -0.67432E+06
        -0.22498E+07
        -0.51567E+06
        -0.40755E+07
        -0.27574E+07
        -0.16377E+07
        -0.21227E+07
        -0.76657E+05
        -0.27144E+06
         0.78309E+06
         0.13583E+07
        -0.37619E+05
        -0.13944E+06
        -0.44417E+05
        -0.21802E+07
        -0.21686E+07
        -0.16045E+07
        -0.41140E+06
        -0.69978E+06
        -0.66047E+06
        -0.12609E+07
        -0.11515E+07
        -0.15198E+07
        -0.73436E+06
        -0.18226E+06
        -0.23163E+06
         0.16003E+06
         0.62184E+06
         0.15421E+07
        -0.18817E+07
         0.58975E+06
        -0.13698E+07
         0.27323E+06
         0.14724E+07
         0.22364E+07
         0.14556E+07
         0.18546E+07
         0.12491E+07
         0.37129E+06
         0.65362E+06
         0.59065E+06
        -0.10522E+06
         0.10271E+07
        -0.70530E+06
        -0.22675E+07
        -0.23996E+07
        -0.24223E+07
        -0.24003E+07
        -0.95183E+06
        -0.77595E+06
        -0.13284E+07
        -0.20679E+07
        -0.15055E+07
         0.14287E+05
         0.10284E+07
         0.36400E+06
        -0.31965E+06
        -0.62394E+05
         0.11716E+07
         0.44698E+06
         0.13731E+07
        -0.72354E+06
        -0.17882E+07
         0.81093E+06
        -0.19809E+07
        -0.20013E+07
        -0.12468E+07
        -0.33449E+06
        -0.30371E+07
        -0.21086E+07
         0.41432E+05
         0.59473E+06
         0.87874E+06
        -0.84028E+06
        -0.86812E+05
        -0.50786E+06
         0.27566E+06
        -0.11741E+07
        -0.67562E+06
        -0.22896E+07
        -0.52498E+06
        -0.40807E+07
        -0.27628E+07
        -0.16323E+07
        -0.21280E+07
        -0.12336E+06
        -0.29536E+06
         0.74861E+06
         0.13549E+07
        -0.25221E+05
        -0.13844E+06
        -0.46550E+05
        -0.21592E+07
        -0.21507E+07
        -0.15840E+07
        -0.38805E+06
        -0.68546E+06
        -0.64905E+06
        -0.12681E+07
        -0.11588E+07
        -0.15248E+07
        -0.75867E+06
        -0.23636E+06
        -0.29013E+06
         0.12882E+06
         0.61414E+06
         0.15495E+07
        -0.18331E+07
         0.63988E+06
        -0.13291E+07
         0.30061E+06
         0.15010E+07
         0.22756E+07
         0.15000E+07
         0.18973E+07
         0.12978E+07
         0.43579E+06
         0.71000E+06
         0.62457E+06
        -0.67628E+05
         0.10662E+07
        -0.66745E+06
        -0.22374E+07
        -0.23781E+07
        -0.24006E+07
        -0.23743E+07
        -0.93370E+06
        -0.78001E+06
        -0.13532E+07
        -0.20844E+07
        -0.14970E+07
         0.38873E+05
         0.10637E+07
         0.28891E+06
        -0.36422E+06
        -0.88304E+05
         0.11651E+07
         0.43641E+06
         0.13718E+07
        -0.75239E+06
        -0.18565E+07
         0.74587E+06
        -0.20707E+07
        -0.20235E+07
        -0.12572E+07
        -0.35159E+06
        -0.30670E+07
        -0.21169E+07
         0.28308E+05
         0.56422E+06
         0.87612E+06
        -0.84944E+06
        -0.96999E+05
        -0.51551E+06
         0.27060E+06
        -0.11822E+07
        -0.68517E+06
        -0.23449E+07
        -0.54247E+06
        -0.41183E+07
        -0.27863E+07
        -0.16383E+07
        -0.21431E+07
        -0.18891E+06
        -0.33491E+06
         0.69711E+06
         0.13364E+07
        -0.41914E+05
        -0.15752E+06
        -0.68511E+05
        -0.21775E+07
        -0.21683E+07
        -0.15932E+07
        -0.39250E+06
        -0.68730E+06
        -0.65020E+06
        -0.12846E+07
        -0.11888E+07
        -0.15658E+07
        -0.81453E+06
        -0.31805E+06
        -0.37378E+06
         0.74028E+05
         0.58299E+06
         0.15388E+07
        -0.18533E+07
         0.62401E+06
        -0.13415E+07
         0.28679E+06
         0.14810E+07
         0.22518E+07
         0.14803E+07
         0.18805E+07
         0.12807E+07
         0.42301E+06
         0.69981E+06
         0.61209E+06
        -0.69816E+05
         0.10631E+07
        -0.67574E+06
        -0.22422E+07
        -0.23881E+07
        -0.24352E+07
        -0.24255E+07
        -0.99000E+06
        -0.84348E+06
        -0.14315E+07
        -0.21532E+07
        -0.15331E+07
         0.19526E+05
         0.10486E+07
         0.26708E+06
        -0.38068E+06
        -0.99019E+05
         0.11564E+07
         0.42508E+06
         0.13615E+07
        -0.76700E+06
        -0.18810E+07
         0.72645E+06
        -0.20994E+07
        -0.20396E+07
        -0.12719E+07
        -0.36842E+06
        -0.30830E+07
        -0.21304E+07
         0.16500E+05
         0.55161E+06
         0.86916E+06
        -0.85789E+06
        -0.10485E+06
        -0.52728E+06
         0.25879E+06
        -0.11928E+07
        -0.69240E+06
        -0.23663E+07
        -0.55203E+06
        -0.41344E+07
        -0.27989E+07
        -0.16498E+07
        -0.21576E+07
        -0.21001E+06
        -0.35014E+06
         0.67909E+06
         0.13259E+07
        -0.56010E+05
        -0.16797E+06
        -0.81956E+05
        -0.22005E+07
        -0.21885E+07
        -0.16128E+07
        -0.41315E+06
        -0.70326E+06
        -0.66059E+06
        -0.12993E+07
        -0.12070E+07
        -0.15851E+07
        -0.83329E+06
        -0.33825E+06
        -0.39436E+06
         0.55283E+05
         0.56372E+06
         0.15255E+07
        -0.18811E+07
         0.59654E+06
        -0.13603E+07
         0.26769E+06
         0.14577E+07
         0.22316E+07
         0.14596E+07
         0.18518E+07
         0.12424E+07
         0.38293E+06
         0.66352E+06
         0.59557E+06
        -0.82863E+05
         0.10351E+07
        -0.70496E+06
        -0.22702E+07
        -0.24246E+07
        -0.24700E+07
        -0.24547E+07
        -0.10135E+07
        -0.86291E+06
        -0.14577E+07
        -0.21879E+07
        -0.15651E+07
        -0.73134E+04
         0.10220E+07
         0.28111E+06
        -0.36935E+06
        -0.90995E+05
         0.11587E+07
         0.43642E+06
         0.13641E+07
        -0.75703E+06
        -0.18655E+07
         0.73841E+06
        -0.20853E+07
        -0.20300E+07
        -0.12569E+07
        -0.35748E+06
        -0.30646E+07
        -0.21077E+07
         0.32219E+05
         0.56283E+06
         0.87636E+06
        -0.84344E+06
        -0.93237E+05
        -0.51245E+06
         0.27306E+06
        -0.11774E+07
        -0.67868E+06
        -0.23555E+07
        -0.53959E+06
        -0.41117E+07
        -0.27849E+07
        -0.16379E+07
        -0.21457E+07
        -0.19696E+06
        -0.34032E+06
         0.68492E+06
         0.13294E+07
        -0.39915E+05
        -0.15648E+06
        -0.71703E+05
        -0.21851E+07
        -0.21766E+07
        -0.16016E+07
        -0.39952E+06
        -0.68801E+06
        -0.64522E+06
        -0.12861E+07
        -0.11961E+07
        -0.15731E+07
        -0.82173E+06
        -0.32399E+06
        -0.38046E+06
         0.66414E+05
         0.57192E+06
         0.15287E+07
        -0.18395E+07
         0.63728E+06
        -0.13361E+07
         0.27768E+06
         0.14779E+07
         0.22633E+07
         0.14950E+07
         0.18771E+07
         0.12520E+07
         0.39779E+06
         0.69029E+06
         0.63348E+06
        -0.49635E+05
         0.10566E+07
        -0.68464E+06
        -0.22468E+07
        -0.24012E+07
        -0.24408E+07
        -0.24268E+07
        -0.98068E+06
        -0.82919E+06
        -0.14275E+07
        -0.21628E+07
        -0.15424E+07
         0.15390E+05
         0.10467E+07
         0.27763E+06
        -0.37019E+06
        -0.93233E+05
         0.11528E+07
         0.43372E+06
         0.13584E+07
        -0.75884E+06
        -0.18730E+07
         0.72858E+06
        -0.20978E+07
        -0.20374E+07
        -0.12657E+07
        -0.36001E+06
        -0.30721E+07
        -0.21219E+07
         0.24981E+05
         0.55451E+06
         0.86889E+06
        -0.85049E+06
        -0.99213E+05
        -0.51874E+06
         0.26551E+06
        -0.11829E+07
        -0.68333E+06
        -0.23636E+07
        -0.54302E+06
        -0.41169E+07
        -0.27866E+07
        -0.16400E+07
        -0.21529E+07
        -0.20322E+06
        -0.34451E+06
         0.67418E+06
         0.13217E+07
        -0.45044E+05
        -0.16131E+06
        -0.74916E+05
        -0.22050E+07
        -0.21882E+07
        -0.16116E+07
        -0.40971E+06
        -0.69409E+06
        -0.65411E+06
        -0.12907E+07
        -0.12007E+07
        -0.15794E+07
        -0.83068E+06
        -0.33317E+06
        -0.38842E+06
         0.59320E+05
         0.56437E+06
         0.15210E+07
        -0.18515E+07
         0.62770E+06
        -0.13558E+07
         0.26112E+06
         0.14755E+07
         0.22518E+07
         0.14680E+07
         0.18470E+07
         0.12342E+07
         0.37112E+06
         0.66120E+06
         0.61888E+06
        -0.66786E+05
         0.10472E+07
        -0.69346E+06
        -0.22552E+07
        -0.24029E+07
        -0.24468E+07
        -0.24353E+07
        -0.10029E+07
        -0.85681E+06
        -0.14488E+07
        -0.21737E+07
        -0.15474E+07
         0.34655E+04
         0.10298E+07
         0.26767E+06
        -0.37852E+06
        -0.99421E+05
         0.11493E+07
         0.42563E+06
         0.13546E+07
        -0.76488E+06
        -0.18835E+07
         0.71961E+06
        -0.21103E+07
        -0.20457E+07
        -0.12775E+07
        -0.36762E+06
        -0.30777E+07
        -0.21364E+07
         0.14825E+05
         0.54781E+06
         0.86468E+06
        -0.85904E+06
        -0.10358E+06
        -0.52674E+06
         0.25784E+06
        -0.11913E+07
        -0.69077E+06
        -0.23716E+07
        -0.55031E+06
        -0.41208E+07
        -0.27901E+07
        -0.16426E+07
        -0.21585E+07
        -0.21243E+06
        -0.35182E+06
         0.66718E+06
         0.13203E+07
        -0.57474E+05
        -0.16956E+06
        -0.82199E+05
        -0.22243E+07
        -0.22012E+07
        -0.16203E+07
        -0.41567E+06
        -0.69925E+06
        -0.66223E+06
        -0.12989E+07
        -0.12086E+07
        -0.15878E+07
        -0.83906E+06
        -0.34108E+06
        -0.39602E+06
         0.53149E+05
         0.55720E+06
         0.15175E+07
        -0.18755E+07
         0.60758E+06
        -0.13708E+07
         0.25609E+06
         0.14689E+07
         0.22282E+07
         0.14340E+07
         0.18199E+07
         0.12158E+07
         0.35194E+06
         0.64930E+06
         0.60447E+06
        -0.87384E+05
         0.10331E+07
        -0.70815E+06
        -0.22724E+07
        -0.24146E+07
        -0.24603E+07
        -0.24518E+07
        -0.10211E+07
        -0.87782E+06
        -0.14706E+07
        -0.21894E+07
        -0.15620E+07
        -0.14816E+05
         0.10106E+07
         0.27437E+06
        -0.37489E+06
        -0.96544E+05
         0.11537E+07
         0.43315E+06
         0.13614E+07
        -0.75843E+06
        -0.18730E+07
         0.72492E+06
        -0.21057E+07
        -0.20366E+07
        -0.12671E+07
        -0.36424E+06
        -0.30608E+07
        -0.21154E+07
         0.23703E+05
         0.55201E+06
         0.87185E+06
        -0.85053E+06
        -0.94177E+05
        -0.51497E+06
         0.27059E+06
        -0.11809E+07
        -0.68223E+06
        -0.23679E+07
        -0.54211E+06
        -0.41063E+07
        -0.27813E+07
        -0.16294E+07
        -0.21454E+07
        -0.20202E+06
        -0.34492E+06
         0.67464E+06
         0.13289E+07
        -0.47522E+05
        -0.16229E+06
        -0.77967E+05
        -0.22121E+07
        -0.21893E+07
        -0.16038E+07
        -0.40043E+06
        -0.68762E+06
        -0.64988E+06
        -0.12910E+07
        -0.12022E+07
        -0.15813E+07
        -0.83218E+06
        -0.33240E+06
        -0.38678E+06
         0.62691E+05
         0.56579E+06
         0.15265E+07
        -0.18450E+07
         0.64039E+06
        -0.13401E+07
         0.27123E+06
         0.14639E+07
         0.22300E+07
         0.14586E+07
         0.18471E+07
         0.12339E+07
         0.37962E+06
         0.67561E+06
         0.61685E+06
        -0.65169E+05
         0.10556E+07
        -0.68760E+06
        -0.22567E+07
        -0.24042E+07
        -0.24470E+07
        -0.24392E+07
        -0.10013E+07
        -0.85461E+06
        -0.14482E+07
        -0.21701E+07
        -0.15452E+07
         0.98068E+04
         0.10394E+07
         0.26980E+06
        -0.38154E+06
        -0.10255E+06
         0.11471E+07
         0.42491E+06
         0.13535E+07
        -0.76603E+06
        -0.18826E+07
         0.71764E+06
        -0.21205E+07
        -0.20481E+07
        -0.12818E+07
        -0.37972E+06
        -0.30707E+07
        -0.21259E+07
         0.15532E+05
         0.54348E+06
         0.86387E+06
        -0.86091E+06
        -0.10134E+06
        -0.52908E+06
         0.25679E+06
        -0.11952E+07
        -0.69087E+06
        -0.23816E+07
        -0.54840E+06
        -0.41201E+07
        -0.27934E+07
        -0.16378E+07
        -0.21546E+07
        -0.21058E+06
        -0.35178E+06
         0.66208E+06
         0.13219E+07
        -0.59393E+05
        -0.17189E+06
        -0.89887E+05
        -0.22331E+07
        -0.22096E+07
        -0.16207E+07
        -0.41973E+06
        -0.70510E+06
        -0.66365E+06
        -0.13071E+07
        -0.12161E+07
        -0.15934E+07
        -0.84397E+06
        -0.34491E+06
        -0.39666E+06
         0.55690E+05
         0.55623E+06
         0.15177E+07
        -0.18687E+07
         0.61979E+06
        -0.13638E+07
         0.24420E+06
         0.14323E+07
         0.21999E+07
         0.14403E+07
         0.18236E+07
         0.12028E+07
         0.34880E+06
         0.63807E+06
         0.57967E+06
        -0.89793E+05
         0.10300E+07
        -0.70955E+06
        -0.22820E+07
        -0.24435E+07
        -0.24820E+07
        -0.24568E+07
        -0.10255E+07
        -0.87963E+06
        -0.14610E+07
        -0.21789E+07
        -0.15633E+07
        -0.14934E+05
         0.10149E+07
         0.26910E+06
        -0.38366E+06
        -0.10445E+06
         0.11448E+07
         0.42356E+06
         0.13509E+07
        -0.76740E+06
        -0.18845E+07
         0.71771E+06
        -0.21233E+07
        -0.20507E+07
        -0.12837E+07
        -0.38214E+06
        -0.30686E+07
        -0.21261E+07
         0.14107E+05
         0.54336E+06
         0.86236E+06
        -0.86232E+06
        -0.10140E+06
        -0.53242E+06
         0.25461E+06
        -0.11984E+07
        -0.69225E+06
        -0.23852E+07
        -0.54957E+06
        -0.41174E+07
        -0.27953E+07
        -0.16391E+07
        -0.21573E+07
        -0.21489E+06
        -0.35408E+06
         0.65576E+06
         0.13205E+07
        -0.62152E+05
        -0.17509E+06
        -0.93522E+05
        -0.22435E+07
        -0.22215E+07
        -0.16276E+07
        -0.42213E+06
        -0.70653E+06
        -0.66562E+06
        -0.13103E+07
        -0.12191E+07
        -0.15964E+07
        -0.84806E+06
        -0.34972E+06
        -0.40036E+06
         0.54564E+05
         0.55444E+06
         0.15156E+07
        -0.18693E+07
         0.62015E+06
        -0.13703E+07
         0.23377E+06
         0.14315E+07
         0.21995E+07
         0.14330E+07
         0.18040E+07
         0.11802E+07
         0.33644E+06
         0.63684E+06
         0.57592E+06
        -0.95979E+05
         0.10200E+07
        -0.72099E+06
        -0.22902E+07
        -0.24491E+07
        -0.24868E+07
        -0.24618E+07
        -0.10342E+07
        -0.89075E+06
        -0.14682E+07
        -0.21798E+07
        -0.15654E+07
        -0.25843E+05
         0.10051E+07
         0.28998E+06
        -0.36220E+06
        -0.86844E+05
         0.11568E+07
         0.44649E+06
         0.13673E+07
        -0.74591E+06
        -0.18611E+07
         0.73209E+06
        -0.21065E+07
        -0.20275E+07
        -0.12513E+07
        -0.35418E+06
        -0.30404E+07
        -0.20944E+07
         0.33111E+05
         0.55887E+06
         0.87558E+06
        -0.84310E+06
        -0.82676E+05
        -0.50585E+06
         0.27991E+06
        -0.11728E+07
        -0.67411E+06
        -0.23656E+07
        -0.53242E+06
        -0.40887E+07
        -0.27712E+07
        -0.16147E+07
        -0.21323E+07
        -0.19440E+06
        -0.33594E+06
         0.66839E+06
         0.13320E+07
        -0.35547E+05
        -0.15357E+06
        -0.70860E+05
        -0.22238E+07
        -0.21973E+07
        -0.16007E+07
        -0.39646E+06
        -0.68035E+06
        -0.64255E+06
        -0.12847E+07
        -0.11936E+07
        -0.15698E+07
        -0.82517E+06
        -0.32789E+06
        -0.38192E+06
         0.71446E+05
         0.57234E+06
         0.15313E+07
        -0.18140E+07
         0.67503E+06
        -0.13242E+07
         0.26727E+06
         0.14723E+07
         0.22514E+07
         0.14765E+07
         0.18371E+07
         0.12172E+07
         0.37700E+06
         0.67343E+06
         0.61870E+06
        -0.62031E+05
         0.10577E+07
        -0.67795E+06
        -0.22455E+07
        -0.23989E+07
        -0.24325E+07
        -0.24152E+07
        -0.98534E+06
        -0.84926E+06
        -0.14373E+07
        -0.21458E+07
        -0.15244E+07
         0.18488E+05
         0.10499E+07
         0.28145E+06
        -0.36816E+06
        -0.92429E+05
         0.11487E+07
         0.43625E+06
         0.13592E+07
        -0.75270E+06
        -0.18732E+07
         0.72183E+06
        -0.21244E+07
        -0.20388E+07
        -0.12626E+07
        -0.36100E+06
        -0.30511E+07
        -0.21091E+07
         0.22545E+05
         0.54820E+06
         0.86910E+06
        -0.85666E+06
        -0.91619E+05
        -0.51543E+06
         0.26731E+06
        -0.11817E+07
        -0.68461E+06
        -0.23812E+07
        -0.54169E+06
        -0.41011E+07
        -0.27795E+07
        -0.16154E+07
        -0.21390E+07
        -0.20052E+06
        -0.34384E+06
         0.65909E+06
         0.13235E+07
        -0.50843E+05
        -0.16227E+06
        -0.76703E+05
        -0.22475E+07
        -0.22140E+07
        -0.16082E+07
        -0.40872E+06
        -0.69388E+06
        -0.65842E+06
        -0.12969E+07
        -0.12059E+07
        -0.15812E+07
        -0.83504E+06
        -0.33483E+06
        -0.39016E+06
         0.60730E+05
         0.56089E+06
         0.15222E+07
        -0.18491E+07
         0.64535E+06
        -0.13515E+07
         0.25298E+06
         0.14674E+07
         0.22381E+07
         0.14471E+07
         0.18017E+07
         0.11827E+07
         0.34631E+06
         0.63725E+06
         0.57717E+06
        -0.91343E+05
         0.10431E+07
        -0.68475E+06
        -0.22500E+07
        -0.24135E+07
        -0.24573E+07
        -0.24335E+07
        -0.10071E+07
        -0.86933E+06
        -0.14598E+07
        -0.21699E+07
        -0.15394E+07
         0.45051E+04
         0.10267E+07
         0.26708E+06
        -0.38361E+06
        -0.10757E+06
         0.11379E+07
         0.42014E+06
         0.13442E+07
        -0.76403E+06
        -0.18873E+07
         0.70727E+06
        -0.21542E+07
        -0.20522E+07
        -0.12808E+07
        -0.37612E+06
        -0.30620E+07
        -0.21277E+07
         0.95356E+04
         0.53216E+06
         0.86158E+06
        -0.86786E+06
        -0.95606E+05
        -0.52716E+06
         0.25259E+06
        -0.11923E+07
        -0.69359E+06
        -0.24071E+07
        -0.55077E+06
        -0.41295E+07
        -0.27930E+07
        -0.15870E+07
        -0.21214E+07
        -0.21195E+06
        -0.35520E+06
         0.64986E+06
         0.13176E+07
        -0.68065E+05
        -0.17654E+06
        -0.90661E+05
        -0.22823E+07
        -0.22304E+07
        -0.15833E+07
        -0.41006E+06
        -0.70856E+06
        -0.67961E+06
        -0.13100E+07
        -0.12213E+07
        -0.15994E+07
        -0.85193E+06
        -0.34737E+06
        -0.39972E+06
         0.52212E+05
         0.55073E+06
         0.15111E+07
        -0.18724E+07
         0.62374E+06
        -0.13701E+07
         0.23689E+06
         0.14448E+07
         0.22017E+07
         0.14055E+07
         0.17621E+07
         0.11479E+07
         0.33827E+06
         0.57409E+06
         0.47778E+06
        -0.13254E+06
         0.10202E+07
        -0.70519E+06
        -0.22685E+07
        -0.24364E+07
        -0.24833E+07
        -0.24637E+07
        -0.10410E+07
        -0.89235E+06
        -0.14813E+07
        -0.21946E+07
        -0.15573E+07
        -0.23208E+05
         0.99566E+06
         0.28697E+06
        -0.36387E+06
        -0.88450E+05
         0.11526E+07
         0.44453E+06
         0.13620E+07
        -0.74514E+06
        -0.18642E+07
         0.71705E+06
        -0.21611E+07
        -0.20315E+07
        -0.12566E+07
        -0.35538E+06
        -0.30352E+07
        -0.20994E+07
         0.28750E+05
         0.54262E+06
         0.87399E+06
        -0.84556E+06
        -0.65271E+05
        -0.50512E+06
         0.27470E+06
        -0.11718E+07
        -0.67404E+06
        -0.24041E+07
        -0.53219E+06
        -0.41342E+07
        -0.27780E+07
        -0.15012E+07
        -0.20420E+07
        -0.19439E+06
        -0.33679E+06
         0.66213E+06
         0.13330E+07
        -0.39559E+05
        -0.15253E+06
        -0.69263E+05
        -0.22812E+07
        -0.22024E+07
        -0.14897E+07
        -0.36045E+06
        -0.68204E+06
        -0.66621E+06
        -0.12881E+07
        -0.11964E+07
        -0.15698E+07
        -0.82805E+06
        -0.32735E+06
        -0.37950E+06
         0.75025E+05
         0.57458E+06
         0.15297E+07
        -0.18155E+07
         0.67948E+06
        -0.13133E+07
         0.27680E+06
         0.14703E+07
         0.22312E+07
         0.14463E+07
         0.18035E+07
         0.11931E+07
         0.42663E+06
         0.55358E+06
         0.39779E+06
        -0.12955E+06
         0.10514E+07
        -0.67892E+06
        -0.22466E+07
        -0.24095E+07
        -0.24379E+07
        -0.24079E+07
        -0.98876E+06
        -0.84733E+06
        -0.14349E+07
        -0.21423E+07
        -0.15085E+07
         0.16374E+05
         0.10372E+07
         0.21345E+06
        -0.43577E+06
        -0.15787E+06
         0.10910E+07
         0.35578E+06
         0.12813E+07
        -0.81342E+06
        -0.19516E+07
         0.64009E+06
        -0.22701E+07
        -0.21163E+07
        -0.13708E+07
        -0.46128E+06
        -0.31288E+07
        -0.22168E+07
        -0.42795E+05
         0.46853E+06
         0.81909E+06
        -0.92241E+06
        -0.12601E+06
        -0.60464E+06
         0.17760E+06
        -0.12676E+07
        -0.74168E+06
        -0.25029E+07
        -0.59051E+06
        -0.42463E+07
        -0.28526E+07
        -0.15335E+07
        -0.20972E+07
        -0.26373E+06
        -0.40068E+06
         0.59585E+06
         0.12673E+07
        -0.14413E+06
        -0.24165E+06
        -0.16441E+06
        -0.24157E+07
        -0.23076E+07
        -0.15509E+07
        -0.45858E+06
        -0.78718E+06
        -0.77201E+06
        -0.13813E+07
        -0.12932E+07
        -0.16820E+07
        -0.92290E+06
        -0.41142E+06
        -0.45966E+06
        -0.13403E+05
         0.46796E+06
         0.14389E+07
        -0.20134E+07
         0.48735E+06
        -0.15133E+07
         0.73398E+05
         0.12674E+07
         0.20360E+07
         0.12479E+07
         0.15905E+07
         0.99312E+06
         0.24458E+06
         0.29988E+06
         0.12172E+06
        -0.32501E+06
         0.88919E+06
        -0.84890E+06
        -0.24234E+07
        -0.25924E+07
        -0.26423E+07
        -0.26178E+07
        -0.11898E+07
        -0.10340E+07
        -0.16135E+07
        -0.23252E+07
        -0.16962E+07
        -0.16386E+06
         0.85833E+06
         0.25575E+06
        -0.43065E+06
        -0.14506E+06
         0.11139E+07
         0.38493E+06
         0.13070E+07
        -0.80369E+06
        -0.19004E+07
         0.68952E+06
        -0.21957E+07
        -0.20942E+07
        -0.13685E+07
        -0.48827E+06
        -0.30668E+07
        -0.21650E+07
         0.13201E+05
         0.51578E+06
         0.84918E+06
        -0.88166E+06
        -0.89137E+05
        -0.56020E+06
         0.21088E+06
        -0.11989E+07
        -0.69052E+06
        -0.24214E+07
        -0.54613E+06
        -0.41508E+07
        -0.27676E+07
        -0.14617E+07
        -0.20169E+07
        -0.22024E+06
        -0.37159E+06
         0.61185E+06
         0.12577E+07
        -0.12823E+06
        -0.24861E+06
        -0.19143E+06
        -0.23545E+07
        -0.22338E+07
        -0.14860E+07
        -0.41475E+06
        -0.72729E+06
        -0.70890E+06
        -0.13189E+07
        -0.12587E+07
        -0.16650E+07
        -0.90909E+06
        -0.37529E+06
        -0.43248E+06
        -0.11451E+05
         0.47482E+06
         0.14406E+07
        -0.19372E+07
         0.58627E+06
        -0.14884E+07
         0.29500E+05
         0.11762E+07
         0.19806E+07
         0.13388E+07
         0.16841E+07
         0.10674E+07
         0.28871E+06
         0.31216E+06
         0.15943E+06
        -0.25109E+06
         0.92569E+06
        -0.77172E+06
        -0.23132E+07
        -0.24987E+07
        -0.25704E+07
        -0.25868E+07
        -0.11934E+07
        -0.99265E+06
        -0.15543E+07
        -0.22312E+07
        -0.15816E+07
        -0.73609E+05
         0.95184E+06
         0.28938E+09
         0.28576E+09
         0.28212E+09
         0.24535E+09
         0.34758E+09
         0.31414E+09
         0.28883E+09
         0.32864E+09
         0.27182E+09
         0.32866E+09
         0.33489E+09
         0.43724E+09
         0.38735E+09
         0.36136E+09
         0.45055E+09
         0.26936E+09
         0.26866E+09
         0.21383E+09
         0.28825E+09
         0.28044E+09
         0.35650E+09
         0.35870E+09
         0.33955E+09
         0.26399E+09
         0.31653E+09
         0.23160E+09
         0.35633E+09
         0.29785E+09
         0.31627E+09
         0.32942E+09
         0.26718E+09
         0.25795E+09
         0.24556E+09
         0.25460E+09
         0.39392E+09
         0.33834E+09
         0.34661E+09
         0.42343E+09
         0.40190E+09
         0.39404E+09
         0.41491E+09
         0.38958E+09
         0.36917E+09
         0.32602E+09
         0.33742E+09
         0.39670E+09
         0.34880E+09
         0.32020E+09
         0.30549E+09
         0.32363E+09
         0.37461E+09
         0.33120E+09
         0.72440E+09
         0.70966E+09
         0.72213E+09
         0.69886E+09
         0.72070E+09
         0.75590E+09
         0.75902E+09
         0.75074E+09
         0.75665E+09
         0.77786E+09
         0.75491E+09
         0.71202E+09
         0.63142E+09
         0.59606E+09
         0.60485E+09
         0.61878E+09
         0.62652E+09
         0.68248E+09
         0.73048E+09
         0.73362E+09
         0.67271E+09
         0.64872E+09
         0.67210E+09
         0.66561E+09
         0.66165E+09
         0.66306E+09
         0.33494E+10
         0.35093E+10
         0.34586E+10
         0.31558E+10
         0.38856E+10
         0.36495E+10
         0.37972E+10
         0.38263E+10
         0.32757E+10
         0.38243E+10
         0.41704E+10
         0.46724E+10
         0.42355E+10
         0.42917E+10
         0.48360E+10
         0.32097E+10
         0.34504E+10
         0.30107E+10
         0.35635E+10
         0.37497E+10
         0.38785E+10
         0.39636E+10
         0.37229E+10
         0.34272E+10
         0.38694E+10
         0.33069E+10
         0.42761E+10
         0.42039E+10
         0.42229E+10
         0.40065E+10
         0.32444E+10
         0.34122E+10
         0.31809E+10
         0.33268E+10
         0.42547E+10
         0.39038E+10
         0.39164E+10
         0.46830E+10
         0.45633E+10
         0.45087E+10
         0.45879E+10
         0.43565E+10
         0.41194E+10
         0.36345E+10
         0.37850E+10
         0.42526E+10
         0.39328E+10
         0.36978E+10
         0.36245E+10
         0.37580E+10
         0.40802E+10
         0.37692E+10
         0.67517E+10
         0.65766E+10
         0.67141E+10
         0.65019E+10
         0.66959E+10
         0.70413E+10
         0.71563E+10
         0.71425E+10
         0.71939E+10
         0.73591E+10
         0.71451E+10
         0.67144E+10
         0.60162E+10
         0.56843E+10
         0.56989E+10
         0.57715E+10
         0.58272E+10
         0.63218E+10
         0.67784E+10
         0.68056E+10
         0.62960E+10
         0.61004E+10
         0.63030E+10
         0.62586E+10
         0.61869E+10
         0.61696E+10
  
SCALARS                      stress_zz  double 1
LOOKUP_TABLE default
         0.10243E+13
         0.10110E+13
         0.10195E+13
         0.10346E+13
        -0.39947E+03
        -0.44795E+03
        -0.42892E+03
        -0.38966E+03
         0.10106E+13
         0.10151E+13
        -0.40282E+03
        -0.38982E+03
         0.99175E+12
         0.99104E+12
        -0.47863E+03
        -0.45003E+03
         0.10324E+13
         0.99208E+12
        -0.35366E+03
        -0.39226E+03
         0.97725E+12
         0.96573E+12
         0.98406E+12
        -0.47438E+03
        -0.41428E+03
        -0.42779E+03
         0.96618E+12
         0.94934E+12
        -0.45510E+03
        -0.38379E+03
         0.10317E+13
         0.10141E+13
         0.10486E+13
        -0.38836E+03
        -0.36104E+03
        -0.35102E+03
         0.10215E+13
         0.99918E+12
        -0.41087E+03
        -0.37492E+03
         0.10127E+13
         0.99543E+12
        -0.35511E+03
        -0.31437E+03
         0.10273E+13
         0.10337E+13
        -0.38915E+03
        -0.43482E+03
         0.98159E+12
        -0.38016E+03
         0.10325E+13
        -0.44671E+03
         0.96132E+12
        -0.40147E+03
         0.95603E+12
        -0.38509E+03
         0.95611E+12
         0.97492E+12
        -0.39236E+03
        -0.38212E+03
         0.10313E+13
         0.10246E+13
        -0.39344E+03
        -0.44478E+03
         0.10355E+13
        -0.37964E+03
         0.10275E+13
        -0.41433E+03
         0.10064E+13
         0.10043E+13
        -0.39883E+03
        -0.41790E+03
         0.99955E+12
        -0.42141E+03
         0.94335E+12
        -0.33294E+03
         0.94039E+12
        -0.32317E+03
         0.94186E+12
        -0.34076E+03
         0.95001E+12
         0.95848E+12
        -0.32466E+03
        -0.33848E+03
         0.97552E+12
        -0.31525E+03
         0.10269E+13
        -0.41340E+03
         0.10189E+13
        -0.42311E+03
         0.10123E+13
         0.10087E+13
        -0.40632E+03
        -0.41107E+03
         0.10132E+13
        -0.37337E+03
         0.10163E+13
        -0.36804E+03
         0.10135E+13
        -0.39399E+03
         0.10125E+13
         0.10154E+13
        -0.38637E+03
        -0.39770E+03
         0.99660E+12
         0.10042E+13
        -0.29998E+03
        -0.28214E+03
         0.99515E+12
        -0.28644E+03
         0.10039E+13
        -0.27465E+03
         0.99527E+12
        -0.27082E+03
         0.97605E+12
        -0.25593E+03
         0.95740E+12
        -0.22736E+03
         0.94623E+12
        -0.20473E+03
         0.94509E+12
        -0.20331E+03
         0.94544E+12
        -0.22047E+03
         0.95757E+12
        -0.23171E+03
         0.98020E+12
        -0.21158E+03
         0.10050E+13
        -0.19071E+03
         0.10195E+13
        -0.19050E+03
         0.10339E+13
        -0.21293E+03
         0.10433E+13
        -0.24279E+03
         0.10430E+13
        -0.26083E+03
         0.10200E+13
        -0.28169E+03
         0.10039E+13
        -0.30179E+03
         0.99843E+12
        -0.27646E+03
         0.10070E+13
        -0.24253E+03
         0.10115E+13
        -0.24178E+03
         0.10040E+13
        -0.26454E+03
         0.10041E+13
        -0.28202E+03
         0.10098E+13
        -0.26763E+03
         0.10172E+13
        -0.25874E+03
        -0.30195E+11
        -0.29776E+11
        -0.29835E+11
        -0.30363E+11
        -0.29339E+11
        -0.29884E+11
        -0.29200E+11
        -0.29567E+11
        -0.30284E+11
        -0.29850E+11
        -0.28784E+11
        -0.28653E+11
        -0.28999E+11
        -0.29022E+11
        -0.28801E+11
        -0.30340E+11
        -0.30245E+11
        -0.30504E+11
        -0.29729E+11
        -0.29880E+11
        -0.29663E+11
        -0.29807E+11
        -0.29537E+11
        -0.29608E+11
        -0.29867E+11
        -0.29849E+11
        -0.29398E+11
        -0.29440E+11
        -0.29085E+11
        -0.29615E+11
        -0.30293E+11
        -0.29770E+11
        -0.30290E+11
        -0.29953E+11
        -0.28560E+11
        -0.29039E+11
        -0.29256E+11
        -0.29000E+11
        -0.28966E+11
        -0.28525E+11
        -0.28190E+11
        -0.28985E+11
        -0.29672E+11
        -0.29583E+11
        -0.29235E+11
        -0.28579E+11
        -0.29142E+11
        -0.29699E+11
        -0.29662E+11
        -0.29233E+11
        -0.28764E+11
        -0.29389E+11
        -0.27325E+11
        -0.27983E+11
        -0.27877E+11
        -0.28026E+11
        -0.27988E+11
        -0.27639E+11
        -0.27268E+11
        -0.27145E+11
        -0.27198E+11
        -0.27160E+11
        -0.26997E+11
        -0.27955E+11
        -0.28293E+11
        -0.28419E+11
        -0.28631E+11
        -0.28789E+11
        -0.28782E+11
        -0.28512E+11
        -0.27549E+11
        -0.27788E+11
        -0.28121E+11
        -0.28118E+11
        -0.28061E+11
        -0.27739E+11
        -0.28210E+11
        -0.28378E+11
         0.28320E+07
         0.17180E+07
         0.20050E+07
         0.30822E+07
         0.23169E+07
         0.32210E+07
        -0.16440E+06
        -0.98130E+05
         0.34367E+07
        -0.27081E+06
        -0.15121E+07
         0.11356E+07
         0.15968E+07
        -0.32662E+07
         0.13110E+04
         0.15470E+07
         0.21977E+07
         0.26005E+07
         0.79316E+06
         0.74627E+06
         0.87729E+06
         0.17397E+07
         0.20920E+06
         0.11013E+06
        -0.98010E+06
        -0.32741E+05
        -0.48969E+07
        -0.58495E+07
        -0.26549E+07
        -0.65579E+06
         0.14300E+07
         0.47900E+06
         0.26979E+07
         0.38983E+07
         0.11683E+07
         0.10529E+07
         0.15081E+07
        -0.29207E+06
        -0.14389E+06
         0.43232E+06
         0.12447E+07
         0.74989E+06
         0.94752E+06
         0.26464E+06
         0.37050E+06
         0.63418E+06
         0.11067E+07
         0.13789E+07
         0.19036E+07
         0.25449E+07
         0.24975E+07
         0.31757E+07
        -0.32374E+06
         0.23291E+07
         0.65777E+06
         0.27096E+07
         0.43699E+07
         0.55165E+07
         0.47547E+07
         0.50897E+07
         0.43997E+07
         0.33028E+07
         0.29435E+07
         0.25277E+07
         0.16480E+07
         0.27109E+07
         0.90126E+06
        -0.38372E+06
        -0.16170E+06
        -0.73898E+05
         0.38741E+06
         0.21607E+07
         0.22097E+07
         0.15698E+07
         0.64514E+06
         0.63852E+06
         0.17797E+07
         0.28367E+07
         0.27284E+07
         0.16000E+07
         0.18869E+07
         0.29645E+07
         0.21942E+07
         0.30993E+07
        -0.31632E+06
        -0.21726E+06
         0.33160E+07
        -0.40103E+06
        -0.16675E+07
         0.99266E+06
         0.14683E+07
        -0.34067E+07
        -0.13972E+06
         0.14284E+07
         0.20435E+07
         0.24699E+07
         0.64833E+06
         0.56560E+06
         0.75019E+06
         0.16147E+07
         0.76667E+05
        -0.50861E+05
        -0.11335E+07
        -0.19893E+06
        -0.50311E+07
        -0.60308E+07
        -0.28436E+07
        -0.81360E+06
         0.13117E+07
         0.32880E+06
         0.25783E+07
         0.37740E+07
         0.10359E+07
         0.92702E+06
         0.13872E+07
        -0.43778E+06
        -0.28481E+06
         0.29147E+06
         0.11010E+07
         0.60752E+06
         0.81208E+06
         0.13368E+06
         0.24403E+06
         0.50218E+06
         0.97694E+06
         0.12528E+07
         0.17834E+07
         0.24286E+07
         0.23743E+07
         0.30558E+07
        -0.53396E+06
         0.21243E+07
         0.45668E+06
         0.25170E+07
         0.41668E+07
         0.52911E+07
         0.45291E+07
         0.48603E+07
         0.41674E+07
         0.30662E+07
         0.27078E+07
         0.23097E+07
         0.14640E+07
         0.25385E+07
         0.72173E+06
        -0.57470E+06
        -0.35647E+06
        -0.27650E+06
         0.18347E+06
         0.19454E+07
         0.20053E+07
         0.13847E+07
         0.46027E+06
         0.44899E+06
         0.15885E+07
         0.26420E+07
         0.27527E+07
         0.16233E+07
         0.19122E+07
         0.29958E+07
         0.22264E+07
         0.31322E+07
        -0.28237E+06
        -0.18993E+06
         0.33357E+07
        -0.39441E+06
        -0.16360E+07
         0.10200E+07
         0.14928E+07
        -0.33753E+07
        -0.10486E+06
         0.14047E+07
         0.20355E+07
         0.25031E+07
         0.61287E+06
         0.52994E+06
         0.72918E+06
         0.16066E+07
        -0.10263E+05
        -0.16705E+06
        -0.11972E+07
        -0.31541E+06
        -0.50040E+07
        -0.60559E+07
        -0.29173E+07
        -0.92346E+06
         0.13121E+07
         0.29459E+06
         0.26107E+07
         0.38143E+07
         0.10705E+07
         0.95871E+06
         0.14140E+07
        -0.41219E+06
        -0.26135E+06
         0.29970E+06
         0.10975E+07
         0.55584E+06
         0.73914E+06
         0.46001E+05
         0.22233E+06
         0.52032E+06
         0.10005E+07
         0.12812E+07
         0.18161E+07
         0.24645E+07
         0.24093E+07
         0.30900E+07
        -0.47147E+06
         0.21803E+07
         0.51864E+06
         0.25648E+07
         0.42020E+07
         0.53260E+07
         0.45738E+07
         0.49054E+07
         0.42132E+07
         0.31134E+07
         0.27356E+07
         0.23086E+07
         0.14669E+07
         0.25702E+07
         0.74268E+06
        -0.61332E+06
        -0.39835E+06
        -0.26565E+06
         0.23944E+06
         0.20101E+07
         0.20635E+07
         0.14437E+07
         0.52612E+06
         0.50440E+06
         0.16335E+07
         0.26856E+07
         0.27381E+07
         0.16134E+07
         0.19024E+07
         0.29771E+07
         0.22149E+07
         0.31220E+07
        -0.29322E+06
        -0.20519E+06
         0.33008E+07
        -0.44954E+06
        -0.16520E+07
         0.10052E+07
         0.14825E+07
        -0.33942E+07
        -0.12220E+06
         0.13105E+07
         0.19449E+07
         0.24784E+07
         0.48643E+06
         0.37757E+06
         0.63275E+06
         0.15202E+07
        -0.21254E+06
        -0.42689E+06
        -0.13795E+07
        -0.58068E+06
        -0.50401E+07
        -0.62027E+07
        -0.31503E+07
        -0.11885E+07
         0.12548E+07
         0.15925E+06
         0.25924E+07
         0.37937E+07
         0.10534E+07
         0.94600E+06
         0.14043E+07
        -0.43881E+06
        -0.29541E+06
         0.23600E+06
         0.10161E+07
         0.39464E+06
         0.54134E+06
        -0.16064E+06
         0.11766E+06
         0.46716E+06
         0.95876E+06
         0.12578E+07
         0.17954E+07
         0.24425E+07
         0.23907E+07
         0.30770E+07
        -0.50093E+06
         0.21601E+07
         0.48682E+06
         0.25370E+07
         0.41833E+07
         0.53046E+07
         0.45377E+07
         0.48662E+07
         0.41752E+07
         0.30676E+07
         0.26630E+07
         0.21914E+07
         0.13554E+07
         0.25171E+07
         0.68345E+06
        -0.77569E+06
        -0.57010E+06
        -0.34566E+06
         0.20124E+06
         0.19738E+07
         0.20357E+07
         0.14107E+07
         0.49170E+06
         0.48092E+06
         0.16157E+07
         0.26679E+07
         0.27113E+07
         0.15931E+07
         0.18853E+07
         0.29577E+07
         0.22016E+07
         0.31076E+07
        -0.31144E+06
        -0.23071E+06
         0.32589E+07
        -0.50700E+06
        -0.16690E+07
         0.99599E+06
         0.14711E+07
        -0.34148E+07
        -0.13038E+06
         0.12468E+07
         0.18734E+07
         0.24554E+07
         0.40334E+06
         0.26729E+06
         0.57066E+06
         0.14582E+07
        -0.33680E+06
        -0.58794E+06
        -0.15097E+07
        -0.75060E+06
        -0.50716E+07
        -0.63085E+07
        -0.33100E+07
        -0.13642E+07
         0.11950E+07
         0.60955E+05
         0.25564E+07
         0.37652E+07
         0.10358E+07
         0.92975E+06
         0.13898E+07
        -0.45853E+06
        -0.32350E+06
         0.18783E+06
         0.95877E+06
         0.28632E+06
         0.41162E+06
        -0.29191E+06
         0.48685E+05
         0.43209E+06
         0.92178E+06
         0.12203E+07
         0.17597E+07
         0.24100E+07
         0.23618E+07
         0.30558E+07
        -0.52744E+06
         0.21424E+07
         0.45972E+06
         0.25154E+07
         0.41745E+07
         0.52983E+07
         0.45223E+07
         0.48403E+07
         0.41429E+07
         0.30391E+07
         0.26187E+07
         0.21102E+07
         0.12794E+07
         0.24761E+07
         0.64163E+06
        -0.88086E+06
        -0.69064E+06
        -0.40284E+06
         0.18386E+06
         0.19409E+07
         0.19988E+07
         0.13729E+07
         0.44743E+06
         0.44287E+06
         0.15923E+07
         0.26503E+07
         0.26465E+07
         0.15543E+07
         0.18685E+07
         0.29738E+07
         0.22182E+07
         0.31307E+07
        -0.32345E+06
        -0.27562E+06
         0.32004E+07
        -0.58496E+06
        -0.16556E+07
         0.10279E+07
         0.14840E+07
        -0.34117E+07
        -0.90421E+05
         0.12586E+07
         0.18569E+07
         0.24894E+07
         0.42072E+06
         0.28137E+06
         0.58867E+06
         0.14800E+07
        -0.33402E+06
        -0.59119E+06
        -0.15631E+07
        -0.77448E+06
        -0.50786E+07
        -0.63209E+07
        -0.32975E+07
        -0.13694E+07
         0.11235E+07
         0.91071E+04
         0.24959E+07
         0.37580E+07
         0.10511E+07
         0.93143E+06
         0.13871E+07
        -0.43260E+06
        -0.29962E+06
         0.21438E+06
         0.98689E+06
         0.30353E+06
         0.42551E+06
        -0.30022E+06
         0.39845E+05
         0.42627E+06
         0.88977E+06
         0.11446E+07
         0.16722E+07
         0.23657E+07
         0.23523E+07
         0.30661E+07
        -0.47608E+06
         0.21954E+07
         0.50285E+06
         0.25443E+07
         0.42047E+07
         0.53392E+07
         0.45688E+07
         0.48853E+07
         0.41945E+07
         0.31071E+07
         0.26782E+07
         0.21461E+07
         0.13195E+07
         0.25180E+07
         0.68196E+06
        -0.84872E+06
        -0.66744E+06
        -0.37984E+06
         0.21149E+06
         0.19599E+07
         0.19945E+07
         0.13466E+07
         0.42999E+06
         0.45151E+06
         0.16180E+07
         0.26873E+07
         0.25478E+07
         0.14855E+07
         0.18279E+07
         0.29621E+07
         0.22051E+07
         0.31295E+07
        -0.38320E+06
        -0.36354E+06
         0.31018E+07
        -0.70047E+06
        -0.16926E+07
         0.10157E+07
         0.14632E+07
        -0.34584E+07
        -0.98813E+05
         0.12396E+07
         0.17984E+07
         0.24813E+07
         0.40643E+06
         0.25453E+06
         0.57997E+06
         0.14739E+07
        -0.34381E+06
        -0.61073E+06
        -0.16403E+07
        -0.81751E+06
        -0.51326E+07
        -0.63752E+07
        -0.33116E+07
        -0.13895E+07
         0.10234E+07
        -0.76033E+05
         0.24035E+07
         0.37200E+07
         0.10305E+07
         0.90510E+06
         0.13586E+07
        -0.45330E+06
        -0.31973E+06
         0.20340E+06
         0.98208E+06
         0.30127E+06
         0.42427E+06
        -0.32023E+06
         0.16723E+04
         0.37668E+06
         0.81599E+06
         0.10307E+07
         0.15475E+07
         0.22882E+07
         0.23135E+07
         0.30518E+07
        -0.49771E+06
         0.21786E+07
         0.48998E+06
         0.25297E+07
         0.41836E+07
         0.53141E+07
         0.45479E+07
         0.48673E+07
         0.41763E+07
         0.30935E+07
         0.26674E+07
         0.21330E+07
         0.13172E+07
         0.25147E+07
         0.67314E+06
        -0.85363E+06
        -0.67761E+06
        -0.41604E+06
         0.15746E+06
         0.19005E+07
         0.19273E+07
         0.12633E+07
         0.35704E+06
         0.41278E+06
         0.15971E+07
         0.26710E+07
         0.25190E+07
         0.14600E+07
         0.18112E+07
         0.29462E+07
         0.21909E+07
         0.31156E+07
        -0.41251E+06
        -0.39370E+06
         0.30727E+07
        -0.73440E+06
        -0.17188E+07
         0.99854E+06
         0.14428E+07
        -0.34854E+07
        -0.11321E+06
         0.12225E+07
         0.17749E+07
         0.24631E+07
         0.39335E+06
         0.23325E+06
         0.56630E+06
         0.14596E+07
        -0.35670E+06
        -0.62569E+06
        -0.16655E+07
        -0.84204E+06
        -0.51553E+07
        -0.64042E+07
        -0.33383E+07
        -0.14085E+07
         0.99089E+06
        -0.10993E+06
         0.23738E+07
         0.36986E+07
         0.10131E+07
         0.89084E+06
         0.13412E+07
        -0.47947E+06
        -0.34307E+06
         0.17943E+06
         0.95806E+06
         0.28203E+06
         0.41190E+06
        -0.33812E+06
        -0.21137E+05
         0.35348E+06
         0.79161E+06
         0.10025E+07
         0.15165E+07
         0.22614E+07
         0.22896E+07
         0.30338E+07
        -0.52736E+06
         0.21496E+07
         0.47029E+06
         0.25095E+07
         0.41592E+07
         0.52927E+07
         0.45259E+07
         0.48367E+07
         0.41359E+07
         0.30512E+07
         0.26290E+07
         0.21157E+07
         0.13033E+07
         0.24848E+07
         0.64204E+06
        -0.88308E+06
        -0.71588E+06
        -0.45255E+06
         0.12666E+06
         0.18756E+07
         0.19068E+07
         0.12356E+07
         0.32029E+06
         0.37852E+06
         0.15684E+07
         0.26425E+07
         0.25373E+07
         0.14773E+07
         0.18242E+07
         0.29512E+07
         0.22063E+07
         0.31201E+07
        -0.38918E+06
        -0.37107E+06
         0.30914E+07
        -0.71128E+06
        -0.16998E+07
         0.10159E+07
         0.14560E+07
        -0.34627E+07
        -0.85837E+05
         0.12450E+07
         0.17976E+07
         0.24779E+07
         0.41874E+06
         0.25732E+06
         0.58469E+06
         0.14770E+07
        -0.33775E+06
        -0.59910E+06
        -0.16416E+07
        -0.81522E+06
        -0.51214E+07
        -0.63711E+07
        -0.33103E+07
        -0.13882E+07
         0.10103E+07
        -0.90840E+05
         0.23889E+07
         0.37056E+07
         0.10329E+07
         0.90718E+06
         0.13547E+07
        -0.46009E+06
        -0.32658E+06
         0.19414E+06
         0.97467E+06
         0.30037E+06
         0.43054E+06
        -0.32060E+06
        -0.63181E+04
         0.36831E+06
         0.80751E+06
         0.10222E+07
         0.15366E+07
         0.22765E+07
         0.22998E+07
         0.30384E+07
        -0.48351E+06
         0.21926E+07
         0.49592E+06
         0.25201E+07
         0.41805E+07
         0.53259E+07
         0.45629E+07
         0.48634E+07
         0.41461E+07
         0.30668E+07
         0.26573E+07
         0.21558E+07
         0.13387E+07
         0.25079E+07
         0.66370E+06
        -0.85811E+06
        -0.69063E+06
        -0.42150E+06
         0.15614E+06
         0.19102E+07
         0.19426E+07
         0.12676E+07
         0.34690E+06
         0.40218E+06
         0.15921E+07
         0.26682E+07
         0.25327E+07
         0.14758E+07
         0.18209E+07
         0.29406E+07
         0.22034E+07
         0.31127E+07
        -0.39105E+06
        -0.37885E+06
         0.30769E+07
        -0.72378E+06
        -0.17107E+07
         0.10055E+07
         0.14529E+07
        -0.34774E+07
        -0.10098E+06
         0.12345E+07
         0.17825E+07
         0.24584E+07
         0.40798E+06
         0.24039E+06
         0.57762E+06
         0.14679E+07
        -0.34440E+06
        -0.60890E+06
        -0.16467E+07
        -0.82542E+06
        -0.51282E+07
        -0.63746E+07
        -0.33148E+07
        -0.13965E+07
         0.10003E+07
        -0.10138E+06
         0.23728E+07
         0.36897E+07
         0.10265E+07
         0.90076E+06
         0.13507E+07
        -0.48266E+06
        -0.33934E+06
         0.18228E+06
         0.96305E+06
         0.29302E+06
         0.41998E+06
        -0.32565E+06
        -0.11646E+05
         0.36092E+06
         0.79617E+06
         0.10093E+07
         0.15242E+07
         0.22660E+07
         0.22904E+07
         0.30281E+07
        -0.49636E+06
         0.21825E+07
         0.47534E+06
         0.25026E+07
         0.41781E+07
         0.53136E+07
         0.45343E+07
         0.48313E+07
         0.41272E+07
         0.30386E+07
         0.26265E+07
         0.21405E+07
         0.13204E+07
         0.24978E+07
         0.65433E+06
        -0.86683E+06
        -0.69200E+06
        -0.42761E+06
         0.14729E+06
         0.18868E+07
         0.19134E+07
         0.12451E+07
         0.33535E+06
         0.39648E+06
         0.15791E+07
         0.26500E+07
         0.25195E+07
         0.14628E+07
         0.18114E+07
         0.29346E+07
         0.21935E+07
         0.31081E+07
        -0.40183E+06
        -0.39057E+06
         0.30638E+07
        -0.73623E+06
        -0.17230E+07
         0.99163E+06
         0.14437E+07
        -0.34894E+07
        -0.11647E+06
         0.12198E+07
         0.17707E+07
         0.24466E+07
         0.39472E+06
         0.22718E+06
         0.56850E+06
         0.14586E+07
        -0.35453E+06
        -0.62421E+06
        -0.16516E+07
        -0.84461E+06
        -0.51329E+07
        -0.63822E+07
        -0.33204E+07
        -0.14023E+07
         0.98588E+06
        -0.11852E+06
         0.23638E+07
         0.36867E+07
         0.10112E+07
         0.88956E+06
         0.13413E+07
        -0.50449E+06
        -0.35367E+06
         0.17197E+06
         0.95645E+06
         0.28679E+06
         0.41035E+06
        -0.33524E+06
        -0.21125E+05
         0.35097E+06
         0.78559E+06
         0.99810E+06
         0.15124E+07
         0.22568E+07
         0.22815E+07
         0.30237E+07
        -0.52196E+06
         0.21612E+07
         0.45966E+06
         0.24973E+07
         0.41711E+07
         0.52888E+07
         0.44985E+07
         0.48024E+07
         0.41077E+07
         0.30182E+07
         0.26139E+07
         0.21253E+07
         0.12984E+07
         0.24828E+07
         0.63871E+06
        -0.88485E+06
        -0.70396E+06
        -0.44167E+06
         0.12988E+06
         0.18675E+07
         0.18912E+07
         0.12220E+07
         0.31870E+06
         0.38068E+06
         0.15594E+07
         0.26293E+07
         0.25282E+07
         0.14682E+07
         0.18162E+07
         0.29436E+07
         0.22039E+07
         0.31189E+07
        -0.38615E+06
        -0.37472E+06
         0.30723E+07
        -0.72592E+06
        -0.17050E+07
         0.10035E+07
         0.14477E+07
        -0.34688E+07
        -0.91090E+05
         0.12324E+07
         0.17799E+07
         0.24614E+07
         0.41012E+06
         0.24617E+06
         0.58319E+06
         0.14743E+07
        -0.34171E+06
        -0.60783E+06
        -0.16387E+07
        -0.82761E+06
        -0.51110E+07
        -0.63610E+07
        -0.32894E+07
        -0.13803E+07
         0.10012E+07
        -0.10558E+06
         0.23821E+07
         0.37041E+07
         0.10234E+07
         0.90004E+06
         0.13470E+07
        -0.48886E+06
        -0.33730E+06
         0.19329E+06
         0.97495E+06
         0.30076E+06
         0.42535E+06
        -0.32451E+06
        -0.12148E+05
         0.35922E+06
         0.79526E+06
         0.10100E+07
         0.15256E+07
         0.22697E+07
         0.22922E+07
         0.30361E+07
        -0.48993E+06
         0.21959E+07
         0.49226E+06
         0.25133E+07
         0.41658E+07
         0.52905E+07
         0.45241E+07
         0.48310E+07
         0.41270E+07
         0.30474E+07
         0.26416E+07
         0.21385E+07
         0.13221E+07
         0.25069E+07
         0.66060E+06
        -0.86798E+06
        -0.69262E+06
        -0.42746E+06
         0.14323E+06
         0.18883E+07
         0.19159E+07
         0.12458E+07
         0.33918E+06
         0.39806E+06
         0.15852E+07
         0.26595E+07
         0.25221E+07
         0.14578E+07
         0.18070E+07
         0.29317E+07
         0.21938E+07
         0.31083E+07
        -0.40030E+06
        -0.38528E+06
         0.30617E+07
        -0.74142E+06
        -0.17228E+07
         0.98630E+06
         0.14290E+07
        -0.34871E+07
        -0.10204E+06
         0.12206E+07
         0.17645E+07
         0.24408E+07
         0.39379E+06
         0.22650E+06
         0.56671E+06
         0.14575E+07
        -0.35907E+06
        -0.62552E+06
        -0.16523E+07
        -0.84444E+06
        -0.51303E+07
        -0.63886E+07
        -0.33084E+07
        -0.13915E+07
         0.98781E+06
        -0.12181E+06
         0.23625E+07
         0.36898E+07
         0.10088E+07
         0.88696E+06
         0.13316E+07
        -0.51267E+06
        -0.36075E+06
         0.17269E+06
         0.95254E+06
         0.27970E+06
         0.40891E+06
        -0.34410E+06
        -0.29529E+05
         0.34471E+06
         0.78016E+06
         0.99251E+06
         0.15104E+07
         0.22593E+07
         0.22803E+07
         0.30244E+07
        -0.51522E+06
         0.21741E+07
         0.46745E+06
         0.24848E+07
         0.41326E+07
         0.52588E+07
         0.45046E+07
         0.48059E+07
         0.40940E+07
         0.30148E+07
         0.26019E+07
         0.20993E+07
         0.12958E+07
         0.24795E+07
         0.63725E+06
        -0.89459E+06
        -0.73375E+06
        -0.46416E+06
         0.12477E+06
         0.18628E+07
         0.18894E+07
         0.12321E+07
         0.32978E+06
         0.37855E+06
         0.15586E+07
         0.26331E+07
         0.25211E+07
         0.14543E+07
         0.18043E+07
         0.29281E+07
         0.21926E+07
         0.31054E+07
        -0.40108E+06
        -0.38569E+06
         0.30623E+07
        -0.74093E+06
        -0.17252E+07
         0.98397E+06
         0.14260E+07
        -0.34880E+07
        -0.10101E+06
         0.12185E+07
         0.17654E+07
         0.24352E+07
         0.39251E+06
         0.22345E+06
         0.56321E+06
         0.14549E+07
        -0.36288E+06
        -0.62879E+06
        -0.16507E+07
        -0.84934E+06
        -0.51255E+07
        -0.63924E+07
        -0.33107E+07
        -0.13931E+07
         0.98082E+06
        -0.12835E+06
         0.23548E+07
         0.36867E+07
         0.10054E+07
         0.88281E+06
         0.13270E+07
        -0.52393E+06
        -0.37382E+06
         0.16469E+06
         0.95016E+06
         0.27796E+06
         0.40669E+06
        -0.34735E+06
        -0.32721E+05
         0.34129E+06
         0.77530E+06
         0.98567E+06
         0.15044E+07
         0.22572E+07
         0.22781E+07
         0.30217E+07
        -0.51598E+06
         0.21745E+07
         0.46071E+06
         0.24737E+07
         0.41319E+07
         0.52582E+07
         0.44967E+07
         0.47850E+07
         0.40702E+07
         0.30016E+07
         0.26006E+07
         0.20955E+07
         0.12892E+07
         0.24689E+07
         0.62509E+06
        -0.90311E+06
        -0.73932E+06
        -0.46898E+06
         0.11952E+06
         0.18536E+07
         0.18777E+07
         0.12246E+07
         0.32886E+06
         0.37594E+06
         0.15467E+07
         0.26223E+07
         0.25484E+07
         0.14872E+07
         0.18323E+07
         0.29515E+07
         0.22232E+07
         0.31300E+07
        -0.35369E+06
        -0.35280E+06
         0.30845E+07
        -0.71457E+06
        -0.16826E+07
         0.10214E+07
         0.14598E+07
        -0.34511E+07
        -0.63294E+05
         0.12456E+07
         0.17963E+07
         0.24641E+07
         0.42585E+06
         0.26420E+06
         0.59575E+06
         0.14858E+07
        -0.33153E+06
        -0.59339E+06
        -0.16138E+07
        -0.81146E+06
        -0.50828E+07
        -0.63355E+07
        -0.32529E+07
        -0.13533E+07
         0.10114E+07
        -0.91568E+05
         0.23829E+07
         0.37100E+07
         0.10381E+07
         0.91320E+06
         0.13566E+07
        -0.49950E+06
        -0.34212E+06
         0.19910E+06
         0.98101E+06
         0.30944E+06
         0.43458E+06
        -0.31427E+06
         0.96238E+03
         0.37392E+06
         0.80623E+06
         0.10159E+07
         0.15313E+07
         0.22804E+07
         0.23004E+07
         0.30433E+07
        -0.45768E+06
         0.22325E+07
         0.50951E+06
         0.25091E+07
         0.41749E+07
         0.53126E+07
         0.45423E+07
         0.48198E+07
         0.41094E+07
         0.30443E+07
         0.26391E+07
         0.21407E+07
         0.13255E+07
         0.25093E+07
         0.67094E+06
        -0.85547E+06
        -0.68577E+06
        -0.41155E+06
         0.16885E+06
         0.19051E+07
         0.19218E+07
         0.12575E+07
         0.36493E+06
         0.41900E+06
         0.15934E+07
         0.26695E+07
         0.25371E+07
         0.14779E+07
         0.18238E+07
         0.29369E+07
         0.22104E+07
         0.31191E+07
        -0.36609E+06
        -0.36660E+06
         0.30695E+07
        -0.73414E+06
        -0.17000E+07
         0.10082E+07
         0.14515E+07
        -0.34704E+07
        -0.79142E+05
         0.12304E+07
         0.17770E+07
         0.24470E+07
         0.40420E+06
         0.24044E+06
         0.58473E+06
         0.14706E+07
        -0.34221E+06
        -0.61474E+06
        -0.16305E+07
        -0.83522E+06
        -0.51000E+07
        -0.63543E+07
        -0.32538E+07
        -0.13609E+07
         0.10017E+07
        -0.10994E+06
         0.23695E+07
         0.36926E+07
         0.10193E+07
         0.90136E+06
         0.13492E+07
        -0.52648E+06
        -0.36109E+06
         0.19032E+06
         0.96694E+06
         0.29315E+06
         0.41563E+06
        -0.32885E+06
        -0.14170E+05
         0.36027E+06
         0.79369E+06
         0.10061E+07
         0.15185E+07
         0.22648E+07
         0.22862E+07
         0.30312E+07
        -0.49497E+06
         0.22011E+07
         0.48086E+06
         0.24940E+07
         0.41697E+07
         0.52985E+07
         0.45111E+07
         0.47821E+07
         0.40728E+07
         0.30119E+07
         0.26009E+07
         0.20970E+07
         0.12942E+07
         0.24937E+07
         0.66372E+06
        -0.86004E+06
        -0.70073E+06
        -0.43746E+06
         0.14950E+06
         0.18821E+07
         0.19005E+07
         0.12336E+07
         0.33932E+06
         0.40272E+06
         0.15782E+07
         0.26445E+07
         0.25182E+07
         0.14539E+07
         0.18002E+07
         0.29173E+07
         0.21900E+07
         0.30983E+07
        -0.38793E+06
        -0.38309E+06
         0.30479E+07
        -0.76964E+06
        -0.17214E+07
         0.98684E+06
         0.14332E+07
        -0.34902E+07
        -0.99296E+05
         0.12117E+07
         0.17475E+07
         0.24275E+07
         0.38652E+06
         0.22825E+06
         0.57112E+06
         0.14527E+07
        -0.35511E+06
        -0.63303E+06
        -0.16626E+07
        -0.85855E+06
        -0.51407E+07
        -0.63849E+07
        -0.31866E+07
        -0.13324E+07
         0.98396E+06
        -0.13570E+06
         0.23562E+07
         0.36806E+07
         0.99807E+06
         0.88176E+06
         0.13311E+07
        -0.56651E+06
        -0.37973E+06
         0.22210E+06
         0.96582E+06
         0.27548E+06
         0.39028E+06
        -0.34463E+06
        -0.33443E+05
         0.33842E+06
         0.77180E+06
         0.98855E+06
         0.15037E+07
         0.22523E+07
         0.22735E+07
         0.30163E+07
        -0.51987E+06
         0.21783E+07
         0.46136E+06
         0.24771E+07
         0.41460E+07
         0.52601E+07
         0.44672E+07
         0.47401E+07
         0.40360E+07
         0.30033E+07
         0.25341E+07
         0.19920E+07
         0.12502E+07
         0.24692E+07
         0.64198E+06
        -0.87939E+06
        -0.72464E+06
        -0.46464E+06
         0.11773E+06
         0.18462E+07
         0.18762E+07
         0.12108E+07
         0.31322E+06
         0.38336E+06
         0.15485E+07
         0.26113E+07
         0.25441E+07
         0.14841E+07
         0.18305E+07
         0.29457E+07
         0.22225E+07
         0.31249E+07
        -0.34626E+06
        -0.35070E+06
         0.30632E+07
        -0.77468E+06
        -0.16829E+07
         0.10148E+07
         0.14583E+07
        -0.34554E+07
        -0.65574E+05
         0.12391E+07
         0.17688E+07
         0.24545E+07
         0.42496E+06
         0.29629E+06
         0.59819E+06
         0.14797E+07
        -0.32989E+06
        -0.59485E+06
        -0.16512E+07
        -0.81726E+06
        -0.51470E+07
        -0.63494E+07
        -0.29854E+07
        -0.12122E+07
         0.10101E+07
        -0.98289E+05
         0.23837E+07
         0.37115E+07
         0.10332E+07
         0.91563E+06
         0.13591E+07
        -0.56404E+06
        -0.34352E+06
         0.34033E+06
         0.10250E+07
         0.30734E+06
         0.40654E+06
        -0.31624E+06
        -0.50162E+03
         0.37469E+06
         0.80406E+06
         0.10162E+07
         0.15333E+07
         0.22839E+07
         0.23032E+07
         0.30419E+07
        -0.45985E+06
         0.22372E+07
         0.52156E+06
         0.25192E+07
         0.41728E+07
         0.52909E+07
         0.45099E+07
         0.47836E+07
         0.40839E+07
         0.30964E+07
         0.25124E+07
         0.19076E+07
         0.12534E+07
         0.25027E+07
         0.66997E+06
        -0.85599E+06
        -0.69568E+06
        -0.41657E+06
         0.17669E+06
         0.19013E+07
         0.19240E+07
         0.12602E+07
         0.36868E+06
         0.43481E+06
         0.15901E+07
         0.26550E+07
         0.24476E+07
         0.13731E+07
         0.17216E+07
         0.28309E+07
         0.21073E+07
         0.30087E+07
        -0.48759E+06
        -0.46363E+06
         0.29476E+07
        -0.91500E+06
        -0.18289E+07
         0.88197E+06
         0.13300E+07
        -0.35953E+07
        -0.19966E+06
         0.11365E+07
         0.16290E+07
         0.23244E+07
         0.29730E+06
         0.15187E+06
         0.47884E+06
         0.13615E+07
        -0.44707E+06
        -0.72940E+06
        -0.17929E+07
        -0.95547E+06
        -0.53100E+07
        -0.65227E+07
        -0.30597E+07
        -0.12921E+07
         0.90473E+06
        -0.23565E+06
         0.22621E+07
         0.35788E+07
         0.90437E+06
         0.79146E+06
         0.12352E+07
        -0.72205E+06
        -0.47179E+06
         0.26382E+06
         0.90930E+06
         0.18083E+06
         0.27944E+06
        -0.43303E+06
        -0.12506E+06
         0.23870E+06
         0.67864E+06
         0.89926E+06
         0.14132E+07
         0.21586E+07
         0.21706E+07
         0.29181E+07
        -0.66968E+06
         0.20339E+07
         0.31061E+06
         0.23045E+07
         0.39593E+07
         0.50859E+07
         0.43010E+07
         0.45583E+07
         0.38722E+07
         0.29042E+07
         0.22445E+07
         0.16160E+07
         0.10447E+07
         0.23290E+07
         0.48900E+06
        -0.10433E+07
        -0.88888E+06
        -0.63174E+06
        -0.44954E+05
         0.16891E+07
         0.17261E+07
         0.10702E+07
         0.17473E+06
         0.23519E+06
         0.13988E+07
         0.24649E+07
         0.25030E+07
         0.13808E+07
         0.17421E+07
         0.28745E+07
         0.21459E+07
         0.30468E+07
        -0.46496E+06
        -0.39422E+06
         0.30228E+07
        -0.81236E+06
        -0.17883E+07
         0.88452E+06
         0.12973E+07
        -0.35094E+07
        -0.13878E+06
         0.12166E+07
         0.17203E+07
         0.23927E+07
         0.36669E+06
         0.23531E+06
         0.53290E+06
         0.14021E+07
        -0.36286E+06
        -0.62848E+06
        -0.16632E+07
        -0.85392E+06
        -0.51703E+07
        -0.63238E+07
        -0.28910E+07
        -0.11708E+07
         0.97011E+06
        -0.17546E+06
         0.22967E+07
         0.35593E+07
         0.92397E+06
         0.78205E+06
         0.12001E+07
        -0.64847E+06
        -0.37907E+06
         0.34584E+06
         0.96162E+06
         0.25281E+06
         0.35549E+06
        -0.35352E+06
        -0.79766E+05
         0.25956E+06
         0.69752E+06
         0.94932E+06
         0.14532E+07
         0.21607E+07
         0.21791E+07
         0.29206E+07
        -0.58915E+06
         0.21386E+07
         0.33700E+06
         0.22581E+07
         0.38634E+07
         0.50276E+07
         0.43965E+07
         0.46570E+07
         0.39508E+07
         0.29507E+07
         0.22574E+07
         0.16560E+07
         0.11236E+07
         0.23681E+07
         0.57120E+06
        -0.92621E+06
        -0.78932E+06
        -0.55581E+06
        -0.12091E+05
         0.16853E+07
         0.17700E+07
         0.11332E+07
         0.27436E+06
         0.35643E+06
         0.14941E+07
         0.25637E+07
         0.37722E+09
         0.42318E+09
         0.42374E+09
         0.41434E+09
         0.44895E+09
         0.44238E+09
         0.49641E+09
         0.42824E+09
         0.39747E+09
         0.43037E+09
         0.52301E+09
         0.50860E+09
         0.46776E+09
         0.50511E+09
         0.51956E+09
         0.37805E+09
         0.45053E+09
         0.43714E+09
         0.44932E+09
         0.51357E+09
         0.42841E+09
         0.43554E+09
         0.41420E+09
         0.45261E+09
         0.45702E+09
         0.47620E+09
         0.49922E+09
         0.58057E+09
         0.55064E+09
         0.47028E+09
         0.39149E+09
         0.45673E+09
         0.41840E+09
         0.44271E+09
         0.48214E+09
         0.46134E+09
         0.44698E+09
         0.50061E+09
         0.49384E+09
         0.49151E+09
         0.49000E+09
         0.46692E+09
         0.44283E+09
         0.40909E+09
         0.43293E+09
         0.48070E+09
         0.45716E+09
         0.43607E+09
         0.44034E+09
         0.44678E+09
         0.46363E+09
         0.44425E+09
         0.76837E+09
         0.75185E+09
         0.76361E+09
         0.73964E+09
         0.76092E+09
         0.79591E+09
         0.80069E+09
         0.79608E+09
         0.80326E+09
         0.82286E+09
         0.79863E+09
         0.75329E+09
         0.67496E+09
         0.63914E+09
         0.64495E+09
         0.65736E+09
         0.66463E+09
         0.72109E+09
         0.77379E+09
         0.77634E+09
         0.71575E+09
         0.69216E+09
         0.71465E+09
         0.70824E+09
         0.70247E+09
         0.70423E+09
         0.36589E+10
         0.38399E+10
         0.37897E+10
         0.34882E+10
         0.42069E+10
         0.39789E+10
         0.41381E+10
         0.41465E+10
         0.36015E+10
         0.41455E+10
         0.45127E+10
         0.49728E+10
         0.45442E+10
         0.46293E+10
         0.51340E+10
         0.35297E+10
         0.37866E+10
         0.33458E+10
         0.38984E+10
         0.40916E+10
         0.41768E+10
         0.42678E+10
         0.40237E+10
         0.37638E+10
         0.42034E+10
         0.36456E+10
         0.46135E+10
         0.45508E+10
         0.45684E+10
         0.43415E+10
         0.35698E+10
         0.37496E+10
         0.35140E+10
         0.36625E+10
         0.45703E+10
         0.42338E+10
         0.42376E+10
         0.49908E+10
         0.48831E+10
         0.48317E+10
         0.48932E+10
         0.46635E+10
         0.44211E+10
         0.39427E+10
         0.41026E+10
         0.45644E+10
         0.42577E+10
         0.40240E+10
         0.39554E+10
         0.40869E+10
         0.43951E+10
         0.40949E+10
         0.69986E+10
         0.68165E+10
         0.69509E+10
         0.67347E+10
         0.69254E+10
         0.72693E+10
         0.73910E+10
         0.73905E+10
         0.74464E+10
         0.76071E+10
         0.73903E+10
         0.69516E+10
         0.62607E+10
         0.59266E+10
         0.59308E+10
         0.59974E+10
         0.60502E+10
         0.65465E+10
         0.70197E+10
         0.70439E+10
         0.65352E+10
         0.63409E+10
         0.65412E+10
         0.64986E+10
         0.64214E+10
         0.64052E+10
  
SCALARS                      stress_yz  double 1
LOOKUP_TABLE default
         0.37557E+06
        -0.12493E+06
        -0.32458E+06
        -0.16693E+06
        -0.88291E+01
        -0.24335E+01
        -0.10942E+02
        -0.83458E+01
        -0.12166E+07
         0.80017E+06
        -0.16284E+02
        -0.14336E+02
        -0.10673E+07
        -0.54270E+05
         0.11654E+02
        -0.74715E+00
         0.36691E+06
         0.13677E+07
         0.17145E+00
         0.17543E+01
        -0.70971E+06
        -0.26715E+07
        -0.27771E+07
         0.26714E+02
         0.46134E+02
         0.38562E+02
        -0.26332E+06
        -0.27085E+07
         0.19216E+02
         0.37279E+02
         0.41932E+06
         0.36552E+06
        -0.31044E+06
         0.99618E+01
         0.10169E+02
        -0.21113E+00
         0.12462E+07
         0.12010E+07
         0.18332E+02
         0.14263E+02
         0.12251E+07
         0.77983E+06
         0.13854E+02
         0.12661E+02
         0.11110E+07
         0.38303E+06
        -0.45957E+00
         0.71085E+01
         0.10317E+07
         0.33469E+01
         0.10167E+06
        -0.27107E+00
         0.60783E+05
         0.12946E+02
        -0.40283E+06
         0.75310E+01
        -0.13138E+07
         0.23328E+06
         0.20431E+00
        -0.41467E+00
         0.50851E+06
         0.18555E+07
        -0.27837E+01
        -0.10412E+02
         0.30706E+06
        -0.56190E+01
         0.13183E+07
        -0.68452E+01
        -0.10707E+07
        -0.56714E+06
        -0.84594E+00
         0.11169E+02
        -0.19830E+07
         0.24526E+02
        -0.34381E+07
         0.23748E+02
        -0.34697E+07
         0.18027E+02
        -0.28582E+07
         0.15110E+02
        -0.41918E+07
        -0.32172E+07
         0.96929E+01
        -0.21491E+01
        -0.44993E+06
        -0.24047E+00
         0.17362E+07
        -0.15064E+02
         0.41036E+07
        -0.26371E+02
         0.57344E+07
         0.35546E+07
        -0.39113E+02
        -0.31659E+02
         0.25000E+07
        -0.24575E+02
         0.22431E+07
        -0.25142E+02
         0.21828E+07
        -0.27033E+02
         0.36323E+07
         0.30186E+07
        -0.25139E+02
        -0.12046E+02
        -0.24368E+07
         0.92236E+06
         0.88395E+01
        -0.10985E+02
        -0.59906E+07
         0.29407E+02
        -0.85757E+07
         0.43015E+02
        -0.10500E+08
         0.53124E+02
        -0.12314E+08
         0.52695E+02
        -0.14498E+08
         0.41701E+02
        -0.14820E+08
         0.32271E+02
        -0.13954E+08
         0.30015E+02
        -0.12417E+08
         0.28557E+02
        -0.90556E+07
         0.18250E+02
        -0.61154E+07
         0.60255E+01
        -0.30678E+07
         0.38934E+01
         0.22067E+06
         0.58521E+01
         0.29270E+07
         0.30225E+01
         0.52509E+07
        -0.91407E+01
         0.81262E+07
        -0.25801E+02
         0.91440E+07
        -0.40289E+02
         0.10002E+08
        -0.52818E+02
         0.12778E+08
        -0.52772E+02
         0.13236E+08
        -0.46068E+02
         0.12231E+08
        -0.44898E+02
         0.99477E+07
        -0.45177E+02
         0.67632E+07
        -0.35725E+02
         0.47902E+07
        -0.21126E+02
         0.34447E+07
        -0.16334E+02
         0.28510E+07
         0.14748E+07
         0.12874E+07
         0.39981E+06
         0.13188E+07
         0.14026E+07
         0.14784E+06
         0.22725E+07
         0.19506E+07
         0.28610E+07
        -0.14936E+07
        -0.63716E+07
        -0.43538E+07
        -0.50498E+06
        -0.64369E+07
        -0.75527E+06
         0.66910E+06
        -0.43089E+06
        -0.56215E+06
         0.42497E+06
        -0.39015E+06
        -0.32173E+06
         0.10808E+07
        -0.91104E+05
         0.19534E+07
        -0.28878E+06
        -0.14948E+05
        -0.26137E+06
        -0.31709E+06
         0.15310E+07
        -0.73719E+06
         0.79935E+06
        -0.53611E+06
         0.13054E+06
        -0.21526E+06
        -0.11672E+07
        -0.26178E+07
        -0.56575E+07
        -0.51693E+07
        -0.43667E+07
        -0.41108E+07
        -0.10217E+07
         0.83646E+06
         0.22941E+07
         0.37889E+07
         0.61846E+07
         0.40605E+07
         0.29141E+07
         0.31090E+07
         0.33010E+07
         0.38700E+07
         0.17699E+07
        -0.33281E+07
         0.40014E+07
        -0.10836E+08
        -0.14972E+08
        -0.19084E+08
        -0.22658E+08
        -0.22780E+08
        -0.20624E+08
        -0.19625E+08
        -0.18548E+08
        -0.11983E+08
        -0.52619E+07
        -0.23159E+07
        -0.10211E+07
         0.15639E+07
         0.61828E+07
         0.11363E+08
         0.14826E+08
         0.17938E+08
         0.20568E+08
         0.19377E+08
         0.18319E+08
         0.17042E+08
         0.11852E+08
         0.69236E+07
         0.60794E+07
        -0.16960E+09
        -0.17236E+09
        -0.16854E+09
        -0.57188E+08
        -0.12413E+09
        -0.78799E+08
        -0.13574E+09
        -0.16279E+09
        -0.16543E+09
        -0.16183E+09
         0.16820E+09
         0.18639E+09
         0.14225E+09
         0.38932E+08
         0.17601E+09
         0.86678E+08
        -0.50001E+08
         0.60306E+08
         0.16413E+09
         0.52552E+08
         0.48724E+08
         0.36691E+08
        -0.21799E+08
         0.65116E+08
        -0.16431E+09
         0.81379E+08
         0.88220E+07
         0.37962E+08
        -0.60638E+08
        -0.15182E+09
         0.10832E+09
         0.51978E+08
         0.10566E+09
         0.10535E+09
        -0.14116E+08
         0.69362E+08
         0.10410E+09
         0.16133E+09
         0.18124E+09
         0.17070E+09
         0.90701E+08
        -0.24533E+08
        -0.50224E+08
        -0.79482E+08
        -0.11368E+09
        -0.17374E+09
        -0.14953E+09
        -0.11504E+09
        -0.17324E+09
        -0.17498E+09
        -0.11475E+09
        -0.12210E+08
         0.36997E+08
        -0.51799E+08
         0.11580E+09
         0.15064E+09
         0.18349E+09
         0.20646E+09
         0.20993E+09
         0.20390E+09
         0.20003E+09
         0.18611E+09
         0.11902E+09
         0.39718E+08
         0.18808E+08
         0.16874E+08
        -0.71762E+07
        -0.57199E+08
        -0.11080E+09
        -0.14238E+09
        -0.19194E+09
        -0.20775E+09
        -0.20062E+09
        -0.19880E+09
        -0.18697E+09
        -0.13438E+09
        -0.68020E+08
        -0.64902E+08
        -0.16959E+09
        -0.17236E+09
        -0.16853E+09
        -0.57529E+08
        -0.12419E+09
        -0.78904E+08
        -0.13552E+09
        -0.16292E+09
        -0.16546E+09
        -0.16199E+09
         0.16831E+09
         0.18638E+09
         0.14224E+09
         0.39019E+08
         0.17606E+09
         0.86618E+08
        -0.50321E+08
         0.60216E+08
         0.16415E+09
         0.52259E+08
         0.48841E+08
         0.36729E+08
        -0.21805E+08
         0.65087E+08
        -0.16439E+09
         0.81231E+08
         0.89232E+07
         0.38175E+08
        -0.60238E+08
        -0.15189E+09
         0.10824E+09
         0.51881E+08
         0.10606E+09
         0.10543E+09
        -0.13978E+08
         0.69425E+08
         0.10412E+09
         0.16135E+09
         0.18126E+09
         0.17068E+09
         0.90716E+08
        -0.24455E+08
        -0.50270E+08
        -0.79524E+08
        -0.11370E+09
        -0.17374E+09
        -0.14955E+09
        -0.11498E+09
        -0.17324E+09
        -0.17497E+09
        -0.11476E+09
        -0.12043E+08
         0.36974E+08
        -0.51814E+08
         0.11582E+09
         0.15064E+09
         0.18350E+09
         0.20645E+09
         0.20992E+09
         0.20389E+09
         0.20004E+09
         0.18611E+09
         0.11901E+09
         0.39736E+08
         0.18808E+08
         0.16910E+08
        -0.71170E+07
        -0.57217E+08
        -0.11083E+09
        -0.14239E+09
        -0.19195E+09
        -0.20775E+09
        -0.20063E+09
        -0.19880E+09
        -0.18698E+09
        -0.13437E+09
        -0.67980E+08
        -0.64848E+08
        -0.16957E+09
        -0.17235E+09
        -0.16853E+09
        -0.57873E+08
        -0.12426E+09
        -0.79010E+08
        -0.13530E+09
        -0.16305E+09
        -0.16549E+09
        -0.16215E+09
         0.16841E+09
         0.18637E+09
         0.14222E+09
         0.39101E+08
         0.17612E+09
         0.86557E+08
        -0.50643E+08
         0.60124E+08
         0.16417E+09
         0.51961E+08
         0.48958E+08
         0.36766E+08
        -0.21814E+08
         0.65050E+08
        -0.16446E+09
         0.81062E+08
         0.90315E+07
         0.38400E+08
        -0.59802E+08
        -0.15196E+09
         0.10816E+09
         0.51759E+08
         0.10647E+09
         0.10551E+09
        -0.13839E+08
         0.69490E+08
         0.10414E+09
         0.16136E+09
         0.18127E+09
         0.17066E+09
         0.90733E+08
        -0.24370E+08
        -0.50312E+08
        -0.79573E+08
        -0.11373E+09
        -0.17375E+09
        -0.14956E+09
        -0.11492E+09
        -0.17324E+09
        -0.17497E+09
        -0.11477E+09
        -0.11876E+08
         0.36952E+08
        -0.51828E+08
         0.11584E+09
         0.15064E+09
         0.18350E+09
         0.20645E+09
         0.20991E+09
         0.20388E+09
         0.20004E+09
         0.18611E+09
         0.11901E+09
         0.39754E+08
         0.18809E+08
         0.16945E+08
        -0.70574E+07
        -0.57235E+08
        -0.11085E+09
        -0.14240E+09
        -0.19196E+09
        -0.20775E+09
        -0.20063E+09
        -0.19881E+09
        -0.18699E+09
        -0.13435E+09
        -0.67940E+08
        -0.64794E+08
        -0.16956E+09
        -0.17235E+09
        -0.16852E+09
        -0.58218E+08
        -0.12433E+09
        -0.79116E+08
        -0.13508E+09
        -0.16318E+09
        -0.16552E+09
        -0.16231E+09
         0.16851E+09
         0.18636E+09
         0.14221E+09
         0.39188E+08
         0.17618E+09
         0.86492E+08
        -0.50964E+08
         0.60031E+08
         0.16419E+09
         0.51645E+08
         0.49077E+08
         0.36798E+08
        -0.21833E+08
         0.64992E+08
        -0.16452E+09
         0.80840E+08
         0.91439E+07
         0.38699E+08
        -0.59260E+08
        -0.15202E+09
         0.10806E+09
         0.51586E+08
         0.10688E+09
         0.10559E+09
        -0.13701E+08
         0.69553E+08
         0.10415E+09
         0.16138E+09
         0.18129E+09
         0.17064E+09
         0.90757E+08
        -0.24265E+08
        -0.50343E+08
        -0.79643E+08
        -0.11378E+09
        -0.17377E+09
        -0.14957E+09
        -0.11485E+09
        -0.17324E+09
        -0.17496E+09
        -0.11478E+09
        -0.11708E+08
         0.36930E+08
        -0.51842E+08
         0.11587E+09
         0.15064E+09
         0.18351E+09
         0.20644E+09
         0.20990E+09
         0.20387E+09
         0.20005E+09
         0.18611E+09
         0.11900E+09
         0.39776E+08
         0.18810E+08
         0.16980E+08
        -0.69974E+07
        -0.57254E+08
        -0.11088E+09
        -0.14240E+09
        -0.19196E+09
        -0.20774E+09
        -0.20064E+09
        -0.19881E+09
        -0.18700E+09
        -0.13433E+09
        -0.67900E+08
        -0.64739E+08
        -0.16955E+09
        -0.17234E+09
        -0.16852E+09
        -0.58560E+08
        -0.12439E+09
        -0.79221E+08
        -0.13486E+09
        -0.16330E+09
        -0.16555E+09
        -0.16247E+09
         0.16860E+09
         0.18635E+09
         0.14219E+09
         0.39277E+08
         0.17624E+09
         0.86422E+08
        -0.51286E+08
         0.59937E+08
         0.16421E+09
         0.51311E+08
         0.49196E+08
         0.36826E+08
        -0.21860E+08
         0.64911E+08
        -0.16457E+09
         0.80561E+08
         0.92694E+07
         0.39065E+08
        -0.58610E+08
        -0.15207E+09
         0.10796E+09
         0.51353E+08
         0.10728E+09
         0.10567E+09
        -0.13561E+08
         0.69617E+08
         0.10417E+09
         0.16140E+09
         0.18130E+09
         0.17062E+09
         0.90789E+08
        -0.24139E+08
        -0.50363E+08
        -0.79734E+08
        -0.11384E+09
        -0.17378E+09
        -0.14959E+09
        -0.11479E+09
        -0.17324E+09
        -0.17495E+09
        -0.11479E+09
        -0.11539E+08
         0.36907E+08
        -0.51856E+08
         0.11589E+09
         0.15064E+09
         0.18351E+09
         0.20643E+09
         0.20989E+09
         0.20385E+09
         0.20005E+09
         0.18611E+09
         0.11900E+09
         0.39801E+08
         0.18813E+08
         0.17014E+08
        -0.69371E+07
        -0.57273E+08
        -0.11092E+09
        -0.14242E+09
        -0.19197E+09
        -0.20774E+09
        -0.20064E+09
        -0.19881E+09
        -0.18701E+09
        -0.13432E+09
        -0.67860E+08
        -0.64685E+08
        -0.16953E+09
        -0.17234E+09
        -0.16851E+09
        -0.58906E+08
        -0.12446E+09
        -0.79327E+08
        -0.13463E+09
        -0.16343E+09
        -0.16558E+09
        -0.16263E+09
         0.16870E+09
         0.18633E+09
         0.14218E+09
         0.39371E+08
         0.17629E+09
         0.86353E+08
        -0.51616E+08
         0.59845E+08
         0.16424E+09
         0.50971E+08
         0.49314E+08
         0.36853E+08
        -0.21892E+08
         0.64820E+08
        -0.16462E+09
         0.80264E+08
         0.94046E+07
         0.39469E+08
        -0.57914E+08
        -0.15212E+09
         0.10785E+09
         0.51096E+08
         0.10770E+09
         0.10576E+09
        -0.13421E+08
         0.69682E+08
         0.10419E+09
         0.16142E+09
         0.18132E+09
         0.17061E+09
         0.90823E+08
        -0.24006E+08
        -0.50378E+08
        -0.79832E+08
        -0.11391E+09
        -0.17379E+09
        -0.14961E+09
        -0.11474E+09
        -0.17325E+09
        -0.17494E+09
        -0.11480E+09
        -0.11369E+08
         0.36884E+08
        -0.51870E+08
         0.11591E+09
         0.15064E+09
         0.18352E+09
         0.20643E+09
         0.20988E+09
         0.20384E+09
         0.20005E+09
         0.18610E+09
         0.11900E+09
         0.39828E+08
         0.18816E+08
         0.17047E+08
        -0.68769E+07
        -0.57294E+08
        -0.11095E+09
        -0.14243E+09
        -0.19198E+09
        -0.20774E+09
        -0.20065E+09
        -0.19882E+09
        -0.18702E+09
        -0.13430E+09
        -0.67820E+08
        -0.64631E+08
        -0.16952E+09
        -0.17233E+09
        -0.16851E+09
        -0.59261E+08
        -0.12453E+09
        -0.79433E+08
        -0.13438E+09
        -0.16355E+09
        -0.16561E+09
        -0.16278E+09
         0.16880E+09
         0.18632E+09
         0.14216E+09
         0.39488E+08
         0.17635E+09
         0.86287E+08
        -0.51957E+08
         0.59752E+08
         0.16426E+09
         0.50631E+08
         0.49433E+08
         0.36880E+08
        -0.21923E+08
         0.64730E+08
        -0.16468E+09
         0.79964E+08
         0.95640E+07
         0.39899E+08
        -0.57205E+08
        -0.15216E+09
         0.10774E+09
         0.50830E+08
         0.10813E+09
         0.10586E+09
        -0.13281E+08
         0.69748E+08
         0.10421E+09
         0.16144E+09
         0.18134E+09
         0.17059E+09
         0.90859E+08
        -0.23870E+08
        -0.50391E+08
        -0.79928E+08
        -0.11397E+09
        -0.17381E+09
        -0.14964E+09
        -0.11471E+09
        -0.17325E+09
        -0.17492E+09
        -0.11480E+09
        -0.11197E+08
         0.36862E+08
        -0.51884E+08
         0.11593E+09
         0.15064E+09
         0.18352E+09
         0.20642E+09
         0.20987E+09
         0.20383E+09
         0.20006E+09
         0.18610E+09
         0.11900E+09
         0.39855E+08
         0.18819E+08
         0.17081E+08
        -0.68166E+07
        -0.57314E+08
        -0.11099E+09
        -0.14244E+09
        -0.19198E+09
        -0.20774E+09
        -0.20066E+09
        -0.19882E+09
        -0.18703E+09
        -0.13429E+09
        -0.67780E+08
        -0.64576E+08
        -0.16951E+09
        -0.17232E+09
        -0.16851E+09
        -0.59621E+08
        -0.12459E+09
        -0.79539E+08
        -0.13412E+09
        -0.16367E+09
        -0.16565E+09
        -0.16292E+09
         0.16889E+09
         0.18631E+09
         0.14215E+09
         0.39610E+08
         0.17641E+09
         0.86223E+08
        -0.52305E+08
         0.59657E+08
         0.16428E+09
         0.50291E+08
         0.49552E+08
         0.36907E+08
        -0.21953E+08
         0.64643E+08
        -0.16473E+09
         0.79666E+08
         0.97295E+07
         0.40340E+08
        -0.56494E+08
        -0.15219E+09
         0.10764E+09
         0.50556E+08
         0.10856E+09
         0.10597E+09
        -0.13139E+08
         0.69815E+08
         0.10423E+09
         0.16146E+09
         0.18135E+09
         0.17058E+09
         0.90895E+08
        -0.23733E+08
        -0.50403E+08
        -0.80024E+08
        -0.11404E+09
        -0.17382E+09
        -0.14967E+09
        -0.11468E+09
        -0.17326E+09
        -0.17491E+09
        -0.11481E+09
        -0.11024E+08
         0.36839E+08
        -0.51898E+08
         0.11595E+09
         0.15064E+09
         0.18353E+09
         0.20641E+09
         0.20986E+09
         0.20382E+09
         0.20006E+09
         0.18610E+09
         0.11900E+09
         0.39882E+08
         0.18823E+08
         0.17116E+08
        -0.67562E+07
        -0.57334E+08
        -0.11103E+09
        -0.14245E+09
        -0.19199E+09
        -0.20774E+09
        -0.20066E+09
        -0.19883E+09
        -0.18704E+09
        -0.13427E+09
        -0.67740E+08
        -0.64522E+08
        -0.16950E+09
        -0.17230E+09
        -0.16851E+09
        -0.59980E+08
        -0.12466E+09
        -0.79645E+08
        -0.13386E+09
        -0.16378E+09
        -0.16568E+09
        -0.16306E+09
         0.16899E+09
         0.18630E+09
         0.14214E+09
         0.39738E+08
         0.17647E+09
         0.86160E+08
        -0.52652E+08
         0.59562E+08
         0.16431E+09
         0.49948E+08
         0.49671E+08
         0.36935E+08
        -0.21984E+08
         0.64555E+08
        -0.16478E+09
         0.79370E+08
         0.98990E+07
         0.40776E+08
        -0.55785E+08
        -0.15223E+09
         0.10753E+09
         0.50285E+08
         0.10899E+09
         0.10607E+09
        -0.12997E+08
         0.69880E+08
         0.10425E+09
         0.16149E+09
         0.18137E+09
         0.17056E+09
         0.90931E+08
        -0.23598E+08
        -0.50415E+08
        -0.80120E+08
        -0.11411E+09
        -0.17383E+09
        -0.14971E+09
        -0.11466E+09
        -0.17327E+09
        -0.17490E+09
        -0.11481E+09
        -0.10849E+08
         0.36817E+08
        -0.51912E+08
         0.11597E+09
         0.15064E+09
         0.18353E+09
         0.20640E+09
         0.20985E+09
         0.20380E+09
         0.20007E+09
         0.18610E+09
         0.11900E+09
         0.39909E+08
         0.18826E+08
         0.17151E+08
        -0.66961E+07
        -0.57353E+08
        -0.11106E+09
        -0.14247E+09
        -0.19200E+09
        -0.20773E+09
        -0.20067E+09
        -0.19883E+09
        -0.18705E+09
        -0.13425E+09
        -0.67700E+08
        -0.64467E+08
        -0.16949E+09
        -0.17229E+09
        -0.16851E+09
        -0.60335E+08
        -0.12472E+09
        -0.79751E+08
        -0.13360E+09
        -0.16390E+09
        -0.16571E+09
        -0.16321E+09
         0.16908E+09
         0.18629E+09
         0.14213E+09
         0.39859E+08
         0.17652E+09
         0.86096E+08
        -0.53000E+08
         0.59466E+08
         0.16433E+09
         0.49603E+08
         0.49789E+08
         0.36962E+08
        -0.22013E+08
         0.64466E+08
        -0.16484E+09
         0.79075E+08
         0.10064E+08
         0.41208E+08
        -0.55077E+08
        -0.15227E+09
         0.10743E+09
         0.50012E+08
         0.10942E+09
         0.10617E+09
        -0.12855E+08
         0.69947E+08
         0.10427E+09
         0.16151E+09
         0.18139E+09
         0.17054E+09
         0.90966E+08
        -0.23463E+08
        -0.50428E+08
        -0.80215E+08
        -0.11418E+09
        -0.17385E+09
        -0.14974E+09
        -0.11464E+09
        -0.17328E+09
        -0.17489E+09
        -0.11481E+09
        -0.10675E+08
         0.36794E+08
        -0.51926E+08
         0.11600E+09
         0.15065E+09
         0.18354E+09
         0.20640E+09
         0.20984E+09
         0.20379E+09
         0.20007E+09
         0.18610E+09
         0.11899E+09
         0.39935E+08
         0.18830E+08
         0.17186E+08
        -0.66361E+07
        -0.57374E+08
        -0.11110E+09
        -0.14248E+09
        -0.19200E+09
        -0.20773E+09
        -0.20068E+09
        -0.19883E+09
        -0.18706E+09
        -0.13423E+09
        -0.67660E+08
        -0.64413E+08
        -0.16948E+09
        -0.17228E+09
        -0.16851E+09
        -0.60690E+08
        -0.12479E+09
        -0.79856E+08
        -0.13335E+09
        -0.16402E+09
        -0.16574E+09
        -0.16335E+09
         0.16917E+09
         0.18628E+09
         0.14212E+09
         0.39986E+08
         0.17658E+09
         0.86033E+08
        -0.53346E+08
         0.59372E+08
         0.16435E+09
         0.49256E+08
         0.49908E+08
         0.36988E+08
        -0.22044E+08
         0.64379E+08
        -0.16489E+09
         0.78779E+08
         0.10231E+08
         0.41633E+08
        -0.54371E+08
        -0.15231E+09
         0.10732E+09
         0.49740E+08
         0.10985E+09
         0.10628E+09
        -0.12713E+08
         0.70013E+08
         0.10429E+09
         0.16153E+09
         0.18140E+09
         0.17053E+09
         0.91001E+08
        -0.23329E+08
        -0.50441E+08
        -0.80310E+08
        -0.11424E+09
        -0.17386E+09
        -0.14978E+09
        -0.11461E+09
        -0.17328E+09
        -0.17488E+09
        -0.11482E+09
        -0.10500E+08
         0.36771E+08
        -0.51939E+08
         0.11602E+09
         0.15065E+09
         0.18354E+09
         0.20639E+09
         0.20983E+09
         0.20378E+09
         0.20008E+09
         0.18610E+09
         0.11899E+09
         0.39962E+08
         0.18834E+08
         0.17220E+08
        -0.65758E+07
        -0.57394E+08
        -0.11113E+09
        -0.14249E+09
        -0.19201E+09
        -0.20773E+09
        -0.20068E+09
        -0.19884E+09
        -0.18707E+09
        -0.13422E+09
        -0.67621E+08
        -0.64358E+08
        -0.16946E+09
        -0.17227E+09
        -0.16851E+09
        -0.61046E+08
        -0.12485E+09
        -0.79962E+08
        -0.13309E+09
        -0.16413E+09
        -0.16578E+09
        -0.16349E+09
         0.16926E+09
         0.18627E+09
         0.14211E+09
         0.40112E+08
         0.17664E+09
         0.85971E+08
        -0.53691E+08
         0.59275E+08
         0.16437E+09
         0.48912E+08
         0.50027E+08
         0.37014E+08
        -0.22074E+08
         0.64292E+08
        -0.16495E+09
         0.78486E+08
         0.10395E+08
         0.42056E+08
        -0.53664E+08
        -0.15234E+09
         0.10722E+09
         0.49467E+08
         0.11028E+09
         0.10639E+09
        -0.12570E+08
         0.70080E+08
         0.10431E+09
         0.16155E+09
         0.18142E+09
         0.17051E+09
         0.91037E+08
        -0.23196E+08
        -0.50453E+08
        -0.80404E+08
        -0.11431E+09
        -0.17388E+09
        -0.14981E+09
        -0.11459E+09
        -0.17329E+09
        -0.17487E+09
        -0.11482E+09
        -0.10324E+08
         0.36748E+08
        -0.51953E+08
         0.11604E+09
         0.15065E+09
         0.18355E+09
         0.20638E+09
         0.20982E+09
         0.20377E+09
         0.20008E+09
         0.18610E+09
         0.11899E+09
         0.39988E+08
         0.18837E+08
         0.17254E+08
        -0.65154E+07
        -0.57414E+08
        -0.11117E+09
        -0.14251E+09
        -0.19202E+09
        -0.20773E+09
        -0.20069E+09
        -0.19884E+09
        -0.18708E+09
        -0.13420E+09
        -0.67582E+08
        -0.64303E+08
        -0.16945E+09
        -0.17226E+09
        -0.16851E+09
        -0.61403E+08
        -0.12492E+09
        -0.80068E+08
        -0.13284E+09
        -0.16425E+09
        -0.16581E+09
        -0.16362E+09
         0.16934E+09
         0.18626E+09
         0.14209E+09
         0.40234E+08
         0.17670E+09
         0.85908E+08
        -0.54034E+08
         0.59177E+08
         0.16440E+09
         0.48569E+08
         0.50146E+08
         0.37040E+08
        -0.22104E+08
         0.64205E+08
        -0.16500E+09
         0.78189E+08
         0.10563E+08
         0.42475E+08
        -0.52959E+08
        -0.15238E+09
         0.10711E+09
         0.49191E+08
         0.11071E+09
         0.10649E+09
        -0.12427E+08
         0.70146E+08
         0.10433E+09
         0.16158E+09
         0.18143E+09
         0.17049E+09
         0.91071E+08
        -0.23061E+08
        -0.50465E+08
        -0.80500E+08
        -0.11438E+09
        -0.17389E+09
        -0.14985E+09
        -0.11457E+09
        -0.17330E+09
        -0.17485E+09
        -0.11483E+09
        -0.10149E+08
         0.36725E+08
        -0.51966E+08
         0.11606E+09
         0.15065E+09
         0.18355E+09
         0.20638E+09
         0.20981E+09
         0.20375E+09
         0.20008E+09
         0.18610E+09
         0.11899E+09
         0.40015E+08
         0.18841E+08
         0.17289E+08
        -0.64551E+07
        -0.57433E+08
        -0.11121E+09
        -0.14252E+09
        -0.19202E+09
        -0.20773E+09
        -0.20070E+09
        -0.19885E+09
        -0.18709E+09
        -0.13418E+09
        -0.67542E+08
        -0.64248E+08
        -0.16944E+09
        -0.17225E+09
        -0.16851E+09
        -0.61758E+08
        -0.12498E+09
        -0.80174E+08
        -0.13259E+09
        -0.16436E+09
        -0.16584E+09
        -0.16376E+09
         0.16942E+09
         0.18625E+09
         0.14208E+09
         0.40361E+08
         0.17675E+09
         0.85845E+08
        -0.54377E+08
         0.59080E+08
         0.16442E+09
         0.48226E+08
         0.50265E+08
         0.37067E+08
        -0.22134E+08
         0.64119E+08
        -0.16505E+09
         0.77893E+08
         0.10727E+08
         0.42888E+08
        -0.52257E+08
        -0.15242E+09
         0.10701E+09
         0.48918E+08
         0.11114E+09
         0.10659E+09
        -0.12283E+08
         0.70212E+08
         0.10435E+09
         0.16160E+09
         0.18145E+09
         0.17047E+09
         0.91107E+08
        -0.22927E+08
        -0.50477E+08
        -0.80594E+08
        -0.11445E+09
        -0.17390E+09
        -0.14988E+09
        -0.11454E+09
        -0.17331E+09
        -0.17484E+09
        -0.11483E+09
        -0.99736E+07
         0.36702E+08
        -0.51980E+08
         0.11608E+09
         0.15065E+09
         0.18356E+09
         0.20637E+09
         0.20980E+09
         0.20374E+09
         0.20009E+09
         0.18609E+09
         0.11899E+09
         0.40041E+08
         0.18844E+08
         0.17323E+08
        -0.63951E+07
        -0.57453E+08
        -0.11124E+09
        -0.14253E+09
        -0.19203E+09
        -0.20772E+09
        -0.20071E+09
        -0.19885E+09
        -0.18710E+09
        -0.13417E+09
        -0.67503E+08
        -0.64193E+08
        -0.16943E+09
        -0.17223E+09
        -0.16851E+09
        -0.62110E+08
        -0.12504E+09
        -0.80280E+08
        -0.13234E+09
        -0.16447E+09
        -0.16588E+09
        -0.16390E+09
         0.16950E+09
         0.18624E+09
         0.14207E+09
         0.40483E+08
         0.17681E+09
         0.85783E+08
        -0.54720E+08
         0.58985E+08
         0.16444E+09
         0.47881E+08
         0.50383E+08
         0.37092E+08
        -0.22164E+08
         0.64035E+08
        -0.16511E+09
         0.77597E+08
         0.10894E+08
         0.43294E+08
        -0.51558E+08
        -0.15245E+09
         0.10691E+09
         0.48642E+08
         0.11158E+09
         0.10670E+09
        -0.12140E+08
         0.70279E+08
         0.10437E+09
         0.16162E+09
         0.18146E+09
         0.17046E+09
         0.91142E+08
        -0.22794E+08
        -0.50490E+08
        -0.80688E+08
        -0.11451E+09
        -0.17392E+09
        -0.14991E+09
        -0.11452E+09
        -0.17332E+09
        -0.17483E+09
        -0.11484E+09
        -0.97971E+07
         0.36679E+08
        -0.51993E+08
         0.11610E+09
         0.15065E+09
         0.18356E+09
         0.20636E+09
         0.20980E+09
         0.20373E+09
         0.20009E+09
         0.18609E+09
         0.11898E+09
         0.40068E+08
         0.18848E+08
         0.17358E+08
        -0.63350E+07
        -0.57473E+08
        -0.11128E+09
        -0.14254E+09
        -0.19203E+09
        -0.20772E+09
        -0.20071E+09
        -0.19885E+09
        -0.18711E+09
        -0.13415E+09
        -0.67464E+08
        -0.64138E+08
        -0.16942E+09
        -0.17222E+09
        -0.16851E+09
        -0.62461E+08
        -0.12511E+09
        -0.80385E+08
        -0.13209E+09
        -0.16459E+09
        -0.16591E+09
        -0.16403E+09
         0.16958E+09
         0.18623E+09
         0.14206E+09
         0.40610E+08
         0.17687E+09
         0.85720E+08
        -0.55063E+08
         0.58888E+08
         0.16446E+09
         0.47536E+08
         0.50502E+08
         0.37117E+08
        -0.22194E+08
         0.63950E+08
        -0.16516E+09
         0.77301E+08
         0.11056E+08
         0.43695E+08
        -0.50861E+08
        -0.15249E+09
         0.10680E+09
         0.48367E+08
         0.11201E+09
         0.10681E+09
        -0.11996E+08
         0.70344E+08
         0.10439E+09
         0.16165E+09
         0.18148E+09
         0.17044E+09
         0.91178E+08
        -0.22660E+08
        -0.50503E+08
        -0.80782E+08
        -0.11458E+09
        -0.17393E+09
        -0.14995E+09
        -0.11450E+09
        -0.17332E+09
        -0.17482E+09
        -0.11484E+09
        -0.96199E+07
         0.36656E+08
        -0.52006E+08
         0.11612E+09
         0.15065E+09
         0.18357E+09
         0.20636E+09
         0.20979E+09
         0.20372E+09
         0.20010E+09
         0.18609E+09
         0.11898E+09
         0.40094E+08
         0.18851E+08
         0.17392E+08
        -0.62748E+07
        -0.57492E+08
        -0.11131E+09
        -0.14256E+09
        -0.19204E+09
        -0.20772E+09
        -0.20072E+09
        -0.19886E+09
        -0.18712E+09
        -0.13413E+09
        -0.67425E+08
        -0.64083E+08
        -0.16940E+09
        -0.17221E+09
        -0.16851E+09
        -0.62812E+08
        -0.12517E+09
        -0.80491E+08
        -0.13184E+09
        -0.16470E+09
        -0.16594E+09
        -0.16417E+09
         0.16966E+09
         0.18622E+09
         0.14205E+09
         0.40732E+08
         0.17693E+09
         0.85658E+08
        -0.55407E+08
         0.58789E+08
         0.16448E+09
         0.47196E+08
         0.50620E+08
         0.37142E+08
        -0.22223E+08
         0.63865E+08
        -0.16521E+09
         0.77003E+08
         0.11223E+08
         0.44091E+08
        -0.50163E+08
        -0.15253E+09
         0.10670E+09
         0.48090E+08
         0.11244E+09
         0.10691E+09
        -0.11851E+08
         0.70410E+08
         0.10441E+09
         0.16167E+09
         0.18149E+09
         0.17042E+09
         0.91214E+08
        -0.22529E+08
        -0.50517E+08
        -0.80876E+08
        -0.11465E+09
        -0.17394E+09
        -0.14998E+09
        -0.11448E+09
        -0.17333E+09
        -0.17481E+09
        -0.11484E+09
        -0.94437E+07
         0.36632E+08
        -0.52019E+08
         0.11614E+09
         0.15065E+09
         0.18357E+09
         0.20635E+09
         0.20978E+09
         0.20370E+09
         0.20010E+09
         0.18609E+09
         0.11898E+09
         0.40121E+08
         0.18854E+08
         0.17426E+08
        -0.62149E+07
        -0.57511E+08
        -0.11135E+09
        -0.14257E+09
        -0.19205E+09
        -0.20772E+09
        -0.20073E+09
        -0.19886E+09
        -0.18713E+09
        -0.13412E+09
        -0.67387E+08
        -0.64028E+08
        -0.16939E+09
        -0.17220E+09
        -0.16851E+09
        -0.63164E+08
        -0.12524E+09
        -0.80596E+08
        -0.13159E+09
        -0.16481E+09
        -0.16598E+09
        -0.16430E+09
         0.16973E+09
         0.18621E+09
         0.14204E+09
         0.40859E+08
         0.17698E+09
         0.85596E+08
        -0.55754E+08
         0.58689E+08
         0.16451E+09
         0.46872E+08
         0.50738E+08
         0.37165E+08
        -0.22253E+08
         0.63780E+08
        -0.16527E+09
         0.76708E+08
         0.11389E+08
         0.44485E+08
        -0.49468E+08
        -0.15256E+09
         0.10659E+09
         0.47810E+08
         0.11287E+09
         0.10701E+09
        -0.11707E+08
         0.70477E+08
         0.10443E+09
         0.16170E+09
         0.18151E+09
         0.17040E+09
         0.91252E+08
        -0.22397E+08
        -0.50532E+08
        -0.80970E+08
        -0.11472E+09
        -0.17396E+09
        -0.15002E+09
        -0.11445E+09
        -0.17334E+09
        -0.17480E+09
        -0.11485E+09
        -0.92669E+07
         0.36609E+08
        -0.52032E+08
         0.11616E+09
         0.15065E+09
         0.18358E+09
         0.20634E+09
         0.20977E+09
         0.20369E+09
         0.20010E+09
         0.18609E+09
         0.11898E+09
         0.40147E+08
         0.18855E+08
         0.17460E+08
        -0.61552E+07
        -0.57531E+08
        -0.11138E+09
        -0.14258E+09
        -0.19205E+09
        -0.20772E+09
        -0.20073E+09
        -0.19886E+09
        -0.18714E+09
        -0.13410E+09
        -0.67349E+08
        -0.63973E+08
        -0.16938E+09
        -0.17219E+09
        -0.16851E+09
        -0.63514E+08
        -0.12530E+09
        -0.80701E+08
        -0.13134E+09
        -0.16492E+09
        -0.16601E+09
        -0.16444E+09
         0.16980E+09
         0.18620E+09
         0.14202E+09
         0.40987E+08
         0.17704E+09
         0.85534E+08
        -0.56107E+08
         0.58590E+08
         0.16453E+09
         0.46561E+08
         0.50856E+08
         0.37189E+08
        -0.22283E+08
         0.63696E+08
        -0.16533E+09
         0.76410E+08
         0.11563E+08
         0.44874E+08
        -0.48774E+08
        -0.15258E+09
         0.10649E+09
         0.47533E+08
         0.11330E+09
         0.10712E+09
        -0.11562E+08
         0.70543E+08
         0.10445E+09
         0.16173E+09
         0.18152E+09
         0.17038E+09
         0.91291E+08
        -0.22266E+08
        -0.50550E+08
        -0.81064E+08
        -0.11479E+09
        -0.17397E+09
        -0.15005E+09
        -0.11443E+09
        -0.17334E+09
        -0.17478E+09
        -0.11485E+09
        -0.90883E+07
         0.36586E+08
        -0.52045E+08
         0.11618E+09
         0.15065E+09
         0.18358E+09
         0.20633E+09
         0.20976E+09
         0.20368E+09
         0.20011E+09
         0.18608E+09
         0.11898E+09
         0.40172E+08
         0.18854E+08
         0.17494E+08
        -0.60951E+07
        -0.57550E+08
        -0.11142E+09
        -0.14260E+09
        -0.19206E+09
        -0.20771E+09
        -0.20074E+09
        -0.19887E+09
        -0.18714E+09
        -0.13408E+09
        -0.67311E+08
        -0.63918E+08
        -0.16937E+09
        -0.17217E+09
        -0.16851E+09
        -0.63861E+08
        -0.12537E+09
        -0.80806E+08
        -0.13110E+09
        -0.16503E+09
        -0.16605E+09
        -0.16458E+09
         0.16987E+09
         0.18619E+09
         0.14201E+09
         0.41111E+08
         0.17710E+09
         0.85473E+08
        -0.56460E+08
         0.58491E+08
         0.16455E+09
         0.46258E+08
         0.50975E+08
         0.37212E+08
        -0.22311E+08
         0.63618E+08
        -0.16539E+09
         0.76123E+08
         0.11733E+08
         0.45247E+08
        -0.48089E+08
        -0.15261E+09
         0.10638E+09
         0.47261E+08
         0.11373E+09
         0.10722E+09
        -0.11418E+08
         0.70606E+08
         0.10446E+09
         0.16176E+09
         0.18154E+09
         0.17036E+09
         0.91331E+08
        -0.22138E+08
        -0.50571E+08
        -0.81155E+08
        -0.11485E+09
        -0.17398E+09
        -0.15009E+09
        -0.11440E+09
        -0.17335E+09
        -0.17477E+09
        -0.11486E+09
        -0.89102E+07
         0.36562E+08
        -0.52059E+08
         0.11620E+09
         0.15065E+09
         0.18359E+09
         0.20633E+09
         0.20975E+09
         0.20367E+09
         0.20011E+09
         0.18608E+09
         0.11899E+09
         0.40196E+08
         0.18852E+08
         0.17527E+08
        -0.60350E+07
        -0.57569E+08
        -0.11146E+09
        -0.14261E+09
        -0.19207E+09
        -0.20771E+09
        -0.20075E+09
        -0.19887E+09
        -0.18715E+09
        -0.13407E+09
        -0.67273E+08
        -0.63863E+08
        -0.16306E+09
        -0.15454E+09
        -0.14999E+09
        -0.53290E+08
        -0.11915E+09
        -0.73867E+08
        -0.94956E+08
        -0.15715E+09
        -0.15211E+09
        -0.15636E+09
         0.13425E+09
         0.18220E+09
         0.13787E+09
         0.36657E+08
         0.17365E+09
         0.80181E+08
        -0.45421E+08
         0.49101E+08
         0.14024E+09
         0.32495E+08
         0.49894E+08
         0.36226E+08
        -0.21750E+08
         0.49649E+08
        -0.14788E+09
         0.64380E+08
         0.10583E+08
         0.35656E+08
        -0.30660E+08
        -0.13641E+09
         0.97487E+08
         0.35302E+08
         0.93721E+08
         0.83897E+08
        -0.10879E+08
         0.65109E+08
         0.99325E+08
         0.15759E+09
         0.17451E+09
         0.16276E+09
         0.89089E+08
        -0.21441E+08
        -0.49362E+08
        -0.78563E+08
        -0.10982E+09
        -0.16847E+09
        -0.14139E+09
        -0.10648E+09
        -0.15653E+09
        -0.16110E+09
        -0.11060E+09
        -0.81646E+07
         0.36298E+08
        -0.51774E+08
         0.11559E+09
         0.14987E+09
         0.18270E+09
         0.20537E+09
         0.20867E+09
         0.20236E+09
         0.19875E+09
         0.18492E+09
         0.11826E+09
         0.39990E+08
         0.18722E+08
         0.17445E+08
        -0.59457E+07
        -0.57300E+08
        -0.11097E+09
        -0.14197E+09
        -0.19096E+09
        -0.20656E+09
        -0.19959E+09
        -0.19768E+09
        -0.18609E+09
        -0.13325E+09
        -0.66869E+08
        -0.63454E+08
        -0.81379E+08
        -0.52030E+08
        -0.49092E+08
        -0.14711E+08
        -0.53089E+08
        -0.26596E+08
        -0.21646E+08
        -0.70943E+08
        -0.55548E+08
        -0.69343E+08
         0.33916E+08
         0.10915E+09
         0.74710E+08
         0.11912E+08
         0.10668E+09
         0.33025E+08
        -0.11769E+08
         0.10244E+08
         0.40669E+08
         0.65862E+07
         0.29101E+08
         0.20134E+08
        -0.12256E+08
         0.12293E+08
        -0.49045E+08
         0.12340E+08
         0.34810E+07
         0.60288E+07
        -0.62114E+07
        -0.45230E+08
         0.35646E+08
         0.82933E+07
         0.25237E+08
         0.20927E+08
        -0.53767E+07
         0.24358E+08
         0.44500E+08
         0.88810E+08
         0.85643E+08
         0.75945E+08
         0.50995E+08
        -0.11898E+08
        -0.28395E+08
        -0.40802E+08
        -0.51136E+08
        -0.88361E+08
        -0.59439E+08
        -0.41891E+08
        -0.53760E+08
        -0.60380E+08
        -0.55084E+08
        -0.32411E+07
         0.28998E+08
        -0.42166E+08
         0.95087E+08
         0.12442E+09
         0.15328E+09
         0.17357E+09
         0.17388E+09
         0.16268E+09
         0.15768E+09
         0.14883E+09
         0.95618E+08
         0.32888E+08
         0.14974E+08
         0.14014E+08
        -0.48764E+07
        -0.48023E+08
        -0.93725E+08
        -0.11997E+09
        -0.15547E+09
        -0.16962E+09
        -0.16281E+09
        -0.16036E+09
        -0.15220E+09
        -0.10828E+09
        -0.55052E+08
        -0.52053E+08
  
SCALARS                      stress_xz  double 1
LOOKUP_TABLE default
         0.61975E+05
        -0.43709E+06
        -0.14429E+07
         0.99121E+05
        -0.91385E+01
         0.32403E+01
         0.10835E+02
         0.21639E+01
        -0.40601E+07
        -0.27126E+07
         0.32408E+02
         0.29191E+02
         0.17312E+06
        -0.70639E+06
        -0.39970E+01
        -0.18724E+02
        -0.14492E+06
        -0.67790E+06
        -0.13525E+02
        -0.20143E+02
        -0.99349E+06
        -0.16740E+07
        -0.15853E+07
        -0.13451E+02
        -0.62024E+01
         0.10836E+02
        -0.17683E+07
        -0.14358E+07
        -0.25178E+02
        -0.19972E+02
         0.33910E+06
        -0.75328E+06
         0.72085E+05
         0.25634E+01
        -0.99061E+01
        -0.61029E+01
         0.10061E+07
         0.48494E+06
        -0.14707E+02
        -0.15659E+02
         0.20053E+07
         0.28414E+07
        -0.33175E+02
        -0.24465E+02
         0.21455E+07
         0.11426E+07
        -0.36432E+02
        -0.17536E+02
        -0.61590E+06
        -0.11007E+02
         0.14667E+07
        -0.30640E+01
        -0.64248E+06
        -0.21508E+02
         0.47995E+06
        -0.56895E+01
         0.20999E+07
         0.57606E+06
        -0.48739E+01
        -0.11781E+02
        -0.36208E+05
         0.99890E+06
         0.97481E+01
         0.66847E+01
        -0.25942E+06
        -0.98054E+00
        -0.86842E+06
         0.64495E+01
        -0.57136E+07
        -0.39153E+07
         0.40311E+02
         0.29237E+02
        -0.25182E+07
         0.21288E+02
         0.59354E+06
        -0.14726E+02
         0.18574E+07
        -0.28902E+01
         0.39376E+07
        -0.44840E+01
         0.52099E+07
         0.36995E+07
        -0.16433E+02
        -0.18794E+02
         0.32677E+07
        -0.20212E+02
         0.26018E+07
        -0.29100E+02
         0.16203E+07
        -0.18561E+02
         0.25507E+07
         0.18759E+07
        -0.79215E+01
         0.10863E+02
        -0.42883E+06
         0.12742E+02
        -0.11771E+07
         0.53503E+01
        -0.28264E+07
         0.13212E+02
        -0.41781E+07
        -0.28674E+07
         0.30464E+02
         0.31789E+02
        -0.10233E+08
        -0.11331E+08
         0.56290E+02
         0.55473E+02
        -0.10135E+08
         0.48089E+02
        -0.92368E+07
         0.35937E+02
        -0.66269E+07
         0.19749E+02
        -0.48151E+07
         0.21118E+01
        -0.17866E+07
        -0.75217E+01
         0.23019E+07
        -0.60178E+01
         0.54933E+07
        -0.59148E+01
         0.81621E+07
        -0.13338E+02
         0.10979E+08
        -0.25376E+02
         0.13341E+08
        -0.30282E+02
         0.14182E+08
        -0.28572E+02
         0.13507E+08
        -0.31070E+02
         0.12379E+08
        -0.40324E+02
         0.11133E+08
        -0.47550E+02
         0.98189E+07
        -0.44203E+02
         0.78085E+07
        -0.35924E+02
         0.45817E+07
        -0.16959E+02
         0.39278E+06
         0.32384E+01
        -0.25622E+07
         0.78623E+01
        -0.40102E+07
         0.12857E+02
        -0.60314E+07
         0.25161E+02
        -0.79522E+07
         0.41287E+02
        -0.10452E+08
         0.49604E+02
        -0.12008E+08
         0.50736E+02
         0.88291E+06
        -0.45972E+06
        -0.53932E+06
         0.10859E+07
        -0.42048E+07
        -0.32519E+07
        -0.49111E+06
         0.72128E+06
         0.37205E+06
         0.66205E+06
        -0.36358E+06
        -0.15743E+07
        -0.32877E+07
         0.10517E+07
         0.12654E+07
        -0.14451E+07
        -0.12127E+07
         0.56233E+06
         0.87487E+06
         0.94107E+06
         0.51446E+07
         0.54774E+07
         0.49476E+07
         0.15376E+07
        -0.61645E+06
         0.45937E+06
         0.14760E+07
         0.16551E+06
         0.16938E+07
         0.11643E+07
        -0.12902E+07
        -0.25322E+06
         0.60797E+06
         0.19659E+06
        -0.62217E+07
        -0.39629E+07
        -0.35860E+07
         0.25105E+07
         0.14301E+07
         0.30600E+07
         0.62980E+07
         0.58671E+07
         0.57912E+07
         0.42572E+07
         0.30542E+07
         0.23903E+07
        -0.44878E+06
        -0.18741E+07
        -0.54196E+06
        -0.17183E+07
        -0.45911E+07
        -0.38660E+07
        -0.18183E+08
        -0.19079E+08
        -0.17054E+08
        -0.14507E+08
        -0.10802E+08
        -0.55030E+07
         0.32660E+06
         0.39216E+07
         0.59750E+07
         0.10258E+08
         0.16723E+08
         0.20337E+08
         0.18628E+08
         0.17864E+08
         0.18868E+08
         0.18862E+08
         0.17134E+08
         0.15005E+08
         0.76058E+07
        -0.12021E+07
        -0.46193E+07
        -0.51494E+07
        -0.87201E+07
        -0.13929E+08
        -0.18063E+08
        -0.18983E+08
        -0.57589E+08
         0.19049E+08
        -0.38320E+08
        -0.15962E+09
         0.12978E+09
         0.15654E+09
         0.99083E+08
        -0.74200E+08
        -0.52831E+08
        -0.74558E+08
        -0.29610E+08
         0.27661E+08
         0.11723E+09
        -0.17121E+09
        -0.69279E+08
         0.15247E+09
         0.16158E+09
        -0.12226E+09
        -0.49679E+08
        -0.14449E+09
        -0.17830E+09
        -0.18023E+09
        -0.18226E+09
        -0.15601E+09
         0.55317E+08
         0.74581E+08
        -0.17473E+09
         0.53704E+08
        -0.13536E+09
        -0.85391E+08
         0.13584E+09
         0.16012E+09
        -0.13295E+09
        -0.13177E+09
         0.18243E+09
         0.16231E+09
         0.14635E+09
        -0.92659E+08
        -0.19764E+08
        -0.61239E+08
        -0.16272E+09
        -0.18322E+09
        -0.17800E+09
        -0.16306E+09
        -0.13947E+09
        -0.61054E+08
         0.97602E+08
         0.13405E+09
        -0.21232E+08
         0.21872E+08
         0.14189E+09
         0.17726E+09
         0.20387E+09
         0.20109E+09
         0.17341E+09
         0.14398E+09
         0.10139E+09
         0.43785E+08
        -0.11285E+08
        -0.40667E+08
        -0.54841E+08
        -0.94533E+08
        -0.17100E+09
        -0.20425E+09
        -0.20355E+09
        -0.20277E+09
        -0.20512E+09
        -0.19848E+09
        -0.17517E+09
        -0.15299E+09
        -0.80742E+08
         0.20484E+08
         0.49822E+08
         0.52905E+08
         0.88730E+08
         0.15682E+09
         0.19558E+09
         0.19647E+09
        -0.57657E+08
         0.19116E+08
        -0.38372E+08
        -0.15951E+09
         0.12971E+09
         0.15648E+09
         0.99423E+08
        -0.73946E+08
        -0.52803E+08
        -0.74295E+08
        -0.29012E+08
         0.27729E+08
         0.11726E+09
        -0.17117E+09
        -0.69176E+08
         0.15252E+09
         0.16150E+09
        -0.12192E+09
        -0.49628E+08
        -0.14424E+09
        -0.17827E+09
        -0.18022E+09
        -0.18225E+09
        -0.15602E+09
         0.55217E+08
         0.74706E+08
        -0.17473E+09
         0.52695E+08
        -0.13631E+09
        -0.85304E+08
         0.13591E+09
         0.16015E+09
        -0.13261E+09
        -0.13172E+09
         0.18245E+09
         0.16227E+09
         0.14634E+09
        -0.92675E+08
        -0.19912E+08
        -0.61353E+08
        -0.16272E+09
        -0.18324E+09
        -0.17799E+09
        -0.16304E+09
        -0.13944E+09
        -0.61026E+08
         0.97581E+08
         0.13411E+09
        -0.21105E+08
         0.21826E+08
         0.14188E+09
         0.17726E+09
         0.20387E+09
         0.20109E+09
         0.17340E+09
         0.14398E+09
         0.10137E+09
         0.43785E+08
        -0.11302E+08
        -0.40702E+08
        -0.54808E+08
        -0.94521E+08
        -0.17100E+09
        -0.20425E+09
        -0.20355E+09
        -0.20276E+09
        -0.20512E+09
        -0.19848E+09
        -0.17516E+09
        -0.15299E+09
        -0.80724E+08
         0.20495E+08
         0.49790E+08
         0.52887E+08
         0.88692E+08
         0.15682E+09
         0.19558E+09
         0.19647E+09
        -0.57725E+08
         0.19181E+08
        -0.38423E+08
        -0.15939E+09
         0.12964E+09
         0.15642E+09
         0.99764E+08
        -0.73692E+08
        -0.52771E+08
        -0.74032E+08
        -0.28414E+08
         0.27797E+08
         0.11729E+09
        -0.17112E+09
        -0.69074E+08
         0.15256E+09
         0.16142E+09
        -0.12158E+09
        -0.49575E+08
        -0.14399E+09
        -0.17824E+09
        -0.18021E+09
        -0.18225E+09
        -0.15604E+09
         0.55129E+08
         0.74840E+08
        -0.17473E+09
         0.51697E+08
        -0.13727E+09
        -0.85221E+08
         0.13599E+09
         0.16019E+09
        -0.13227E+09
        -0.13166E+09
         0.18247E+09
         0.16224E+09
         0.14632E+09
        -0.92690E+08
        -0.20059E+08
        -0.61468E+08
        -0.16273E+09
        -0.18326E+09
        -0.17798E+09
        -0.16301E+09
        -0.13942E+09
        -0.60998E+08
         0.97563E+08
         0.13416E+09
        -0.20974E+08
         0.21777E+08
         0.14186E+09
         0.17725E+09
         0.20386E+09
         0.20108E+09
         0.17338E+09
         0.14398E+09
         0.10136E+09
         0.43785E+08
        -0.11319E+08
        -0.40737E+08
        -0.54774E+08
        -0.94509E+08
        -0.17100E+09
        -0.20425E+09
        -0.20355E+09
        -0.20276E+09
        -0.20513E+09
        -0.19848E+09
        -0.17515E+09
        -0.15299E+09
        -0.80705E+08
         0.20505E+08
         0.49759E+08
         0.52869E+08
         0.88654E+08
         0.15681E+09
         0.19559E+09
         0.19648E+09
        -0.57794E+08
         0.19249E+08
        -0.38473E+08
        -0.15928E+09
         0.12956E+09
         0.15636E+09
         0.10009E+09
        -0.73438E+08
        -0.52734E+08
        -0.73763E+08
        -0.27817E+08
         0.27867E+08
         0.11732E+09
        -0.17107E+09
        -0.68972E+08
         0.15261E+09
         0.16134E+09
        -0.12124E+09
        -0.49524E+08
        -0.14374E+09
        -0.17821E+09
        -0.18021E+09
        -0.18225E+09
        -0.15606E+09
         0.55071E+08
         0.75006E+08
        -0.17472E+09
         0.50731E+08
        -0.13822E+09
        -0.85148E+08
         0.13608E+09
         0.16024E+09
        -0.13192E+09
        -0.13161E+09
         0.18248E+09
         0.16221E+09
         0.14631E+09
        -0.92705E+08
        -0.20204E+08
        -0.61577E+08
        -0.16272E+09
        -0.18328E+09
        -0.17797E+09
        -0.16298E+09
        -0.13938E+09
        -0.60966E+08
         0.97542E+08
         0.13421E+09
        -0.20842E+08
         0.21727E+08
         0.14184E+09
         0.17724E+09
         0.20386E+09
         0.20107E+09
         0.17337E+09
         0.14398E+09
         0.10134E+09
         0.43785E+08
        -0.11336E+08
        -0.40772E+08
        -0.54741E+08
        -0.94497E+08
        -0.17100E+09
        -0.20424E+09
        -0.20355E+09
        -0.20275E+09
        -0.20513E+09
        -0.19848E+09
        -0.17514E+09
        -0.15299E+09
        -0.80687E+08
         0.20515E+08
         0.49727E+08
         0.52852E+08
         0.88616E+08
         0.15681E+09
         0.19559E+09
         0.19649E+09
        -0.57862E+08
         0.19317E+08
        -0.38524E+08
        -0.15917E+09
         0.12949E+09
         0.15630E+09
         0.10043E+09
        -0.73184E+08
        -0.52690E+08
        -0.73489E+08
        -0.27219E+08
         0.27935E+08
         0.11734E+09
        -0.17103E+09
        -0.68869E+08
         0.15266E+09
         0.16127E+09
        -0.12089E+09
        -0.49466E+08
        -0.14348E+09
        -0.17818E+09
        -0.18020E+09
        -0.18225E+09
        -0.15610E+09
         0.55043E+08
         0.75196E+08
        -0.17472E+09
         0.49796E+08
        -0.13917E+09
        -0.85084E+08
         0.13618E+09
         0.16031E+09
        -0.13157E+09
        -0.13155E+09
         0.18250E+09
         0.16218E+09
         0.14629E+09
        -0.92718E+08
        -0.20348E+08
        -0.61684E+08
        -0.16272E+09
        -0.18330E+09
        -0.17797E+09
        -0.16294E+09
        -0.13933E+09
        -0.60928E+08
         0.97520E+08
         0.13426E+09
        -0.20711E+08
         0.21679E+08
         0.14182E+09
         0.17724E+09
         0.20386E+09
         0.20106E+09
         0.17335E+09
         0.14398E+09
         0.10132E+09
         0.43786E+08
        -0.11353E+08
        -0.40807E+08
        -0.54707E+08
        -0.94485E+08
        -0.17100E+09
        -0.20424E+09
        -0.20355E+09
        -0.20275E+09
        -0.20514E+09
        -0.19848E+09
        -0.17513E+09
        -0.15298E+09
        -0.80668E+08
         0.20526E+08
         0.49695E+08
         0.52834E+08
         0.88578E+08
         0.15681E+09
         0.19559E+09
         0.19649E+09
        -0.57927E+08
         0.19392E+08
        -0.38567E+08
        -0.15905E+09
         0.12942E+09
         0.15624E+09
         0.10077E+09
        -0.72932E+08
        -0.52644E+08
        -0.73219E+08
        -0.26618E+08
         0.28003E+08
         0.11737E+09
        -0.17098E+09
        -0.68767E+08
         0.15271E+09
         0.16119E+09
        -0.12055E+09
        -0.49408E+08
        -0.14323E+09
        -0.17815E+09
        -0.18019E+09
        -0.18225E+09
        -0.15613E+09
         0.55019E+08
         0.75392E+08
        -0.17472E+09
         0.48866E+08
        -0.14013E+09
        -0.85032E+08
         0.13628E+09
         0.16039E+09
        -0.13121E+09
        -0.13149E+09
         0.18252E+09
         0.16215E+09
         0.14627E+09
        -0.92730E+08
        -0.20490E+08
        -0.61788E+08
        -0.16271E+09
        -0.18333E+09
        -0.17797E+09
        -0.16290E+09
        -0.13927E+09
        -0.60892E+08
         0.97493E+08
         0.13431E+09
        -0.20573E+08
         0.21636E+08
         0.14181E+09
         0.17723E+09
         0.20385E+09
         0.20105E+09
         0.17334E+09
         0.14398E+09
         0.10131E+09
         0.43786E+08
        -0.11370E+08
        -0.40842E+08
        -0.54673E+08
        -0.94474E+08
        -0.17100E+09
        -0.20424E+09
        -0.20355E+09
        -0.20275E+09
        -0.20514E+09
        -0.19848E+09
        -0.17511E+09
        -0.15298E+09
        -0.80649E+08
         0.20535E+08
         0.49663E+08
         0.52816E+08
         0.88541E+08
         0.15680E+09
         0.19559E+09
         0.19650E+09
        -0.57987E+08
         0.19485E+08
        -0.38597E+08
        -0.15893E+09
         0.12935E+09
         0.15618E+09
         0.10113E+09
        -0.72684E+08
        -0.52599E+08
        -0.72963E+08
        -0.26010E+08
         0.28071E+08
         0.11740E+09
        -0.17093E+09
        -0.68663E+08
         0.15276E+09
         0.16110E+09
        -0.12020E+09
        -0.49354E+08
        -0.14299E+09
        -0.17812E+09
        -0.18019E+09
        -0.18224E+09
        -0.15617E+09
         0.54981E+08
         0.75564E+08
        -0.17471E+09
         0.47915E+08
        -0.14110E+09
        -0.84989E+08
         0.13637E+09
         0.16047E+09
        -0.13085E+09
        -0.13142E+09
         0.18253E+09
         0.16212E+09
         0.14626E+09
        -0.92741E+08
        -0.20632E+08
        -0.61896E+08
        -0.16271E+09
        -0.18336E+09
        -0.17797E+09
        -0.16285E+09
        -0.13922E+09
        -0.60858E+08
         0.97451E+08
         0.13434E+09
        -0.20417E+08
         0.21608E+08
         0.14180E+09
         0.17722E+09
         0.20385E+09
         0.20104E+09
         0.17333E+09
         0.14398E+09
         0.10129E+09
         0.43786E+08
        -0.11387E+08
        -0.40877E+08
        -0.54640E+08
        -0.94463E+08
        -0.17100E+09
        -0.20423E+09
        -0.20354E+09
        -0.20274E+09
        -0.20515E+09
        -0.19848E+09
        -0.17510E+09
        -0.15297E+09
        -0.80631E+08
         0.20543E+08
         0.49629E+08
         0.52798E+08
         0.88505E+08
         0.15680E+09
         0.19560E+09
         0.19651E+09
        -0.58044E+08
         0.19583E+08
        -0.38620E+08
        -0.15881E+09
         0.12928E+09
         0.15612E+09
         0.10151E+09
        -0.72440E+08
        -0.52555E+08
        -0.72715E+08
        -0.25399E+08
         0.28138E+08
         0.11742E+09
        -0.17087E+09
        -0.68559E+08
         0.15281E+09
         0.16101E+09
        -0.11985E+09
        -0.49296E+08
        -0.14276E+09
        -0.17809E+09
        -0.18018E+09
        -0.18224E+09
        -0.15620E+09
         0.54936E+08
         0.75725E+08
        -0.17470E+09
         0.46958E+08
        -0.14208E+09
        -0.84951E+08
         0.13647E+09
         0.16056E+09
        -0.13047E+09
        -0.13134E+09
         0.18255E+09
         0.16209E+09
         0.14624E+09
        -0.92750E+08
        -0.20774E+08
        -0.62002E+08
        -0.16270E+09
        -0.18338E+09
        -0.17797E+09
        -0.16281E+09
        -0.13916E+09
        -0.60826E+08
         0.97403E+08
         0.13436E+09
        -0.20254E+08
         0.21587E+08
         0.14178E+09
         0.17722E+09
         0.20385E+09
         0.20104E+09
         0.17331E+09
         0.14398E+09
         0.10127E+09
         0.43786E+08
        -0.11404E+08
        -0.40912E+08
        -0.54606E+08
        -0.94452E+08
        -0.17099E+09
        -0.20423E+09
        -0.20354E+09
        -0.20274E+09
        -0.20515E+09
        -0.19849E+09
        -0.17508E+09
        -0.15297E+09
        -0.80612E+08
         0.20551E+08
         0.49594E+08
         0.52780E+08
         0.88470E+08
         0.15680E+09
         0.19560E+09
         0.19652E+09
        -0.58101E+08
         0.19683E+08
        -0.38643E+08
        -0.15869E+09
         0.12921E+09
         0.15606E+09
         0.10188E+09
        -0.72195E+08
        -0.52511E+08
        -0.72470E+08
        -0.24792E+08
         0.28206E+08
         0.11744E+09
        -0.17082E+09
        -0.68455E+08
         0.15286E+09
         0.16092E+09
        -0.11950E+09
        -0.49239E+08
        -0.14252E+09
        -0.17806E+09
        -0.18018E+09
        -0.18224E+09
        -0.15624E+09
         0.54892E+08
         0.75885E+08
        -0.17470E+09
         0.46003E+08
        -0.14306E+09
        -0.84912E+08
         0.13656E+09
         0.16064E+09
        -0.13009E+09
        -0.13127E+09
         0.18257E+09
         0.16206E+09
         0.14622E+09
        -0.92759E+08
        -0.20916E+08
        -0.62107E+08
        -0.16269E+09
        -0.18341E+09
        -0.17797E+09
        -0.16277E+09
        -0.13911E+09
        -0.60794E+08
         0.97357E+08
         0.13439E+09
        -0.20090E+08
         0.21567E+08
         0.14177E+09
         0.17721E+09
         0.20385E+09
         0.20103E+09
         0.17330E+09
         0.14398E+09
         0.10126E+09
         0.43786E+08
        -0.11421E+08
        -0.40947E+08
        -0.54572E+08
        -0.94441E+08
        -0.17099E+09
        -0.20422E+09
        -0.20354E+09
        -0.20274E+09
        -0.20516E+09
        -0.19849E+09
        -0.17507E+09
        -0.15296E+09
        -0.80593E+08
         0.20559E+08
         0.49559E+08
         0.52761E+08
         0.88435E+08
         0.15680E+09
         0.19560E+09
         0.19652E+09
        -0.58159E+08
         0.19783E+08
        -0.38665E+08
        -0.15856E+09
         0.12914E+09
         0.15600E+09
         0.10225E+09
        -0.71951E+08
        -0.52467E+08
        -0.72226E+08
        -0.24183E+08
         0.28273E+08
         0.11747E+09
        -0.17076E+09
        -0.68352E+08
         0.15291E+09
         0.16083E+09
        -0.11916E+09
        -0.49182E+08
        -0.14229E+09
        -0.17803E+09
        -0.18017E+09
        -0.18224E+09
        -0.15627E+09
         0.54848E+08
         0.76045E+08
        -0.17469E+09
         0.45053E+08
        -0.14403E+09
        -0.84873E+08
         0.13666E+09
         0.16072E+09
        -0.12971E+09
        -0.13119E+09
         0.18259E+09
         0.16203E+09
         0.14621E+09
        -0.92767E+08
        -0.21057E+08
        -0.62215E+08
        -0.16269E+09
        -0.18344E+09
        -0.17797E+09
        -0.16273E+09
        -0.13906E+09
        -0.60761E+08
         0.97309E+08
         0.13441E+09
        -0.19927E+08
         0.21544E+08
         0.14176E+09
         0.17720E+09
         0.20384E+09
         0.20102E+09
         0.17328E+09
         0.14398E+09
         0.10124E+09
         0.43786E+08
        -0.11438E+08
        -0.40982E+08
        -0.54538E+08
        -0.94430E+08
        -0.17099E+09
        -0.20422E+09
        -0.20354E+09
        -0.20273E+09
        -0.20516E+09
        -0.19849E+09
        -0.17505E+09
        -0.15296E+09
        -0.80575E+08
         0.20566E+08
         0.49524E+08
         0.52743E+08
         0.88399E+08
         0.15680E+09
         0.19560E+09
         0.19653E+09
        -0.58216E+08
         0.19884E+08
        -0.38690E+08
        -0.15844E+09
         0.12907E+09
         0.15594E+09
         0.10261E+09
        -0.71708E+08
        -0.52423E+08
        -0.71983E+08
        -0.23574E+08
         0.28342E+08
         0.11749E+09
        -0.17071E+09
        -0.68248E+08
         0.15296E+09
         0.16074E+09
        -0.11881E+09
        -0.49130E+08
        -0.14206E+09
        -0.17799E+09
        -0.18017E+09
        -0.18223E+09
        -0.15631E+09
         0.54803E+08
         0.76204E+08
        -0.17468E+09
         0.44102E+08
        -0.14500E+09
        -0.84833E+08
         0.13675E+09
         0.16080E+09
        -0.12933E+09
        -0.13111E+09
         0.18260E+09
         0.16200E+09
         0.14619E+09
        -0.92775E+08
        -0.21199E+08
        -0.62320E+08
        -0.16268E+09
        -0.18346E+09
        -0.17797E+09
        -0.16268E+09
        -0.13900E+09
        -0.60729E+08
         0.97261E+08
         0.13443E+09
        -0.19762E+08
         0.21522E+08
         0.14175E+09
         0.17719E+09
         0.20384E+09
         0.20101E+09
         0.17327E+09
         0.14397E+09
         0.10123E+09
         0.43786E+08
        -0.11454E+08
        -0.41016E+08
        -0.54505E+08
        -0.94418E+08
        -0.17098E+09
        -0.20422E+09
        -0.20354E+09
        -0.20273E+09
        -0.20516E+09
        -0.19849E+09
        -0.17504E+09
        -0.15295E+09
        -0.80556E+08
         0.20574E+08
         0.49489E+08
         0.52725E+08
         0.88364E+08
         0.15679E+09
         0.19561E+09
         0.19654E+09
        -0.58273E+08
         0.19983E+08
        -0.38711E+08
        -0.15832E+09
         0.12900E+09
         0.15588E+09
         0.10298E+09
        -0.71464E+08
        -0.52379E+08
        -0.71742E+08
        -0.22966E+08
         0.28410E+08
         0.11752E+09
        -0.17065E+09
        -0.68144E+08
         0.15300E+09
         0.16065E+09
        -0.11847E+09
        -0.49074E+08
        -0.14183E+09
        -0.17796E+09
        -0.18016E+09
        -0.18223E+09
        -0.15635E+09
         0.54758E+08
         0.76367E+08
        -0.17468E+09
         0.43156E+08
        -0.14597E+09
        -0.84797E+08
         0.13685E+09
         0.16088E+09
        -0.12895E+09
        -0.13104E+09
         0.18262E+09
         0.16197E+09
         0.14617E+09
        -0.92783E+08
        -0.21340E+08
        -0.62427E+08
        -0.16268E+09
        -0.18349E+09
        -0.17797E+09
        -0.16264E+09
        -0.13895E+09
        -0.60698E+08
         0.97215E+08
         0.13445E+09
        -0.19596E+08
         0.21502E+08
         0.14174E+09
         0.17719E+09
         0.20384E+09
         0.20100E+09
         0.17325E+09
         0.14397E+09
         0.10121E+09
         0.43787E+08
        -0.11471E+08
        -0.41051E+08
        -0.54471E+08
        -0.94408E+08
        -0.17098E+09
        -0.20421E+09
        -0.20354E+09
        -0.20273E+09
        -0.20517E+09
        -0.19849E+09
        -0.17502E+09
        -0.15295E+09
        -0.80538E+08
         0.20581E+08
         0.49454E+08
         0.52707E+08
         0.88329E+08
         0.15679E+09
         0.19561E+09
         0.19654E+09
        -0.58331E+08
         0.20084E+08
        -0.38732E+08
        -0.15819E+09
         0.12893E+09
         0.15582E+09
         0.10334E+09
        -0.71221E+08
        -0.52334E+08
        -0.71501E+08
        -0.22360E+08
         0.28477E+08
         0.11754E+09
        -0.17060E+09
        -0.68040E+08
         0.15305E+09
         0.16056E+09
        -0.11812E+09
        -0.49019E+08
        -0.14159E+09
        -0.17793E+09
        -0.18016E+09
        -0.18223E+09
        -0.15638E+09
         0.54712E+08
         0.76526E+08
        -0.17467E+09
         0.42207E+08
        -0.14694E+09
        -0.84759E+08
         0.13694E+09
         0.16096E+09
        -0.12856E+09
        -0.13096E+09
         0.18264E+09
         0.16194E+09
         0.14616E+09
        -0.92790E+08
        -0.21480E+08
        -0.62533E+08
        -0.16267E+09
        -0.18351E+09
        -0.17797E+09
        -0.16260E+09
        -0.13890E+09
        -0.60664E+08
         0.97166E+08
         0.13447E+09
        -0.19430E+08
         0.21479E+08
         0.14173E+09
         0.17718E+09
         0.20383E+09
         0.20099E+09
         0.17324E+09
         0.14397E+09
         0.10119E+09
         0.43787E+08
        -0.11488E+08
        -0.41086E+08
        -0.54437E+08
        -0.94397E+08
        -0.17098E+09
        -0.20421E+09
        -0.20354E+09
        -0.20272E+09
        -0.20517E+09
        -0.19849E+09
        -0.17501E+09
        -0.15294E+09
        -0.80519E+08
         0.20589E+08
         0.49419E+08
         0.52689E+08
         0.88294E+08
         0.15679E+09
         0.19561E+09
         0.19655E+09
        -0.58389E+08
         0.20183E+08
        -0.38754E+08
        -0.15806E+09
         0.12886E+09
         0.15575E+09
         0.10368E+09
        -0.70979E+08
        -0.52289E+08
        -0.71261E+08
        -0.21756E+08
         0.28545E+08
         0.11757E+09
        -0.17054E+09
        -0.67937E+08
         0.15310E+09
         0.16047E+09
        -0.11777E+09
        -0.48969E+08
        -0.14136E+09
        -0.17790E+09
        -0.18015E+09
        -0.18223E+09
        -0.15641E+09
         0.54666E+08
         0.76685E+08
        -0.17466E+09
         0.41265E+08
        -0.14791E+09
        -0.84720E+08
         0.13703E+09
         0.16104E+09
        -0.12817E+09
        -0.13088E+09
         0.18265E+09
         0.16191E+09
         0.14614E+09
        -0.92796E+08
        -0.21620E+08
        -0.62641E+08
        -0.16266E+09
        -0.18354E+09
        -0.17797E+09
        -0.16255E+09
        -0.13884E+09
        -0.60633E+08
         0.97118E+08
         0.13450E+09
        -0.19263E+08
         0.21457E+08
         0.14171E+09
         0.17717E+09
         0.20383E+09
         0.20099E+09
         0.17322E+09
         0.14397E+09
         0.10118E+09
         0.43786E+08
        -0.11505E+08
        -0.41120E+08
        -0.54403E+08
        -0.94386E+08
        -0.17098E+09
        -0.20420E+09
        -0.20354E+09
        -0.20272E+09
        -0.20518E+09
        -0.19849E+09
        -0.17499E+09
        -0.15293E+09
        -0.80500E+08
         0.20596E+08
         0.49384E+08
         0.52671E+08
         0.88259E+08
         0.15679E+09
         0.19561E+09
         0.19656E+09
        -0.58447E+08
         0.20281E+08
        -0.38775E+08
        -0.15794E+09
         0.12879E+09
         0.15569E+09
         0.10404E+09
        -0.70736E+08
        -0.52244E+08
        -0.71023E+08
        -0.21151E+08
         0.28613E+08
         0.11759E+09
        -0.17049E+09
        -0.67832E+08
         0.15315E+09
         0.16037E+09
        -0.11743E+09
        -0.48913E+08
        -0.14112E+09
        -0.17787E+09
        -0.18014E+09
        -0.18223E+09
        -0.15645E+09
         0.54620E+08
         0.76844E+08
        -0.17466E+09
         0.40323E+08
        -0.14888E+09
        -0.84680E+08
         0.13713E+09
         0.16112E+09
        -0.12777E+09
        -0.13080E+09
         0.18267E+09
         0.16188E+09
         0.14613E+09
        -0.92801E+08
        -0.21760E+08
        -0.62747E+08
        -0.16266E+09
        -0.18356E+09
        -0.17797E+09
        -0.16251E+09
        -0.13879E+09
        -0.60602E+08
         0.97071E+08
         0.13452E+09
        -0.19094E+08
         0.21436E+08
         0.14170E+09
         0.17716E+09
         0.20383E+09
         0.20098E+09
         0.17321E+09
         0.14397E+09
         0.10116E+09
         0.43786E+08
        -0.11521E+08
        -0.41153E+08
        -0.54369E+08
        -0.94376E+08
        -0.17097E+09
        -0.20420E+09
        -0.20354E+09
        -0.20272E+09
        -0.20518E+09
        -0.19849E+09
        -0.17498E+09
        -0.15293E+09
        -0.80482E+08
         0.20603E+08
         0.49349E+08
         0.52653E+08
         0.88224E+08
         0.15679E+09
         0.19561E+09
         0.19657E+09
        -0.58505E+08
         0.20383E+08
        -0.38797E+08
        -0.15781E+09
         0.12872E+09
         0.15563E+09
         0.10439E+09
        -0.70494E+08
        -0.52199E+08
        -0.70786E+08
        -0.20547E+08
         0.28681E+08
         0.11761E+09
        -0.17043E+09
        -0.67729E+08
         0.15319E+09
         0.16028E+09
        -0.11709E+09
        -0.48859E+08
        -0.14089E+09
        -0.17784E+09
        -0.18014E+09
        -0.18222E+09
        -0.15648E+09
         0.54572E+08
         0.77003E+08
        -0.17465E+09
         0.39381E+08
        -0.14985E+09
        -0.84640E+08
         0.13722E+09
         0.16119E+09
        -0.12738E+09
        -0.13073E+09
         0.18268E+09
         0.16185E+09
         0.14611E+09
        -0.92805E+08
        -0.21900E+08
        -0.62853E+08
        -0.16265E+09
        -0.18359E+09
        -0.17797E+09
        -0.16247E+09
        -0.13873E+09
        -0.60568E+08
         0.97023E+08
         0.13454E+09
        -0.18925E+08
         0.21413E+08
         0.14169E+09
         0.17716E+09
         0.20382E+09
         0.20097E+09
         0.17320E+09
         0.14397E+09
         0.10114E+09
         0.43787E+08
        -0.11538E+08
        -0.41187E+08
        -0.54335E+08
        -0.94365E+08
        -0.17097E+09
        -0.20420E+09
        -0.20354E+09
        -0.20272E+09
        -0.20519E+09
        -0.19849E+09
        -0.17496E+09
        -0.15292E+09
        -0.80463E+08
         0.20610E+08
         0.49314E+08
         0.52635E+08
         0.88188E+08
         0.15678E+09
         0.19562E+09
         0.19657E+09
        -0.58563E+08
         0.20482E+08
        -0.38819E+08
        -0.15768E+09
         0.12865E+09
         0.15557E+09
         0.10473E+09
        -0.70252E+08
        -0.52153E+08
        -0.70547E+08
        -0.19944E+08
         0.28749E+08
         0.11764E+09
        -0.17037E+09
        -0.67624E+08
         0.15324E+09
         0.16019E+09
        -0.11674E+09
        -0.48806E+08
        -0.14066E+09
        -0.17781E+09
        -0.18013E+09
        -0.18222E+09
        -0.15652E+09
         0.54523E+08
         0.77161E+08
        -0.17464E+09
         0.38431E+08
        -0.15081E+09
        -0.84603E+08
         0.13731E+09
         0.16127E+09
        -0.12698E+09
        -0.13065E+09
         0.18270E+09
         0.16182E+09
         0.14609E+09
        -0.92809E+08
        -0.22041E+08
        -0.62962E+08
        -0.16264E+09
        -0.18361E+09
        -0.17797E+09
        -0.16243E+09
        -0.13868E+09
        -0.60536E+08
         0.96975E+08
         0.13456E+09
        -0.18757E+08
         0.21390E+08
         0.14168E+09
         0.17715E+09
         0.20382E+09
         0.20096E+09
         0.17318E+09
         0.14397E+09
         0.10113E+09
         0.43787E+08
        -0.11554E+08
        -0.41221E+08
        -0.54302E+08
        -0.94355E+08
        -0.17097E+09
        -0.20419E+09
        -0.20353E+09
        -0.20271E+09
        -0.20519E+09
        -0.19849E+09
        -0.17495E+09
        -0.15292E+09
        -0.80444E+08
         0.20617E+08
         0.49279E+08
         0.52617E+08
         0.88153E+08
         0.15678E+09
         0.19562E+09
         0.19658E+09
        -0.58620E+08
         0.20581E+08
        -0.38840E+08
        -0.15756E+09
         0.12858E+09
         0.15551E+09
         0.10507E+09
        -0.70012E+08
        -0.52102E+08
        -0.70302E+08
        -0.19341E+08
         0.28818E+08
         0.11766E+09
        -0.17032E+09
        -0.67520E+08
         0.15329E+09
         0.16009E+09
        -0.11640E+09
        -0.48758E+08
        -0.14043E+09
        -0.17778E+09
        -0.18013E+09
        -0.18222E+09
        -0.15655E+09
         0.54466E+08
         0.77326E+08
        -0.17463E+09
         0.37457E+08
        -0.15177E+09
        -0.84575E+08
         0.13740E+09
         0.16135E+09
        -0.12658E+09
        -0.13057E+09
         0.18272E+09
         0.16178E+09
         0.14608E+09
        -0.92808E+08
        -0.22187E+08
        -0.63070E+08
        -0.16263E+09
        -0.18364E+09
        -0.17797E+09
        -0.16238E+09
        -0.13862E+09
        -0.60503E+08
         0.96928E+08
         0.13458E+09
        -0.18590E+08
         0.21368E+08
         0.14167E+09
         0.17714E+09
         0.20382E+09
         0.20095E+09
         0.17317E+09
         0.14397E+09
         0.10111E+09
         0.43787E+08
        -0.11571E+08
        -0.41255E+08
        -0.54269E+08
        -0.94345E+08
        -0.17097E+09
        -0.20419E+09
        -0.20353E+09
        -0.20271E+09
        -0.20520E+09
        -0.19849E+09
        -0.17493E+09
        -0.15291E+09
        -0.80425E+08
         0.20624E+08
         0.49244E+08
         0.52599E+08
         0.88118E+08
         0.15678E+09
         0.19562E+09
         0.19659E+09
        -0.58678E+08
         0.20680E+08
        -0.38860E+08
        -0.15743E+09
         0.12851E+09
         0.15545E+09
         0.10542E+09
        -0.69771E+08
        -0.52048E+08
        -0.70051E+08
        -0.18741E+08
         0.28886E+08
         0.11769E+09
        -0.17026E+09
        -0.67414E+08
         0.15333E+09
         0.15999E+09
        -0.11606E+09
        -0.48705E+08
        -0.14020E+09
        -0.17775E+09
        -0.18012E+09
        -0.18222E+09
        -0.15658E+09
         0.54400E+08
         0.77483E+08
        -0.17462E+09
         0.36454E+08
        -0.15274E+09
        -0.84549E+08
         0.13750E+09
         0.16143E+09
        -0.12617E+09
        -0.13049E+09
         0.18273E+09
         0.16175E+09
         0.14606E+09
        -0.92805E+08
        -0.22338E+08
        -0.63180E+08
        -0.16262E+09
        -0.18366E+09
        -0.17797E+09
        -0.16234E+09
        -0.13857E+09
        -0.60472E+08
         0.96880E+08
         0.13461E+09
        -0.18419E+08
         0.21346E+08
         0.14166E+09
         0.17713E+09
         0.20382E+09
         0.20095E+09
         0.17315E+09
         0.14397E+09
         0.10110E+09
         0.43788E+08
        -0.11587E+08
        -0.41289E+08
        -0.54236E+08
        -0.94335E+08
        -0.17096E+09
        -0.20419E+09
        -0.20353E+09
        -0.20271E+09
        -0.20520E+09
        -0.19850E+09
        -0.17492E+09
        -0.15290E+09
        -0.80406E+08
         0.20631E+08
         0.49209E+08
         0.52581E+08
         0.88084E+08
         0.15678E+09
         0.19562E+09
         0.19659E+09
        -0.58736E+08
         0.20779E+08
        -0.38881E+08
        -0.15730E+09
         0.12844E+09
         0.15539E+09
         0.10575E+09
        -0.69531E+08
        -0.51991E+08
        -0.69799E+08
        -0.18145E+08
         0.28952E+08
         0.11771E+09
        -0.17020E+09
        -0.67308E+08
         0.15338E+09
         0.15989E+09
        -0.11572E+09
        -0.48651E+08
        -0.13997E+09
        -0.17772E+09
        -0.18012E+09
        -0.18222E+09
        -0.15662E+09
         0.54332E+08
         0.77640E+08
        -0.17461E+09
         0.35447E+08
        -0.15370E+09
        -0.84524E+08
         0.13759E+09
         0.16150E+09
        -0.12577E+09
        -0.13042E+09
         0.18275E+09
         0.16172E+09
         0.14605E+09
        -0.92800E+08
        -0.22490E+08
        -0.63288E+08
        -0.16261E+09
        -0.18368E+09
        -0.17797E+09
        -0.16230E+09
        -0.13852E+09
        -0.60440E+08
         0.96834E+08
         0.13463E+09
        -0.18251E+08
         0.21322E+08
         0.14164E+09
         0.17712E+09
         0.20381E+09
         0.20094E+09
         0.17314E+09
         0.14397E+09
         0.10108E+09
         0.43787E+08
        -0.11603E+08
        -0.41322E+08
        -0.54204E+08
        -0.94324E+08
        -0.17095E+09
        -0.20419E+09
        -0.20353E+09
        -0.20270E+09
        -0.20521E+09
        -0.19850E+09
        -0.17491E+09
        -0.15290E+09
        -0.80387E+08
         0.20639E+08
         0.49175E+08
         0.52563E+08
         0.88049E+08
         0.15677E+09
         0.19562E+09
         0.19660E+09
        -0.56604E+08
         0.18719E+08
        -0.34622E+08
        -0.13047E+09
         0.12191E+09
         0.14180E+09
         0.76908E+08
        -0.65967E+08
        -0.47563E+08
        -0.66052E+08
        -0.13925E+08
         0.28383E+08
         0.11430E+09
        -0.15129E+09
        -0.65886E+08
         0.14399E+09
         0.12780E+09
        -0.97030E+08
        -0.41404E+08
        -0.98716E+08
        -0.17352E+09
        -0.17522E+09
        -0.17752E+09
        -0.12230E+09
         0.48498E+08
         0.65942E+08
        -0.15547E+09
         0.27022E+08
        -0.99698E+08
        -0.75499E+08
         0.12624E+09
         0.12114E+09
        -0.10296E+09
        -0.10189E+09
         0.17612E+09
         0.14903E+09
         0.13884E+09
        -0.90394E+08
        -0.21750E+08
        -0.60561E+08
        -0.15856E+09
        -0.17872E+09
        -0.17360E+09
        -0.15696E+09
        -0.13235E+09
        -0.58492E+08
         0.91187E+08
         0.12540E+09
        -0.16347E+08
         0.19632E+08
         0.13638E+09
         0.16556E+09
         0.20250E+09
         0.19975E+09
         0.17218E+09
         0.14322E+09
         0.10057E+09
         0.43578E+08
        -0.11562E+08
        -0.41084E+08
        -0.53802E+08
        -0.93720E+08
        -0.16991E+09
        -0.20306E+09
        -0.20220E+09
        -0.20139E+09
        -0.20409E+09
        -0.19753E+09
        -0.17408E+09
        -0.15219E+09
        -0.79904E+08
         0.20537E+08
         0.48865E+08
         0.52231E+08
         0.87519E+08
         0.15585E+09
         0.19455E+09
         0.19551E+09
        -0.28264E+08
         0.63221E+07
        -0.11333E+08
        -0.35836E+08
         0.54259E+08
         0.50973E+08
         0.17572E+08
        -0.29726E+08
        -0.17349E+08
        -0.29247E+08
        -0.34666E+07
         0.17009E+08
         0.61937E+08
        -0.49078E+08
        -0.40442E+08
         0.59321E+08
         0.32932E+08
        -0.20239E+08
        -0.12000E+08
        -0.20048E+08
        -0.10102E+09
        -0.97336E+08
        -0.10008E+09
        -0.30283E+08
         0.16061E+08
         0.12652E+08
        -0.50652E+08
         0.44792E+07
        -0.20379E+08
        -0.25010E+08
         0.46190E+08
         0.28487E+08
        -0.27592E+08
        -0.25391E+08
         0.88191E+08
         0.55728E+08
         0.62207E+08
        -0.50967E+08
        -0.10711E+08
        -0.28283E+08
        -0.90743E+08
        -0.99356E+08
        -0.99765E+08
        -0.81488E+08
        -0.61614E+08
        -0.30673E+08
         0.38326E+08
         0.49394E+08
        -0.55826E+07
         0.73546E+07
         0.67903E+08
         0.66691E+08
         0.16190E+09
         0.16261E+09
         0.14164E+09
         0.11891E+09
         0.84365E+08
         0.36819E+08
        -0.96495E+07
        -0.33036E+08
        -0.42665E+08
        -0.75419E+08
        -0.13737E+09
        -0.16698E+09
        -0.16181E+09
        -0.16160E+09
        -0.16848E+09
        -0.16554E+09
        -0.14701E+09
        -0.12860E+09
        -0.65040E+08
         0.16876E+08
         0.39855E+08
         0.42362E+08
         0.71568E+08
         0.12666E+09
         0.16023E+09
         0.16046E+09
  
SCALARS                      stress_xy  double 1
LOOKUP_TABLE default
        -0.74729E+00
        -0.17540E+01
        -0.15039E+02
         0.53103E+00
        -0.13383E-08
         0.13079E-09
         0.19664E-08
         0.29955E-09
        -0.15867E+03
         0.69712E+02
         0.87532E-08
         0.69413E-08
         0.59396E+01
        -0.12324E+01
         0.77261E-09
        -0.23205E-09
         0.17067E+01
         0.29804E+02
         0.38463E-10
         0.58613E-09
        -0.22680E+02
        -0.14391E+03
        -0.14157E+03
         0.59600E-08
         0.47463E-08
        -0.69310E-08
        -0.14983E+02
        -0.12523E+03
         0.80250E-08
         0.12350E-07
        -0.45639E+01
         0.88436E+01
         0.71779E+00
        -0.42357E-09
         0.16710E-08
        -0.21372E-10
        -0.40258E+02
        -0.18717E+02
         0.44720E-08
         0.37046E-08
        -0.78910E+02
        -0.71222E+02
         0.76236E-08
         0.51378E-08
        -0.76519E+02
        -0.14046E+02
        -0.27772E-09
         0.20676E-08
         0.20435E+02
         0.61106E-09
        -0.47859E+01
        -0.13777E-10
         0.12569E+01
         0.46186E-08
         0.62241E+01
         0.71071E-09
         0.88813E+02
        -0.43230E+01
         0.16517E-10
        -0.81031E-10
         0.59098E+00
        -0.59505E+02
         0.45010E-09
         0.11545E-08
         0.25564E+01
        -0.91388E-10
         0.36751E+02
         0.73229E-09
        -0.19655E+03
        -0.71349E+02
         0.56563E-09
        -0.54166E-08
        -0.16048E+03
        -0.86605E-08
         0.65725E+02
         0.58007E-08
         0.20759E+03
         0.86422E-09
         0.36250E+03
         0.11238E-08
         0.70319E+03
         0.38312E+03
         0.26420E-08
        -0.66994E-09
         0.47295E+02
        -0.80618E-10
        -0.14502E+03
        -0.72711E-08
        -0.21352E+03
        -0.81187E-08
        -0.46981E+03
        -0.21422E+03
        -0.51393E-08
         0.57045E-08
         0.34435E+02
         0.51942E-08
         0.84801E+02
         0.22312E-08
         0.19816E+03
         0.59243E-08
         0.48747E+03
         0.27799E+03
         0.12703E-07
         0.63515E-08
        -0.80139E+03
         0.33577E+03
        -0.82533E-08
         0.10107E-07
        -0.19513E+04
        -0.23456E-07
        -0.25449E+04
        -0.25641E-07
        -0.22362E+04
        -0.17402E-07
        -0.19071E+04
        -0.18459E-08
        -0.83367E+03
         0.52027E-08
         0.10984E+04
         0.32213E-08
         0.24684E+04
         0.29448E-08
         0.32636E+04
         0.63181E-08
         0.32000E+04
         0.76818E-08
         0.26235E+04
         0.30265E-08
         0.13976E+04
         0.18452E-08
        -0.95701E+02
         0.30159E-08
        -0.11627E+04
         0.20216E-08
        -0.18752E+04
        -0.72094E-08
        -0.25595E+04
        -0.18917E-07
        -0.22925E+04
        -0.24007E-07
        -0.14724E+04
        -0.14858E-07
        -0.16129E+03
         0.28347E-08
         0.10894E+04
         0.60078E-08
         0.15753E+04
         0.95746E-08
         0.19276E+04
         0.18855E-07
         0.17280E+04
         0.24466E-07
         0.16082E+04
         0.17382E-07
         0.13282E+04
         0.13747E-07
        -0.83786E+02
         0.22620E+02
         0.23160E+02
        -0.14427E+02
         0.18520E+03
         0.15211E+03
         0.24252E+01
        -0.54719E+02
        -0.24137E+02
        -0.63177E+02
        -0.18144E+02
        -0.33517E+03
        -0.47820E+03
         0.17742E+02
         0.27214E+03
        -0.36279E+02
         0.26996E+02
         0.80361E+01
         0.16411E+02
        -0.13338E+02
         0.66990E+02
         0.58787E+02
        -0.17853E+03
         0.46759E+01
         0.40160E+02
         0.44246E+01
         0.73681E+00
         0.14444E+01
         0.17942E+02
        -0.59501E+02
        -0.31629E+02
         0.67533E+01
         0.10839E+02
        -0.85553E+00
        -0.44750E+02
        -0.15452E+03
        -0.31354E+03
         0.47450E+03
         0.24698E+03
         0.44649E+03
         0.86513E+03
         0.20026E+03
        -0.16167E+03
        -0.32602E+03
        -0.38653E+03
        -0.49396E+03
         0.60872E+02
         0.18225E+03
         0.56235E+02
         0.18946E+03
         0.59365E+03
         0.22849E+03
        -0.20221E+04
         0.25510E+04
        -0.61753E+04
        -0.72579E+04
        -0.68886E+04
        -0.41665E+04
         0.24861E+03
         0.27027E+04
         0.39184E+04
         0.63579E+04
         0.66963E+04
         0.35759E+04
         0.14415E+04
         0.60951E+03
        -0.98597E+03
        -0.38964E+04
        -0.65051E+04
        -0.74331E+04
        -0.45590E+04
         0.82619E+03
         0.29910E+04
         0.31522E+04
         0.49659E+04
         0.55163E+04
         0.41790E+04
         0.38562E+04
        -0.30302E+06
         0.88568E+05
        -0.16994E+06
        -0.19381E+06
         0.50270E+06
         0.35460E+06
         0.24323E+06
        -0.37373E+06
        -0.23814E+06
        -0.36938E+06
         0.11658E+06
        -0.16835E+06
        -0.53866E+06
         0.19331E+06
         0.39860E+06
        -0.38130E+06
         0.16491E+06
         0.12230E+06
         0.19963E+06
         0.12595E+06
         0.28115E+06
         0.21322E+06
        -0.12788E+06
         0.20565E+06
         0.24470E+06
        -0.10067E+06
         0.43910E+05
        -0.33815E+05
        -0.13615E+06
        -0.36019E+06
        -0.40209E+06
        -0.15587E+06
         0.30532E+06
         0.27128E+06
         0.82645E+05
        -0.33395E+06
        -0.47554E+06
         0.48562E+06
         0.11451E+06
         0.33187E+06
         0.47978E+06
        -0.14547E+06
        -0.28943E+06
        -0.41159E+06
        -0.49665E+06
        -0.34235E+06
         0.44942E+06
         0.45892E+06
        -0.10342E+06
         0.11313E+06
         0.52106E+06
         0.65724E+05
        -0.24918E+06
         0.34418E+06
        -0.66367E+06
        -0.71677E+06
        -0.61501E+06
        -0.29894E+06
         0.78325E+05
         0.27400E+06
         0.36244E+06
         0.58147E+06
         0.67261E+06
         0.26808E+06
         0.12637E+06
         0.11290E+06
        -0.48601E+05
        -0.37500E+06
        -0.64126E+06
        -0.72001E+06
        -0.51215E+06
         0.14065E+06
         0.33017E+06
         0.34731E+06
         0.54804E+06
         0.69607E+06
         0.43949E+06
         0.42122E+06
        -0.30339E+06
         0.88884E+05
        -0.17021E+06
        -0.19502E+06
         0.50266E+06
         0.35488E+06
         0.24431E+06
        -0.37281E+06
        -0.23821E+06
        -0.36865E+06
         0.11429E+06
        -0.16876E+06
        -0.53874E+06
         0.19356E+06
         0.39815E+06
        -0.38124E+06
         0.16623E+06
         0.12178E+06
         0.19951E+06
         0.12503E+06
         0.28177E+06
         0.21343E+06
        -0.12791E+06
         0.20556E+06
         0.24481E+06
        -0.10066E+06
         0.44418E+05
        -0.33365E+05
        -0.13620E+06
        -0.36022E+06
        -0.40217E+06
        -0.15556E+06
         0.30535E+06
         0.27157E+06
         0.81846E+05
        -0.33417E+06
        -0.47555E+06
         0.48579E+06
         0.11539E+06
         0.33249E+06
         0.47988E+06
        -0.14503E+06
        -0.28968E+06
        -0.41175E+06
        -0.49666E+06
        -0.34221E+06
         0.44937E+06
         0.45884E+06
        -0.10275E+06
         0.11284E+06
         0.52101E+06
         0.64799E+05
        -0.24903E+06
         0.34426E+06
        -0.66374E+06
        -0.71677E+06
        -0.61493E+06
        -0.29894E+06
         0.78440E+05
         0.27422E+06
         0.36223E+06
         0.58140E+06
         0.67258E+06
         0.26819E+06
         0.12637E+06
         0.11314E+06
        -0.48201E+05
        -0.37511E+06
        -0.64136E+06
        -0.72004E+06
        -0.51205E+06
         0.14072E+06
         0.32997E+06
         0.34720E+06
         0.54784E+06
         0.69597E+06
         0.43924E+06
         0.42088E+06
        -0.30377E+06
         0.89193E+05
        -0.17047E+06
        -0.19625E+06
         0.50262E+06
         0.35516E+06
         0.24538E+06
        -0.37188E+06
        -0.23827E+06
        -0.36790E+06
         0.11200E+06
        -0.16916E+06
        -0.53882E+06
         0.19378E+06
         0.39771E+06
        -0.38117E+06
         0.16757E+06
         0.12125E+06
         0.19939E+06
         0.12410E+06
         0.28240E+06
         0.21363E+06
        -0.12797E+06
         0.20546E+06
         0.24495E+06
        -0.10063E+06
         0.44961E+05
        -0.32927E+05
        -0.13616E+06
        -0.36025E+06
        -0.40224E+06
        -0.15519E+06
         0.30538E+06
         0.27185E+06
         0.81042E+05
        -0.33440E+06
        -0.47556E+06
         0.48595E+06
         0.11628E+06
         0.33312E+06
         0.47999E+06
        -0.14455E+06
        -0.28991E+06
        -0.41195E+06
        -0.49669E+06
        -0.34207E+06
         0.44932E+06
         0.45876E+06
        -0.10206E+06
         0.11254E+06
         0.52097E+06
         0.63875E+05
        -0.24887E+06
         0.34433E+06
        -0.66381E+06
        -0.71678E+06
        -0.61484E+06
        -0.29893E+06
         0.78556E+05
         0.27444E+06
         0.36201E+06
         0.58132E+06
         0.67254E+06
         0.26831E+06
         0.12638E+06
         0.11337E+06
        -0.47798E+05
        -0.37523E+06
        -0.64148E+06
        -0.72007E+06
        -0.51195E+06
         0.14079E+06
         0.32977E+06
         0.34709E+06
         0.54764E+06
         0.69587E+06
         0.43898E+06
         0.42055E+06
        -0.30414E+06
         0.89515E+05
        -0.17073E+06
        -0.19748E+06
         0.50257E+06
         0.35543E+06
         0.24645E+06
        -0.37095E+06
        -0.23830E+06
        -0.36712E+06
         0.10972E+06
        -0.16957E+06
        -0.53890E+06
         0.19403E+06
         0.39726E+06
        -0.38111E+06
         0.16892E+06
         0.12072E+06
         0.19928E+06
         0.12313E+06
         0.28304E+06
         0.21381E+06
        -0.12808E+06
         0.20529E+06
         0.24520E+06
        -0.10058E+06
         0.45524E+05
        -0.32563E+05
        -0.13587E+06
        -0.36028E+06
        -0.40231E+06
        -0.15469E+06
         0.30539E+06
         0.27214E+06
         0.80244E+05
        -0.33461E+06
        -0.47556E+06
         0.48611E+06
         0.11716E+06
         0.33373E+06
         0.48012E+06
        -0.14394E+06
        -0.29008E+06
        -0.41224E+06
        -0.49674E+06
        -0.34191E+06
         0.44927E+06
         0.45869E+06
        -0.10137E+06
         0.11224E+06
         0.52092E+06
         0.62952E+05
        -0.24872E+06
         0.34441E+06
        -0.66388E+06
        -0.71678E+06
        -0.61476E+06
        -0.29892E+06
         0.78672E+05
         0.27466E+06
         0.36180E+06
         0.58125E+06
         0.67251E+06
         0.26846E+06
         0.12638E+06
         0.11360E+06
        -0.47393E+05
        -0.37536E+06
        -0.64161E+06
        -0.72011E+06
        -0.51185E+06
         0.14086E+06
         0.32957E+06
         0.34698E+06
         0.54743E+06
         0.69577E+06
         0.43873E+06
         0.42021E+06
        -0.30451E+06
         0.89835E+05
        -0.17099E+06
        -0.19869E+06
         0.50253E+06
         0.35571E+06
         0.24751E+06
        -0.37001E+06
        -0.23831E+06
        -0.36631E+06
         0.10742E+06
        -0.16998E+06
        -0.53898E+06
         0.19428E+06
         0.39680E+06
        -0.38104E+06
         0.17029E+06
         0.12019E+06
         0.19914E+06
         0.12211E+06
         0.28368E+06
         0.21397E+06
        -0.12824E+06
         0.20505E+06
         0.24555E+06
        -0.10048E+06
         0.46151E+05
        -0.32265E+05
        -0.13530E+06
        -0.36031E+06
        -0.40237E+06
        -0.15403E+06
         0.30538E+06
         0.27243E+06
         0.79439E+05
        -0.33483E+06
        -0.47558E+06
         0.48627E+06
         0.11802E+06
         0.33433E+06
         0.48030E+06
        -0.14322E+06
        -0.29019E+06
        -0.41261E+06
        -0.49682E+06
        -0.34173E+06
         0.44923E+06
         0.45862E+06
        -0.10068E+06
         0.11195E+06
         0.52088E+06
         0.62021E+05
        -0.24856E+06
         0.34449E+06
        -0.66395E+06
        -0.71678E+06
        -0.61468E+06
        -0.29891E+06
         0.78787E+05
         0.27488E+06
         0.36158E+06
         0.58117E+06
         0.67249E+06
         0.26862E+06
         0.12640E+06
         0.11383E+06
        -0.46986E+05
        -0.37549E+06
        -0.64176E+06
        -0.72015E+06
        -0.51175E+06
         0.14093E+06
         0.32937E+06
         0.34687E+06
         0.54723E+06
         0.69568E+06
         0.43847E+06
         0.41987E+06
        -0.30486E+06
         0.90186E+05
        -0.17122E+06
        -0.19992E+06
         0.50249E+06
         0.35598E+06
         0.24856E+06
        -0.36907E+06
        -0.23830E+06
        -0.36550E+06
         0.10511E+06
        -0.17038E+06
        -0.53906E+06
         0.19455E+06
         0.39635E+06
        -0.38098E+06
         0.17168E+06
         0.11966E+06
         0.19901E+06
         0.12110E+06
         0.28432E+06
         0.21412E+06
        -0.12842E+06
         0.20479E+06
         0.24590E+06
        -0.10037E+06
         0.46827E+05
        -0.31990E+05
        -0.13461E+06
        -0.36037E+06
        -0.40241E+06
        -0.15330E+06
         0.30538E+06
         0.27272E+06
         0.78628E+05
        -0.33506E+06
        -0.47559E+06
         0.48642E+06
         0.11888E+06
         0.33492E+06
         0.48047E+06
        -0.14245E+06
        -0.29028E+06
        -0.41301E+06
        -0.49692E+06
        -0.34156E+06
         0.44918E+06
         0.45856E+06
        -0.99968E+05
         0.11168E+06
         0.52083E+06
         0.61087E+05
        -0.24840E+06
         0.34457E+06
        -0.66401E+06
        -0.71678E+06
        -0.61460E+06
        -0.29890E+06
         0.78900E+05
         0.27510E+06
         0.36137E+06
         0.58110E+06
         0.67247E+06
         0.26880E+06
         0.12642E+06
         0.11405E+06
        -0.46579E+05
        -0.37562E+06
        -0.64191E+06
        -0.72019E+06
        -0.51165E+06
         0.14099E+06
         0.32916E+06
         0.34676E+06
         0.54703E+06
         0.69558E+06
         0.43822E+06
         0.41953E+06
        -0.30519E+06
         0.90615E+05
        -0.17139E+06
        -0.20118E+06
         0.50245E+06
         0.35626E+06
         0.24960E+06
        -0.36813E+06
        -0.23831E+06
        -0.36473E+06
         0.10279E+06
        -0.17079E+06
        -0.53914E+06
         0.19493E+06
         0.39589E+06
        -0.38092E+06
         0.17310E+06
         0.11913E+06
         0.19889E+06
         0.12008E+06
         0.28496E+06
         0.21427E+06
        -0.12860E+06
         0.20454E+06
         0.24617E+06
        -0.10023E+06
         0.47622E+05
        -0.31709E+05
        -0.13388E+06
        -0.36045E+06
        -0.40245E+06
        -0.15252E+06
         0.30536E+06
         0.27301E+06
         0.77816E+05
        -0.33530E+06
        -0.47562E+06
         0.48657E+06
         0.11974E+06
         0.33552E+06
         0.48066E+06
        -0.14167E+06
        -0.29036E+06
        -0.41341E+06
        -0.49703E+06
        -0.34139E+06
         0.44909E+06
         0.45855E+06
        -0.99175E+05
         0.11149E+06
         0.52078E+06
         0.60138E+05
        -0.24825E+06
         0.34465E+06
        -0.66408E+06
        -0.71678E+06
        -0.61452E+06
        -0.29889E+06
         0.79014E+05
         0.27532E+06
         0.36115E+06
         0.58102E+06
         0.67245E+06
         0.26898E+06
         0.12644E+06
         0.11428E+06
        -0.46172E+05
        -0.37576E+06
        -0.64207E+06
        -0.72023E+06
        -0.51155E+06
         0.14105E+06
         0.32895E+06
         0.34665E+06
         0.54683E+06
         0.69548E+06
         0.43797E+06
         0.41919E+06
        -0.30550E+06
         0.91067E+05
        -0.17153E+06
        -0.20245E+06
         0.50241E+06
         0.35653E+06
         0.25062E+06
        -0.36720E+06
        -0.23832E+06
        -0.36398E+06
         0.10045E+06
        -0.17119E+06
        -0.53923E+06
         0.19533E+06
         0.39543E+06
        -0.38087E+06
         0.17454E+06
         0.11860E+06
         0.19876E+06
         0.11909E+06
         0.28560E+06
         0.21442E+06
        -0.12878E+06
         0.20429E+06
         0.24642E+06
        -0.10007E+06
         0.48449E+05
        -0.31419E+05
        -0.13313E+06
        -0.36055E+06
        -0.40248E+06
        -0.15170E+06
         0.30533E+06
         0.27331E+06
         0.76996E+05
        -0.33555E+06
        -0.47565E+06
         0.48672E+06
         0.12060E+06
         0.33612E+06
         0.48084E+06
        -0.14089E+06
        -0.29043E+06
        -0.41381E+06
        -0.49714E+06
        -0.34124E+06
         0.44900E+06
         0.45855E+06
        -0.98350E+05
         0.11133E+06
         0.52074E+06
         0.59187E+05
        -0.24809E+06
         0.34473E+06
        -0.66415E+06
        -0.71678E+06
        -0.61444E+06
        -0.29888E+06
         0.79128E+05
         0.27553E+06
         0.36093E+06
         0.58095E+06
         0.67243E+06
         0.26915E+06
         0.12646E+06
         0.11451E+06
        -0.45764E+05
        -0.37589E+06
        -0.64222E+06
        -0.72026E+06
        -0.51145E+06
         0.14110E+06
         0.32873E+06
         0.34654E+06
         0.54664E+06
         0.69538E+06
         0.43771E+06
         0.41885E+06
        -0.30581E+06
         0.91524E+05
        -0.17167E+06
        -0.20371E+06
         0.50236E+06
         0.35680E+06
         0.25164E+06
        -0.36626E+06
        -0.23833E+06
        -0.36323E+06
         0.98123E+05
        -0.17159E+06
        -0.53931E+06
         0.19576E+06
         0.39497E+06
        -0.38083E+06
         0.17598E+06
         0.11806E+06
         0.19862E+06
         0.11808E+06
         0.28624E+06
         0.21457E+06
        -0.12896E+06
         0.20404E+06
         0.24665E+06
        -0.99904E+05
         0.49296E+05
        -0.31113E+05
        -0.13237E+06
        -0.36065E+06
        -0.40250E+06
        -0.15089E+06
         0.30530E+06
         0.27361E+06
         0.76171E+05
        -0.33578E+06
        -0.47567E+06
         0.48686E+06
         0.12146E+06
         0.33671E+06
         0.48103E+06
        -0.14011E+06
        -0.29051E+06
        -0.41421E+06
        -0.49725E+06
        -0.34110E+06
         0.44890E+06
         0.45855E+06
        -0.97521E+05
         0.11119E+06
         0.52069E+06
         0.58229E+05
        -0.24793E+06
         0.34480E+06
        -0.66422E+06
        -0.71678E+06
        -0.61436E+06
        -0.29887E+06
         0.79242E+05
         0.27575E+06
         0.36072E+06
         0.58088E+06
         0.67241E+06
         0.26933E+06
         0.12649E+06
         0.11474E+06
        -0.45358E+05
        -0.37602E+06
        -0.64237E+06
        -0.72030E+06
        -0.51134E+06
         0.14115E+06
         0.32851E+06
         0.34642E+06
         0.54645E+06
         0.69528E+06
         0.43746E+06
         0.41851E+06
        -0.30612E+06
         0.91986E+05
        -0.17181E+06
        -0.20497E+06
         0.50232E+06
         0.35707E+06
         0.25265E+06
        -0.36533E+06
        -0.23834E+06
        -0.36248E+06
         0.95787E+05
        -0.17199E+06
        -0.53939E+06
         0.19616E+06
         0.39451E+06
        -0.38078E+06
         0.17742E+06
         0.11754E+06
         0.19849E+06
         0.11707E+06
         0.28687E+06
         0.21472E+06
        -0.12913E+06
         0.20379E+06
         0.24689E+06
        -0.99742E+05
         0.50119E+05
        -0.30793E+05
        -0.13158E+06
        -0.36074E+06
        -0.40253E+06
        -0.15007E+06
         0.30524E+06
         0.27390E+06
         0.75350E+05
        -0.33603E+06
        -0.47570E+06
         0.48700E+06
         0.12231E+06
         0.33732E+06
         0.48121E+06
        -0.13933E+06
        -0.29059E+06
        -0.41461E+06
        -0.49736E+06
        -0.34094E+06
         0.44881E+06
         0.45855E+06
        -0.96700E+05
         0.11102E+06
         0.52065E+06
         0.57274E+05
        -0.24778E+06
         0.34488E+06
        -0.66428E+06
        -0.71678E+06
        -0.61428E+06
        -0.29886E+06
         0.79355E+05
         0.27597E+06
         0.36050E+06
         0.58081E+06
         0.67239E+06
         0.26950E+06
         0.12651E+06
         0.11497E+06
        -0.44952E+05
        -0.37616E+06
        -0.64253E+06
        -0.72034E+06
        -0.51124E+06
         0.14120E+06
         0.32829E+06
         0.34631E+06
         0.54626E+06
         0.69518E+06
         0.43720E+06
         0.41817E+06
        -0.30643E+06
         0.92445E+05
        -0.17195E+06
        -0.20622E+06
         0.50228E+06
         0.35734E+06
         0.25365E+06
        -0.36439E+06
        -0.23835E+06
        -0.36174E+06
         0.93444E+05
        -0.17240E+06
        -0.53947E+06
         0.19657E+06
         0.39405E+06
        -0.38073E+06
         0.17886E+06
         0.11701E+06
         0.19838E+06
         0.11606E+06
         0.28751E+06
         0.21487E+06
        -0.12931E+06
         0.20355E+06
         0.24712E+06
        -0.99576E+05
         0.50957E+05
        -0.30454E+05
        -0.13077E+06
        -0.36083E+06
        -0.40256E+06
        -0.14925E+06
         0.30518E+06
         0.27420E+06
         0.74525E+05
        -0.33627E+06
        -0.47574E+06
         0.48714E+06
         0.12317E+06
         0.33791E+06
         0.48139E+06
        -0.13856E+06
        -0.29067E+06
        -0.41500E+06
        -0.49747E+06
        -0.34079E+06
         0.44871E+06
         0.45855E+06
        -0.95868E+05
         0.11086E+06
         0.52060E+06
         0.56312E+05
        -0.24762E+06
         0.34496E+06
        -0.66435E+06
        -0.71678E+06
        -0.61419E+06
        -0.29885E+06
         0.79466E+05
         0.27618E+06
         0.36029E+06
         0.58073E+06
         0.67237E+06
         0.26967E+06
         0.12654E+06
         0.11520E+06
        -0.44545E+05
        -0.37629E+06
        -0.64268E+06
        -0.72038E+06
        -0.51114E+06
         0.14125E+06
         0.32807E+06
         0.34620E+06
         0.54607E+06
         0.69508E+06
         0.43695E+06
         0.41783E+06
        -0.30674E+06
         0.92901E+05
        -0.17209E+06
        -0.20747E+06
         0.50223E+06
         0.35761E+06
         0.25465E+06
        -0.36345E+06
        -0.23835E+06
        -0.36099E+06
         0.91103E+05
        -0.17280E+06
        -0.53955E+06
         0.19699E+06
         0.39359E+06
        -0.38068E+06
         0.18029E+06
         0.11648E+06
         0.19825E+06
         0.11506E+06
         0.28814E+06
         0.21501E+06
        -0.12948E+06
         0.20331E+06
         0.24734E+06
        -0.99418E+05
         0.51775E+05
        -0.30104E+05
        -0.12993E+06
        -0.36093E+06
        -0.40258E+06
        -0.14843E+06
         0.30510E+06
         0.27450E+06
         0.73695E+05
        -0.33651E+06
        -0.47576E+06
         0.48728E+06
         0.12402E+06
         0.33851E+06
         0.48158E+06
        -0.13779E+06
        -0.29074E+06
        -0.41539E+06
        -0.49758E+06
        -0.34065E+06
         0.44861E+06
         0.45856E+06
        -0.95033E+05
         0.11072E+06
         0.52056E+06
         0.55351E+05
        -0.24746E+06
         0.34503E+06
        -0.66441E+06
        -0.71678E+06
        -0.61411E+06
        -0.29884E+06
         0.79578E+05
         0.27640E+06
         0.36007E+06
         0.58066E+06
         0.67234E+06
         0.26985E+06
         0.12656E+06
         0.11542E+06
        -0.44137E+05
        -0.37642E+06
        -0.64284E+06
        -0.72042E+06
        -0.51104E+06
         0.14130E+06
         0.32785E+06
         0.34608E+06
         0.54587E+06
         0.69498E+06
         0.43670E+06
         0.41749E+06
        -0.30706E+06
         0.93363E+05
        -0.17222E+06
        -0.20873E+06
         0.50219E+06
         0.35788E+06
         0.25563E+06
        -0.36250E+06
        -0.23835E+06
        -0.36024E+06
         0.88766E+05
        -0.17320E+06
        -0.53963E+06
         0.19738E+06
         0.39313E+06
        -0.38063E+06
         0.18172E+06
         0.11594E+06
         0.19812E+06
         0.11407E+06
         0.28878E+06
         0.21516E+06
        -0.12966E+06
         0.20307E+06
         0.24756E+06
        -0.99249E+05
         0.52617E+05
        -0.29735E+05
        -0.12907E+06
        -0.36102E+06
        -0.40260E+06
        -0.14760E+06
         0.30501E+06
         0.27479E+06
         0.72867E+05
        -0.33676E+06
        -0.47579E+06
         0.48742E+06
         0.12487E+06
         0.33910E+06
         0.48176E+06
        -0.13701E+06
        -0.29082E+06
        -0.41579E+06
        -0.49769E+06
        -0.34049E+06
         0.44851E+06
         0.45856E+06
        -0.94193E+05
         0.11055E+06
         0.52051E+06
         0.54390E+05
        -0.24730E+06
         0.34511E+06
        -0.66448E+06
        -0.71678E+06
        -0.61403E+06
        -0.29883E+06
         0.79693E+05
         0.27662E+06
         0.35985E+06
         0.58059E+06
         0.67232E+06
         0.27002E+06
         0.12658E+06
         0.11565E+06
        -0.43730E+05
        -0.37656E+06
        -0.64299E+06
        -0.72046E+06
        -0.51094E+06
         0.14135E+06
         0.32762E+06
         0.34597E+06
         0.54568E+06
         0.69488E+06
         0.43645E+06
         0.41714E+06
        -0.30737E+06
         0.93816E+05
        -0.17235E+06
        -0.20998E+06
         0.50215E+06
         0.35815E+06
         0.25661E+06
        -0.36156E+06
        -0.23836E+06
        -0.35949E+06
         0.86430E+05
        -0.17360E+06
        -0.53971E+06
         0.19780E+06
         0.39266E+06
        -0.38058E+06
         0.18316E+06
         0.11542E+06
         0.19801E+06
         0.11308E+06
         0.28942E+06
         0.21531E+06
        -0.12984E+06
         0.20283E+06
         0.24777E+06
        -0.99078E+05
         0.53436E+05
        -0.29354E+05
        -0.12820E+06
        -0.36111E+06
        -0.40262E+06
        -0.14678E+06
         0.30491E+06
         0.27509E+06
         0.72035E+05
        -0.33700E+06
        -0.47582E+06
         0.48755E+06
         0.12572E+06
         0.33971E+06
         0.48194E+06
        -0.13624E+06
        -0.29089E+06
        -0.41618E+06
        -0.49779E+06
        -0.34034E+06
         0.44842E+06
         0.45856E+06
        -0.93355E+05
         0.11040E+06
         0.52046E+06
         0.53433E+05
        -0.24714E+06
         0.34518E+06
        -0.66454E+06
        -0.71678E+06
        -0.61395E+06
        -0.29882E+06
         0.79806E+05
         0.27683E+06
         0.35964E+06
         0.58052E+06
         0.67230E+06
         0.27020E+06
         0.12661E+06
         0.11588E+06
        -0.43324E+05
        -0.37669E+06
        -0.64314E+06
        -0.72050E+06
        -0.51084E+06
         0.14140E+06
         0.32740E+06
         0.34586E+06
         0.54549E+06
         0.69478E+06
         0.43620E+06
         0.41680E+06
        -0.30768E+06
         0.94267E+05
        -0.17249E+06
        -0.21122E+06
         0.50210E+06
         0.35842E+06
         0.25758E+06
        -0.36061E+06
        -0.23836E+06
        -0.35874E+06
         0.84091E+05
        -0.17401E+06
        -0.53979E+06
         0.19819E+06
         0.39220E+06
        -0.38054E+06
         0.18459E+06
         0.11489E+06
         0.19789E+06
         0.11208E+06
         0.29005E+06
         0.21545E+06
        -0.13001E+06
         0.20259E+06
         0.24798E+06
        -0.98906E+05
         0.54269E+05
        -0.28955E+05
        -0.12732E+06
        -0.36119E+06
        -0.40264E+06
        -0.14595E+06
         0.30479E+06
         0.27538E+06
         0.71205E+05
        -0.33724E+06
        -0.47584E+06
         0.48768E+06
         0.12657E+06
         0.34030E+06
         0.48212E+06
        -0.13547E+06
        -0.29097E+06
        -0.41657E+06
        -0.49790E+06
        -0.34019E+06
         0.44832E+06
         0.45856E+06
        -0.92501E+05
         0.11024E+06
         0.52042E+06
         0.52467E+05
        -0.24698E+06
         0.34525E+06
        -0.66461E+06
        -0.71678E+06
        -0.61387E+06
        -0.29881E+06
         0.79917E+05
         0.27704E+06
         0.35942E+06
         0.58045E+06
         0.67228E+06
         0.27037E+06
         0.12663E+06
         0.11611E+06
        -0.42918E+05
        -0.37682E+06
        -0.64330E+06
        -0.72054E+06
        -0.51074E+06
         0.14145E+06
         0.32718E+06
         0.34575E+06
         0.54530E+06
         0.69468E+06
         0.43595E+06
         0.41646E+06
        -0.30799E+06
         0.94730E+05
        -0.17262E+06
        -0.21246E+06
         0.50205E+06
         0.35868E+06
         0.25853E+06
        -0.35967E+06
        -0.23836E+06
        -0.35799E+06
         0.81748E+05
        -0.17442E+06
        -0.53988E+06
         0.19860E+06
         0.39173E+06
        -0.38049E+06
         0.18603E+06
         0.11437E+06
         0.19776E+06
         0.11109E+06
         0.29069E+06
         0.21559E+06
        -0.13018E+06
         0.20236E+06
         0.24818E+06
        -0.98732E+05
         0.55080E+05
        -0.28541E+05
        -0.12642E+06
        -0.36128E+06
        -0.40266E+06
        -0.14513E+06
         0.30466E+06
         0.27568E+06
         0.70367E+05
        -0.33748E+06
        -0.47587E+06
         0.48781E+06
         0.12741E+06
         0.34089E+06
         0.48231E+06
        -0.13470E+06
        -0.29105E+06
        -0.41695E+06
        -0.49801E+06
        -0.34004E+06
         0.44822E+06
         0.45856E+06
        -0.91656E+05
         0.11008E+06
         0.52037E+06
         0.51499E+05
        -0.24682E+06
         0.34533E+06
        -0.66467E+06
        -0.71678E+06
        -0.61379E+06
        -0.29880E+06
         0.80027E+05
         0.27725E+06
         0.35920E+06
         0.58038E+06
         0.67226E+06
         0.27055E+06
         0.12665E+06
         0.11634E+06
        -0.42511E+05
        -0.37695E+06
        -0.64345E+06
        -0.72057E+06
        -0.51063E+06
         0.14149E+06
         0.32696E+06
         0.34564E+06
         0.54511E+06
         0.69458E+06
         0.43571E+06
         0.41612E+06
        -0.30831E+06
         0.95185E+05
        -0.17276E+06
        -0.21369E+06
         0.50201E+06
         0.35895E+06
         0.25949E+06
        -0.35872E+06
        -0.23835E+06
        -0.35723E+06
         0.79405E+05
        -0.17482E+06
        -0.53996E+06
         0.19899E+06
         0.39126E+06
        -0.38044E+06
         0.18747E+06
         0.11384E+06
         0.19764E+06
         0.11011E+06
         0.29132E+06
         0.21572E+06
        -0.13036E+06
         0.20212E+06
         0.24837E+06
        -0.98554E+05
         0.55913E+05
        -0.28105E+05
        -0.12548E+06
        -0.36136E+06
        -0.40268E+06
        -0.14430E+06
         0.30452E+06
         0.27598E+06
         0.69529E+05
        -0.33772E+06
        -0.47590E+06
         0.48793E+06
         0.12827E+06
         0.34150E+06
         0.48249E+06
        -0.13394E+06
        -0.29113E+06
        -0.41734E+06
        -0.49812E+06
        -0.33989E+06
         0.44812E+06
         0.45857E+06
        -0.90812E+05
         0.10992E+06
         0.52033E+06
         0.50537E+05
        -0.24666E+06
         0.34540E+06
        -0.66473E+06
        -0.71678E+06
        -0.61370E+06
        -0.29879E+06
         0.80135E+05
         0.27746E+06
         0.35899E+06
         0.58031E+06
         0.67224E+06
         0.27072E+06
         0.12667E+06
         0.11656E+06
        -0.42107E+05
        -0.37708E+06
        -0.64360E+06
        -0.72061E+06
        -0.51053E+06
         0.14154E+06
         0.32674E+06
         0.34553E+06
         0.54492E+06
         0.69448E+06
         0.43546E+06
         0.41577E+06
        -0.30862E+06
         0.95639E+05
        -0.17289E+06
        -0.21493E+06
         0.50196E+06
         0.35921E+06
         0.26043E+06
        -0.35777E+06
        -0.23833E+06
        -0.35643E+06
         0.77062E+05
        -0.17523E+06
        -0.54004E+06
         0.19939E+06
         0.39080E+06
        -0.38039E+06
         0.18892E+06
         0.11332E+06
         0.19754E+06
         0.10918E+06
         0.29195E+06
         0.21585E+06
        -0.13053E+06
         0.20188E+06
         0.24852E+06
        -0.98386E+05
         0.56740E+05
        -0.27637E+05
        -0.12453E+06
        -0.36147E+06
        -0.40269E+06
        -0.14345E+06
         0.30436E+06
         0.27628E+06
         0.68692E+05
        -0.33796E+06
        -0.47593E+06
         0.48804E+06
         0.12915E+06
         0.34209E+06
         0.48268E+06
        -0.13318E+06
        -0.29122E+06
        -0.41773E+06
        -0.49823E+06
        -0.33973E+06
         0.44803E+06
         0.45857E+06
        -0.89971E+05
         0.10976E+06
         0.52029E+06
         0.49573E+05
        -0.24650E+06
         0.34547E+06
        -0.66480E+06
        -0.71678E+06
        -0.61362E+06
        -0.29878E+06
         0.80245E+05
         0.27767E+06
         0.35878E+06
         0.58024E+06
         0.67222E+06
         0.27089E+06
         0.12667E+06
         0.11679E+06
        -0.41703E+05
        -0.37721E+06
        -0.64376E+06
        -0.72065E+06
        -0.51043E+06
         0.14159E+06
         0.32652E+06
         0.34541E+06
         0.54472E+06
         0.69438E+06
         0.43522E+06
         0.41543E+06
        -0.30893E+06
         0.96090E+05
        -0.17302E+06
        -0.21616E+06
         0.50191E+06
         0.35948E+06
         0.26137E+06
        -0.35681E+06
        -0.23829E+06
        -0.35560E+06
         0.74723E+05
        -0.17563E+06
        -0.54012E+06
         0.19980E+06
         0.39032E+06
        -0.38034E+06
         0.19039E+06
         0.11279E+06
         0.19743E+06
         0.10828E+06
         0.29258E+06
         0.21598E+06
        -0.13071E+06
         0.20165E+06
         0.24863E+06
        -0.98203E+05
         0.57605E+05
        -0.27132E+05
        -0.12357E+06
        -0.36157E+06
        -0.40271E+06
        -0.14262E+06
         0.30419E+06
         0.27657E+06
         0.67848E+05
        -0.33820E+06
        -0.47595E+06
         0.48814E+06
         0.13007E+06
         0.34270E+06
         0.48287E+06
        -0.13242E+06
        -0.29132E+06
        -0.41811E+06
        -0.49833E+06
        -0.33959E+06
         0.44793E+06
         0.45857E+06
        -0.89116E+05
         0.10960E+06
         0.52024E+06
         0.48599E+05
        -0.24634E+06
         0.34554E+06
        -0.66486E+06
        -0.71678E+06
        -0.61354E+06
        -0.29877E+06
         0.80354E+05
         0.27788E+06
         0.35857E+06
         0.58016E+06
         0.67221E+06
         0.27106E+06
         0.12667E+06
         0.11701E+06
        -0.41297E+05
        -0.37734E+06
        -0.64391E+06
        -0.72069E+06
        -0.51033E+06
         0.14164E+06
         0.32630E+06
         0.34530E+06
         0.54453E+06
         0.69428E+06
         0.43497E+06
         0.41508E+06
        -0.30924E+06
         0.96544E+05
        -0.17315E+06
        -0.21738E+06
         0.50187E+06
         0.35974E+06
         0.26230E+06
        -0.35587E+06
        -0.23824E+06
        -0.35477E+06
         0.72398E+05
        -0.17602E+06
        -0.54020E+06
         0.20019E+06
         0.38984E+06
        -0.38029E+06
         0.19186E+06
         0.11227E+06
         0.19730E+06
         0.10740E+06
         0.29321E+06
         0.21611E+06
        -0.13087E+06
         0.20144E+06
         0.24873E+06
        -0.98032E+05
         0.58448E+05
        -0.26602E+05
        -0.12259E+06
        -0.36167E+06
        -0.40273E+06
        -0.14180E+06
         0.30401E+06
         0.27687E+06
         0.67013E+05
        -0.33843E+06
        -0.47597E+06
         0.48823E+06
         0.13099E+06
         0.34329E+06
         0.48306E+06
        -0.13168E+06
        -0.29144E+06
        -0.41849E+06
        -0.49844E+06
        -0.33944E+06
         0.44783E+06
         0.45857E+06
        -0.88271E+05
         0.10943E+06
         0.52019E+06
         0.47628E+05
        -0.24617E+06
         0.34562E+06
        -0.66492E+06
        -0.71678E+06
        -0.61346E+06
        -0.29876E+06
         0.80462E+05
         0.27809E+06
         0.35836E+06
         0.58009E+06
         0.67221E+06
         0.27122E+06
         0.12665E+06
         0.11724E+06
        -0.40891E+05
        -0.37747E+06
        -0.64406E+06
        -0.72073E+06
        -0.51022E+06
         0.14169E+06
         0.32608E+06
         0.34519E+06
         0.54434E+06
         0.69418E+06
         0.43473E+06
         0.41474E+06
        -0.28930E+06
         0.81786E+05
        -0.14476E+06
        -0.17047E+06
         0.45731E+06
         0.30958E+06
         0.17560E+06
        -0.32490E+06
        -0.20705E+06
        -0.32270E+06
         0.50034E+05
        -0.16918E+06
        -0.51092E+06
         0.16490E+06
         0.37481E+06
        -0.34228E+06
         0.14346E+06
         0.93119E+05
         0.15576E+06
         0.71554E+05
         0.28098E+06
         0.20535E+06
        -0.12471E+06
         0.14632E+06
         0.20759E+06
        -0.82418E+05
         0.48825E+05
        -0.19950E+05
        -0.72358E+05
        -0.30108E+06
        -0.35106E+06
        -0.99257E+05
         0.23436E+06
         0.20275E+06
         0.61818E+05
        -0.29437E+06
        -0.43447E+06
         0.46446E+06
         0.12240E+06
         0.31593E+06
         0.46055E+06
        -0.12445E+06
        -0.27825E+06
        -0.39389E+06
        -0.45926E+06
        -0.31924E+06
         0.40249E+06
         0.40570E+06
        -0.74202E+05
         0.95175E+05
         0.48481E+06
         0.41501E+05
        -0.24301E+06
         0.34196E+06
        -0.65820E+06
        -0.70986E+06
        -0.60786E+06
        -0.29615E+06
         0.79825E+05
         0.27492E+06
         0.35356E+06
         0.57321E+06
         0.66452E+06
         0.26852E+06
         0.12506E+06
         0.11601E+06
        -0.40095E+05
        -0.37412E+06
        -0.63863E+06
        -0.71463E+06
        -0.50461E+06
         0.14031E+06
         0.32239E+06
         0.34121E+06
         0.53839E+06
         0.68639E+06
         0.43006E+06
         0.41008E+06
        -0.76122E+05
         0.10888E+05
        -0.18413E+05
        -0.17432E+05
         0.95440E+05
         0.44891E+05
         0.12598E+05
        -0.69863E+05
        -0.31881E+05
        -0.67187E+05
         0.38971E+04
        -0.61603E+05
        -0.15343E+06
         0.19383E+05
         0.14319E+06
        -0.64801E+05
         0.12827E+05
         0.68513E+04
         0.16156E+05
         0.43728E+04
         0.97426E+05
         0.64953E+05
        -0.40632E+05
         0.12318E+05
         0.26095E+05
        -0.51645E+04
         0.58457E+04
        -0.89512E+03
        -0.41961E+04
        -0.37486E+05
        -0.54463E+05
        -0.78175E+04
         0.23027E+05
         0.17579E+05
         0.15723E+05
        -0.44974E+05
        -0.91726E+05
         0.15019E+06
         0.30431E+05
         0.71247E+05
         0.15352E+06
        -0.39207E+05
        -0.93916E+05
        -0.11012E+06
        -0.10437E+06
        -0.89868E+05
         0.75484E+05
         0.68526E+05
        -0.99373E+04
         0.14708E+05
         0.12398E+06
         0.71597E+04
        -0.15608E+06
         0.22791E+06
        -0.44772E+06
        -0.49178E+06
        -0.42988E+06
        -0.21248E+06
         0.55790E+05
         0.17870E+06
         0.22371E+06
         0.37328E+06
         0.43677E+06
         0.18256E+06
         0.80511E+05
         0.75233E+05
        -0.27295E+05
        -0.26413E+06
        -0.45782E+06
        -0.51276E+06
        -0.33616E+06
         0.95169E+05
         0.21566E+06
         0.22574E+06
         0.36202E+06
         0.45581E+06
         0.29314E+06
         0.27758E+06
  
SCALARS                      strain_xx  double 1
LOOKUP_TABLE default
         0.87123E-05
         0.41428E-03
         0.46453E-02
         0.23061E-04
        -0.46056E-19
        -0.57902E-20
        -0.64740E-19
        -0.25823E-20
         0.35644E-01
         0.16168E-01
        -0.57920E-18
        -0.46992E-18
         0.60798E-04
         0.10098E-02
        -0.88104E-20
        -0.19334E-18
         0.48936E-04
         0.93328E-03
        -0.10088E-18
        -0.22376E-18
         0.19024E-02
         0.51794E-02
         0.49593E-02
        -0.99773E-19
        -0.21216E-19
        -0.64755E-19
         0.57907E-02
         0.35885E-02
        -0.34960E-18
        -0.21999E-18
         0.26727E-03
         0.12435E-02
         0.12771E-04
        -0.36239E-20
        -0.54117E-19
        -0.20540E-19
         0.22739E-02
         0.48956E-03
        -0.11929E-18
        -0.13524E-18
         0.87658E-02
         0.16582E-01
        -0.60697E-18
        -0.33009E-18
         0.10539E-01
         0.30551E-02
        -0.73200E-18
        -0.16958E-18
         0.74248E-03
        -0.66818E-19
         0.50127E-02
        -0.51775E-20
         0.75124E-03
        -0.25512E-18
         0.41119E-03
        -0.17852E-19
         0.78709E-02
         0.63432E-03
        -0.13100E-19
        -0.76539E-19
         0.30436E-05
         0.22643E-02
        -0.52406E-19
        -0.24644E-19
         0.15844E-03
        -0.53023E-21
         0.17285E-02
        -0.22940E-19
         0.69518E-01
         0.32451E-01
        -0.89617E-18
        -0.47140E-18
         0.13210E-01
        -0.24993E-18
         0.59959E-03
        -0.11960E-18
         0.58058E-02
        -0.46068E-20
         0.26226E-01
        -0.11088E-19
         0.47266E-01
         0.24617E-01
        -0.14892E-18
        -0.19479E-18
         0.20442E-01
        -0.22529E-18
         0.15476E-01
        -0.46701E-18
         0.58391E-02
        -0.18998E-18
         0.14131E-01
         0.75628E-02
        -0.34606E-19
        -0.65081E-19
         0.40152E-03
        -0.89543E-19
         0.30580E-02
        -0.15787E-19
         0.17452E-01
        -0.96268E-19
         0.37957E-01
         0.18071E-01
        -0.51181E-18
        -0.55731E-18
         0.21443E+00
         0.26950E+00
        -0.17474E-17
        -0.16970E-17
         0.20889E+00
        -0.12753E-17
         0.17856E+00
        -0.71224E-18
         0.89250E-01
        -0.21509E-18
         0.44005E-01
        -0.24596E-20
         0.56543E-02
        -0.31201E-19
         0.90052E-02
        -0.19972E-19
         0.51071E-01
        -0.19294E-19
         0.11292E+00
        -0.98116E-19
         0.21379E+00
        -0.35513E-18
         0.34187E+00
        -0.50572E-18
         0.42091E+00
        -0.45021E-18
         0.40173E+00
        -0.53237E-18
         0.35432E+00
        -0.89672E-18
         0.29579E+00
        -0.12469E-17
         0.22963E+00
        -0.10775E-17
         0.13484E+00
        -0.71170E-18
         0.44052E-01
        -0.15861E-18
         0.31675E-03
        -0.57834E-20
         0.13862E-01
        -0.34090E-19
         0.34516E-01
        -0.91156E-19
         0.76276E-01
        -0.34913E-18
         0.13290E+00
        -0.94009E-18
         0.23366E+00
        -0.13570E-17
         0.31563E+00
        -0.14196E-17
        -0.20770E-05
        -0.54576E-06
        -0.75441E-06
        -0.31810E-05
        -0.44181E-04
        -0.27532E-04
        -0.59623E-06
        -0.13225E-05
        -0.37124E-06
        -0.11382E-05
        -0.31650E-06
        -0.58779E-05
        -0.26323E-04
        -0.26973E-05
        -0.38410E-05
        -0.56241E-05
        -0.39327E-05
        -0.86190E-06
        -0.19694E-05
        -0.23047E-05
        -0.67789E-04
        -0.77686E-04
        -0.62102E-04
        -0.60284E-05
        -0.98805E-06
        -0.54790E-06
        -0.54674E-05
        -0.68962E-07
        -0.70300E-05
        -0.34585E-05
        -0.44673E-05
        -0.16550E-06
        -0.99169E-06
        -0.10113E-06
        -0.91137E-04
        -0.38355E-04
        -0.31933E-04
        -0.15352E-04
        -0.49679E-05
        -0.21983E-04
        -0.90743E-04
        -0.83749E-04
        -0.85968E-04
        -0.46139E-04
        -0.23129E-04
        -0.13472E-04
        -0.49578E-06
        -0.90185E-05
        -0.75207E-06
        -0.73183E-05
        -0.50414E-04
        -0.37491E-04
        -0.70887E-03
        -0.82309E-03
        -0.65239E-03
        -0.47789E-03
        -0.26434E-03
        -0.66789E-04
        -0.22824E-06
        -0.32542E-04
        -0.75850E-04
        -0.22297E-03
        -0.58456E-03
        -0.93403E-03
        -0.80369E-03
        -0.74618E-03
        -0.84678E-03
        -0.85704E-03
        -0.70716E-03
        -0.53122E-03
        -0.12636E-03
        -0.32192E-05
        -0.48793E-04
        -0.60589E-04
        -0.17297E-03
        -0.42997E-03
        -0.75104E-03
        -0.84081E-03
        -0.19209E-04
        -0.80946E-06
        -0.29338E-05
        -0.24873E-04
        -0.10465E-03
        -0.76429E-04
        -0.64876E-05
        -0.30916E-04
        -0.65273E-05
        -0.27943E-04
        -0.11404E-05
        -0.15180E-04
        -0.16429E-03
        -0.96612E-04
        -0.10365E-03
        -0.74143E-04
        -0.22978E-04
        -0.82433E-05
        -0.37333E-05
        -0.11514E-04
        -0.40535E-03
        -0.36817E-03
        -0.35851E-03
        -0.20974E-04
        -0.67662E-05
        -0.30676E-05
        -0.90214E-04
        -0.15905E-05
        -0.10104E-04
        -0.18791E-04
        -0.43764E-04
        -0.18325E-04
        -0.18410E-04
        -0.13713E-04
        -0.33285E-03
        -0.10139E-03
        -0.13341E-03
        -0.12747E-03
        -0.35732E-05
        -0.30037E-04
        -0.40541E-03
        -0.42897E-03
        -0.40987E-03
        -0.21428E-03
        -0.12707E-03
        -0.43504E-04
        -0.50815E-04
        -0.70822E-04
        -0.12375E-05
        -0.17940E-05
        -0.18849E-03
        -0.14627E-03
        -0.58157E-02
        -0.59061E-02
        -0.47590E-02
        -0.32375E-02
        -0.18024E-02
        -0.38231E-03
        -0.23568E-04
        -0.24745E-03
        -0.42943E-03
        -0.14429E-02
        -0.45523E-02
        -0.63354E-02
        -0.44556E-02
        -0.40330E-02
        -0.48947E-02
        -0.51912E-02
        -0.43245E-02
        -0.38690E-02
        -0.10044E-02
        -0.67853E-04
        -0.33194E-03
        -0.34072E-03
        -0.10770E-02
        -0.32286E-02
        -0.52895E-02
        -0.52562E-02
        -0.19282E-04
        -0.81548E-06
        -0.29449E-05
        -0.24906E-04
        -0.10445E-03
        -0.76288E-04
        -0.65703E-05
        -0.30760E-04
        -0.65416E-05
        -0.27899E-04
        -0.10947E-05
        -0.15254E-04
        -0.16448E-03
        -0.96136E-04
        -0.10354E-03
        -0.74296E-04
        -0.23079E-04
        -0.81978E-05
        -0.37296E-05
        -0.11473E-04
        -0.40528E-03
        -0.36809E-03
        -0.35846E-03
        -0.20976E-04
        -0.67967E-05
        -0.30778E-05
        -0.90268E-04
        -0.15313E-05
        -0.10247E-04
        -0.18815E-04
        -0.43892E-04
        -0.18320E-04
        -0.18257E-04
        -0.13725E-04
        -0.33319E-03
        -0.10130E-03
        -0.13333E-03
        -0.12788E-03
        -0.36420E-05
        -0.30226E-04
        -0.40592E-03
        -0.42947E-03
        -0.40990E-03
        -0.21422E-03
        -0.12698E-03
        -0.43459E-04
        -0.50795E-04
        -0.70869E-04
        -0.12195E-05
        -0.17818E-05
        -0.18825E-03
        -0.14583E-03
        -0.58117E-02
        -0.59030E-02
        -0.47581E-02
        -0.32375E-02
        -0.18013E-02
        -0.38208E-03
        -0.23622E-04
        -0.24776E-03
        -0.42871E-03
        -0.14417E-02
        -0.45509E-02
        -0.63356E-02
        -0.44548E-02
        -0.40325E-02
        -0.48960E-02
        -0.51934E-02
        -0.43260E-02
        -0.38705E-02
        -0.10039E-02
        -0.67915E-04
        -0.33145E-03
        -0.34045E-03
        -0.10754E-02
        -0.32246E-02
        -0.52842E-02
        -0.52515E-02
        -0.19355E-04
        -0.82142E-06
        -0.29559E-05
        -0.24939E-04
        -0.10425E-03
        -0.76150E-04
        -0.66540E-05
        -0.30604E-04
        -0.65550E-05
        -0.27851E-04
        -0.10500E-05
        -0.15328E-04
        -0.16468E-03
        -0.95662E-04
        -0.10343E-03
        -0.74455E-04
        -0.23182E-04
        -0.81519E-05
        -0.37259E-05
        -0.11434E-04
        -0.40521E-03
        -0.36801E-03
        -0.35842E-03
        -0.20978E-04
        -0.68294E-05
        -0.30889E-05
        -0.90321E-04
        -0.14738E-05
        -0.10391E-04
        -0.18838E-04
        -0.44023E-04
        -0.18317E-04
        -0.18103E-04
        -0.13738E-04
        -0.33353E-03
        -0.10121E-03
        -0.13324E-03
        -0.12829E-03
        -0.37115E-05
        -0.30418E-04
        -0.40643E-03
        -0.42998E-03
        -0.40996E-03
        -0.21416E-03
        -0.12689E-03
        -0.43417E-04
        -0.50777E-04
        -0.70916E-04
        -0.12012E-05
        -0.17692E-05
        -0.18801E-03
        -0.14541E-03
        -0.58077E-02
        -0.59000E-02
        -0.47573E-02
        -0.32376E-02
        -0.18002E-02
        -0.38185E-03
        -0.23676E-04
        -0.24807E-03
        -0.42799E-03
        -0.14406E-02
        -0.45495E-02
        -0.63359E-02
        -0.44540E-02
        -0.40321E-02
        -0.48973E-02
        -0.51958E-02
        -0.43275E-02
        -0.38720E-02
        -0.10033E-02
        -0.67977E-04
        -0.33097E-03
        -0.34018E-03
        -0.10738E-02
        -0.32207E-02
        -0.52789E-02
        -0.52468E-02
        -0.19428E-04
        -0.82760E-06
        -0.29668E-05
        -0.24972E-04
        -0.10404E-03
        -0.76009E-04
        -0.67372E-05
        -0.30448E-04
        -0.65669E-05
        -0.27797E-04
        -0.10064E-05
        -0.15403E-04
        -0.16488E-03
        -0.95190E-04
        -0.10332E-03
        -0.74627E-04
        -0.23290E-04
        -0.81059E-05
        -0.37227E-05
        -0.11394E-04
        -0.40516E-03
        -0.36795E-03
        -0.35842E-03
        -0.20980E-04
        -0.68683E-05
        -0.31026E-05
        -0.90364E-04
        -0.14193E-05
        -0.10536E-04
        -0.18860E-04
        -0.44165E-04
        -0.18321E-04
        -0.17950E-04
        -0.13750E-04
        -0.33385E-03
        -0.10112E-03
        -0.13315E-03
        -0.12870E-03
        -0.37814E-05
        -0.30609E-04
        -0.40696E-03
        -0.43052E-03
        -0.41007E-03
        -0.21412E-03
        -0.12680E-03
        -0.43370E-04
        -0.50762E-04
        -0.70965E-04
        -0.11830E-05
        -0.17567E-05
        -0.18777E-03
        -0.14497E-03
        -0.58037E-02
        -0.58969E-02
        -0.47565E-02
        -0.32376E-02
        -0.17991E-02
        -0.38162E-03
        -0.23730E-04
        -0.24837E-03
        -0.42726E-03
        -0.14394E-02
        -0.45481E-02
        -0.63362E-02
        -0.44534E-02
        -0.40317E-02
        -0.48987E-02
        -0.51985E-02
        -0.43293E-02
        -0.38735E-02
        -0.10028E-02
        -0.68039E-04
        -0.33048E-03
        -0.33991E-03
        -0.10722E-02
        -0.32167E-02
        -0.52737E-02
        -0.52422E-02
        -0.19501E-04
        -0.83380E-06
        -0.29778E-05
        -0.25005E-04
        -0.10384E-03
        -0.75869E-04
        -0.68220E-05
        -0.30290E-04
        -0.65771E-05
        -0.27733E-04
        -0.96358E-06
        -0.15478E-04
        -0.16508E-03
        -0.94718E-04
        -0.10321E-03
        -0.74812E-04
        -0.23403E-04
        -0.80599E-05
        -0.37186E-05
        -0.11353E-04
        -0.40514E-03
        -0.36791E-03
        -0.35845E-03
        -0.20983E-04
        -0.69136E-05
        -0.31183E-05
        -0.90401E-04
        -0.13674E-05
        -0.10682E-04
        -0.18881E-04
        -0.44316E-04
        -0.18330E-04
        -0.17797E-04
        -0.13762E-04
        -0.33419E-03
        -0.10103E-03
        -0.13307E-03
        -0.12911E-03
        -0.38516E-05
        -0.30803E-04
        -0.40751E-03
        -0.43110E-03
        -0.41023E-03
        -0.21410E-03
        -0.12669E-03
        -0.43320E-04
        -0.50750E-04
        -0.71018E-04
        -0.11650E-05
        -0.17443E-05
        -0.18753E-03
        -0.14454E-03
        -0.57997E-02
        -0.58939E-02
        -0.47556E-02
        -0.32377E-02
        -0.17980E-02
        -0.38139E-03
        -0.23784E-04
        -0.24868E-03
        -0.42654E-03
        -0.14383E-02
        -0.45467E-02
        -0.63367E-02
        -0.44529E-02
        -0.40314E-02
        -0.49002E-02
        -0.52015E-02
        -0.43311E-02
        -0.38750E-02
        -0.10022E-02
        -0.68101E-04
        -0.33000E-03
        -0.33965E-03
        -0.10706E-02
        -0.32128E-02
        -0.52684E-02
        -0.52375E-02
        -0.19571E-04
        -0.84054E-06
        -0.29876E-05
        -0.25037E-04
        -0.10364E-03
        -0.75729E-04
        -0.69073E-05
        -0.30131E-04
        -0.65868E-05
        -0.27668E-04
        -0.92169E-06
        -0.15553E-04
        -0.16528E-03
        -0.94247E-04
        -0.10310E-03
        -0.75001E-04
        -0.23516E-04
        -0.80140E-05
        -0.37144E-05
        -0.11314E-04
        -0.40513E-03
        -0.36789E-03
        -0.35851E-03
        -0.20986E-04
        -0.69588E-05
        -0.31346E-05
        -0.90435E-04
        -0.13168E-05
        -0.10829E-04
        -0.18905E-04
        -0.44467E-04
        -0.18338E-04
        -0.17643E-04
        -0.13773E-04
        -0.33454E-03
        -0.10095E-03
        -0.13299E-03
        -0.12951E-03
        -0.39225E-05
        -0.30997E-04
        -0.40807E-03
        -0.43169E-03
        -0.41042E-03
        -0.21408E-03
        -0.12660E-03
        -0.43276E-04
        -0.50736E-04
        -0.71069E-04
        -0.11467E-05
        -0.17330E-05
        -0.18730E-03
        -0.14413E-03
        -0.57957E-02
        -0.58908E-02
        -0.47547E-02
        -0.32377E-02
        -0.17969E-02
        -0.38116E-03
        -0.23836E-04
        -0.24899E-03
        -0.42582E-03
        -0.14372E-02
        -0.45452E-02
        -0.63373E-02
        -0.44526E-02
        -0.40312E-02
        -0.49018E-02
        -0.52047E-02
        -0.43331E-02
        -0.38764E-02
        -0.10016E-02
        -0.68156E-04
        -0.32951E-03
        -0.33938E-03
        -0.10691E-02
        -0.32089E-02
        -0.52632E-02
        -0.52328E-02
        -0.19635E-04
        -0.84867E-06
        -0.29952E-05
        -0.25068E-04
        -0.10344E-03
        -0.75592E-04
        -0.69947E-05
        -0.29968E-04
        -0.65972E-05
        -0.27606E-04
        -0.88053E-06
        -0.15628E-04
        -0.16549E-03
        -0.93776E-04
        -0.10298E-03
        -0.75190E-04
        -0.23625E-04
        -0.79679E-05
        -0.37111E-05
        -0.11275E-04
        -0.40512E-03
        -0.36787E-03
        -0.35858E-03
        -0.20991E-04
        -0.69988E-05
        -0.31489E-05
        -0.90474E-04
        -0.12661E-05
        -0.10979E-04
        -0.18933E-04
        -0.44610E-04
        -0.18339E-04
        -0.17486E-04
        -0.13781E-04
        -0.33489E-03
        -0.10088E-03
        -0.13292E-03
        -0.12992E-03
        -0.39947E-05
        -0.31196E-04
        -0.40863E-03
        -0.43229E-03
        -0.41062E-03
        -0.21406E-03
        -0.12652E-03
        -0.43237E-04
        -0.50713E-04
        -0.71117E-04
        -0.11270E-05
        -0.17243E-05
        -0.18710E-03
        -0.14371E-03
        -0.57918E-02
        -0.58878E-02
        -0.47538E-02
        -0.32377E-02
        -0.17958E-02
        -0.38093E-03
        -0.23889E-04
        -0.24929E-03
        -0.42510E-03
        -0.14360E-02
        -0.45437E-02
        -0.63378E-02
        -0.44523E-02
        -0.40309E-02
        -0.49033E-02
        -0.52079E-02
        -0.43351E-02
        -0.38778E-02
        -0.10011E-02
        -0.68203E-04
        -0.32900E-03
        -0.33912E-03
        -0.10675E-02
        -0.32050E-02
        -0.52580E-02
        -0.52281E-02
        -0.19697E-04
        -0.85727E-06
        -0.30017E-05
        -0.25098E-04
        -0.10325E-03
        -0.75452E-04
        -0.70837E-05
        -0.29805E-04
        -0.66079E-05
        -0.27547E-04
        -0.84021E-06
        -0.15704E-04
        -0.16570E-03
        -0.93306E-04
        -0.10287E-03
        -0.75378E-04
        -0.23733E-04
        -0.79216E-05
        -0.37071E-05
        -0.11239E-04
        -0.40511E-03
        -0.36784E-03
        -0.35864E-03
        -0.20996E-04
        -0.70364E-05
        -0.31624E-05
        -0.90513E-04
        -0.12160E-05
        -0.11132E-04
        -0.18964E-04
        -0.44749E-04
        -0.18337E-04
        -0.17328E-04
        -0.13787E-04
        -0.33525E-03
        -0.10081E-03
        -0.13286E-03
        -0.13033E-03
        -0.40675E-05
        -0.31395E-04
        -0.40920E-03
        -0.43291E-03
        -0.41082E-03
        -0.21406E-03
        -0.12644E-03
        -0.43205E-04
        -0.50686E-04
        -0.71161E-04
        -0.11068E-05
        -0.17168E-05
        -0.18690E-03
        -0.14330E-03
        -0.57878E-02
        -0.58848E-02
        -0.47529E-02
        -0.32377E-02
        -0.17946E-02
        -0.38069E-03
        -0.23942E-04
        -0.24960E-03
        -0.42439E-03
        -0.14349E-02
        -0.45422E-02
        -0.63383E-02
        -0.44520E-02
        -0.40306E-02
        -0.49049E-02
        -0.52111E-02
        -0.43371E-02
        -0.38792E-02
        -0.10005E-02
        -0.68246E-04
        -0.32848E-03
        -0.33886E-03
        -0.10660E-02
        -0.32011E-02
        -0.52528E-02
        -0.52235E-02
        -0.19759E-04
        -0.86601E-06
        -0.30080E-05
        -0.25128E-04
        -0.10305E-03
        -0.75311E-04
        -0.71726E-05
        -0.29642E-04
        -0.66189E-05
        -0.27489E-04
        -0.80098E-06
        -0.15779E-04
        -0.16590E-03
        -0.92839E-04
        -0.10275E-03
        -0.75566E-04
        -0.23840E-04
        -0.78757E-05
        -0.37031E-05
        -0.11202E-04
        -0.40510E-03
        -0.36783E-03
        -0.35870E-03
        -0.21001E-04
        -0.70739E-05
        -0.31758E-05
        -0.90555E-04
        -0.11670E-05
        -0.11286E-04
        -0.18994E-04
        -0.44889E-04
        -0.18335E-04
        -0.17171E-04
        -0.13794E-04
        -0.33562E-03
        -0.10074E-03
        -0.13279E-03
        -0.13073E-03
        -0.41412E-05
        -0.31593E-04
        -0.40976E-03
        -0.43351E-03
        -0.41102E-03
        -0.21407E-03
        -0.12637E-03
        -0.43173E-04
        -0.50660E-04
        -0.71206E-04
        -0.10868E-05
        -0.17096E-05
        -0.18672E-03
        -0.14289E-03
        -0.57838E-02
        -0.58818E-02
        -0.47520E-02
        -0.32377E-02
        -0.17935E-02
        -0.38046E-03
        -0.23994E-04
        -0.24990E-03
        -0.42367E-03
        -0.14337E-02
        -0.45407E-02
        -0.63388E-02
        -0.44516E-02
        -0.40304E-02
        -0.49065E-02
        -0.52143E-02
        -0.43390E-02
        -0.38805E-02
        -0.99988E-03
        -0.68290E-04
        -0.32797E-03
        -0.33859E-03
        -0.10645E-02
        -0.31972E-02
        -0.52476E-02
        -0.52188E-02
        -0.19820E-04
        -0.87489E-06
        -0.30145E-05
        -0.25159E-04
        -0.10286E-03
        -0.75172E-04
        -0.72627E-05
        -0.29479E-04
        -0.66298E-05
        -0.27431E-04
        -0.76267E-06
        -0.15855E-04
        -0.16611E-03
        -0.92375E-04
        -0.10264E-03
        -0.75754E-04
        -0.23947E-04
        -0.78304E-05
        -0.36991E-05
        -0.11166E-04
        -0.40509E-03
        -0.36780E-03
        -0.35876E-03
        -0.21007E-04
        -0.71116E-05
        -0.31892E-05
        -0.90597E-04
        -0.11193E-05
        -0.11440E-04
        -0.19024E-04
        -0.45028E-04
        -0.18332E-04
        -0.17015E-04
        -0.13801E-04
        -0.33598E-03
        -0.10067E-03
        -0.13273E-03
        -0.13114E-03
        -0.42157E-05
        -0.31795E-04
        -0.41033E-03
        -0.43412E-03
        -0.41121E-03
        -0.21407E-03
        -0.12630E-03
        -0.43138E-04
        -0.50634E-04
        -0.71252E-04
        -0.10671E-05
        -0.17018E-05
        -0.18652E-03
        -0.14247E-03
        -0.57798E-02
        -0.58788E-02
        -0.47511E-02
        -0.32377E-02
        -0.17924E-02
        -0.38022E-03
        -0.24047E-04
        -0.25020E-03
        -0.42295E-03
        -0.14326E-02
        -0.45393E-02
        -0.63393E-02
        -0.44512E-02
        -0.40301E-02
        -0.49081E-02
        -0.52175E-02
        -0.43410E-02
        -0.38818E-02
        -0.99930E-03
        -0.68332E-04
        -0.32745E-03
        -0.33833E-03
        -0.10630E-02
        -0.31933E-02
        -0.52425E-02
        -0.52142E-02
        -0.19882E-04
        -0.88374E-06
        -0.30211E-05
        -0.25189E-04
        -0.10267E-03
        -0.75036E-04
        -0.73525E-05
        -0.29317E-04
        -0.66407E-05
        -0.27373E-04
        -0.72524E-06
        -0.15932E-04
        -0.16632E-03
        -0.91912E-04
        -0.10252E-03
        -0.75941E-04
        -0.24055E-04
        -0.77853E-05
        -0.36959E-05
        -0.11129E-04
        -0.40508E-03
        -0.36778E-03
        -0.35882E-03
        -0.21013E-04
        -0.71490E-05
        -0.32025E-05
        -0.90641E-04
        -0.10726E-05
        -0.11595E-04
        -0.19053E-04
        -0.45167E-04
        -0.18329E-04
        -0.16860E-04
        -0.13808E-04
        -0.33635E-03
        -0.10060E-03
        -0.13267E-03
        -0.13155E-03
        -0.42910E-05
        -0.31995E-04
        -0.41090E-03
        -0.43473E-03
        -0.41141E-03
        -0.21406E-03
        -0.12622E-03
        -0.43107E-04
        -0.50607E-04
        -0.71297E-04
        -0.10474E-05
        -0.16943E-05
        -0.18633E-03
        -0.14207E-03
        -0.57758E-02
        -0.58758E-02
        -0.47502E-02
        -0.32377E-02
        -0.17913E-02
        -0.37999E-03
        -0.24098E-04
        -0.25050E-03
        -0.42224E-03
        -0.14315E-02
        -0.45378E-02
        -0.63398E-02
        -0.44509E-02
        -0.40298E-02
        -0.49097E-02
        -0.52206E-02
        -0.43430E-02
        -0.38832E-02
        -0.99871E-03
        -0.68373E-04
        -0.32693E-03
        -0.33807E-03
        -0.10615E-02
        -0.31895E-02
        -0.52373E-02
        -0.52095E-02
        -0.19944E-04
        -0.89260E-06
        -0.30273E-05
        -0.25219E-04
        -0.10248E-03
        -0.74897E-04
        -0.74435E-05
        -0.29155E-04
        -0.66514E-05
        -0.27315E-04
        -0.68886E-06
        -0.16009E-04
        -0.16653E-03
        -0.91452E-04
        -0.10241E-03
        -0.76129E-04
        -0.24162E-04
        -0.77398E-05
        -0.36921E-05
        -0.11093E-04
        -0.40506E-03
        -0.36775E-03
        -0.35889E-03
        -0.21019E-04
        -0.71862E-05
        -0.32162E-05
        -0.90683E-04
        -0.10270E-05
        -0.11750E-04
        -0.19084E-04
        -0.45307E-04
        -0.18327E-04
        -0.16704E-04
        -0.13814E-04
        -0.33672E-03
        -0.10054E-03
        -0.13260E-03
        -0.13195E-03
        -0.43671E-05
        -0.32199E-04
        -0.41146E-03
        -0.43533E-03
        -0.41161E-03
        -0.21406E-03
        -0.12615E-03
        -0.43075E-04
        -0.50581E-04
        -0.71343E-04
        -0.10279E-05
        -0.16872E-05
        -0.18613E-03
        -0.14165E-03
        -0.57718E-02
        -0.58728E-02
        -0.47493E-02
        -0.32377E-02
        -0.17902E-02
        -0.37977E-03
        -0.24149E-04
        -0.25080E-03
        -0.42153E-03
        -0.14303E-02
        -0.45363E-02
        -0.63403E-02
        -0.44505E-02
        -0.40296E-02
        -0.49112E-02
        -0.52238E-02
        -0.43449E-02
        -0.38845E-02
        -0.99813E-03
        -0.68415E-04
        -0.32642E-03
        -0.33781E-03
        -0.10599E-02
        -0.31856E-02
        -0.52321E-02
        -0.52049E-02
        -0.20006E-04
        -0.90161E-06
        -0.30336E-05
        -0.25248E-04
        -0.10228E-03
        -0.74758E-04
        -0.75347E-05
        -0.28994E-04
        -0.66619E-05
        -0.27256E-04
        -0.65351E-06
        -0.16085E-04
        -0.16674E-03
        -0.90992E-04
        -0.10229E-03
        -0.76317E-04
        -0.24270E-04
        -0.76945E-05
        -0.36885E-05
        -0.11056E-04
        -0.40505E-03
        -0.36773E-03
        -0.35895E-03
        -0.21025E-04
        -0.72231E-05
        -0.32296E-05
        -0.90725E-04
        -0.98240E-06
        -0.11907E-04
        -0.19113E-04
        -0.45447E-04
        -0.18324E-04
        -0.16550E-04
        -0.13821E-04
        -0.33708E-03
        -0.10047E-03
        -0.13254E-03
        -0.13236E-03
        -0.44441E-05
        -0.32401E-04
        -0.41204E-03
        -0.43594E-03
        -0.41181E-03
        -0.21406E-03
        -0.12608E-03
        -0.43038E-04
        -0.50555E-04
        -0.71389E-04
        -0.10084E-05
        -0.16797E-05
        -0.18593E-03
        -0.14124E-03
        -0.57678E-02
        -0.58699E-02
        -0.47484E-02
        -0.32378E-02
        -0.17891E-02
        -0.37953E-03
        -0.24202E-04
        -0.25110E-03
        -0.42081E-03
        -0.14292E-02
        -0.45348E-02
        -0.63408E-02
        -0.44502E-02
        -0.40293E-02
        -0.49128E-02
        -0.52270E-02
        -0.43469E-02
        -0.38859E-02
        -0.99755E-03
        -0.68457E-04
        -0.32590E-03
        -0.33755E-03
        -0.10584E-02
        -0.31818E-02
        -0.52270E-02
        -0.52003E-02
        -0.20069E-04
        -0.91051E-06
        -0.30398E-05
        -0.25278E-04
        -0.10210E-03
        -0.74618E-04
        -0.76255E-05
        -0.28833E-04
        -0.66725E-05
        -0.27197E-04
        -0.61915E-06
        -0.16162E-04
        -0.16695E-03
        -0.90534E-04
        -0.10217E-03
        -0.76505E-04
        -0.24378E-04
        -0.76496E-05
        -0.36855E-05
        -0.11021E-04
        -0.40503E-03
        -0.36771E-03
        -0.35901E-03
        -0.21032E-04
        -0.72601E-05
        -0.32431E-05
        -0.90764E-04
        -0.93903E-06
        -0.12065E-04
        -0.19143E-04
        -0.45586E-04
        -0.18321E-04
        -0.16396E-04
        -0.13828E-04
        -0.33745E-03
        -0.10041E-03
        -0.13248E-03
        -0.13276E-03
        -0.45218E-05
        -0.32606E-04
        -0.41261E-03
        -0.43654E-03
        -0.41200E-03
        -0.21406E-03
        -0.12600E-03
        -0.43007E-04
        -0.50528E-04
        -0.71433E-04
        -0.98924E-06
        -0.16722E-05
        -0.18574E-03
        -0.14084E-03
        -0.57638E-02
        -0.58669E-02
        -0.47474E-02
        -0.32378E-02
        -0.17880E-02
        -0.37929E-03
        -0.24254E-04
        -0.25139E-03
        -0.42009E-03
        -0.14280E-02
        -0.45333E-02
        -0.63413E-02
        -0.44498E-02
        -0.40290E-02
        -0.49144E-02
        -0.52302E-02
        -0.43489E-02
        -0.38872E-02
        -0.99697E-03
        -0.68496E-04
        -0.32539E-03
        -0.33729E-03
        -0.10569E-02
        -0.31779E-02
        -0.52218E-02
        -0.51956E-02
        -0.20131E-04
        -0.91940E-06
        -0.30461E-05
        -0.25308E-04
        -0.10190E-03
        -0.74479E-04
        -0.77176E-05
        -0.28672E-04
        -0.66832E-05
        -0.27140E-04
        -0.58572E-06
        -0.16240E-04
        -0.16715E-03
        -0.90078E-04
        -0.10206E-03
        -0.76693E-04
        -0.24486E-04
        -0.76049E-05
        -0.36817E-05
        -0.10984E-04
        -0.40503E-03
        -0.36768E-03
        -0.35907E-03
        -0.21038E-04
        -0.72969E-05
        -0.32565E-05
        -0.90804E-04
        -0.89664E-06
        -0.12224E-04
        -0.19172E-04
        -0.45726E-04
        -0.18318E-04
        -0.16242E-04
        -0.13834E-04
        -0.33781E-03
        -0.10034E-03
        -0.13242E-03
        -0.13316E-03
        -0.46002E-05
        -0.32811E-04
        -0.41317E-03
        -0.43714E-03
        -0.41220E-03
        -0.21406E-03
        -0.12593E-03
        -0.42976E-04
        -0.50501E-04
        -0.71479E-04
        -0.96993E-06
        -0.16649E-05
        -0.18555E-03
        -0.14043E-03
        -0.57598E-02
        -0.58639E-02
        -0.47465E-02
        -0.32378E-02
        -0.17869E-02
        -0.37906E-03
        -0.24305E-04
        -0.25168E-03
        -0.41938E-03
        -0.14269E-02
        -0.45319E-02
        -0.63419E-02
        -0.44494E-02
        -0.40288E-02
        -0.49160E-02
        -0.52334E-02
        -0.43509E-02
        -0.38885E-02
        -0.99638E-03
        -0.68536E-04
        -0.32488E-03
        -0.33704E-03
        -0.10554E-02
        -0.31740E-02
        -0.52166E-02
        -0.51910E-02
        -0.20194E-04
        -0.92856E-06
        -0.30524E-05
        -0.25337E-04
        -0.10171E-03
        -0.74344E-04
        -0.78097E-05
        -0.28512E-04
        -0.66938E-05
        -0.27081E-04
        -0.55322E-06
        -0.16317E-04
        -0.16736E-03
        -0.89623E-04
        -0.10194E-03
        -0.76881E-04
        -0.24594E-04
        -0.75607E-05
        -0.36781E-05
        -0.10948E-04
        -0.40501E-03
        -0.36766E-03
        -0.35914E-03
        -0.21044E-04
        -0.73332E-05
        -0.32700E-05
        -0.90845E-04
        -0.85525E-06
        -0.12383E-04
        -0.19200E-04
        -0.45866E-04
        -0.18315E-04
        -0.16090E-04
        -0.13841E-04
        -0.33819E-03
        -0.10028E-03
        -0.13235E-03
        -0.13356E-03
        -0.46797E-05
        -0.33015E-04
        -0.41374E-03
        -0.43775E-03
        -0.41239E-03
        -0.21405E-03
        -0.12586E-03
        -0.42941E-04
        -0.50474E-04
        -0.71524E-04
        -0.95103E-06
        -0.16574E-05
        -0.18536E-03
        -0.14002E-03
        -0.57558E-02
        -0.58609E-02
        -0.47456E-02
        -0.32378E-02
        -0.17858E-02
        -0.37882E-03
        -0.24355E-04
        -0.25197E-03
        -0.41867E-03
        -0.14258E-02
        -0.45304E-02
        -0.63424E-02
        -0.44491E-02
        -0.40285E-02
        -0.49176E-02
        -0.52366E-02
        -0.43528E-02
        -0.38899E-02
        -0.99580E-03
        -0.68576E-04
        -0.32436E-03
        -0.33678E-03
        -0.10539E-02
        -0.31702E-02
        -0.52115E-02
        -0.51863E-02
        -0.20256E-04
        -0.93762E-06
        -0.30588E-05
        -0.25367E-04
        -0.10153E-03
        -0.74206E-04
        -0.79027E-05
        -0.28352E-04
        -0.67040E-05
        -0.27020E-04
        -0.52166E-06
        -0.16395E-04
        -0.16757E-03
        -0.89169E-04
        -0.10182E-03
        -0.77071E-04
        -0.24703E-04
        -0.75166E-05
        -0.36747E-05
        -0.10911E-04
        -0.40500E-03
        -0.36763E-03
        -0.35920E-03
        -0.21051E-04
        -0.73688E-05
        -0.32835E-05
        -0.90881E-04
        -0.81448E-06
        -0.12542E-04
        -0.19229E-04
        -0.46007E-04
        -0.18313E-04
        -0.15938E-04
        -0.13848E-04
        -0.33857E-03
        -0.10021E-03
        -0.13229E-03
        -0.13396E-03
        -0.47607E-05
        -0.33223E-04
        -0.41429E-03
        -0.43834E-03
        -0.41258E-03
        -0.21406E-03
        -0.12578E-03
        -0.42909E-04
        -0.50448E-04
        -0.71571E-04
        -0.93237E-06
        -0.16500E-05
        -0.18516E-03
        -0.13961E-03
        -0.57518E-02
        -0.58580E-02
        -0.47447E-02
        -0.32378E-02
        -0.17847E-02
        -0.37859E-03
        -0.24404E-04
        -0.25226E-03
        -0.41797E-03
        -0.14246E-02
        -0.45289E-02
        -0.63431E-02
        -0.44488E-02
        -0.40282E-02
        -0.49191E-02
        -0.52398E-02
        -0.43548E-02
        -0.38912E-02
        -0.99521E-03
        -0.68616E-04
        -0.32385E-03
        -0.33652E-03
        -0.10524E-02
        -0.31663E-02
        -0.52063E-02
        -0.51817E-02
        -0.20319E-04
        -0.94670E-06
        -0.30649E-05
        -0.25396E-04
        -0.10134E-03
        -0.74067E-04
        -0.79956E-05
        -0.28193E-04
        -0.67132E-05
        -0.26953E-04
        -0.49107E-06
        -0.16473E-04
        -0.16778E-03
        -0.88714E-04
        -0.10169E-03
        -0.77259E-04
        -0.24811E-04
        -0.74723E-05
        -0.36722E-05
        -0.10876E-04
        -0.40498E-03
        -0.36761E-03
        -0.35927E-03
        -0.21057E-04
        -0.74023E-05
        -0.32975E-05
        -0.90901E-04
        -0.77372E-06
        -0.12703E-04
        -0.19260E-04
        -0.46148E-04
        -0.18310E-04
        -0.15786E-04
        -0.13855E-04
        -0.33893E-03
        -0.10015E-03
        -0.13223E-03
        -0.13435E-03
        -0.48447E-05
        -0.33427E-04
        -0.41480E-03
        -0.43889E-03
        -0.41275E-03
        -0.21406E-03
        -0.12571E-03
        -0.42875E-04
        -0.50422E-04
        -0.71618E-04
        -0.91395E-06
        -0.16425E-05
        -0.18497E-03
        -0.13920E-03
        -0.57478E-02
        -0.58550E-02
        -0.47438E-02
        -0.32377E-02
        -0.17836E-02
        -0.37836E-03
        -0.24455E-04
        -0.25255E-03
        -0.41727E-03
        -0.14234E-02
        -0.45274E-02
        -0.63440E-02
        -0.44487E-02
        -0.40280E-02
        -0.49207E-02
        -0.52430E-02
        -0.43568E-02
        -0.38925E-02
        -0.99464E-03
        -0.68656E-04
        -0.32334E-03
        -0.33626E-03
        -0.10509E-02
        -0.31625E-02
        -0.52012E-02
        -0.51771E-02
        -0.20382E-04
        -0.95578E-06
        -0.30710E-05
        -0.25425E-04
        -0.10114E-03
        -0.73929E-04
        -0.80895E-05
        -0.28034E-04
        -0.67215E-05
        -0.26879E-04
        -0.46148E-06
        -0.16551E-04
        -0.16799E-03
        -0.88256E-04
        -0.10157E-03
        -0.77447E-04
        -0.24918E-04
        -0.74282E-05
        -0.36688E-05
        -0.10840E-04
        -0.40497E-03
        -0.36757E-03
        -0.35933E-03
        -0.21063E-04
        -0.74331E-05
        -0.33109E-05
        -0.90909E-04
        -0.73282E-06
        -0.12865E-04
        -0.19290E-04
        -0.46289E-04
        -0.18307E-04
        -0.15636E-04
        -0.13862E-04
        -0.33930E-03
        -0.10008E-03
        -0.13217E-03
        -0.13473E-03
        -0.49317E-05
        -0.33633E-04
        -0.41527E-03
        -0.43939E-03
        -0.41290E-03
        -0.21406E-03
        -0.12564E-03
        -0.42844E-04
        -0.50396E-04
        -0.71664E-04
        -0.89549E-06
        -0.16353E-05
        -0.18477E-03
        -0.13879E-03
        -0.57438E-02
        -0.58521E-02
        -0.47428E-02
        -0.32377E-02
        -0.17825E-02
        -0.37813E-03
        -0.24504E-04
        -0.25284E-03
        -0.41658E-03
        -0.14222E-02
        -0.45258E-02
        -0.63453E-02
        -0.44487E-02
        -0.40278E-02
        -0.49223E-02
        -0.52462E-02
        -0.43587E-02
        -0.38938E-02
        -0.99405E-03
        -0.68695E-04
        -0.32283E-03
        -0.33600E-03
        -0.10494E-02
        -0.31586E-02
        -0.51960E-02
        -0.51725E-02
        -0.20445E-04
        -0.96497E-06
        -0.30774E-05
        -0.25455E-04
        -0.10096E-03
        -0.73795E-04
        -0.81827E-05
        -0.27876E-04
        -0.67293E-05
        -0.26805E-04
        -0.43302E-06
        -0.16628E-04
        -0.16819E-03
        -0.87801E-04
        -0.10144E-03
        -0.77636E-04
        -0.25026E-04
        -0.73847E-05
        -0.36653E-05
        -0.10805E-04
        -0.40496E-03
        -0.36753E-03
        -0.35939E-03
        -0.21070E-04
        -0.74631E-05
        -0.33243E-05
        -0.90914E-04
        -0.69290E-06
        -0.13027E-04
        -0.19319E-04
        -0.46430E-04
        -0.18304E-04
        -0.15487E-04
        -0.13869E-04
        -0.33968E-03
        -0.10002E-03
        -0.13210E-03
        -0.13511E-03
        -0.50204E-05
        -0.33834E-04
        -0.41572E-03
        -0.43987E-03
        -0.41303E-03
        -0.21406E-03
        -0.12556E-03
        -0.42812E-04
        -0.50371E-04
        -0.71713E-04
        -0.87743E-06
        -0.16276E-05
        -0.18459E-03
        -0.13839E-03
        -0.57398E-02
        -0.58491E-02
        -0.47420E-02
        -0.32378E-02
        -0.17814E-02
        -0.37789E-03
        -0.24553E-04
        -0.25312E-03
        -0.41589E-03
        -0.14210E-02
        -0.45243E-02
        -0.63467E-02
        -0.44488E-02
        -0.40275E-02
        -0.49238E-02
        -0.52493E-02
        -0.43607E-02
        -0.38951E-02
        -0.99347E-03
        -0.68738E-04
        -0.32233E-03
        -0.33574E-03
        -0.10479E-02
        -0.31548E-02
        -0.51909E-02
        -0.51679E-02
        -0.20709E-04
        -0.98198E-06
        -0.31150E-05
        -0.25728E-04
        -0.10177E-03
        -0.74392E-04
        -0.83493E-05
        -0.28020E-04
        -0.68017E-05
        -0.27016E-04
        -0.41325E-06
        -0.16862E-04
        -0.17008E-03
        -0.88308E-04
        -0.10243E-03
        -0.78563E-04
        -0.25376E-04
        -0.74150E-05
        -0.36964E-05
        -0.10874E-04
        -0.40887E-03
        -0.37114E-03
        -0.36287E-03
        -0.21280E-04
        -0.75661E-05
        -0.33687E-05
        -0.91892E-04
        -0.66345E-06
        -0.13313E-04
        -0.19543E-04
        -0.47016E-04
        -0.18477E-04
        -0.15500E-04
        -0.14014E-04
        -0.34350E-03
        -0.10096E-03
        -0.13336E-03
        -0.13693E-03
        -0.51559E-05
        -0.34376E-04
        -0.42055E-03
        -0.44491E-03
        -0.41735E-03
        -0.21608E-03
        -0.12671E-03
        -0.43201E-04
        -0.50854E-04
        -0.72482E-04
        -0.87009E-06
        -0.16362E-05
        -0.18627E-03
        -0.13938E-03
        -0.58060E-02
        -0.59161E-02
        -0.47987E-02
        -0.32763E-02
        -0.18019E-02
        -0.38229E-03
        -0.24928E-04
        -0.25653E-03
        -0.42052E-03
        -0.14382E-02
        -0.45805E-02
        -0.64252E-02
        -0.44992E-02
        -0.40713E-02
        -0.49787E-02
        -0.53092E-02
        -0.44101E-02
        -0.39413E-02
        -0.10050E-02
        -0.69653E-04
        -0.32567E-03
        -0.33930E-03
        -0.10587E-02
        -0.31878E-02
        -0.52455E-02
        -0.52224E-02
        -0.46924E-04
        -0.22572E-05
        -0.70348E-05
        -0.58420E-04
        -0.21410E-03
        -0.15929E-03
        -0.19117E-04
        -0.62814E-04
        -0.15308E-04
        -0.60358E-04
        -0.88523E-06
        -0.34425E-04
        -0.35678E-03
        -0.19266E-03
        -0.21127E-03
        -0.17816E-03
        -0.57325E-04
        -0.16757E-04
        -0.81659E-05
        -0.24154E-04
        -0.85464E-03
        -0.79625E-03
        -0.76208E-03
        -0.47727E-04
        -0.17252E-04
        -0.76865E-05
        -0.20404E-03
        -0.14621E-05
        -0.30777E-04
        -0.44476E-04
        -0.10674E-03
        -0.41728E-04
        -0.35034E-04
        -0.31856E-04
        -0.69809E-03
        -0.21627E-03
        -0.28596E-03
        -0.29564E-03
        -0.11518E-04
        -0.76897E-04
        -0.91353E-03
        -0.97950E-03
        -0.91620E-03
        -0.46014E-03
        -0.26823E-03
        -0.86524E-04
        -0.10701E-03
        -0.15645E-03
        -0.18703E-05
        -0.35245E-05
        -0.38329E-03
        -0.29683E-03
        -0.94033E-02
        -0.95399E-02
        -0.77517E-02
        -0.53172E-02
        -0.29224E-02
        -0.62396E-03
        -0.41775E-04
        -0.43610E-03
        -0.71140E-03
        -0.24079E-02
        -0.76816E-02
        -0.10713E-01
        -0.76390E-02
        -0.69431E-02
        -0.82758E-02
        -0.86295E-02
        -0.71263E-02
        -0.63160E-02
        -0.16116E-02
        -0.11217E-03
        -0.53308E-03
        -0.55971E-03
        -0.17356E-02
        -0.52617E-02
        -0.86016E-02
        -0.85014E-02
  
SCALARS                      strain_yy  double 1
LOOKUP_TABLE default
         0.31994E-03
         0.33844E-04
         0.23506E-03
         0.65407E-04
        -0.42990E-19
        -0.32658E-20
        -0.66027E-19
        -0.38412E-19
         0.32006E-02
         0.14069E-02
        -0.14623E-18
        -0.11334E-18
         0.23109E-02
         0.59604E-05
        -0.74895E-19
        -0.30786E-21
         0.31367E-03
         0.37987E-02
        -0.16211E-22
        -0.16972E-20
         0.97079E-03
         0.13191E-01
         0.15219E-01
        -0.39356E-18
        -0.11738E-17
        -0.82008E-18
         0.12841E-03
         0.12769E-01
        -0.20364E-18
        -0.76640E-18
         0.40868E-03
         0.29279E-03
         0.23686E-03
        -0.54729E-19
        -0.57033E-19
        -0.24582E-22
         0.34889E-02
         0.30025E-02
        -0.18533E-18
        -0.11219E-18
         0.32714E-02
         0.12490E-02
        -0.10585E-18
        -0.88400E-19
         0.28260E-02
         0.34332E-03
        -0.11647E-21
        -0.27867E-19
         0.20833E-02
        -0.61775E-20
         0.24085E-04
        -0.40523E-22
         0.67239E-05
        -0.92431E-19
         0.28967E-03
        -0.31278E-19
         0.30810E-02
         0.10403E-03
        -0.23020E-22
        -0.94831E-22
         0.60032E-03
         0.78124E-02
        -0.42735E-20
        -0.59791E-19
         0.22197E-03
        -0.17412E-19
         0.39832E-02
        -0.25841E-19
         0.24413E-02
         0.68089E-03
        -0.39465E-21
        -0.68800E-19
         0.81916E-02
        -0.33174E-18
         0.20118E-01
        -0.31101E-18
         0.20261E-01
        -0.17922E-18
         0.13818E-01
        -0.12591E-18
         0.30599E-01
         0.18617E-01
        -0.51813E-19
        -0.25470E-20
         0.38755E-03
        -0.31890E-22
         0.68920E-02
        -0.12514E-18
         0.37452E-01
        -0.38352E-18
         0.71422E-01
         0.27153E-01
        -0.84369E-18
        -0.55274E-18
         0.13646E-01
        -0.33307E-18
         0.11104E-01
        -0.34861E-18
         0.10409E-01
        -0.40302E-18
         0.28688E-01
         0.20027E-01
        -0.34853E-18
        -0.80019E-19
         0.12160E-01
         0.17859E-02
        -0.43091E-19
        -0.66544E-19
         0.72985E-01
        -0.47691E-18
         0.15392E+00
        -0.10204E-17
         0.22405E+00
        -0.15564E-17
         0.28782E+00
        -0.15313E-17
         0.37231E+00
        -0.95901E-18
         0.37325E+00
        -0.57434E-18
         0.32956E+00
        -0.49684E-18
         0.26135E+00
        -0.44975E-18
         0.14544E+00
        -0.18368E-18
         0.71833E-01
        -0.20022E-19
         0.19697E-01
        -0.83599E-20
         0.10722E-03
        -0.18887E-19
         0.19811E-01
        -0.50383E-20
         0.65803E-01
        -0.46078E-19
         0.15728E+00
        -0.36712E-18
         0.18491E+00
        -0.89517E-18
         0.20995E+00
        -0.15385E-17
         0.33526E+00
        -0.15358E-17
         0.36990E+00
        -0.11704E-17
         0.32107E+00
        -0.11117E-17
         0.20749E+00
        -0.11256E-17
         0.96125E-01
        -0.70384E-18
         0.49081E-01
        -0.24612E-18
         0.25975E-01
        -0.14714E-18
        -0.21658E-04
        -0.56165E-05
        -0.42988E-05
        -0.43121E-06
        -0.43463E-05
        -0.51219E-05
        -0.54032E-07
        -0.13128E-04
        -0.10205E-04
        -0.21256E-04
        -0.53416E-05
        -0.96279E-04
        -0.46161E-04
        -0.62185E-06
        -0.99396E-04
        -0.15361E-05
        -0.11972E-05
        -0.50607E-06
        -0.81311E-06
        -0.46999E-06
        -0.38986E-06
        -0.26803E-06
        -0.29638E-05
        -0.21164E-07
        -0.99210E-05
        -0.21653E-06
        -0.56078E-09
        -0.17198E-06
        -0.24639E-06
        -0.59798E-05
        -0.14585E-05
        -0.16492E-05
        -0.77111E-06
        -0.44585E-07
        -0.10909E-06
        -0.33270E-05
        -0.17017E-04
        -0.77963E-04
        -0.64910E-04
        -0.44765E-04
        -0.38659E-04
        -0.25395E-05
        -0.17934E-05
        -0.13398E-04
        -0.35594E-04
        -0.90189E-04
        -0.40587E-04
        -0.21805E-04
        -0.24749E-04
        -0.27009E-04
        -0.35820E-04
        -0.78576E-05
        -0.23749E-04
        -0.36205E-04
        -0.26341E-03
        -0.50903E-03
        -0.82516E-03
        -0.11322E-02
        -0.11104E-02
        -0.90008E-03
        -0.81829E-03
        -0.72895E-03
        -0.30013E-03
        -0.62528E-04
        -0.12422E-04
        -0.24379E-05
        -0.58174E-05
        -0.92090E-04
        -0.31099E-03
        -0.51861E-03
        -0.70288E-03
        -0.94250E-03
        -0.85862E-03
        -0.76677E-03
        -0.66067E-03
        -0.31131E-03
        -0.11034E-03
        -0.86237E-04
        -0.16660E-03
        -0.66274E-04
        -0.56751E-04
        -0.31929E-05
        -0.95735E-04
        -0.19365E-04
        -0.12177E-04
        -0.14882E-03
        -0.64000E-04
        -0.13164E-03
        -0.36798E-04
        -0.68922E-03
        -0.24191E-03
        -0.49955E-05
        -0.66902E-03
        -0.23961E-04
        -0.22005E-05
        -0.20057E-05
        -0.40747E-04
        -0.15231E-05
        -0.30271E-04
        -0.15259E-04
        -0.51286E-05
        -0.36537E-05
        -0.59696E-04
        -0.36522E-05
        -0.22997E-06
        -0.79473E-06
        -0.20278E-05
        -0.59402E-04
        -0.27830E-04
        -0.19310E-05
        -0.11627E-04
        -0.87654E-05
        -0.19928E-05
        -0.18517E-04
        -0.67503E-04
        -0.38643E-03
        -0.30051E-03
        -0.23339E-03
        -0.12596E-03
        -0.76909E-05
        -0.32630E-04
        -0.50912E-04
        -0.84418E-04
        -0.35227E-03
        -0.11927E-03
        -0.52159E-04
        -0.82391E-04
        -0.11482E-03
        -0.12328E-03
        -0.69401E-06
        -0.19152E-03
        -0.39188E-03
        -0.21221E-02
        -0.35442E-02
        -0.59035E-02
        -0.85004E-02
        -0.81560E-02
        -0.62207E-02
        -0.57133E-02
        -0.55924E-02
        -0.22053E-02
        -0.23956E-03
        -0.38041E-04
        -0.27932E-04
        -0.59912E-05
        -0.43112E-03
        -0.17302E-02
        -0.33511E-02
        -0.56763E-02
        -0.69794E-02
        -0.53824E-02
        -0.48111E-02
        -0.47820E-02
        -0.23708E-02
        -0.63977E-03
        -0.57360E-03
        -0.16681E-03
        -0.66298E-04
        -0.56808E-04
        -0.32399E-05
        -0.95757E-04
        -0.19396E-04
        -0.12207E-04
        -0.14932E-03
        -0.64230E-04
        -0.13263E-03
        -0.36841E-04
        -0.68910E-03
        -0.24203E-03
        -0.49958E-05
        -0.67073E-03
        -0.23963E-04
        -0.22407E-05
        -0.19997E-05
        -0.40802E-04
        -0.15061E-05
        -0.30420E-04
        -0.15288E-04
        -0.51311E-05
        -0.36503E-05
        -0.60239E-04
        -0.36390E-05
        -0.23542E-06
        -0.80365E-06
        -0.20011E-05
        -0.59654E-04
        -0.27839E-04
        -0.19226E-05
        -0.11678E-04
        -0.87942E-05
        -0.19555E-05
        -0.18542E-04
        -0.67498E-04
        -0.38762E-03
        -0.30180E-03
        -0.23393E-03
        -0.12615E-03
        -0.76496E-05
        -0.32697E-04
        -0.50964E-04
        -0.84424E-04
        -0.35227E-03
        -0.11930E-03
        -0.52096E-04
        -0.82170E-04
        -0.11452E-03
        -0.12317E-03
        -0.67315E-06
        -0.19117E-03
        -0.39192E-03
        -0.21229E-02
        -0.35442E-02
        -0.59021E-02
        -0.84946E-02
        -0.81492E-02
        -0.62170E-02
        -0.57109E-02
        -0.55893E-02
        -0.22044E-02
        -0.23979E-03
        -0.38035E-04
        -0.28046E-04
        -0.58939E-05
        -0.43157E-03
        -0.17318E-02
        -0.33527E-02
        -0.56761E-02
        -0.69785E-02
        -0.53816E-02
        -0.48107E-02
        -0.47796E-02
        -0.23674E-02
        -0.63836E-03
        -0.57209E-03
        -0.16702E-03
        -0.66324E-04
        -0.56865E-04
        -0.32878E-05
        -0.95778E-04
        -0.19428E-04
        -0.12238E-04
        -0.14983E-03
        -0.64462E-04
        -0.13361E-03
        -0.36885E-04
        -0.68898E-03
        -0.24215E-03
        -0.49948E-05
        -0.67243E-03
        -0.23967E-04
        -0.22817E-05
        -0.19936E-05
        -0.40858E-04
        -0.14890E-05
        -0.30572E-04
        -0.15317E-04
        -0.51350E-05
        -0.36458E-05
        -0.60777E-04
        -0.36239E-05
        -0.24132E-06
        -0.81317E-06
        -0.19722E-05
        -0.59897E-04
        -0.27848E-04
        -0.19124E-05
        -0.11730E-04
        -0.88224E-05
        -0.19184E-05
        -0.18567E-04
        -0.67488E-04
        -0.38881E-03
        -0.30311E-03
        -0.23448E-03
        -0.12636E-03
        -0.76041E-05
        -0.32760E-04
        -0.51030E-04
        -0.84444E-04
        -0.35229E-03
        -0.11932E-03
        -0.52032E-04
        -0.81953E-04
        -0.11421E-03
        -0.12307E-03
        -0.65270E-06
        -0.19081E-03
        -0.39197E-03
        -0.21237E-02
        -0.35443E-02
        -0.59007E-02
        -0.84889E-02
        -0.81423E-02
        -0.62133E-02
        -0.57085E-02
        -0.55862E-02
        -0.22035E-02
        -0.24003E-03
        -0.38031E-04
        -0.28162E-04
        -0.57970E-05
        -0.43204E-03
        -0.17334E-02
        -0.33543E-02
        -0.56759E-02
        -0.69776E-02
        -0.53809E-02
        -0.48103E-02
        -0.47772E-02
        -0.23640E-02
        -0.63696E-03
        -0.57059E-03
        -0.16723E-03
        -0.66348E-04
        -0.56923E-04
        -0.33362E-05
        -0.95800E-04
        -0.19459E-04
        -0.12270E-04
        -0.15033E-03
        -0.64695E-04
        -0.13459E-03
        -0.36929E-04
        -0.68887E-03
        -0.24228E-03
        -0.49950E-05
        -0.67415E-03
        -0.23970E-04
        -0.23238E-05
        -0.19874E-05
        -0.40919E-04
        -0.14709E-05
        -0.30728E-04
        -0.15343E-04
        -0.51438E-05
        -0.36386E-05
        -0.61299E-04
        -0.36041E-05
        -0.24748E-06
        -0.82587E-06
        -0.19366E-05
        -0.60118E-04
        -0.27852E-04
        -0.18987E-05
        -0.11782E-04
        -0.88511E-05
        -0.18818E-05
        -0.18591E-04
        -0.67479E-04
        -0.39002E-03
        -0.30444E-03
        -0.23506E-03
        -0.12659E-03
        -0.75463E-05
        -0.32812E-04
        -0.51130E-04
        -0.84494E-04
        -0.35232E-03
        -0.11936E-03
        -0.51969E-04
        -0.81735E-04
        -0.11390E-03
        -0.12296E-03
        -0.63260E-06
        -0.19045E-03
        -0.39201E-03
        -0.21245E-02
        -0.35444E-02
        -0.58993E-02
        -0.84831E-02
        -0.81355E-02
        -0.62095E-02
        -0.57061E-02
        -0.55831E-02
        -0.22027E-02
        -0.24031E-03
        -0.38032E-04
        -0.28276E-04
        -0.57001E-05
        -0.43255E-03
        -0.17353E-02
        -0.33561E-02
        -0.56758E-02
        -0.69768E-02
        -0.53801E-02
        -0.48099E-02
        -0.47747E-02
        -0.23607E-02
        -0.63557E-03
        -0.56908E-03
        -0.16744E-03
        -0.66372E-04
        -0.56980E-04
        -0.33847E-05
        -0.95823E-04
        -0.19490E-04
        -0.12301E-04
        -0.15082E-03
        -0.64927E-04
        -0.13555E-03
        -0.36974E-04
        -0.68875E-03
        -0.24240E-03
        -0.49956E-05
        -0.67587E-03
        -0.23975E-04
        -0.23670E-05
        -0.19812E-05
        -0.40981E-04
        -0.14520E-05
        -0.30886E-04
        -0.15366E-04
        -0.51574E-05
        -0.36284E-05
        -0.61804E-04
        -0.35792E-05
        -0.25444E-06
        -0.84155E-06
        -0.18944E-05
        -0.60315E-04
        -0.27852E-04
        -0.18808E-05
        -0.11833E-04
        -0.88798E-05
        -0.18453E-05
        -0.18616E-04
        -0.67473E-04
        -0.39123E-03
        -0.30580E-03
        -0.23568E-03
        -0.12686E-03
        -0.74758E-05
        -0.32851E-04
        -0.51267E-04
        -0.84578E-04
        -0.35241E-03
        -0.11941E-03
        -0.51912E-04
        -0.81521E-04
        -0.11359E-03
        -0.12286E-03
        -0.61270E-06
        -0.19009E-03
        -0.39206E-03
        -0.21253E-02
        -0.35444E-02
        -0.58978E-02
        -0.84774E-02
        -0.81286E-02
        -0.62058E-02
        -0.57037E-02
        -0.55800E-02
        -0.22019E-02
        -0.24064E-03
        -0.38040E-04
        -0.28387E-04
        -0.56039E-05
        -0.43310E-03
        -0.17374E-02
        -0.33581E-02
        -0.56757E-02
        -0.69759E-02
        -0.53794E-02
        -0.48095E-02
        -0.47723E-02
        -0.23573E-02
        -0.63418E-03
        -0.56758E-03
        -0.16763E-03
        -0.66388E-04
        -0.57036E-04
        -0.34342E-05
        -0.95846E-04
        -0.19521E-04
        -0.12328E-04
        -0.15130E-03
        -0.65163E-04
        -0.13650E-03
        -0.37024E-04
        -0.68864E-03
        -0.24253E-03
        -0.49973E-05
        -0.67758E-03
        -0.23981E-04
        -0.24114E-05
        -0.19751E-05
        -0.41044E-04
        -0.14328E-05
        -0.31044E-04
        -0.15388E-04
        -0.51730E-05
        -0.36172E-05
        -0.62300E-04
        -0.35528E-05
        -0.26203E-06
        -0.85906E-06
        -0.18497E-05
        -0.60503E-04
        -0.27849E-04
        -0.18610E-05
        -0.11886E-04
        -0.89099E-05
        -0.18090E-05
        -0.18643E-04
        -0.67472E-04
        -0.39246E-03
        -0.30718E-03
        -0.23633E-03
        -0.12714E-03
        -0.74016E-05
        -0.32885E-04
        -0.51416E-04
        -0.84682E-04
        -0.35252E-03
        -0.11948E-03
        -0.51866E-04
        -0.81318E-04
        -0.11329E-03
        -0.12275E-03
        -0.59313E-06
        -0.18974E-03
        -0.39210E-03
        -0.21260E-02
        -0.35445E-02
        -0.58964E-02
        -0.84716E-02
        -0.81217E-02
        -0.62020E-02
        -0.57013E-02
        -0.55769E-02
        -0.22012E-02
        -0.24100E-03
        -0.38050E-04
        -0.28499E-04
        -0.55085E-05
        -0.43367E-03
        -0.17396E-02
        -0.33602E-02
        -0.56755E-02
        -0.69750E-02
        -0.53787E-02
        -0.48092E-02
        -0.47699E-02
        -0.23540E-02
        -0.63279E-03
        -0.56608E-03
        -0.16781E-03
        -0.66384E-04
        -0.57091E-04
        -0.34853E-05
        -0.95870E-04
        -0.19553E-04
        -0.12349E-04
        -0.15173E-03
        -0.65403E-04
        -0.13740E-03
        -0.37085E-04
        -0.68858E-03
        -0.24269E-03
        -0.50050E-05
        -0.67932E-03
        -0.23989E-04
        -0.24574E-05
        -0.19690E-05
        -0.41108E-04
        -0.14137E-05
        -0.31204E-04
        -0.15410E-04
        -0.51888E-05
        -0.36063E-05
        -0.62785E-04
        -0.35264E-05
        -0.27112E-06
        -0.87788E-06
        -0.18047E-05
        -0.60686E-04
        -0.27844E-04
        -0.18399E-05
        -0.11941E-04
        -0.89415E-05
        -0.17729E-05
        -0.18671E-04
        -0.67476E-04
        -0.39370E-03
        -0.30857E-03
        -0.23697E-03
        -0.12743E-03
        -0.73260E-05
        -0.32918E-04
        -0.51565E-04
        -0.84793E-04
        -0.35267E-03
        -0.11957E-03
        -0.51849E-04
        -0.81149E-04
        -0.11300E-03
        -0.12265E-03
        -0.57364E-06
        -0.18938E-03
        -0.39214E-03
        -0.21268E-02
        -0.35445E-02
        -0.58950E-02
        -0.84658E-02
        -0.81148E-02
        -0.61982E-02
        -0.56990E-02
        -0.55738E-02
        -0.22005E-02
        -0.24136E-03
        -0.38061E-04
        -0.28612E-04
        -0.54139E-05
        -0.43423E-03
        -0.17418E-02
        -0.33623E-02
        -0.56752E-02
        -0.69741E-02
        -0.53781E-02
        -0.48089E-02
        -0.47674E-02
        -0.23506E-02
        -0.63140E-03
        -0.56458E-03
        -0.16799E-03
        -0.66376E-04
        -0.57147E-04
        -0.35375E-05
        -0.95896E-04
        -0.19584E-04
        -0.12365E-04
        -0.15215E-03
        -0.65646E-04
        -0.13829E-03
        -0.37151E-04
        -0.68850E-03
        -0.24285E-03
        -0.50140E-05
        -0.68106E-03
        -0.23998E-04
        -0.25044E-05
        -0.19628E-05
        -0.41171E-04
        -0.13948E-05
        -0.31365E-04
        -0.15433E-04
        -0.52042E-05
        -0.35958E-05
        -0.63267E-04
        -0.35001E-05
        -0.28073E-06
        -0.89739E-06
        -0.17601E-05
        -0.60867E-04
        -0.27839E-04
        -0.18181E-05
        -0.11996E-04
        -0.89744E-05
        -0.17368E-05
        -0.18702E-04
        -0.67486E-04
        -0.39496E-03
        -0.30997E-03
        -0.23762E-03
        -0.12771E-03
        -0.72508E-05
        -0.32950E-04
        -0.51716E-04
        -0.84909E-04
        -0.35283E-03
        -0.11968E-03
        -0.51841E-04
        -0.80993E-04
        -0.11272E-03
        -0.12255E-03
        -0.55448E-06
        -0.18902E-03
        -0.39219E-03
        -0.21275E-02
        -0.35446E-02
        -0.58935E-02
        -0.84601E-02
        -0.81078E-02
        -0.61945E-02
        -0.56966E-02
        -0.55706E-02
        -0.21998E-02
        -0.24171E-03
        -0.38072E-04
        -0.28726E-04
        -0.53198E-05
        -0.43480E-03
        -0.17440E-02
        -0.33643E-02
        -0.56749E-02
        -0.69732E-02
        -0.53776E-02
        -0.48087E-02
        -0.47649E-02
        -0.23472E-02
        -0.63001E-03
        -0.56309E-03
        -0.16816E-03
        -0.66367E-04
        -0.57201E-04
        -0.35901E-05
        -0.95920E-04
        -0.19615E-04
        -0.12382E-04
        -0.15256E-03
        -0.65890E-04
        -0.13918E-03
        -0.37215E-04
        -0.68844E-03
        -0.24301E-03
        -0.50243E-05
        -0.68283E-03
        -0.24007E-04
        -0.25522E-05
        -0.19565E-05
        -0.41234E-04
        -0.13758E-05
        -0.31525E-04
        -0.15457E-04
        -0.52198E-05
        -0.35853E-05
        -0.63751E-04
        -0.34741E-05
        -0.29075E-06
        -0.91690E-06
        -0.17161E-05
        -0.61049E-04
        -0.27832E-04
        -0.17966E-05
        -0.12052E-04
        -0.90069E-05
        -0.17009E-05
        -0.18730E-04
        -0.67494E-04
        -0.39623E-03
        -0.31138E-03
        -0.23827E-03
        -0.12800E-03
        -0.71765E-05
        -0.32982E-04
        -0.51868E-04
        -0.85027E-04
        -0.35299E-03
        -0.11979E-03
        -0.51835E-04
        -0.80840E-04
        -0.11244E-03
        -0.12245E-03
        -0.53556E-06
        -0.18867E-03
        -0.39223E-03
        -0.21283E-02
        -0.35446E-02
        -0.58921E-02
        -0.84543E-02
        -0.81009E-02
        -0.61907E-02
        -0.56943E-02
        -0.55674E-02
        -0.21991E-02
        -0.24206E-03
        -0.38084E-04
        -0.28843E-04
        -0.52269E-05
        -0.43536E-03
        -0.17463E-02
        -0.33663E-02
        -0.56746E-02
        -0.69723E-02
        -0.53771E-02
        -0.48085E-02
        -0.47624E-02
        -0.23438E-02
        -0.62863E-03
        -0.56159E-03
        -0.16833E-03
        -0.66356E-04
        -0.57255E-04
        -0.36428E-05
        -0.95944E-04
        -0.19646E-04
        -0.12399E-04
        -0.15297E-03
        -0.66135E-04
        -0.14007E-03
        -0.37282E-04
        -0.68837E-03
        -0.24318E-03
        -0.50331E-05
        -0.68458E-03
        -0.24016E-04
        -0.26005E-05
        -0.19502E-05
        -0.41297E-04
        -0.13569E-05
        -0.31686E-04
        -0.15479E-04
        -0.52346E-05
        -0.35748E-05
        -0.64235E-04
        -0.34483E-05
        -0.30068E-06
        -0.93642E-06
        -0.16729E-05
        -0.61231E-04
        -0.27826E-04
        -0.17751E-05
        -0.12107E-04
        -0.90396E-05
        -0.16655E-05
        -0.18761E-04
        -0.67504E-04
        -0.39750E-03
        -0.31279E-03
        -0.23892E-03
        -0.12829E-03
        -0.71027E-05
        -0.33015E-04
        -0.52018E-04
        -0.85143E-04
        -0.35315E-03
        -0.11990E-03
        -0.51832E-04
        -0.80684E-04
        -0.11215E-03
        -0.12235E-03
        -0.51705E-06
        -0.18831E-03
        -0.39227E-03
        -0.21290E-02
        -0.35447E-02
        -0.58907E-02
        -0.84485E-02
        -0.80939E-02
        -0.61869E-02
        -0.56919E-02
        -0.55642E-02
        -0.21984E-02
        -0.24241E-03
        -0.38096E-04
        -0.28959E-04
        -0.51351E-05
        -0.43593E-03
        -0.17485E-02
        -0.33683E-02
        -0.56742E-02
        -0.69713E-02
        -0.53766E-02
        -0.48083E-02
        -0.47599E-02
        -0.23405E-02
        -0.62726E-03
        -0.56010E-03
        -0.16850E-03
        -0.66345E-04
        -0.57310E-04
        -0.36958E-05
        -0.95968E-04
        -0.19677E-04
        -0.12417E-04
        -0.15338E-03
        -0.66380E-04
        -0.14096E-03
        -0.37348E-04
        -0.68830E-03
        -0.24334E-03
        -0.50429E-05
        -0.68635E-03
        -0.24026E-04
        -0.26494E-05
        -0.19440E-05
        -0.41360E-04
        -0.13380E-05
        -0.31847E-04
        -0.15501E-04
        -0.52503E-05
        -0.35645E-05
        -0.64720E-04
        -0.34226E-05
        -0.31094E-06
        -0.95585E-06
        -0.16303E-05
        -0.61414E-04
        -0.27820E-04
        -0.17539E-05
        -0.12163E-04
        -0.90725E-05
        -0.16303E-05
        -0.18791E-04
        -0.67515E-04
        -0.39877E-03
        -0.31421E-03
        -0.23956E-03
        -0.12857E-03
        -0.70292E-05
        -0.33047E-04
        -0.52167E-04
        -0.85259E-04
        -0.35331E-03
        -0.12001E-03
        -0.51824E-04
        -0.80531E-04
        -0.11187E-03
        -0.12225E-03
        -0.49881E-06
        -0.18795E-03
        -0.39230E-03
        -0.21297E-02
        -0.35447E-02
        -0.58893E-02
        -0.84427E-02
        -0.80869E-02
        -0.61831E-02
        -0.56896E-02
        -0.55610E-02
        -0.21977E-02
        -0.24276E-03
        -0.38108E-04
        -0.29074E-04
        -0.50436E-05
        -0.43650E-03
        -0.17507E-02
        -0.33703E-02
        -0.56739E-02
        -0.69704E-02
        -0.53761E-02
        -0.48081E-02
        -0.47573E-02
        -0.23371E-02
        -0.62590E-03
        -0.55861E-03
        -0.16866E-03
        -0.66335E-04
        -0.57364E-04
        -0.37497E-05
        -0.95992E-04
        -0.19709E-04
        -0.12434E-04
        -0.15379E-03
        -0.66627E-04
        -0.14185E-03
        -0.37415E-04
        -0.68823E-03
        -0.24350E-03
        -0.50526E-05
        -0.68810E-03
        -0.24035E-04
        -0.26989E-05
        -0.19377E-05
        -0.41423E-04
        -0.13193E-05
        -0.32009E-04
        -0.15523E-04
        -0.52659E-05
        -0.35544E-05
        -0.65206E-04
        -0.33972E-05
        -0.32115E-06
        -0.97538E-06
        -0.15881E-05
        -0.61595E-04
        -0.27813E-04
        -0.17327E-05
        -0.12218E-04
        -0.91058E-05
        -0.15952E-05
        -0.18821E-04
        -0.67522E-04
        -0.40005E-03
        -0.31563E-03
        -0.24021E-03
        -0.12886E-03
        -0.69569E-05
        -0.33078E-04
        -0.52317E-04
        -0.85376E-04
        -0.35347E-03
        -0.12012E-03
        -0.51822E-04
        -0.80378E-04
        -0.11159E-03
        -0.12215E-03
        -0.48092E-06
        -0.18759E-03
        -0.39234E-03
        -0.21304E-02
        -0.35448E-02
        -0.58879E-02
        -0.84369E-02
        -0.80799E-02
        -0.61794E-02
        -0.56873E-02
        -0.55578E-02
        -0.21969E-02
        -0.24312E-03
        -0.38120E-04
        -0.29189E-04
        -0.49527E-05
        -0.43706E-03
        -0.17529E-02
        -0.33723E-02
        -0.56736E-02
        -0.69695E-02
        -0.53756E-02
        -0.48079E-02
        -0.47548E-02
        -0.23338E-02
        -0.62454E-03
        -0.55713E-03
        -0.16883E-03
        -0.66325E-04
        -0.57419E-04
        -0.38042E-05
        -0.96017E-04
        -0.19740E-04
        -0.12451E-04
        -0.15420E-03
        -0.66874E-04
        -0.14274E-03
        -0.37482E-04
        -0.68816E-03
        -0.24367E-03
        -0.50611E-05
        -0.68987E-03
        -0.24044E-04
        -0.27488E-05
        -0.19313E-05
        -0.41486E-04
        -0.13009E-05
        -0.32171E-04
        -0.15545E-04
        -0.52812E-05
        -0.35442E-05
        -0.65693E-04
        -0.33715E-05
        -0.33182E-06
        -0.99489E-06
        -0.15467E-05
        -0.61776E-04
        -0.27806E-04
        -0.17115E-05
        -0.12274E-04
        -0.91386E-05
        -0.15606E-05
        -0.18852E-04
        -0.67532E-04
        -0.40132E-03
        -0.31706E-03
        -0.24085E-03
        -0.12915E-03
        -0.68842E-05
        -0.33110E-04
        -0.52469E-04
        -0.85496E-04
        -0.35362E-03
        -0.12023E-03
        -0.51816E-04
        -0.80226E-04
        -0.11131E-03
        -0.12205E-03
        -0.46340E-06
        -0.18723E-03
        -0.39238E-03
        -0.21312E-02
        -0.35448E-02
        -0.58864E-02
        -0.84311E-02
        -0.80729E-02
        -0.61756E-02
        -0.56849E-02
        -0.55545E-02
        -0.21962E-02
        -0.24347E-03
        -0.38131E-04
        -0.29305E-04
        -0.48629E-05
        -0.43763E-03
        -0.17551E-02
        -0.33744E-02
        -0.56733E-02
        -0.69686E-02
        -0.53751E-02
        -0.48077E-02
        -0.47522E-02
        -0.23304E-02
        -0.62318E-03
        -0.55564E-03
        -0.16900E-03
        -0.66316E-04
        -0.57474E-04
        -0.38589E-05
        -0.96042E-04
        -0.19771E-04
        -0.12470E-04
        -0.15461E-03
        -0.67122E-04
        -0.14363E-03
        -0.37549E-04
        -0.68809E-03
        -0.24383E-03
        -0.50709E-05
        -0.69163E-03
        -0.24053E-04
        -0.27994E-05
        -0.19250E-05
        -0.41549E-04
        -0.12826E-05
        -0.32333E-04
        -0.15567E-04
        -0.52967E-05
        -0.35342E-05
        -0.66183E-04
        -0.33460E-05
        -0.34238E-06
        -0.10143E-05
        -0.15060E-05
        -0.61958E-04
        -0.27799E-04
        -0.16906E-05
        -0.12330E-04
        -0.91720E-05
        -0.15261E-05
        -0.18882E-04
        -0.67539E-04
        -0.40262E-03
        -0.31849E-03
        -0.24149E-03
        -0.12944E-03
        -0.68119E-05
        -0.33142E-04
        -0.52620E-04
        -0.85614E-04
        -0.35378E-03
        -0.12034E-03
        -0.51810E-04
        -0.80071E-04
        -0.11103E-03
        -0.12196E-03
        -0.44631E-06
        -0.18687E-03
        -0.39241E-03
        -0.21319E-02
        -0.35449E-02
        -0.58850E-02
        -0.84253E-02
        -0.80659E-02
        -0.61718E-02
        -0.56826E-02
        -0.55512E-02
        -0.21955E-02
        -0.24382E-03
        -0.38143E-04
        -0.29422E-04
        -0.47742E-05
        -0.43819E-03
        -0.17574E-02
        -0.33764E-02
        -0.56730E-02
        -0.69677E-02
        -0.53746E-02
        -0.48074E-02
        -0.47497E-02
        -0.23270E-02
        -0.62183E-03
        -0.55416E-03
        -0.16917E-03
        -0.66307E-04
        -0.57528E-04
        -0.39139E-05
        -0.96066E-04
        -0.19802E-04
        -0.12487E-04
        -0.15502E-03
        -0.67371E-04
        -0.14453E-03
        -0.37616E-04
        -0.68803E-03
        -0.24399E-03
        -0.50791E-05
        -0.69341E-03
        -0.24063E-04
        -0.28507E-05
        -0.19188E-05
        -0.41612E-04
        -0.12643E-05
        -0.32497E-04
        -0.15589E-04
        -0.53119E-05
        -0.35244E-05
        -0.66675E-04
        -0.33207E-05
        -0.35329E-06
        -0.10336E-05
        -0.14659E-05
        -0.62140E-04
        -0.27793E-04
        -0.16697E-05
        -0.12385E-04
        -0.92053E-05
        -0.14921E-05
        -0.18913E-04
        -0.67548E-04
        -0.40391E-03
        -0.31992E-03
        -0.24214E-03
        -0.12973E-03
        -0.67402E-05
        -0.33174E-04
        -0.52770E-04
        -0.85732E-04
        -0.35395E-03
        -0.12045E-03
        -0.51808E-04
        -0.79918E-04
        -0.11075E-03
        -0.12186E-03
        -0.42943E-06
        -0.18651E-03
        -0.39244E-03
        -0.21326E-02
        -0.35450E-02
        -0.58836E-02
        -0.84195E-02
        -0.80589E-02
        -0.61679E-02
        -0.56802E-02
        -0.55480E-02
        -0.21948E-02
        -0.24417E-03
        -0.38154E-04
        -0.29538E-04
        -0.46861E-05
        -0.43876E-03
        -0.17596E-02
        -0.33784E-02
        -0.56727E-02
        -0.69668E-02
        -0.53741E-02
        -0.48072E-02
        -0.47471E-02
        -0.23237E-02
        -0.62049E-03
        -0.55267E-03
        -0.16934E-03
        -0.66294E-04
        -0.57582E-04
        -0.39692E-05
        -0.96089E-04
        -0.19833E-04
        -0.12504E-04
        -0.15543E-03
        -0.67621E-04
        -0.14542E-03
        -0.37683E-04
        -0.68796E-03
        -0.24416E-03
        -0.50886E-05
        -0.69517E-03
        -0.24072E-04
        -0.29027E-05
        -0.19125E-05
        -0.41675E-04
        -0.12462E-05
        -0.32660E-04
        -0.15609E-04
        -0.53272E-05
        -0.35146E-05
        -0.67167E-04
        -0.32953E-05
        -0.36408E-06
        -0.10529E-05
        -0.14266E-05
        -0.62323E-04
        -0.27786E-04
        -0.16490E-05
        -0.12441E-04
        -0.92391E-05
        -0.14582E-05
        -0.18943E-04
        -0.67557E-04
        -0.40521E-03
        -0.32136E-03
        -0.24277E-03
        -0.13001E-03
        -0.66690E-05
        -0.33207E-04
        -0.52918E-04
        -0.85852E-04
        -0.35410E-03
        -0.12056E-03
        -0.51802E-04
        -0.79767E-04
        -0.11047E-03
        -0.12176E-03
        -0.41287E-06
        -0.18615E-03
        -0.39247E-03
        -0.21333E-02
        -0.35450E-02
        -0.58822E-02
        -0.84137E-02
        -0.80518E-02
        -0.61641E-02
        -0.56779E-02
        -0.55447E-02
        -0.21941E-02
        -0.24452E-03
        -0.38165E-04
        -0.29653E-04
        -0.45988E-05
        -0.43932E-03
        -0.17618E-02
        -0.33804E-02
        -0.56724E-02
        -0.69659E-02
        -0.53736E-02
        -0.48070E-02
        -0.47446E-02
        -0.23204E-02
        -0.61915E-03
        -0.55119E-03
        -0.16950E-03
        -0.66283E-04
        -0.57637E-04
        -0.40251E-05
        -0.96115E-04
        -0.19864E-04
        -0.12523E-04
        -0.15583E-03
        -0.67873E-04
        -0.14632E-03
        -0.37751E-04
        -0.68789E-03
        -0.24432E-03
        -0.50965E-05
        -0.69695E-03
        -0.24081E-04
        -0.29555E-05
        -0.19060E-05
        -0.41738E-04
        -0.12284E-05
        -0.32824E-04
        -0.15629E-04
        -0.53426E-05
        -0.35049E-05
        -0.67661E-04
        -0.32700E-05
        -0.37533E-06
        -0.10720E-05
        -0.13877E-05
        -0.62501E-04
        -0.27779E-04
        -0.16284E-05
        -0.12497E-04
        -0.92727E-05
        -0.14246E-05
        -0.18973E-04
        -0.67564E-04
        -0.40652E-03
        -0.32279E-03
        -0.24341E-03
        -0.13030E-03
        -0.65988E-05
        -0.33240E-04
        -0.53071E-04
        -0.85971E-04
        -0.35427E-03
        -0.12068E-03
        -0.51799E-04
        -0.79616E-04
        -0.11019E-03
        -0.12166E-03
        -0.39677E-06
        -0.18579E-03
        -0.39251E-03
        -0.21340E-02
        -0.35451E-02
        -0.58808E-02
        -0.84078E-02
        -0.80447E-02
        -0.61603E-02
        -0.56756E-02
        -0.55413E-02
        -0.21934E-02
        -0.24488E-03
        -0.38173E-04
        -0.29768E-04
        -0.45127E-05
        -0.43987E-03
        -0.17641E-02
        -0.33824E-02
        -0.56721E-02
        -0.69649E-02
        -0.53731E-02
        -0.48068E-02
        -0.47420E-02
        -0.23170E-02
        -0.61782E-03
        -0.54972E-03
        -0.16967E-03
        -0.66273E-04
        -0.57692E-04
        -0.40817E-05
        -0.96139E-04
        -0.19895E-04
        -0.12540E-04
        -0.15624E-03
        -0.68126E-04
        -0.14722E-03
        -0.37818E-04
        -0.68782E-03
        -0.24448E-03
        -0.51056E-05
        -0.69872E-03
        -0.24090E-04
        -0.30093E-05
        -0.18996E-05
        -0.41801E-04
        -0.12116E-05
        -0.32987E-04
        -0.15649E-04
        -0.53582E-05
        -0.34950E-05
        -0.68158E-04
        -0.32450E-05
        -0.38664E-06
        -0.10913E-05
        -0.13495E-05
        -0.62668E-04
        -0.27772E-04
        -0.16076E-05
        -0.12552E-04
        -0.93066E-05
        -0.13914E-05
        -0.19005E-04
        -0.67574E-04
        -0.40784E-03
        -0.32423E-03
        -0.24401E-03
        -0.13058E-03
        -0.65281E-05
        -0.33275E-04
        -0.53222E-04
        -0.86091E-04
        -0.35443E-03
        -0.12078E-03
        -0.51794E-04
        -0.79461E-04
        -0.10991E-03
        -0.12157E-03
        -0.38097E-06
        -0.18544E-03
        -0.39254E-03
        -0.21347E-02
        -0.35451E-02
        -0.58793E-02
        -0.84020E-02
        -0.80376E-02
        -0.61565E-02
        -0.56732E-02
        -0.55377E-02
        -0.21927E-02
        -0.24524E-03
        -0.38176E-04
        -0.29883E-04
        -0.44275E-05
        -0.44043E-03
        -0.17663E-02
        -0.33845E-02
        -0.56718E-02
        -0.69640E-02
        -0.53726E-02
        -0.48066E-02
        -0.47394E-02
        -0.23137E-02
        -0.61650E-03
        -0.54824E-03
        -0.16983E-03
        -0.66264E-04
        -0.57746E-04
        -0.41385E-05
        -0.96162E-04
        -0.19925E-04
        -0.12557E-04
        -0.15664E-03
        -0.68383E-04
        -0.14812E-03
        -0.37885E-04
        -0.68776E-03
        -0.24465E-03
        -0.51147E-05
        -0.70050E-03
        -0.24099E-04
        -0.30645E-05
        -0.18932E-05
        -0.41864E-04
        -0.11956E-05
        -0.33152E-04
        -0.15668E-04
        -0.53736E-05
        -0.34854E-05
        -0.68656E-04
        -0.32199E-05
        -0.39861E-06
        -0.11105E-05
        -0.13119E-05
        -0.62826E-04
        -0.27764E-04
        -0.15872E-05
        -0.12608E-04
        -0.93403E-05
        -0.13584E-05
        -0.19035E-04
        -0.67582E-04
        -0.40919E-03
        -0.32566E-03
        -0.24460E-03
        -0.13086E-03
        -0.64580E-05
        -0.33311E-04
        -0.53373E-04
        -0.86213E-04
        -0.35460E-03
        -0.12090E-03
        -0.51789E-04
        -0.79311E-04
        -0.10963E-03
        -0.12146E-03
        -0.36538E-06
        -0.18508E-03
        -0.39257E-03
        -0.21354E-02
        -0.35451E-02
        -0.58779E-02
        -0.83962E-02
        -0.80305E-02
        -0.61528E-02
        -0.56708E-02
        -0.55340E-02
        -0.21922E-02
        -0.24561E-03
        -0.38174E-04
        -0.29999E-04
        -0.43427E-05
        -0.44099E-03
        -0.17685E-02
        -0.33865E-02
        -0.56715E-02
        -0.69631E-02
        -0.53721E-02
        -0.48063E-02
        -0.47369E-02
        -0.23103E-02
        -0.61519E-03
        -0.54676E-03
        -0.17000E-03
        -0.66254E-04
        -0.57804E-04
        -0.41955E-05
        -0.96191E-04
        -0.19957E-04
        -0.12577E-04
        -0.15704E-03
        -0.68642E-04
        -0.14903E-03
        -0.37952E-04
        -0.68770E-03
        -0.24481E-03
        -0.51225E-05
        -0.70228E-03
        -0.24109E-04
        -0.31204E-05
        -0.18868E-05
        -0.41929E-04
        -0.11801E-05
        -0.33317E-04
        -0.15687E-04
        -0.53881E-05
        -0.34765E-05
        -0.69156E-04
        -0.31957E-05
        -0.41046E-06
        -0.11290E-05
        -0.12753E-05
        -0.62981E-04
        -0.27758E-04
        -0.15674E-05
        -0.12664E-04
        -0.93749E-05
        -0.13261E-05
        -0.19064E-04
        -0.67586E-04
        -0.41053E-03
        -0.32709E-03
        -0.24516E-03
        -0.13114E-03
        -0.63896E-05
        -0.33350E-04
        -0.53521E-04
        -0.86328E-04
        -0.35476E-03
        -0.12101E-03
        -0.51785E-04
        -0.79161E-04
        -0.10936E-03
        -0.12137E-03
        -0.35023E-06
        -0.18471E-03
        -0.39261E-03
        -0.21360E-02
        -0.35452E-02
        -0.58765E-02
        -0.83904E-02
        -0.80235E-02
        -0.61490E-02
        -0.56684E-02
        -0.55303E-02
        -0.21917E-02
        -0.24596E-03
        -0.38166E-04
        -0.30114E-04
        -0.42587E-05
        -0.44155E-03
        -0.17707E-02
        -0.33885E-02
        -0.56713E-02
        -0.69622E-02
        -0.53716E-02
        -0.48061E-02
        -0.47343E-02
        -0.23070E-02
        -0.61389E-03
        -0.54530E-03
        -0.17185E-03
        -0.66930E-04
        -0.58460E-04
        -0.42925E-05
        -0.97211E-04
        -0.20187E-04
        -0.12728E-04
        -0.15901E-03
        -0.69565E-04
        -0.15139E-03
        -0.38410E-04
        -0.69484E-03
        -0.24745E-03
        -0.51839E-05
        -0.71155E-03
        -0.24360E-04
        -0.32052E-05
        -0.18988E-05
        -0.42410E-04
        -0.11782E-05
        -0.33803E-04
        -0.15863E-04
        -0.54468E-05
        -0.35068E-05
        -0.70346E-04
        -0.32110E-05
        -0.42584E-06
        -0.11552E-05
        -0.12591E-05
        -0.63799E-04
        -0.28036E-04
        -0.15690E-05
        -0.12842E-04
        -0.95017E-05
        -0.13107E-05
        -0.19271E-04
        -0.68245E-04
        -0.41615E-03
        -0.33190E-03
        -0.24829E-03
        -0.13277E-03
        -0.64038E-05
        -0.33745E-04
        -0.54138E-04
        -0.87240E-04
        -0.35839E-03
        -0.12226E-03
        -0.52258E-04
        -0.79781E-04
        -0.11018E-03
        -0.12251E-03
        -0.33896E-06
        -0.18655E-03
        -0.39744E-03
        -0.21625E-02
        -0.35873E-02
        -0.59465E-02
        -0.84903E-02
        -0.81190E-02
        -0.62238E-02
        -0.57387E-02
        -0.55988E-02
        -0.22191E-02
        -0.24920E-03
        -0.38572E-04
        -0.30549E-04
        -0.42253E-05
        -0.44678E-03
        -0.17919E-02
        -0.34293E-02
        -0.57402E-02
        -0.70464E-02
        -0.54332E-02
        -0.48601E-02
        -0.47864E-02
        -0.23305E-02
        -0.61968E-03
        -0.55014E-03
        -0.38902E-03
        -0.15288E-03
        -0.13201E-03
        -0.98455E-05
        -0.20497E-03
        -0.43366E-04
        -0.29008E-04
        -0.35777E-03
        -0.15692E-03
        -0.33930E-03
        -0.84733E-04
        -0.14177E-02
        -0.51911E-03
        -0.11350E-04
        -0.14701E-02
        -0.55217E-04
        -0.73218E-05
        -0.42929E-05
        -0.93789E-04
        -0.26069E-05
        -0.70916E-04
        -0.34070E-04
        -0.11430E-04
        -0.78643E-05
        -0.16087E-03
        -0.73127E-05
        -0.96367E-06
        -0.26486E-05
        -0.28592E-05
        -0.14546E-03
        -0.63571E-04
        -0.35366E-05
        -0.29308E-04
        -0.21641E-04
        -0.25948E-05
        -0.41317E-04
        -0.14633E-03
        -0.89767E-03
        -0.73635E-03
        -0.55444E-03
        -0.28850E-03
        -0.14048E-04
        -0.74218E-04
        -0.11536E-03
        -0.18476E-03
        -0.71803E-03
        -0.25739E-03
        -0.11253E-03
        -0.17345E-03
        -0.23756E-03
        -0.25223E-03
        -0.70105E-06
        -0.30166E-03
        -0.64149E-03
        -0.34937E-02
        -0.58218E-02
        -0.96465E-02
        -0.13866E-01
        -0.13565E-01
        -0.10575E-01
        -0.97173E-02
        -0.93769E-02
        -0.37215E-02
        -0.41555E-03
        -0.65423E-04
        -0.52216E-04
        -0.69332E-05
        -0.72626E-03
        -0.28965E-02
        -0.54962E-02
        -0.92086E-02
        -0.11332E-01
        -0.88960E-02
        -0.80202E-02
        -0.78494E-02
        -0.38458E-02
        -0.10154E-02
        -0.89460E-03
  
SCALARS                      strain_zz  double 1
LOOKUP_TABLE default
         0.15712E+02
         0.15508E+02
         0.15633E+02
         0.15870E+02
        -0.37948E-08
        -0.42552E-08
        -0.40745E-08
        -0.37016E-08
         0.15463E+02
         0.15553E+02
        -0.38265E-08
        -0.37031E-08
         0.15210E+02
         0.15201E+02
        -0.45467E-08
        -0.42751E-08
         0.15836E+02
         0.15213E+02
        -0.33595E-08
        -0.37263E-08
         0.14987E+02
         0.14795E+02
         0.15074E+02
        -0.45063E-08
        -0.39354E-08
        -0.40638E-08
         0.14814E+02
         0.14545E+02
        -0.43232E-08
        -0.36458E-08
         0.15824E+02
         0.15554E+02
         0.16085E+02
        -0.36892E-08
        -0.34297E-08
        -0.33345E-08
         0.15664E+02
         0.15323E+02
        -0.39030E-08
        -0.35615E-08
         0.15522E+02
         0.15251E+02
        -0.33733E-08
        -0.29863E-08
         0.15744E+02
         0.15853E+02
        -0.36967E-08
        -0.41305E-08
         0.15054E+02
        -0.36113E-08
         0.15832E+02
        -0.42435E-08
         0.14745E+02
        -0.38137E-08
         0.14664E+02
        -0.36581E-08
         0.14655E+02
         0.14954E+02
        -0.37272E-08
        -0.36299E-08
         0.15819E+02
         0.15706E+02
        -0.37374E-08
        -0.42251E-08
         0.15884E+02
        -0.36064E-08
         0.15755E+02
        -0.39359E-08
         0.15366E+02
         0.15372E+02
        -0.37887E-08
        -0.39699E-08
         0.15311E+02
        -0.40032E-08
         0.14449E+02
        -0.31628E-08
         0.14398E+02
        -0.30700E-08
         0.14407E+02
        -0.32370E-08
         0.14494E+02
         0.14659E+02
        -0.30841E-08
        -0.32154E-08
         0.14943E+02
        -0.29947E-08
         0.15730E+02
        -0.39271E-08
         0.15586E+02
        -0.40193E-08
         0.15443E+02
         0.15438E+02
        -0.38599E-08
        -0.39049E-08
         0.15527E+02
        -0.35468E-08
         0.15576E+02
        -0.34962E-08
         0.15518E+02
        -0.37427E-08
         0.15464E+02
         0.15537E+02
        -0.36703E-08
        -0.37779E-08
         0.15060E+02
         0.15132E+02
        -0.28496E-08
        -0.26802E-08
         0.14983E+02
        -0.27210E-08
         0.15067E+02
        -0.26090E-08
         0.14953E+02
        -0.25726E-08
         0.14640E+02
        -0.24312E-08
         0.14308E+02
        -0.21598E-08
         0.14132E+02
        -0.19448E-08
         0.14116E+02
        -0.19313E-08
         0.14128E+02
        -0.20944E-08
         0.14329E+02
        -0.22011E-08
         0.14622E+02
        -0.20099E-08
         0.14976E+02
        -0.18117E-08
         0.15237E+02
        -0.18096E-08
         0.15485E+02
        -0.20227E-08
         0.15643E+02
        -0.23063E-08
         0.15612E+02
        -0.24777E-08
         0.15326E+02
        -0.26759E-08
         0.15146E+02
        -0.28668E-08
         0.14979E+02
        -0.26262E-08
         0.15063E+02
        -0.23039E-08
         0.15160E+02
        -0.22968E-08
         0.15117E+02
        -0.25130E-08
         0.15173E+02
        -0.26790E-08
         0.15207E+02
        -0.25424E-08
         0.15261E+02
        -0.24579E-08
        -0.46765E+00
        -0.46125E+00
        -0.46215E+00
        -0.47025E+00
        -0.45449E+00
        -0.46287E+00
        -0.45242E+00
        -0.45803E+00
        -0.46903E+00
        -0.46236E+00
        -0.44604E+00
        -0.44393E+00
        -0.44926E+00
        -0.44969E+00
        -0.44620E+00
        -0.46989E+00
        -0.46844E+00
        -0.47242E+00
        -0.46052E+00
        -0.46284E+00
        -0.45944E+00
        -0.46165E+00
        -0.45752E+00
        -0.45867E+00
        -0.46264E+00
        -0.46237E+00
        -0.45545E+00
        -0.45610E+00
        -0.45065E+00
        -0.45877E+00
        -0.46918E+00
        -0.46116E+00
        -0.46913E+00
        -0.46396E+00
        -0.44252E+00
        -0.44990E+00
        -0.45322E+00
        -0.44926E+00
        -0.44876E+00
        -0.44201E+00
        -0.43680E+00
        -0.44904E+00
        -0.45956E+00
        -0.45823E+00
        -0.45289E+00
        -0.44279E+00
        -0.45149E+00
        -0.46004E+00
        -0.45948E+00
        -0.45288E+00
        -0.44564E+00
        -0.45527E+00
        -0.42293E+00
        -0.43288E+00
        -0.43120E+00
        -0.43342E+00
        -0.43273E+00
        -0.42727E+00
        -0.42167E+00
        -0.41996E+00
        -0.42081E+00
        -0.42017E+00
        -0.41774E+00
        -0.43232E+00
        -0.43768E+00
        -0.43969E+00
        -0.44284E+00
        -0.44516E+00
        -0.44498E+00
        -0.44081E+00
        -0.42627E+00
        -0.42980E+00
        -0.43496E+00
        -0.43499E+00
        -0.43410E+00
        -0.42926E+00
        -0.43636E+00
        -0.43888E+00
         0.20950E-03
         0.77738E-04
         0.73820E-04
         0.54001E-04
         0.21738E-03
         0.12430E-03
         0.12032E-04
         0.16573E-03
         0.10142E-03
         0.14375E-03
         0.13893E-04
         0.70407E-03
         0.41296E-03
         0.50605E-04
         0.75635E-03
         0.10616E-03
         0.41831E-04
         0.32024E-04
         0.45299E-04
         0.16401E-04
         0.43252E-03
         0.39220E-03
         0.35185E-03
         0.19811E-04
         0.45459E-04
         0.44888E-05
         0.20511E-04
        -0.53863E-04
        -0.16554E-04
         0.60290E-04
         0.78754E-04
         0.19740E-04
         0.51987E-04
         0.56347E-04
         0.33611E-03
         0.12151E-03
         0.20742E-03
         0.49447E-03
         0.28800E-03
         0.25534E-03
         0.53297E-03
         0.43182E-03
         0.44032E-03
         0.25488E-03
         0.20311E-03
         0.38954E-03
         0.17169E-03
         0.12860E-03
         0.96222E-04
         0.13680E-03
         0.33088E-03
         0.17503E-03
         0.59815E-02
         0.63113E-02
         0.68696E-02
         0.68006E-02
         0.77492E-02
         0.89428E-02
         0.82285E-02
         0.65223E-02
         0.61867E-02
         0.70629E-02
         0.67799E-02
         0.65912E-02
         0.44976E-02
         0.40807E-02
         0.48935E-02
         0.55959E-02
         0.60313E-02
         0.71976E-02
         0.66653E-02
         0.70579E-02
         0.57261E-02
         0.51543E-02
         0.58476E-02
         0.55880E-02
         0.59346E-02
         0.58508E-02
         0.20844E-03
         0.76381E-04
         0.72517E-04
         0.52850E-04
         0.21561E-03
         0.12270E-03
         0.10630E-04
         0.16454E-03
         0.10024E-03
         0.14301E-03
         0.12189E-04
         0.70203E-03
         0.41153E-03
         0.48442E-04
         0.75597E-03
         0.10487E-03
         0.40380E-04
         0.30747E-04
         0.43727E-04
         0.14644E-04
         0.43086E-03
         0.39046E-03
         0.35002E-03
         0.18154E-04
         0.44189E-04
         0.29079E-05
         0.18939E-04
        -0.55622E-04
        -0.18264E-04
         0.58665E-04
         0.77488E-04
         0.18233E-04
         0.50617E-04
         0.55133E-04
         0.33463E-03
         0.11988E-03
         0.20576E-03
         0.49406E-03
         0.28747E-03
         0.25421E-03
         0.53169E-03
         0.43034E-03
         0.43858E-03
         0.25313E-03
         0.20138E-03
         0.38771E-03
         0.17003E-03
         0.12701E-03
         0.94541E-04
         0.13504E-03
         0.32889E-03
         0.17306E-03
         0.59740E-02
         0.63053E-02
         0.68665E-02
         0.67978E-02
         0.77437E-02
         0.89335E-02
         0.82183E-02
         0.65155E-02
         0.61801E-02
         0.70551E-02
         0.67741E-02
         0.65884E-02
         0.44940E-02
         0.40778E-02
         0.48920E-02
         0.55957E-02
         0.60315E-02
         0.71977E-02
         0.66615E-02
         0.70539E-02
         0.57219E-02
         0.51509E-02
         0.58409E-02
         0.55779E-02
         0.59251E-02
         0.58417E-02
         0.20904E-03
         0.76686E-04
         0.72877E-04
         0.53263E-04
         0.21585E-03
         0.12300E-03
         0.11056E-04
         0.16523E-03
         0.10072E-03
         0.14401E-03
         0.12534E-04
         0.70237E-03
         0.41218E-03
         0.48386E-04
         0.75804E-03
         0.10473E-03
         0.40440E-04
         0.31025E-04
         0.43380E-04
         0.14265E-04
         0.43066E-03
         0.39030E-03
         0.34881E-03
         0.16958E-04
         0.43967E-04
         0.17986E-05
         0.19320E-04
        -0.55894E-04
        -0.18882E-04
         0.57603E-04
         0.77629E-04
         0.17881E-04
         0.50857E-04
         0.55587E-04
         0.33539E-03
         0.12021E-03
         0.20601E-03
         0.49601E-03
         0.28915E-03
         0.25504E-03
         0.53236E-03
         0.43009E-03
         0.43771E-03
         0.25199E-03
         0.20103E-03
         0.38793E-03
         0.17033E-03
         0.12735E-03
         0.94702E-04
         0.13517E-03
         0.32902E-03
         0.17305E-03
         0.59706E-02
         0.63031E-02
         0.68674E-02
         0.67986E-02
         0.77417E-02
         0.89280E-02
         0.82122E-02
         0.65128E-02
         0.61777E-02
         0.70516E-02
         0.67723E-02
         0.65889E-02
         0.44933E-02
         0.40779E-02
         0.48935E-02
         0.55980E-02
         0.60341E-02
         0.72010E-02
         0.66616E-02
         0.70540E-02
         0.57215E-02
         0.51511E-02
         0.58378E-02
         0.55714E-02
         0.59191E-02
         0.58362E-02
         0.20913E-03
         0.76599E-04
         0.72831E-04
         0.53151E-04
         0.21551E-03
         0.12276E-03
         0.11041E-04
         0.16538E-03
         0.10056E-03
         0.14420E-03
         0.12358E-04
         0.70213E-03
         0.41238E-03
         0.47717E-04
         0.75941E-03
         0.10376E-03
         0.39652E-04
         0.30753E-04
         0.42018E-04
         0.12776E-04
         0.42946E-03
         0.38910E-03
         0.34609E-03
         0.14282E-04
         0.42341E-04
        -0.72565E-06
         0.18926E-04
        -0.57318E-04
        -0.21017E-04
         0.54663E-04
         0.77093E-04
         0.16524E-04
         0.50560E-04
         0.55425E-04
         0.33545E-03
         0.11999E-03
         0.20579E-03
         0.49725E-03
         0.29008E-03
         0.25497E-03
         0.53201E-03
         0.42838E-03
         0.43517E-03
         0.24932E-03
         0.19962E-03
         0.38720E-03
         0.16983E-03
         0.12704E-03
         0.94222E-04
         0.13457E-03
         0.32842E-03
         0.17243E-03
         0.59658E-02
         0.62998E-02
         0.68669E-02
         0.67983E-02
         0.77389E-02
         0.89217E-02
         0.82049E-02
         0.65087E-02
         0.61740E-02
         0.70467E-02
         0.67690E-02
         0.65878E-02
         0.44910E-02
         0.40769E-02
         0.48940E-02
         0.55988E-02
         0.60351E-02
         0.72031E-02
         0.66603E-02
         0.70527E-02
         0.57198E-02
         0.51500E-02
         0.58333E-02
         0.55637E-02
         0.59122E-02
         0.58298E-02
         0.20907E-03
         0.76391E-04
         0.72700E-04
         0.53032E-04
         0.21517E-03
         0.12248E-03
         0.10954E-04
         0.16538E-03
         0.10031E-03
         0.14435E-03
         0.12173E-04
         0.70196E-03
         0.41254E-03
         0.47028E-04
         0.76090E-03
         0.10316E-03
         0.39066E-04
         0.30497E-04
         0.41142E-04
         0.11685E-04
         0.42875E-03
         0.38824E-03
         0.34446E-03
         0.12619E-04
         0.41316E-04
        -0.23464E-05
         0.18583E-04
        -0.58349E-04
        -0.22461E-04
         0.52765E-04
         0.76532E-04
         0.15538E-04
         0.50075E-04
         0.55182E-04
         0.33551E-03
         0.11972E-03
         0.20551E-03
         0.49859E-03
         0.29112E-03
         0.25514E-03
         0.53204E-03
         0.42741E-03
         0.43361E-03
         0.24769E-03
         0.19871E-03
         0.38676E-03
         0.16939E-03
         0.12657E-03
         0.93564E-04
         0.13385E-03
         0.32770E-03
         0.17171E-03
         0.59611E-02
         0.62965E-02
         0.68664E-02
         0.67981E-02
         0.77362E-02
         0.89156E-02
         0.81978E-02
         0.65049E-02
         0.61705E-02
         0.70420E-02
         0.67661E-02
         0.65874E-02
         0.44895E-02
         0.40761E-02
         0.48948E-02
         0.56008E-02
         0.60374E-02
         0.72058E-02
         0.66594E-02
         0.70514E-02
         0.57181E-02
         0.51488E-02
         0.58287E-02
         0.55559E-02
         0.59052E-02
         0.58233E-02
         0.20849E-03
         0.75956E-04
         0.72569E-04
         0.53286E-04
         0.21520E-03
         0.12265E-03
         0.10925E-04
         0.16512E-03
         0.99862E-04
         0.14422E-03
         0.12327E-04
         0.70237E-03
         0.41304E-03
         0.46630E-04
         0.76305E-03
         0.10350E-03
         0.39049E-04
         0.30783E-04
         0.41392E-04
         0.11777E-04
         0.42914E-03
         0.38853E-03
         0.34457E-03
         0.12580E-04
         0.41183E-04
        -0.25804E-05
         0.18536E-04
        -0.58491E-04
        -0.22268E-04
         0.52901E-04
         0.75829E-04
         0.15012E-04
         0.49333E-04
         0.55154E-04
         0.33603E-03
         0.11969E-03
         0.20540E-03
         0.50057E-03
         0.29288E-03
         0.25633E-03
         0.53325E-03
         0.42816E-03
         0.43402E-03
         0.24771E-03
         0.19860E-03
         0.38676E-03
         0.16903E-03
         0.12563E-03
         0.92296E-04
         0.13299E-03
         0.32724E-03
         0.17140E-03
         0.59575E-02
         0.62943E-02
         0.68669E-02
         0.67986E-02
         0.77341E-02
         0.89102E-02
         0.81917E-02
         0.65021E-02
         0.61681E-02
         0.70388E-02
         0.67648E-02
         0.65889E-02
         0.44898E-02
         0.40766E-02
         0.48968E-02
         0.56050E-02
         0.60419E-02
         0.72096E-02
         0.66590E-02
         0.70508E-02
         0.57168E-02
         0.51478E-02
         0.58244E-02
         0.55487E-02
         0.58990E-02
         0.58177E-02
         0.20746E-03
         0.75152E-04
         0.72160E-04
         0.53248E-04
         0.21486E-03
         0.12253E-03
         0.10422E-04
         0.16425E-03
         0.98947E-04
         0.14357E-03
         0.11938E-04
         0.70221E-03
         0.41313E-03
         0.45629E-04
         0.76456E-03
         0.10346E-03
         0.38594E-04
         0.30669E-04
         0.41288E-04
         0.11481E-04
         0.42917E-03
         0.38846E-03
         0.34452E-03
         0.12374E-04
         0.40756E-04
        -0.29978E-05
         0.17924E-04
        -0.59030E-04
        -0.22328E-04
         0.52859E-04
         0.74777E-04
         0.14148E-04
         0.48253E-04
         0.54813E-04
         0.33606E-03
         0.11932E-03
         0.20496E-03
         0.50193E-03
         0.29406E-03
         0.25702E-03
         0.53403E-03
         0.42865E-03
         0.43423E-03
         0.24758E-03
         0.19813E-03
         0.38619E-03
         0.16816E-03
         0.12424E-03
         0.90612E-04
         0.13173E-03
         0.32641E-03
         0.17078E-03
         0.59529E-02
         0.62911E-02
         0.68666E-02
         0.67984E-02
         0.77312E-02
         0.89039E-02
         0.81845E-02
         0.64984E-02
         0.61648E-02
         0.70343E-02
         0.67625E-02
         0.65895E-02
         0.44895E-02
         0.40764E-02
         0.48982E-02
         0.56087E-02
         0.60459E-02
         0.72125E-02
         0.66574E-02
         0.70491E-02
         0.57148E-02
         0.51461E-02
         0.58193E-02
         0.55409E-02
         0.58921E-02
         0.58113E-02
         0.20733E-03
         0.74852E-04
         0.72027E-04
         0.53167E-04
         0.21451E-03
         0.12225E-03
         0.10216E-04
         0.16411E-03
         0.98859E-04
         0.14394E-03
         0.11673E-04
         0.70197E-03
         0.41322E-03
         0.44874E-04
         0.76598E-03
         0.10344E-03
         0.38500E-04
         0.30458E-04
         0.41197E-04
         0.11240E-04
         0.42914E-03
         0.38826E-03
         0.34442E-03
         0.12215E-04
         0.40936E-04
        -0.32400E-05
         0.17693E-04
        -0.59327E-04
        -0.22503E-04
         0.52829E-04
         0.74522E-04
         0.13790E-04
         0.47836E-04
         0.54640E-04
         0.33616E-03
         0.11910E-03
         0.20468E-03
         0.50323E-03
         0.29521E-03
         0.25754E-03
         0.53455E-03
         0.42893E-03
         0.43429E-03
         0.24749E-03
         0.19788E-03
         0.38600E-03
         0.16793E-03
         0.12392E-03
         0.90067E-04
         0.13111E-03
         0.32580E-03
         0.17013E-03
         0.59481E-02
         0.62877E-02
         0.68661E-02
         0.67982E-02
         0.77283E-02
         0.88975E-02
         0.81773E-02
         0.64945E-02
         0.61611E-02
         0.70293E-02
         0.67597E-02
         0.65901E-02
         0.44889E-02
         0.40758E-02
         0.48992E-02
         0.56120E-02
         0.60495E-02
         0.72153E-02
         0.66560E-02
         0.70479E-02
         0.57134E-02
         0.51452E-02
         0.58147E-02
         0.55331E-02
         0.58851E-02
         0.58047E-02
         0.20780E-03
         0.75056E-04
         0.72237E-04
         0.53305E-04
         0.21454E-03
         0.12220E-03
         0.10531E-04
         0.16464E-03
         0.99336E-04
         0.14505E-03
         0.11902E-04
         0.70222E-03
         0.41376E-03
         0.44729E-04
         0.76801E-03
         0.10391E-03
         0.38888E-04
         0.30561E-04
         0.41537E-04
         0.11429E-04
         0.42953E-03
         0.38850E-03
         0.34476E-03
         0.12484E-04
         0.41698E-04
        -0.29942E-05
         0.18151E-04
        -0.59033E-04
        -0.22159E-04
         0.53270E-04
         0.74880E-04
         0.13961E-04
         0.47893E-04
         0.54755E-04
         0.33675E-03
         0.11927E-03
         0.20480E-03
         0.50516E-03
         0.29690E-03
         0.25857E-03
         0.53563E-03
         0.42971E-03
         0.43478E-03
         0.24788E-03
         0.19812E-03
         0.38633E-03
         0.16821E-03
         0.12421E-03
         0.90139E-04
         0.13101E-03
         0.32565E-03
         0.16975E-03
         0.59443E-02
         0.62854E-02
         0.68664E-02
         0.67984E-02
         0.77261E-02
         0.88920E-02
         0.81709E-02
         0.64914E-02
         0.61582E-02
         0.70253E-02
         0.67579E-02
         0.65916E-02
         0.44891E-02
         0.40760E-02
         0.49010E-02
         0.56162E-02
         0.60541E-02
         0.72191E-02
         0.66555E-02
         0.70475E-02
         0.57129E-02
         0.51452E-02
         0.58111E-02
         0.55262E-02
         0.58789E-02
         0.57989E-02
         0.20797E-03
         0.75036E-04
         0.72258E-04
         0.53281E-04
         0.21433E-03
         0.12200E-03
         0.10598E-04
         0.16479E-03
         0.99421E-04
         0.14570E-03
         0.11806E-04
         0.70208E-03
         0.41410E-03
         0.44128E-04
         0.76942E-03
         0.10398E-03
         0.38883E-04
         0.30340E-04
         0.41471E-04
         0.11229E-04
         0.42959E-03
         0.38837E-03
         0.34474E-03
         0.12380E-04
         0.42119E-04
        -0.31000E-05
         0.18114E-04
        -0.59087E-04
        -0.22123E-04
         0.53369E-04
         0.74890E-04
         0.13836E-04
         0.47623E-04
         0.54638E-04
         0.33699E-03
         0.11915E-03
         0.20470E-03
         0.50652E-03
         0.29820E-03
         0.25926E-03
         0.53632E-03
         0.43014E-03
         0.43486E-03
         0.24796E-03
         0.19809E-03
         0.38635E-03
         0.16815E-03
         0.12409E-03
         0.89818E-04
         0.13059E-03
         0.32522E-03
         0.16919E-03
         0.59398E-02
         0.62823E-02
         0.68659E-02
         0.67982E-02
         0.77235E-02
         0.88858E-02
         0.81636E-02
         0.64875E-02
         0.61549E-02
         0.70205E-02
         0.67553E-02
         0.65922E-02
         0.44885E-02
         0.40757E-02
         0.49024E-02
         0.56198E-02
         0.60583E-02
         0.72224E-02
         0.66545E-02
         0.70463E-02
         0.57115E-02
         0.51444E-02
         0.58069E-02
         0.55189E-02
         0.58721E-02
         0.57925E-02
         0.20803E-03
         0.74881E-04
         0.72208E-04
         0.53303E-04
         0.21404E-03
         0.12184E-03
         0.10578E-04
         0.16488E-03
         0.99523E-04
         0.14636E-03
         0.11696E-04
         0.70189E-03
         0.41434E-03
         0.43564E-04
         0.77085E-03
         0.10399E-03
         0.38912E-04
         0.30191E-04
         0.41378E-04
         0.11063E-04
         0.42961E-03
         0.38825E-03
         0.34468E-03
         0.12219E-04
         0.42542E-04
        -0.32911E-05
         0.18105E-04
        -0.59178E-04
        -0.22096E-04
         0.53497E-04
         0.74848E-04
         0.13646E-04
         0.47427E-04
         0.54651E-04
         0.33711E-03
         0.11897E-03
         0.20453E-03
         0.50789E-03
         0.29949E-03
         0.25995E-03
         0.53708E-03
         0.43059E-03
         0.43496E-03
         0.24797E-03
         0.19800E-03
         0.38635E-03
         0.16810E-03
         0.12399E-03
         0.89507E-04
         0.13019E-03
         0.32482E-03
         0.16871E-03
         0.59351E-02
         0.62790E-02
         0.68654E-02
         0.67982E-02
         0.77209E-02
         0.88794E-02
         0.81561E-02
         0.64836E-02
         0.61515E-02
         0.70159E-02
         0.67529E-02
         0.65929E-02
         0.44878E-02
         0.40753E-02
         0.49036E-02
         0.56233E-02
         0.60623E-02
         0.72256E-02
         0.66533E-02
         0.70451E-02
         0.57101E-02
         0.51436E-02
         0.58026E-02
         0.55114E-02
         0.58653E-02
         0.57861E-02
         0.20837E-03
         0.74944E-04
         0.72324E-04
         0.53485E-04
         0.21401E-03
         0.12186E-03
         0.10819E-04
         0.16533E-03
         0.99883E-04
         0.14730E-03
         0.11919E-04
         0.70207E-03
         0.41476E-03
         0.43400E-04
         0.77284E-03
         0.10434E-03
         0.39161E-04
         0.30294E-04
         0.41606E-04
         0.11204E-04
         0.42996E-03
         0.38846E-03
         0.34494E-03
         0.12384E-04
         0.43177E-04
        -0.31380E-05
         0.18419E-04
        -0.58996E-04
        -0.21720E-04
         0.53960E-04
         0.75160E-04
         0.13755E-04
         0.47519E-04
         0.54873E-04
         0.33761E-03
         0.11907E-03
         0.20454E-03
         0.50978E-03
         0.30119E-03
         0.26108E-03
         0.53819E-03
         0.43131E-03
         0.43539E-03
         0.24826E-03
         0.19816E-03
         0.38659E-03
         0.16830E-03
         0.12418E-03
         0.89497E-04
         0.13007E-03
         0.32467E-03
         0.16844E-03
         0.59312E-02
         0.62766E-02
         0.68657E-02
         0.67985E-02
         0.77183E-02
         0.88734E-02
         0.81496E-02
         0.64805E-02
         0.61488E-02
         0.70119E-02
         0.67511E-02
         0.65939E-02
         0.44878E-02
         0.40755E-02
         0.49054E-02
         0.56273E-02
         0.60666E-02
         0.72291E-02
         0.66526E-02
         0.70445E-02
         0.57095E-02
         0.51434E-02
         0.57988E-02
         0.55045E-02
         0.58592E-02
         0.57804E-02
         0.20852E-03
         0.74820E-04
         0.72277E-04
         0.53447E-04
         0.21371E-03
         0.12162E-03
         0.10765E-04
         0.16544E-03
         0.10002E-03
         0.14792E-03
         0.11749E-04
         0.70183E-03
         0.41488E-03
         0.42760E-04
         0.77434E-03
         0.10439E-03
         0.39155E-04
         0.30061E-04
         0.41478E-04
         0.10978E-04
         0.42988E-03
         0.38823E-03
         0.34478E-03
         0.12199E-04
         0.43500E-04
        -0.33066E-05
         0.18231E-04
        -0.59275E-04
        -0.21818E-04
         0.54023E-04
         0.75130E-04
         0.13574E-04
         0.47213E-04
         0.54772E-04
         0.33774E-03
         0.11887E-03
         0.20429E-03
         0.51112E-03
         0.30237E-03
         0.26165E-03
         0.53875E-03
         0.43155E-03
         0.43539E-03
         0.24816E-03
         0.19799E-03
         0.38650E-03
         0.16819E-03
         0.12400E-03
         0.89146E-04
         0.12965E-03
         0.32421E-03
         0.16786E-03
         0.59265E-02
         0.62733E-02
         0.68652E-02
         0.67981E-02
         0.77153E-02
         0.88669E-02
         0.81423E-02
         0.64766E-02
         0.61452E-02
         0.70070E-02
         0.67483E-02
         0.65942E-02
         0.44871E-02
         0.40749E-02
         0.49066E-02
         0.56306E-02
         0.60702E-02
         0.72319E-02
         0.66515E-02
         0.70433E-02
         0.57081E-02
         0.51428E-02
         0.57947E-02
         0.54970E-02
         0.58523E-02
         0.57739E-02
         0.20874E-03
         0.74780E-04
         0.72305E-04
         0.53496E-04
         0.21353E-03
         0.12148E-03
         0.10845E-04
         0.16567E-03
         0.10028E-03
         0.14874E-03
         0.11751E-04
         0.70181E-03
         0.41521E-03
         0.42335E-04
         0.77599E-03
         0.10455E-03
         0.39319E-04
         0.29973E-04
         0.41519E-04
         0.10911E-04
         0.42998E-03
         0.38819E-03
         0.34481E-03
         0.12162E-04
         0.44005E-04
        -0.33618E-05
         0.18334E-04
        -0.59329E-04
        -0.21756E-04
         0.54202E-04
         0.75175E-04
         0.13489E-04
         0.47033E-04
         0.54784E-04
         0.33803E-03
         0.11879E-03
         0.20418E-03
         0.51266E-03
         0.30369E-03
         0.26238E-03
         0.53956E-03
         0.43205E-03
         0.43559E-03
         0.24826E-03
         0.19799E-03
         0.38659E-03
         0.16822E-03
         0.12395E-03
         0.88902E-04
         0.12934E-03
         0.32390E-03
         0.16740E-03
         0.59221E-02
         0.62704E-02
         0.68649E-02
         0.67980E-02
         0.77128E-02
         0.88609E-02
         0.81352E-02
         0.64728E-02
         0.61418E-02
         0.70024E-02
         0.67461E-02
         0.65950E-02
         0.44866E-02
         0.40746E-02
         0.49079E-02
         0.56343E-02
         0.60743E-02
         0.72352E-02
         0.66506E-02
         0.70423E-02
         0.57069E-02
         0.51422E-02
         0.57906E-02
         0.54897E-02
         0.58456E-02
         0.57676E-02
         0.20932E-03
         0.75166E-04
         0.72690E-04
         0.53831E-04
         0.21376E-03
         0.12167E-03
         0.11405E-04
         0.16634E-03
         0.10081E-03
         0.14990E-03
         0.12247E-04
         0.70235E-03
         0.41604E-03
         0.42371E-04
         0.77818E-03
         0.10508E-03
         0.39797E-04
         0.30210E-04
         0.41949E-04
         0.11258E-04
         0.43058E-03
         0.38861E-03
         0.34530E-03
         0.12523E-04
         0.44931E-04
        -0.30105E-05
         0.18897E-04
        -0.58805E-04
        -0.21123E-04
         0.54876E-04
         0.75668E-04
         0.13835E-04
         0.47230E-04
         0.55065E-04
         0.33880E-03
         0.11913E-03
         0.20451E-03
         0.51468E-03
         0.30562E-03
         0.26368E-03
         0.54084E-03
         0.43301E-03
         0.43620E-03
         0.24885E-03
         0.19847E-03
         0.38716E-03
         0.16869E-03
         0.12437E-03
         0.89056E-04
         0.12934E-03
         0.32390E-03
         0.16725E-03
         0.59186E-02
         0.62683E-02
         0.68654E-02
         0.67986E-02
         0.77109E-02
         0.88557E-02
         0.81289E-02
         0.64698E-02
         0.61394E-02
         0.69986E-02
         0.67445E-02
         0.65965E-02
         0.44868E-02
         0.40751E-02
         0.49101E-02
         0.56388E-02
         0.60793E-02
         0.72394E-02
         0.66504E-02
         0.70422E-02
         0.57065E-02
         0.51422E-02
         0.57871E-02
         0.54832E-02
         0.58398E-02
         0.57622E-02
         0.20940E-03
         0.75052E-04
         0.72650E-04
         0.53764E-04
         0.21343E-03
         0.12143E-03
         0.11369E-04
         0.16641E-03
         0.10089E-03
         0.15047E-03
         0.12084E-04
         0.70217E-03
         0.41630E-03
         0.41726E-04
         0.77959E-03
         0.10509E-03
         0.39752E-04
         0.30012E-04
         0.41761E-04
         0.10994E-04
         0.43057E-03
         0.38840E-03
         0.34524E-03
         0.12301E-04
         0.45223E-04
        -0.32446E-05
         0.18735E-04
        -0.58999E-04
        -0.21046E-04
         0.54983E-04
         0.75681E-04
         0.13633E-04
         0.46992E-04
         0.54934E-04
         0.33888E-03
         0.11895E-03
         0.20436E-03
         0.51600E-03
         0.30686E-03
         0.26439E-03
         0.54150E-03
         0.43332E-03
         0.43617E-03
         0.24879E-03
         0.19832E-03
         0.38710E-03
         0.16861E-03
         0.12429E-03
         0.88736E-04
         0.12886E-03
         0.32342E-03
         0.16667E-03
         0.59137E-02
         0.62649E-02
         0.68647E-02
         0.67985E-02
         0.77083E-02
         0.88494E-02
         0.81214E-02
         0.64657E-02
         0.61358E-02
         0.69937E-02
         0.67417E-02
         0.65968E-02
         0.44860E-02
         0.40747E-02
         0.49115E-02
         0.56424E-02
         0.60833E-02
         0.72424E-02
         0.66492E-02
         0.70410E-02
         0.57052E-02
         0.51414E-02
         0.57826E-02
         0.54757E-02
         0.58331E-02
         0.57557E-02
         0.20939E-03
         0.74769E-04
         0.72436E-04
         0.53646E-04
         0.21300E-03
         0.12107E-03
         0.11241E-04
         0.16644E-03
         0.10090E-03
         0.15083E-03
         0.11880E-04
         0.70189E-03
         0.41642E-03
         0.41075E-04
         0.78096E-03
         0.10505E-03
         0.39601E-04
         0.29791E-04
         0.41619E-04
         0.10839E-04
         0.43054E-03
         0.38815E-03
         0.34514E-03
         0.12110E-04
         0.45331E-04
        -0.34747E-05
         0.18284E-04
        -0.59306E-04
        -0.20321E-04
         0.55519E-04
         0.75600E-04
         0.13358E-04
         0.46756E-04
         0.54857E-04
         0.33894E-03
         0.11867E-03
         0.20407E-03
         0.51715E-03
         0.30812E-03
         0.26565E-03
         0.54232E-03
         0.43360E-03
         0.43604E-03
         0.24874E-03
         0.19811E-03
         0.38694E-03
         0.16842E-03
         0.12411E-03
         0.88393E-04
         0.12842E-03
         0.32296E-03
         0.16606E-03
         0.59090E-02
         0.62616E-02
         0.68642E-02
         0.67982E-02
         0.77054E-02
         0.88427E-02
         0.81137E-02
         0.64616E-02
         0.61322E-02
         0.69891E-02
         0.67386E-02
         0.65962E-02
         0.44851E-02
         0.40742E-02
         0.49126E-02
         0.56459E-02
         0.60872E-02
         0.72453E-02
         0.66479E-02
         0.70396E-02
         0.57038E-02
         0.51405E-02
         0.57782E-02
         0.54682E-02
         0.58261E-02
         0.57491E-02
         0.20995E-03
         0.75123E-04
         0.72848E-04
         0.54035E-04
         0.21325E-03
         0.12129E-03
         0.11746E-04
         0.16709E-03
         0.10134E-03
         0.15159E-03
         0.12332E-04
         0.70229E-03
         0.41713E-03
         0.41087E-04
         0.78307E-03
         0.10558E-03
         0.39980E-04
         0.30011E-04
         0.42106E-04
         0.11449E-04
         0.43106E-03
         0.38851E-03
         0.34556E-03
         0.12499E-04
         0.45958E-04
        -0.30903E-05
         0.18236E-04
        -0.58983E-04
        -0.18322E-04
         0.57148E-04
         0.76041E-04
         0.13710E-04
         0.46948E-04
         0.55217E-04
         0.33974E-03
         0.11906E-03
         0.20438E-03
         0.51889E-03
         0.31011E-03
         0.26802E-03
         0.54392E-03
         0.43451E-03
         0.43647E-03
         0.24926E-03
         0.19859E-03
         0.38756E-03
         0.16891E-03
         0.12450E-03
         0.88578E-04
         0.12853E-03
         0.32307E-03
         0.16596E-03
         0.59055E-02
         0.62596E-02
         0.68649E-02
         0.67989E-02
         0.77032E-02
         0.88371E-02
         0.81074E-02
         0.64587E-02
         0.61298E-02
         0.69857E-02
         0.67361E-02
         0.65963E-02
         0.44850E-02
         0.40745E-02
         0.49145E-02
         0.56499E-02
         0.60918E-02
         0.72494E-02
         0.66479E-02
         0.70395E-02
         0.57035E-02
         0.51408E-02
         0.57749E-02
         0.54618E-02
         0.58203E-02
         0.57437E-02
         0.20893E-03
         0.73818E-04
         0.71642E-04
         0.52911E-04
         0.21159E-03
         0.11976E-03
         0.10424E-04
         0.16588E-03
         0.10024E-03
         0.15060E-03
         0.10762E-04
         0.70045E-03
         0.41577E-03
         0.38973E-04
         0.78285E-03
         0.10452E-03
         0.38672E-04
         0.28739E-04
         0.40730E-04
         0.10040E-04
         0.42959E-03
         0.38689E-03
         0.34407E-03
         0.11114E-04
         0.44759E-04
        -0.44116E-05
         0.16275E-04
        -0.60645E-04
        -0.18939E-04
         0.56365E-04
         0.74918E-04
         0.12327E-04
         0.45575E-04
         0.53911E-04
         0.33835E-03
         0.11748E-03
         0.20272E-03
         0.51843E-03
         0.30989E-03
         0.26779E-03
         0.54308E-03
         0.43321E-03
         0.43492E-03
         0.24787E-03
         0.19702E-03
         0.38585E-03
         0.16739E-03
         0.12308E-03
         0.86975E-04
         0.12669E-03
         0.32100E-03
         0.16397E-03
         0.58980E-02
         0.62537E-02
         0.68615E-02
         0.67958E-02
         0.76975E-02
         0.88280E-02
         0.80972E-02
         0.64519E-02
         0.61236E-02
         0.69780E-02
         0.67300E-02
         0.65936E-02
         0.44820E-02
         0.40719E-02
         0.49133E-02
         0.56509E-02
         0.60931E-02
         0.72495E-02
         0.66437E-02
         0.70355E-02
         0.56996E-02
         0.51375E-02
         0.57679E-02
         0.54517E-02
         0.58110E-02
         0.57348E-02
         0.20988E-03
         0.73909E-04
         0.71943E-04
         0.53461E-04
         0.21194E-03
         0.12013E-03
         0.10740E-04
         0.16701E-03
         0.10140E-03
         0.15272E-03
         0.11241E-04
         0.70050E-03
         0.41569E-03
         0.39606E-04
         0.78535E-03
         0.10570E-03
         0.39790E-04
         0.29352E-04
         0.41565E-04
         0.10796E-04
         0.43047E-03
         0.38743E-03
         0.34527E-03
         0.12149E-04
         0.46796E-04
        -0.34546E-05
         0.17985E-04
        -0.58771E-04
        -0.17247E-04
         0.57994E-04
         0.75826E-04
         0.12906E-04
         0.45844E-04
         0.53758E-04
         0.33896E-03
         0.11733E-03
         0.20221E-03
         0.52116E-03
         0.31264E-03
         0.26963E-03
         0.54452E-03
         0.43460E-03
         0.43613E-03
         0.24907E-03
         0.19764E-03
         0.38626E-03
         0.16772E-03
         0.12375E-03
         0.87288E-04
         0.12644E-03
         0.32084E-03
         0.16359E-03
         0.58949E-02
         0.62523E-02
         0.68617E-02
         0.67952E-02
         0.76937E-02
         0.88211E-02
         0.80916E-02
         0.64499E-02
         0.61217E-02
         0.69736E-02
         0.67281E-02
         0.65960E-02
         0.44832E-02
         0.40724E-02
         0.49160E-02
         0.56564E-02
         0.60988E-02
         0.72539E-02
         0.66434E-02
         0.70346E-02
         0.56992E-02
         0.51379E-02
         0.57653E-02
         0.54464E-02
         0.58060E-02
         0.57302E-02
         0.50863E-02
         0.51593E-02
         0.51182E-02
         0.46576E-02
         0.60511E-02
         0.55690E-02
         0.55154E-02
         0.57428E-02
         0.48933E-02
         0.57453E-02
         0.61425E-02
         0.77917E-02
         0.67738E-02
         0.63707E-02
         0.80851E-02
         0.47901E-02
         0.50797E-02
         0.44321E-02
         0.52957E-02
         0.55069E-02
         0.62765E-02
         0.62795E-02
         0.59555E-02
         0.50390E-02
         0.56566E-02
         0.48117E-02
         0.62876E-02
         0.60186E-02
         0.60656E-02
         0.58609E-02
         0.48099E-02
         0.49936E-02
         0.46804E-02
         0.48922E-02
         0.68358E-02
         0.59385E-02
         0.60324E-02
         0.74482E-02
         0.69796E-02
         0.68316E-02
         0.73014E-02
         0.68199E-02
         0.64883E-02
         0.56950E-02
         0.58794E-02
         0.69229E-02
         0.60817E-02
         0.56303E-02
         0.54619E-02
         0.57119E-02
         0.65115E-02
         0.57961E-02
         0.17327E-01
         0.17413E-01
         0.18252E-01
         0.17797E-01
         0.19017E-01
         0.20684E-01
         0.20012E-01
         0.18239E-01
         0.18015E-01
         0.19208E-01
         0.18605E-01
         0.17805E-01
         0.14443E-01
         0.13462E-01
         0.14463E-01
         0.15443E-01
         0.16008E-01
         0.18040E-01
         0.18181E-01
         0.18599E-01
         0.16308E-01
         0.15382E-01
         0.16381E-01
         0.15949E-01
         0.16222E-01
         0.16152E-01
         0.53417E-01
         0.55697E-01
         0.54906E-01
         0.50195E-01
         0.61688E-01
         0.57890E-01
         0.60061E-01
         0.60775E-01
         0.52106E-01
         0.60728E-01
         0.65833E-01
         0.74690E-01
         0.67451E-01
         0.67787E-01
         0.77417E-01
         0.51124E-01
         0.54731E-01
         0.47935E-01
         0.56498E-01
         0.59316E-01
         0.61966E-01
         0.63207E-01
         0.59439E-01
         0.54368E-01
         0.61264E-01
         0.52492E-01
         0.67548E-01
         0.66288E-01
         0.66602E-01
         0.63385E-01
         0.51621E-01
         0.54132E-01
         0.50580E-01
         0.52821E-01
         0.67604E-01
         0.61850E-01
         0.62173E-01
         0.74631E-01
         0.72410E-01
         0.71472E-01
         0.73165E-01
         0.69414E-01
         0.65745E-01
         0.57923E-01
         0.60159E-01
         0.67658E-01
         0.62376E-01
         0.58682E-01
         0.57487E-01
         0.59592E-01
         0.64857E-01
         0.59803E-01
         0.11457E+00
         0.11232E+00
         0.11548E+00
         0.11210E+00
         0.11650E+00
         0.12371E+00
         0.12463E+00
         0.12189E+00
         0.12212E+00
         0.12598E+00
         0.12230E+00
         0.11537E+00
         0.10127E+00
         0.95458E-01
         0.96915E-01
         0.99072E-01
         0.10058E+00
         0.10997E+00
         0.11607E+00
         0.11710E+00
         0.10727E+00
         0.10343E+00
         0.10753E+00
         0.10637E+00
         0.10575E+00
         0.10527E+00
  
SCALARS                      strain_yz  double 1
LOOKUP_TABLE default
        -0.58075E-01
         0.18757E-01
         0.49640E-01
         0.26399E-01
        -0.29355E-09
        -0.80909E-10
        -0.36380E-09
        -0.27748E-09
         0.18200E+00
        -0.12109E+00
        -0.54140E-09
        -0.47664E-09
         0.15339E+00
         0.77878E-02
         0.38746E-09
        -0.24841E-10
        -0.57743E-01
        -0.19668E+00
         0.57005E-11
         0.58327E-10
         0.98641E-01
         0.36102E+00
         0.39165E+00
         0.88818E-09
         0.15339E-08
         0.12821E-08
         0.35653E-01
         0.35202E+00
         0.63889E-09
         0.12394E-08
        -0.65885E-01
        -0.55256E-01
         0.50598E-01
         0.33121E-09
         0.33811E-09
        -0.70196E-11
        -0.19144E+00
        -0.17553E+00
         0.60949E-09
         0.47421E-09
        -0.18446E+00
        -0.11290E+00
         0.46062E-09
         0.42094E-09
        -0.17275E+00
        -0.60444E-01
        -0.15280E-10
         0.23634E-09
        -0.14484E+00
         0.11128E-09
        -0.15998E-01
        -0.90126E-11
        -0.81388E-02
         0.43043E-09
         0.53263E-01
         0.25039E-09
         0.17362E+00
        -0.32253E-01
         0.67929E-11
        -0.13787E-10
        -0.79837E-01
        -0.28687E+00
        -0.92553E-10
        -0.34619E-09
        -0.48653E-01
        -0.18682E-09
        -0.20520E+00
        -0.22759E-09
         0.15834E+00
         0.83692E-01
        -0.28126E-10
         0.37136E-09
         0.28973E+00
         0.81546E-09
         0.44027E+00
         0.78956E-09
         0.44097E+00
         0.59936E-09
         0.36419E+00
         0.50237E-09
         0.54332E+00
         0.42661E+00
         0.32227E-09
        -0.71452E-10
         0.62207E-01
        -0.79951E-11
        -0.26961E+00
        -0.50084E-09
        -0.62520E+00
        -0.87679E-09
        -0.85853E+00
        -0.52971E+00
        -0.13004E-08
        -0.10526E-08
        -0.37680E+00
        -0.81708E-09
        -0.34047E+00
        -0.83593E-09
        -0.32892E+00
        -0.89880E-09
        -0.54468E+00
        -0.45645E+00
        -0.83584E-09
        -0.40049E-09
         0.34869E+00
        -0.13387E+00
         0.29390E-09
        -0.36522E-09
         0.85110E+00
         0.97772E-09
         0.12386E+01
         0.14302E-08
         0.14888E+01
         0.17663E-08
         0.16677E+01
         0.17520E-08
         0.18719E+01
         0.13865E-08
         0.18617E+01
         0.10730E-08
         0.17483E+01
         0.99795E-09
         0.15578E+01
         0.94948E-09
         0.11713E+01
         0.60679E-09
         0.83139E+00
         0.20033E-09
         0.44082E+00
         0.12945E-09
        -0.32853E-01
         0.19457E-09
        -0.45069E+00
         0.10049E-09
        -0.82609E+00
        -0.30391E-09
        -0.12753E+01
        -0.85783E-09
        -0.13705E+01
        -0.13395E-08
        -0.14526E+01
        -0.17561E-08
        -0.18222E+01
        -0.17546E-08
        -0.19183E+01
        -0.15317E-08
        -0.17943E+01
        -0.14928E-08
        -0.14419E+01
        -0.15021E-08
        -0.98429E+00
        -0.11878E-08
        -0.70353E+00
        -0.70238E-09
        -0.51230E+00
        -0.54309E-09
        -0.70929E-02
        -0.36090E-02
        -0.31577E-02
        -0.10012E-02
        -0.31719E-02
        -0.34471E-02
        -0.35357E-03
        -0.55153E-02
        -0.48696E-02
        -0.70219E-02
         0.35125E-02
         0.14908E-01
         0.10330E-01
         0.11990E-02
         0.15152E-01
         0.18896E-02
        -0.16678E-02
         0.10849E-02
         0.13730E-02
        -0.10442E-02
         0.95061E-03
         0.78843E-03
        -0.26203E-02
         0.22146E-03
        -0.47974E-02
         0.70871E-03
         0.36034E-04
         0.63111E-03
         0.75484E-03
        -0.37226E-02
         0.18410E-02
        -0.19556E-02
         0.13386E-02
        -0.32166E-03
         0.50174E-03
         0.27735E-02
         0.62753E-02
         0.13425E-01
         0.12249E-01
         0.10163E-01
         0.94381E-02
         0.24229E-02
        -0.20389E-02
        -0.55718E-02
        -0.90754E-02
        -0.14427E-01
        -0.96892E-02
        -0.71099E-02
        -0.75741E-02
        -0.79055E-02
        -0.90954E-02
        -0.42653E-02
         0.73837E-02
        -0.91283E-02
         0.24616E-01
         0.34230E-01
         0.43577E-01
         0.51009E-01
         0.50479E-01
         0.45438E-01
         0.43329E-01
         0.40892E-01
         0.26231E-01
         0.11995E-01
         0.53504E-02
         0.23708E-02
        -0.36638E-02
        -0.14582E-01
        -0.26795E-01
        -0.34583E-01
        -0.40186E-01
        -0.46555E-01
        -0.44465E-01
        -0.42020E-01
        -0.39000E-01
        -0.26755E-01
        -0.15943E-01
        -0.14099E-01
        -0.18273E-01
        -0.11526E-01
        -0.10665E-01
        -0.25298E-02
        -0.13852E-01
        -0.62302E-02
        -0.49404E-02
        -0.17271E-01
        -0.11326E-01
        -0.16244E-01
         0.85883E-02
         0.37162E-01
         0.22018E-01
         0.31643E-02
         0.36613E-01
         0.69300E-02
        -0.21002E-02
         0.20051E-02
         0.90373E-02
         0.17473E-02
         0.77887E-02
         0.55300E-02
        -0.32060E-02
         0.27062E-02
        -0.10939E-01
         0.27057E-02
         0.67893E-03
         0.12622E-02
        -0.20161E-02
        -0.10912E-01
         0.74687E-02
         0.19674E-02
         0.48275E-02
         0.41916E-02
        -0.19985E-02
         0.60922E-02
         0.11632E-01
         0.27828E-01
         0.24541E-01
         0.21628E-01
         0.15888E-01
        -0.39259E-02
        -0.80865E-02
        -0.10101E-01
        -0.13008E-01
        -0.26570E-01
        -0.15462E-01
        -0.10225E-01
        -0.12851E-01
        -0.15171E-01
        -0.15718E-01
        -0.11794E-02
         0.19564E-01
        -0.27983E-01
         0.65108E-01
         0.84143E-01
         0.10857E+00
         0.13024E+00
         0.12760E+00
         0.11148E+00
         0.10685E+00
         0.10569E+00
         0.66374E-01
         0.21877E-01
         0.87225E-02
         0.74749E-02
        -0.34612E-02
        -0.29355E-01
        -0.58802E-01
        -0.81811E-01
        -0.10649E+00
        -0.11807E+00
        -0.10372E+00
        -0.98076E-01
        -0.97762E-01
        -0.68840E-01
        -0.35758E-01
        -0.33859E-01
        -0.18285E-01
        -0.11528E-01
        -0.10671E-01
        -0.25483E-02
        -0.13854E-01
        -0.62350E-02
        -0.49466E-02
        -0.17300E-01
        -0.11346E-01
        -0.16304E-01
         0.85934E-02
         0.37159E-01
         0.22023E-01
         0.31644E-02
         0.36660E-01
         0.69304E-02
        -0.21193E-02
         0.20021E-02
         0.90434E-02
         0.17375E-02
         0.78079E-02
         0.55353E-02
        -0.32067E-02
         0.27050E-02
        -0.10988E-01
         0.27008E-02
         0.68693E-03
         0.12692E-02
        -0.20028E-02
        -0.10935E-01
         0.74700E-02
         0.19631E-02
         0.48382E-02
         0.41985E-02
        -0.19797E-02
         0.60962E-02
         0.11631E-01
         0.27871E-01
         0.24594E-01
         0.21653E-01
         0.15900E-01
        -0.39153E-02
        -0.80948E-02
        -0.10107E-01
        -0.13008E-01
        -0.26570E-01
        -0.15463E-01
        -0.10219E-01
        -0.12834E-01
        -0.15150E-01
        -0.15712E-01
        -0.11616E-02
         0.19546E-01
        -0.27984E-01
         0.65121E-01
         0.84144E-01
         0.10856E+00
         0.13020E+00
         0.12755E+00
         0.11145E+00
         0.10683E+00
         0.10566E+00
         0.66360E-01
         0.21888E-01
         0.87218E-02
         0.74902E-02
        -0.34330E-02
        -0.29371E-01
        -0.58828E-01
        -0.81830E-01
        -0.10649E+00
        -0.11806E+00
        -0.10371E+00
        -0.98072E-01
        -0.97737E-01
        -0.68791E-01
        -0.35718E-01
        -0.33814E-01
        -0.18296E-01
        -0.11530E-01
        -0.10676E-01
        -0.25671E-02
        -0.13855E-01
        -0.62402E-02
        -0.49528E-02
        -0.17329E-01
        -0.11367E-01
        -0.16365E-01
         0.85985E-02
         0.37156E-01
         0.22029E-01
         0.31641E-02
         0.36706E-01
         0.69309E-02
        -0.21386E-02
         0.19990E-02
         0.90497E-02
         0.17276E-02
         0.78274E-02
         0.55404E-02
        -0.32080E-02
         0.27033E-02
        -0.11037E-01
         0.26952E-02
         0.69549E-03
         0.12767E-02
        -0.19883E-02
        -0.10957E-01
         0.74712E-02
         0.19579E-02
         0.48489E-02
         0.42052E-02
        -0.19608E-02
         0.61004E-02
         0.11630E-01
         0.27914E-01
         0.24647E-01
         0.21678E-01
         0.15913E-01
        -0.39037E-02
        -0.81026E-02
        -0.10113E-01
        -0.13010E-01
        -0.26571E-01
        -0.15465E-01
        -0.10212E-01
        -0.12817E-01
        -0.15130E-01
        -0.15705E-01
        -0.11438E-02
         0.19528E-01
        -0.27986E-01
         0.65133E-01
         0.84145E-01
         0.10855E+00
         0.13015E+00
         0.12749E+00
         0.11142E+00
         0.10680E+00
         0.10563E+00
         0.66347E-01
         0.21898E-01
         0.87213E-02
         0.75056E-02
        -0.34046E-02
        -0.29387E-01
        -0.58856E-01
        -0.81849E-01
        -0.10649E+00
        -0.11806E+00
        -0.10371E+00
        -0.98068E-01
        -0.97712E-01
        -0.68742E-01
        -0.35679E-01
        -0.33770E-01
        -0.18308E-01
        -0.11532E-01
        -0.10682E-01
        -0.25859E-02
        -0.13857E-01
        -0.62452E-02
        -0.49594E-02
        -0.17358E-01
        -0.11387E-01
        -0.16424E-01
         0.86036E-02
         0.37153E-01
         0.22035E-01
         0.31642E-02
         0.36753E-01
         0.69315E-02
        -0.21582E-02
         0.19959E-02
         0.90564E-02
         0.17171E-02
         0.78472E-02
         0.55451E-02
        -0.32107E-02
         0.27006E-02
        -0.11085E-01
         0.26878E-02
         0.70432E-03
         0.12866E-02
        -0.19703E-02
        -0.10977E-01
         0.74717E-02
         0.19509E-02
         0.48596E-02
         0.42120E-02
        -0.19420E-02
         0.61044E-02
         0.11630E-01
         0.27957E-01
         0.24701E-01
         0.21705E-01
         0.15927E-01
        -0.38888E-02
        -0.81090E-02
        -0.10123E-01
        -0.13013E-01
        -0.26572E-01
        -0.15467E-01
        -0.10206E-01
        -0.12800E-01
        -0.15109E-01
        -0.15698E-01
        -0.11260E-02
         0.19509E-01
        -0.27988E-01
         0.65145E-01
         0.84145E-01
         0.10853E+00
         0.13011E+00
         0.12744E+00
         0.11138E+00
         0.10678E+00
         0.10560E+00
         0.66334E-01
         0.21911E-01
         0.87214E-02
         0.75208E-02
        -0.33761E-02
        -0.29404E-01
        -0.58888E-01
        -0.81871E-01
        -0.10648E+00
        -0.11805E+00
        -0.10370E+00
        -0.98064E-01
        -0.97688E-01
        -0.68693E-01
        -0.35640E-01
        -0.33725E-01
        -0.18319E-01
        -0.11534E-01
        -0.10687E-01
        -0.26047E-02
        -0.13858E-01
        -0.62502E-02
        -0.49655E-02
        -0.17387E-01
        -0.11408E-01
        -0.16483E-01
         0.86088E-02
         0.37150E-01
         0.22040E-01
         0.31644E-02
         0.36800E-01
         0.69321E-02
        -0.21782E-02
         0.19928E-02
         0.90633E-02
         0.17060E-02
         0.78674E-02
         0.55492E-02
        -0.32150E-02
         0.26968E-02
        -0.11130E-01
         0.26785E-02
         0.71415E-03
         0.12988E-02
        -0.19487E-02
        -0.10995E-01
         0.74717E-02
         0.19417E-02
         0.48702E-02
         0.42189E-02
        -0.19231E-02
         0.61084E-02
         0.11629E-01
         0.28000E-01
         0.24756E-01
         0.21734E-01
         0.15944E-01
        -0.38706E-02
        -0.81138E-02
        -0.10137E-01
        -0.13020E-01
        -0.26575E-01
        -0.15471E-01
        -0.10201E-01
        -0.12783E-01
        -0.15089E-01
        -0.15691E-01
        -0.11082E-02
         0.19491E-01
        -0.27989E-01
         0.65157E-01
         0.84146E-01
         0.10852E+00
         0.13007E+00
         0.12738E+00
         0.11135E+00
         0.10676E+00
         0.10557E+00
         0.66323E-01
         0.21927E-01
         0.87223E-02
         0.75356E-02
        -0.33474E-02
        -0.29423E-01
        -0.58924E-01
        -0.81896E-01
        -0.10648E+00
        -0.11804E+00
        -0.10369E+00
        -0.98060E-01
        -0.97663E-01
        -0.68644E-01
        -0.35601E-01
        -0.33681E-01
        -0.18330E-01
        -0.11535E-01
        -0.10692E-01
        -0.26236E-02
        -0.13860E-01
        -0.62551E-02
        -0.49709E-02
        -0.17414E-01
        -0.11429E-01
        -0.16540E-01
         0.86147E-02
         0.37147E-01
         0.22046E-01
         0.31649E-02
         0.36846E-01
         0.69330E-02
        -0.21985E-02
         0.19897E-02
         0.90702E-02
         0.16947E-02
         0.78876E-02
         0.55532E-02
        -0.32198E-02
         0.26927E-02
        -0.11175E-01
         0.26686E-02
         0.72472E-03
         0.13122E-02
        -0.19255E-02
        -0.11012E-01
         0.74713E-02
         0.19314E-02
         0.48810E-02
         0.42260E-02
        -0.19041E-02
         0.61128E-02
         0.11629E-01
         0.28044E-01
         0.24812E-01
         0.21764E-01
         0.15962E-01
        -0.38514E-02
        -0.81181E-02
        -0.10151E-01
        -0.13028E-01
        -0.26580E-01
        -0.15475E-01
        -0.10196E-01
        -0.12767E-01
        -0.15069E-01
        -0.15685E-01
        -0.10903E-02
         0.19473E-01
        -0.27991E-01
         0.65169E-01
         0.84147E-01
         0.10851E+00
         0.13002E+00
         0.12733E+00
         0.11132E+00
         0.10674E+00
         0.10554E+00
         0.66313E-01
         0.21943E-01
         0.87235E-02
         0.75504E-02
        -0.33188E-02
        -0.29442E-01
        -0.58962E-01
        -0.81922E-01
        -0.10648E+00
        -0.11803E+00
        -0.10369E+00
        -0.98056E-01
        -0.97638E-01
        -0.68596E-01
        -0.35562E-01
        -0.33636E-01
        -0.18340E-01
        -0.11535E-01
        -0.10697E-01
        -0.26431E-02
        -0.13862E-01
        -0.62603E-02
        -0.49752E-02
        -0.17439E-01
        -0.11450E-01
        -0.16595E-01
         0.86217E-02
         0.37145E-01
         0.22054E-01
         0.31674E-02
         0.36894E-01
         0.69341E-02
        -0.22194E-02
         0.19866E-02
         0.90773E-02
         0.16834E-02
         0.79079E-02
         0.55573E-02
        -0.32247E-02
         0.26886E-02
        -0.11218E-01
         0.26587E-02
         0.73719E-03
         0.13265E-02
        -0.19020E-02
        -0.11029E-01
         0.74707E-02
         0.19204E-02
         0.48923E-02
         0.42335E-02
        -0.18850E-02
         0.61175E-02
         0.11629E-01
         0.28088E-01
         0.24868E-01
         0.21793E-01
         0.15980E-01
        -0.38317E-02
        -0.81221E-02
        -0.10166E-01
        -0.13036E-01
        -0.26585E-01
        -0.15481E-01
        -0.10194E-01
        -0.12754E-01
        -0.15050E-01
        -0.15678E-01
        -0.10723E-02
         0.19454E-01
        -0.27992E-01
         0.65180E-01
         0.84147E-01
         0.10849E+00
         0.12998E+00
         0.12728E+00
         0.11128E+00
         0.10672E+00
         0.10551E+00
         0.66302E-01
         0.21959E-01
         0.87247E-02
         0.75654E-02
        -0.32902E-02
        -0.29461E-01
        -0.58999E-01
        -0.81947E-01
        -0.10648E+00
        -0.11803E+00
        -0.10368E+00
        -0.98054E-01
        -0.97613E-01
        -0.68547E-01
        -0.35523E-01
        -0.33592E-01
        -0.18349E-01
        -0.11534E-01
        -0.10703E-01
        -0.26628E-02
        -0.13864E-01
        -0.62653E-02
        -0.49785E-02
        -0.17463E-01
        -0.11471E-01
        -0.16649E-01
         0.86295E-02
         0.37143E-01
         0.22061E-01
         0.31702E-02
         0.36941E-01
         0.69355E-02
        -0.22405E-02
         0.19835E-02
         0.90843E-02
         0.16721E-02
         0.79282E-02
         0.55614E-02
        -0.32295E-02
         0.26847E-02
        -0.11261E-01
         0.26487E-02
         0.75014E-03
         0.13412E-02
        -0.18783E-02
        -0.11045E-01
         0.74699E-02
         0.19090E-02
         0.49036E-02
         0.42413E-02
        -0.18657E-02
         0.61225E-02
         0.11630E-01
         0.28133E-01
         0.24925E-01
         0.21823E-01
         0.15998E-01
        -0.38119E-02
        -0.81260E-02
        -0.10181E-01
        -0.13045E-01
        -0.26591E-01
        -0.15488E-01
        -0.10193E-01
        -0.12741E-01
        -0.15031E-01
        -0.15672E-01
        -0.10542E-02
         0.19436E-01
        -0.27994E-01
         0.65192E-01
         0.84148E-01
         0.10848E+00
         0.12993E+00
         0.12722E+00
         0.11125E+00
         0.10669E+00
         0.10548E+00
         0.66292E-01
         0.21975E-01
         0.87259E-02
         0.75805E-02
        -0.32615E-02
        -0.29480E-01
        -0.59036E-01
        -0.81971E-01
        -0.10648E+00
        -0.11802E+00
        -0.10368E+00
        -0.98052E-01
        -0.97587E-01
        -0.68497E-01
        -0.35484E-01
        -0.33547E-01
        -0.18358E-01
        -0.11534E-01
        -0.10708E-01
        -0.26825E-02
        -0.13865E-01
        -0.62703E-02
        -0.49819E-02
        -0.17486E-01
        -0.11492E-01
        -0.16702E-01
         0.86368E-02
         0.37141E-01
         0.22068E-01
         0.31734E-02
         0.36989E-01
         0.69368E-02
        -0.22618E-02
         0.19803E-02
         0.90913E-02
         0.16607E-02
         0.79484E-02
         0.55656E-02
        -0.32344E-02
         0.26808E-02
        -0.11304E-01
         0.26389E-02
         0.76341E-03
         0.13557E-02
        -0.18547E-02
        -0.11062E-01
         0.74690E-02
         0.18977E-02
         0.49150E-02
         0.42490E-02
        -0.18463E-02
         0.61272E-02
         0.11631E-01
         0.28178E-01
         0.24981E-01
         0.21853E-01
         0.16016E-01
        -0.37924E-02
        -0.81300E-02
        -0.10196E-01
        -0.13054E-01
        -0.26597E-01
        -0.15495E-01
        -0.10193E-01
        -0.12729E-01
        -0.15012E-01
        -0.15666E-01
        -0.10361E-02
         0.19418E-01
        -0.27995E-01
         0.65203E-01
         0.84149E-01
         0.10847E+00
         0.12989E+00
         0.12717E+00
         0.11122E+00
         0.10667E+00
         0.10545E+00
         0.66281E-01
         0.21991E-01
         0.87274E-02
         0.75959E-02
        -0.32329E-02
        -0.29499E-01
        -0.59074E-01
        -0.81995E-01
        -0.10647E+00
        -0.11801E+00
        -0.10367E+00
        -0.98050E-01
        -0.97562E-01
        -0.68448E-01
        -0.35445E-01
        -0.33503E-01
        -0.18368E-01
        -0.11533E-01
        -0.10713E-01
        -0.27022E-02
        -0.13867E-01
        -0.62752E-02
        -0.49853E-02
        -0.17510E-01
        -0.11513E-01
        -0.16755E-01
         0.86446E-02
         0.37139E-01
         0.22076E-01
         0.31762E-02
         0.37036E-01
         0.69381E-02
        -0.22831E-02
         0.19772E-02
         0.90982E-02
         0.16492E-02
         0.79686E-02
         0.55697E-02
        -0.32390E-02
         0.26769E-02
        -0.11347E-01
         0.26291E-02
         0.77633E-03
         0.13701E-02
        -0.18312E-02
        -0.11078E-01
         0.74682E-02
         0.18863E-02
         0.49262E-02
         0.42567E-02
        -0.18270E-02
         0.61322E-02
         0.11632E-01
         0.28224E-01
         0.25038E-01
         0.21882E-01
         0.16034E-01
        -0.37728E-02
        -0.81340E-02
        -0.10211E-01
        -0.13063E-01
        -0.26603E-01
        -0.15502E-01
        -0.10193E-01
        -0.12717E-01
        -0.14993E-01
        -0.15659E-01
        -0.10180E-02
         0.19399E-01
        -0.27997E-01
         0.65214E-01
         0.84149E-01
         0.10845E+00
         0.12985E+00
         0.12711E+00
         0.11118E+00
         0.10665E+00
         0.10542E+00
         0.66270E-01
         0.22007E-01
         0.87288E-02
         0.76111E-02
        -0.32043E-02
        -0.29519E-01
        -0.59111E-01
        -0.82020E-01
        -0.10647E+00
        -0.11800E+00
        -0.10367E+00
        -0.98048E-01
        -0.97536E-01
        -0.68399E-01
        -0.35407E-01
        -0.33458E-01
        -0.18377E-01
        -0.11532E-01
        -0.10718E-01
        -0.27218E-02
        -0.13869E-01
        -0.62802E-02
        -0.49890E-02
        -0.17533E-01
        -0.11535E-01
        -0.16808E-01
         0.86523E-02
         0.37137E-01
         0.22083E-01
         0.31793E-02
         0.37084E-01
         0.69395E-02
        -0.23045E-02
         0.19740E-02
         0.91051E-02
         0.16377E-02
         0.79889E-02
         0.55736E-02
        -0.32438E-02
         0.26730E-02
        -0.11390E-01
         0.26192E-02
         0.78947E-03
         0.13842E-02
        -0.18077E-02
        -0.11095E-01
         0.74673E-02
         0.18750E-02
         0.49376E-02
         0.42644E-02
        -0.18076E-02
         0.61371E-02
         0.11633E-01
         0.28269E-01
         0.25094E-01
         0.21912E-01
         0.16051E-01
        -0.37532E-02
        -0.81380E-02
        -0.10225E-01
        -0.13072E-01
        -0.26609E-01
        -0.15509E-01
        -0.10192E-01
        -0.12705E-01
        -0.14974E-01
        -0.15653E-01
        -0.99988E-03
         0.19381E-01
        -0.27998E-01
         0.65225E-01
         0.84150E-01
         0.10844E+00
         0.12980E+00
         0.12706E+00
         0.11115E+00
         0.10663E+00
         0.10539E+00
         0.66259E-01
         0.22023E-01
         0.87301E-02
         0.76262E-02
        -0.31757E-02
        -0.29538E-01
        -0.59149E-01
        -0.82044E-01
        -0.10647E+00
        -0.11799E+00
        -0.10366E+00
        -0.98045E-01
        -0.97510E-01
        -0.68350E-01
        -0.35368E-01
        -0.33414E-01
        -0.18386E-01
        -0.11531E-01
        -0.10723E-01
        -0.27415E-02
        -0.13871E-01
        -0.62851E-02
        -0.49923E-02
        -0.17557E-01
        -0.11556E-01
        -0.16861E-01
         0.86600E-02
         0.37135E-01
         0.22090E-01
         0.31824E-02
         0.37131E-01
         0.69409E-02
        -0.23259E-02
         0.19708E-02
         0.91121E-02
         0.16262E-02
         0.80091E-02
         0.55775E-02
        -0.32486E-02
         0.26692E-02
        -0.11432E-01
         0.26095E-02
         0.80232E-03
         0.13983E-02
        -0.17842E-02
        -0.11111E-01
         0.74664E-02
         0.18636E-02
         0.49488E-02
         0.42722E-02
        -0.17880E-02
         0.61420E-02
         0.11633E-01
         0.28314E-01
         0.25151E-01
         0.21941E-01
         0.16069E-01
        -0.37339E-02
        -0.81419E-02
        -0.10240E-01
        -0.13081E-01
        -0.26616E-01
        -0.15516E-01
        -0.10192E-01
        -0.12693E-01
        -0.14956E-01
        -0.15647E-01
        -0.98179E-03
         0.19362E-01
        -0.27999E-01
         0.65236E-01
         0.84151E-01
         0.10843E+00
         0.12976E+00
         0.12700E+00
         0.11111E+00
         0.10661E+00
         0.10536E+00
         0.66248E-01
         0.22039E-01
         0.87315E-02
         0.76413E-02
        -0.31469E-02
        -0.29557E-01
        -0.59186E-01
        -0.82069E-01
        -0.10646E+00
        -0.11799E+00
        -0.10366E+00
        -0.98043E-01
        -0.97484E-01
        -0.68301E-01
        -0.35330E-01
        -0.33369E-01
        -0.18395E-01
        -0.11530E-01
        -0.10728E-01
        -0.27614E-02
        -0.13872E-01
        -0.62901E-02
        -0.49957E-02
        -0.17580E-01
        -0.11578E-01
        -0.16914E-01
         0.86678E-02
         0.37134E-01
         0.22098E-01
         0.31851E-02
         0.37179E-01
         0.69422E-02
        -0.23473E-02
         0.19675E-02
         0.91190E-02
         0.16148E-02
         0.80294E-02
         0.55815E-02
        -0.32533E-02
         0.26654E-02
        -0.11475E-01
         0.25996E-02
         0.81554E-03
         0.14122E-02
        -0.17608E-02
        -0.11128E-01
         0.74656E-02
         0.18522E-02
         0.49600E-02
         0.42799E-02
        -0.17685E-02
         0.61471E-02
         0.11634E-01
         0.28359E-01
         0.25208E-01
         0.21971E-01
         0.16087E-01
        -0.37143E-02
        -0.81458E-02
        -0.10255E-01
        -0.13090E-01
        -0.26621E-01
        -0.15523E-01
        -0.10191E-01
        -0.12681E-01
        -0.14937E-01
        -0.15640E-01
        -0.96374E-03
         0.19344E-01
        -0.28001E-01
         0.65247E-01
         0.84151E-01
         0.10841E+00
         0.12971E+00
         0.12695E+00
         0.11108E+00
         0.10658E+00
         0.10533E+00
         0.66237E-01
         0.22055E-01
         0.87328E-02
         0.76565E-02
        -0.31183E-02
        -0.29576E-01
        -0.59224E-01
        -0.82093E-01
        -0.10646E+00
        -0.11798E+00
        -0.10365E+00
        -0.98041E-01
        -0.97458E-01
        -0.68252E-01
        -0.35292E-01
        -0.33325E-01
        -0.18404E-01
        -0.11529E-01
        -0.10733E-01
        -0.27812E-02
        -0.13874E-01
        -0.62951E-02
        -0.49995E-02
        -0.17603E-01
        -0.11599E-01
        -0.16967E-01
         0.86755E-02
         0.37132E-01
         0.22105E-01
         0.31881E-02
         0.37226E-01
         0.69434E-02
        -0.23688E-02
         0.19643E-02
         0.91259E-02
         0.16034E-02
         0.80497E-02
         0.55855E-02
        -0.32581E-02
         0.26616E-02
        -0.11518E-01
         0.25898E-02
         0.82841E-03
         0.14259E-02
        -0.17374E-02
        -0.11144E-01
         0.74646E-02
         0.18408E-02
         0.49713E-02
         0.42877E-02
        -0.17489E-02
         0.61520E-02
         0.11635E-01
         0.28405E-01
         0.25265E-01
         0.22000E-01
         0.16105E-01
        -0.36948E-02
        -0.81497E-02
        -0.10269E-01
        -0.13099E-01
        -0.26627E-01
        -0.15531E-01
        -0.10190E-01
        -0.12669E-01
        -0.14918E-01
        -0.15634E-01
        -0.94580E-03
         0.19325E-01
        -0.28002E-01
         0.65258E-01
         0.84152E-01
         0.10840E+00
         0.12967E+00
         0.12689E+00
         0.11105E+00
         0.10656E+00
         0.10530E+00
         0.66226E-01
         0.22071E-01
         0.87341E-02
         0.76717E-02
        -0.30897E-02
        -0.29595E-01
        -0.59261E-01
        -0.82118E-01
        -0.10646E+00
        -0.11797E+00
        -0.10365E+00
        -0.98039E-01
        -0.97432E-01
        -0.68203E-01
        -0.35253E-01
        -0.33280E-01
        -0.18414E-01
        -0.11528E-01
        -0.10738E-01
        -0.28009E-02
        -0.13876E-01
        -0.63000E-02
        -0.50029E-02
        -0.17627E-01
        -0.11620E-01
        -0.17020E-01
         0.86833E-02
         0.37130E-01
         0.22113E-01
         0.31907E-02
         0.37274E-01
         0.69448E-02
        -0.23904E-02
         0.19611E-02
         0.91328E-02
         0.15919E-02
         0.80699E-02
         0.55893E-02
        -0.32628E-02
         0.26579E-02
        -0.11560E-01
         0.25800E-02
         0.84151E-03
         0.14394E-02
        -0.17142E-02
        -0.11160E-01
         0.74637E-02
         0.18294E-02
         0.49825E-02
         0.42955E-02
        -0.17293E-02
         0.61570E-02
         0.11635E-01
         0.28450E-01
         0.25321E-01
         0.22029E-01
         0.16123E-01
        -0.36753E-02
        -0.81537E-02
        -0.10284E-01
        -0.13108E-01
        -0.26633E-01
        -0.15538E-01
        -0.10190E-01
        -0.12656E-01
        -0.14899E-01
        -0.15628E-01
        -0.92774E-03
         0.19307E-01
        -0.28003E-01
         0.65269E-01
         0.84153E-01
         0.10839E+00
         0.12962E+00
         0.12684E+00
         0.11101E+00
         0.10654E+00
         0.10527E+00
         0.66216E-01
         0.22087E-01
         0.87354E-02
         0.76869E-02
        -0.30611E-02
        -0.29614E-01
        -0.59299E-01
        -0.82143E-01
        -0.10646E+00
        -0.11796E+00
        -0.10364E+00
        -0.98036E-01
        -0.97406E-01
        -0.68154E-01
        -0.35215E-01
        -0.33236E-01
        -0.18423E-01
        -0.11527E-01
        -0.10743E-01
        -0.28206E-02
        -0.13878E-01
        -0.63050E-02
        -0.50064E-02
        -0.17650E-01
        -0.11642E-01
        -0.17073E-01
         0.86910E-02
         0.37128E-01
         0.22120E-01
         0.31937E-02
         0.37322E-01
         0.69461E-02
        -0.24121E-02
         0.19579E-02
         0.91397E-02
         0.15805E-02
         0.80902E-02
         0.55931E-02
        -0.32675E-02
         0.26542E-02
        -0.11603E-01
         0.25701E-02
         0.85427E-03
         0.14527E-02
        -0.16910E-02
        -0.11177E-01
         0.74629E-02
         0.18181E-02
         0.49937E-02
         0.43034E-02
        -0.17095E-02
         0.61618E-02
         0.11636E-01
         0.28496E-01
         0.25378E-01
         0.22058E-01
         0.16141E-01
        -0.36558E-02
        -0.81577E-02
        -0.10299E-01
        -0.13118E-01
        -0.26639E-01
        -0.15545E-01
        -0.10190E-01
        -0.12644E-01
        -0.14880E-01
        -0.15621E-01
        -0.90968E-03
         0.19288E-01
        -0.28004E-01
         0.65279E-01
         0.84153E-01
         0.10838E+00
         0.12958E+00
         0.12678E+00
         0.11098E+00
         0.10652E+00
         0.10524E+00
         0.66205E-01
         0.22103E-01
         0.87366E-02
         0.77019E-02
        -0.30324E-02
        -0.29633E-01
        -0.59336E-01
        -0.82167E-01
        -0.10645E+00
        -0.11796E+00
        -0.10364E+00
        -0.98034E-01
        -0.97380E-01
        -0.68105E-01
        -0.35177E-01
        -0.33191E-01
        -0.18432E-01
        -0.11526E-01
        -0.10748E-01
        -0.28404E-02
        -0.13879E-01
        -0.63099E-02
        -0.50101E-02
        -0.17673E-01
        -0.11664E-01
        -0.17125E-01
         0.86988E-02
         0.37126E-01
         0.22128E-01
         0.31962E-02
         0.37369E-01
         0.69475E-02
        -0.24339E-02
         0.19546E-02
         0.91466E-02
         0.15692E-02
         0.81104E-02
         0.55967E-02
        -0.32722E-02
         0.26505E-02
        -0.11646E-01
         0.25602E-02
         0.86736E-03
         0.14659E-02
        -0.16678E-02
        -0.11193E-01
         0.74619E-02
         0.18067E-02
         0.50049E-02
         0.43112E-02
        -0.16897E-02
         0.61667E-02
         0.11637E-01
         0.28542E-01
         0.25435E-01
         0.22087E-01
         0.16159E-01
        -0.36365E-02
        -0.81618E-02
        -0.10313E-01
        -0.13127E-01
        -0.26646E-01
        -0.15552E-01
        -0.10189E-01
        -0.12632E-01
        -0.14861E-01
        -0.15615E-01
        -0.89177E-03
         0.19270E-01
        -0.28006E-01
         0.65290E-01
         0.84154E-01
         0.10836E+00
         0.12953E+00
         0.12673E+00
         0.11094E+00
         0.10650E+00
         0.10521E+00
         0.66195E-01
         0.22119E-01
         0.87376E-02
         0.77167E-02
        -0.30039E-02
        -0.29652E-01
        -0.59374E-01
        -0.82191E-01
        -0.10645E+00
        -0.11795E+00
        -0.10363E+00
        -0.98032E-01
        -0.97354E-01
        -0.68056E-01
        -0.35140E-01
        -0.33147E-01
        -0.18441E-01
        -0.11526E-01
        -0.10753E-01
        -0.28603E-02
        -0.13881E-01
        -0.63148E-02
        -0.50136E-02
        -0.17696E-01
        -0.11685E-01
        -0.17178E-01
         0.87065E-02
         0.37125E-01
         0.22135E-01
         0.31990E-02
         0.37417E-01
         0.69488E-02
        -0.24560E-02
         0.19513E-02
         0.91535E-02
         0.15584E-02
         0.81306E-02
         0.56002E-02
        -0.32770E-02
         0.26468E-02
        -0.11688E-01
         0.25504E-02
         0.88033E-03
         0.14790E-02
        -0.16447E-02
        -0.11208E-01
         0.74609E-02
         0.17951E-02
         0.50160E-02
         0.43191E-02
        -0.16699E-02
         0.61719E-02
         0.11638E-01
         0.28588E-01
         0.25491E-01
         0.22114E-01
         0.16177E-01
        -0.36170E-02
        -0.81660E-02
        -0.10328E-01
        -0.13136E-01
        -0.26652E-01
        -0.15559E-01
        -0.10189E-01
        -0.12620E-01
        -0.14843E-01
        -0.15609E-01
        -0.87384E-03
         0.19251E-01
        -0.28007E-01
         0.65301E-01
         0.84154E-01
         0.10835E+00
         0.12949E+00
         0.12667E+00
         0.11091E+00
         0.10648E+00
         0.10517E+00
         0.66185E-01
         0.22135E-01
         0.87380E-02
         0.77316E-02
        -0.29754E-02
        -0.29671E-01
        -0.59411E-01
        -0.82216E-01
        -0.10645E+00
        -0.11794E+00
        -0.10363E+00
        -0.98030E-01
        -0.97327E-01
        -0.68007E-01
        -0.35102E-01
        -0.33103E-01
        -0.18450E-01
        -0.11525E-01
        -0.10759E-01
        -0.28802E-02
        -0.13883E-01
        -0.63196E-02
        -0.50171E-02
        -0.17719E-01
        -0.11707E-01
        -0.17230E-01
         0.87142E-02
         0.37123E-01
         0.22142E-01
         0.32019E-02
         0.37464E-01
         0.69501E-02
        -0.24784E-02
         0.19480E-02
         0.91605E-02
         0.15481E-02
         0.81509E-02
         0.56036E-02
        -0.32817E-02
         0.26432E-02
        -0.11731E-01
         0.25405E-02
         0.89386E-03
         0.14920E-02
        -0.16216E-02
        -0.11222E-01
         0.74599E-02
         0.17837E-02
         0.50271E-02
         0.43269E-02
        -0.16500E-02
         0.61767E-02
         0.11638E-01
         0.28635E-01
         0.25547E-01
         0.22141E-01
         0.16194E-01
        -0.35975E-02
        -0.81705E-02
        -0.10343E-01
        -0.13145E-01
        -0.26658E-01
        -0.15566E-01
        -0.10188E-01
        -0.12608E-01
        -0.14824E-01
        -0.15602E-01
        -0.85577E-03
         0.19232E-01
        -0.28008E-01
         0.65311E-01
         0.84155E-01
         0.10834E+00
         0.12944E+00
         0.12662E+00
         0.11088E+00
         0.10645E+00
         0.10514E+00
         0.66177E-01
         0.22151E-01
         0.87377E-02
         0.77466E-02
        -0.29468E-02
        -0.29689E-01
        -0.59449E-01
        -0.82240E-01
        -0.10645E+00
        -0.11793E+00
        -0.10362E+00
        -0.98027E-01
        -0.97301E-01
        -0.67959E-01
        -0.35065E-01
        -0.33058E-01
        -0.18459E-01
        -0.11524E-01
        -0.10764E-01
        -0.28999E-02
        -0.13885E-01
        -0.63246E-02
        -0.50209E-02
        -0.17741E-01
        -0.11730E-01
        -0.17283E-01
         0.87220E-02
         0.37121E-01
         0.22150E-01
         0.32043E-02
         0.37512E-01
         0.69515E-02
        -0.25009E-02
         0.19447E-02
         0.91675E-02
         0.15380E-02
         0.81712E-02
         0.56070E-02
        -0.32861E-02
         0.26398E-02
        -0.11774E-01
         0.25309E-02
         0.90704E-03
         0.15044E-02
        -0.15989E-02
        -0.11236E-01
         0.74591E-02
         0.17725E-02
         0.50382E-02
         0.43349E-02
        -0.16302E-02
         0.61815E-02
         0.11639E-01
         0.28682E-01
         0.25603E-01
         0.22166E-01
         0.16211E-01
        -0.35784E-02
        -0.81752E-02
        -0.10357E-01
        -0.13154E-01
        -0.26664E-01
        -0.15573E-01
        -0.10188E-01
        -0.12596E-01
        -0.14805E-01
        -0.15596E-01
        -0.83783E-03
         0.19213E-01
        -0.28009E-01
         0.65322E-01
         0.84156E-01
         0.10832E+00
         0.12940E+00
         0.12656E+00
         0.11084E+00
         0.10643E+00
         0.10510E+00
         0.66169E-01
         0.22167E-01
         0.87368E-02
         0.77614E-02
        -0.29181E-02
        -0.29708E-01
        -0.59486E-01
        -0.82265E-01
        -0.10644E+00
        -0.11793E+00
        -0.10362E+00
        -0.98025E-01
        -0.97274E-01
        -0.67910E-01
        -0.35028E-01
        -0.33014E-01
        -0.18544E-01
        -0.11573E-01
        -0.10816E-01
        -0.29310E-02
        -0.13945E-01
        -0.63551E-02
        -0.50464E-02
        -0.17836E-01
        -0.11799E-01
        -0.17403E-01
         0.87655E-02
         0.37269E-01
         0.22245E-01
         0.32201E-02
         0.37713E-01
         0.69822E-02
        -0.25326E-02
         0.19495E-02
         0.92119E-02
         0.15354E-02
         0.82225E-02
         0.56328E-02
        -0.33008E-02
         0.26490E-02
        -0.11863E-01
         0.25350E-02
         0.92292E-03
         0.15202E-02
        -0.15870E-02
        -0.11297E-01
         0.74904E-02
         0.17720E-02
         0.50697E-02
         0.43606E-02
        -0.16190E-02
         0.62089E-02
         0.11684E-01
         0.28845E-01
         0.25762E-01
         0.22283E-01
         0.16293E-01
        -0.35786E-02
        -0.82152E-02
        -0.10407E-01
        -0.13211E-01
        -0.26771E-01
        -0.15639E-01
        -0.10225E-01
        -0.12634E-01
        -0.14847E-01
        -0.15653E-01
        -0.82347E-03
         0.19272E-01
        -0.28128E-01
         0.65599E-01
         0.84498E-01
         0.10876E+00
         0.12991E+00
         0.12706E+00
         0.11129E+00
         0.10687E+00
         0.10554E+00
         0.66449E-01
         0.22271E-01
         0.87685E-02
         0.78050E-02
        -0.29020E-02
        -0.29834E-01
        -0.59741E-01
        -0.82610E-01
        -0.10688E+00
        -0.11841E+00
        -0.10402E+00
        -0.98405E-01
        -0.97635E-01
        -0.68135E-01
        -0.35131E-01
        -0.33102E-01
        -0.27675E-01
        -0.17343E-01
        -0.16118E-01
        -0.44052E-02
        -0.20060E-01
        -0.92332E-02
        -0.75489E-02
        -0.26507E-01
        -0.17581E-01
        -0.25814E-01
         0.12889E-01
         0.52636E-01
         0.31892E-01
         0.47158E-02
         0.53575E-01
         0.10431E-01
        -0.37960E-02
         0.29100E-02
         0.13582E-01
         0.22633E-02
         0.11798E-01
         0.81761E-02
        -0.47387E-02
         0.39343E-02
        -0.17774E-01
         0.37951E-02
         0.13741E-02
         0.22786E-02
        -0.23674E-02
        -0.16895E-01
         0.11191E-01
         0.26385E-02
         0.76000E-02
         0.65281E-02
        -0.22547E-02
         0.90064E-02
         0.16948E-01
         0.41886E-01
         0.37952E-01
         0.32937E-01
         0.23752E-01
        -0.52445E-02
        -0.12062E-01
        -0.15059E-01
        -0.19050E-01
        -0.37507E-01
        -0.22477E-01
        -0.14871E-01
        -0.18467E-01
        -0.21604E-01
        -0.22241E-01
        -0.11736E-02
         0.24098E-01
        -0.35153E-01
         0.81986E-01
         0.10590E+00
         0.13619E+00
         0.16305E+00
         0.16126E+00
         0.14248E+00
         0.13659E+00
         0.13407E+00
         0.84516E-01
         0.28276E-01
         0.11250E-01
         0.10061E-01
        -0.36649E-02
        -0.37492E-01
        -0.74850E-01
        -0.10292E+00
        -0.13310E+00
        -0.14761E+00
        -0.13103E+00
        -0.12451E+00
        -0.12308E+00
        -0.86169E-01
        -0.44281E-01
        -0.41566E-01
  
SCALARS                      strain_xz  double 1
LOOKUP_TABLE default
        -0.95833E-02
         0.65625E-01
         0.22067E+00
        -0.15675E-01
        -0.30384E-09
         0.10773E-09
         0.36024E-09
         0.71945E-10
         0.60737E+00
         0.41048E+00
         0.10775E-08
         0.97054E-09
        -0.24880E-01
         0.10137E+00
        -0.13289E-09
        -0.62253E-09
         0.22808E-01
         0.97486E-01
        -0.44968E-09
        -0.66972E-09
         0.13808E+00
         0.22622E+00
         0.22357E+00
        -0.44720E-09
        -0.20622E-09
         0.36028E-09
         0.23942E+00
         0.18661E+00
        -0.83711E-09
        -0.66404E-09
        -0.53280E-01
         0.11387E+00
        -0.11749E-01
         0.85229E-10
        -0.32936E-09
        -0.20291E-09
        -0.15455E+00
        -0.70879E-01
        -0.48899E-09
        -0.52065E-09
        -0.30195E+00
        -0.41138E+00
        -0.11030E-08
        -0.81343E-09
        -0.33360E+00
        -0.18031E+00
        -0.12113E-08
        -0.58303E-09
         0.86470E-01
        -0.36597E-09
        -0.23079E+00
        -0.10187E-09
         0.86028E-01
        -0.71511E-09
        -0.63460E-01
        -0.18916E-09
        -0.27751E+00
        -0.79643E-01
        -0.16205E-09
        -0.39169E-09
         0.56848E-02
        -0.15444E+00
         0.32411E-09
         0.22226E-09
         0.41105E-01
        -0.32601E-10
         0.13517E+00
         0.21443E-09
         0.84493E+00
         0.57778E+00
         0.13403E-08
         0.97206E-09
         0.36792E+00
         0.70779E-09
        -0.76007E-01
        -0.48962E-09
        -0.23605E+00
        -0.96094E-10
        -0.50173E+00
        -0.14908E-09
        -0.67527E+00
        -0.49056E+00
        -0.54636E-09
        -0.62486E-09
        -0.45179E+00
        -0.67200E-09
        -0.40401E+00
        -0.96752E-09
        -0.24686E+00
        -0.61710E-09
        -0.38188E+00
        -0.27956E+00
        -0.26337E-09
         0.36118E-09
         0.64634E-01
         0.42366E-09
         0.17867E+00
         0.17789E-09
         0.42589E+00
         0.43928E-09
         0.62652E+00
         0.43359E+00
         0.10129E-08
         0.10569E-08
         0.14643E+01
         0.16446E+01
         0.18715E-08
         0.18444E-08
         0.14399E+01
         0.15989E-08
         0.13341E+01
         0.11948E-08
         0.93966E+00
         0.65662E-09
         0.65210E+00
         0.70215E-10
         0.23068E+00
        -0.25008E-09
        -0.28917E+00
        -0.20008E-09
        -0.68823E+00
        -0.19666E-09
        -0.10240E+01
        -0.44347E-09
        -0.14201E+01
        -0.84371E-09
        -0.18137E+01
        -0.10068E-08
        -0.20378E+01
        -0.94996E-09
        -0.20110E+01
        -0.10330E-08
        -0.19060E+01
        -0.13407E-08
        -0.17515E+01
        -0.15809E-08
        -0.15409E+01
        -0.14697E-08
        -0.11703E+01
        -0.11944E-08
        -0.66540E+00
        -0.56386E-09
        -0.56011E-01
         0.10767E-09
         0.37135E+00
         0.26141E-09
         0.58829E+00
         0.42746E-09
         0.87423E+00
         0.83655E-09
         0.11573E+01
         0.13727E-08
         0.15351E+01
         0.16492E-08
         0.17858E+01
         0.16869E-08
        -0.21965E-02
         0.11250E-02
         0.13228E-02
        -0.27192E-02
         0.10113E-01
         0.79921E-02
         0.11745E-02
        -0.17505E-02
        -0.92880E-03
        -0.16249E-02
         0.85501E-03
         0.36836E-02
         0.78007E-02
        -0.24972E-02
        -0.29786E-02
         0.36155E-02
         0.30228E-02
        -0.14159E-02
        -0.21369E-02
        -0.23123E-02
        -0.12535E-01
        -0.13423E-01
        -0.11995E-01
        -0.37377E-02
         0.15140E-02
        -0.11274E-02
        -0.35581E-02
        -0.39964E-03
        -0.40320E-02
        -0.28311E-02
         0.32220E-02
         0.61950E-03
        -0.15181E-02
        -0.48444E-03
         0.14502E-01
         0.94171E-02
         0.85962E-02
        -0.59572E-02
        -0.33886E-02
        -0.71219E-02
        -0.14460E-01
        -0.13914E-01
        -0.14116E-01
        -0.10340E-01
        -0.73156E-02
        -0.55758E-02
         0.10709E-02
         0.45724E-02
         0.13203E-02
         0.41151E-02
         0.10790E-01
         0.93169E-02
         0.40340E-01
         0.43524E-01
         0.38740E-01
         0.33166E-01
         0.24664E-01
         0.12389E-01
        -0.72371E-03
        -0.86398E-02
        -0.13192E-01
        -0.22616E-01
        -0.36608E-01
        -0.46361E-01
        -0.43035E-01
        -0.41478E-01
        -0.44203E-01
        -0.44484E-01
        -0.40406E-01
        -0.35001E-01
        -0.17039E-01
         0.27209E-02
         0.10600E-01
         0.11812E-01
         0.19956E-01
         0.31443E-01
         0.41594E-01
         0.44024E-01
        -0.62049E-02
         0.12738E-02
        -0.24250E-02
        -0.70608E-02
         0.14483E-01
         0.12377E-01
         0.36061E-02
        -0.78718E-02
        -0.36171E-02
        -0.74837E-02
        -0.15119E-02
         0.55151E-02
         0.18145E-01
        -0.13916E-01
        -0.14411E-01
         0.12191E-01
         0.67866E-02
        -0.40649E-02
        -0.27355E-02
        -0.48041E-02
        -0.28502E-01
        -0.27163E-01
        -0.26805E-01
        -0.64839E-02
         0.36827E-02
         0.24797E-02
        -0.13447E-01
         0.17855E-02
        -0.45005E-02
        -0.61371E-02
         0.93659E-02
         0.60606E-02
        -0.60746E-02
        -0.52427E-02
         0.25828E-01
         0.14256E-01
         0.16352E-01
        -0.15983E-01
        -0.26761E-02
        -0.77589E-02
        -0.28503E-01
        -0.29320E-01
        -0.28660E-01
        -0.20723E-01
        -0.15959E-01
        -0.93373E-02
         0.10092E-01
         0.11914E-01
        -0.15749E-02
         0.18963E-02
         0.19436E-01
         0.17122E-01
         0.10781E+00
         0.10863E+00
         0.97501E-01
         0.80420E-01
         0.59991E-01
         0.27621E-01
        -0.68591E-02
        -0.22235E-01
        -0.29294E-01
        -0.53684E-01
        -0.95363E-01
        -0.11250E+00
        -0.94399E-01
        -0.89820E-01
        -0.98931E-01
        -0.10187E+00
        -0.92963E-01
        -0.87905E-01
        -0.44795E-01
         0.11642E-01
         0.25758E-01
         0.26100E-01
         0.46394E-01
         0.80334E-01
         0.10282E+00
         0.10249E+00
        -0.62166E-02
         0.12785E-02
        -0.24295E-02
        -0.70656E-02
         0.14469E-01
         0.12366E-01
         0.36290E-02
        -0.78519E-02
        -0.36210E-02
        -0.74778E-02
        -0.14813E-02
         0.55285E-02
         0.18156E-01
        -0.13881E-01
        -0.14404E-01
         0.12203E-01
         0.68015E-02
        -0.40536E-02
        -0.27342E-02
        -0.47956E-02
        -0.28499E-01
        -0.27160E-01
        -0.26803E-01
        -0.64842E-02
         0.36910E-02
         0.24838E-02
        -0.13451E-01
         0.17520E-02
        -0.45321E-02
        -0.61410E-02
         0.93795E-02
         0.60598E-02
        -0.60493E-02
        -0.52451E-02
         0.25841E-01
         0.14249E-01
         0.16347E-01
        -0.16008E-01
        -0.27017E-02
        -0.77833E-02
        -0.28521E-01
        -0.29337E-01
        -0.28661E-01
        -0.20720E-01
        -0.15953E-01
        -0.93325E-02
         0.10090E-01
         0.11918E-01
        -0.15634E-02
         0.18898E-02
         0.19424E-01
         0.17097E-01
         0.10777E+00
         0.10861E+00
         0.97493E-01
         0.80421E-01
         0.59973E-01
         0.27613E-01
        -0.68669E-02
        -0.22249E-01
        -0.29269E-01
        -0.53663E-01
        -0.95348E-01
        -0.11251E+00
        -0.94390E-01
        -0.89814E-01
        -0.98943E-01
        -0.10189E+00
        -0.92979E-01
        -0.87923E-01
        -0.44783E-01
         0.11647E-01
         0.25739E-01
         0.26089E-01
         0.46360E-01
         0.80285E-01
         0.10276E+00
         0.10245E+00
        -0.62284E-02
         0.12831E-02
        -0.24341E-02
        -0.70703E-02
         0.14455E-01
         0.12354E-01
         0.36521E-02
        -0.78319E-02
        -0.36247E-02
        -0.74715E-02
        -0.14507E-02
         0.55419E-02
         0.18167E-01
        -0.13847E-01
        -0.14396E-01
         0.12216E-01
         0.68167E-02
        -0.40423E-02
        -0.27328E-02
        -0.47874E-02
        -0.28497E-01
        -0.27157E-01
        -0.26801E-01
        -0.64845E-02
         0.36999E-02
         0.24883E-02
        -0.13455E-01
         0.17188E-02
        -0.45639E-02
        -0.61449E-02
         0.93936E-02
         0.60593E-02
        -0.60239E-02
        -0.52475E-02
         0.25854E-01
         0.14243E-01
         0.16342E-01
        -0.16034E-01
        -0.27273E-02
        -0.78079E-02
        -0.28539E-01
        -0.29355E-01
        -0.28663E-01
        -0.20718E-01
        -0.15948E-01
        -0.93279E-02
         0.10088E-01
         0.11922E-01
        -0.15517E-02
         0.18831E-02
         0.19411E-01
         0.17072E-01
         0.10773E+00
         0.10858E+00
         0.97484E-01
         0.80421E-01
         0.59954E-01
         0.27604E-01
        -0.68748E-02
        -0.22263E-01
        -0.29245E-01
        -0.53642E-01
        -0.95334E-01
        -0.11251E+00
        -0.94381E-01
        -0.89810E-01
        -0.98956E-01
        -0.10191E+00
        -0.92996E-01
        -0.87940E-01
        -0.44771E-01
         0.11652E-01
         0.25720E-01
         0.26079E-01
         0.46326E-01
         0.80236E-01
         0.10271E+00
         0.10240E+00
        -0.62401E-02
         0.12880E-02
        -0.24386E-02
        -0.70749E-02
         0.14440E-01
         0.12343E-01
         0.36748E-02
        -0.78119E-02
        -0.36280E-02
        -0.74641E-02
        -0.14203E-02
         0.55556E-02
         0.18178E-01
        -0.13813E-01
        -0.14388E-01
         0.12230E-01
         0.68326E-02
        -0.40309E-02
        -0.27316E-02
        -0.47789E-02
        -0.28495E-01
        -0.27155E-01
        -0.26801E-01
        -0.64849E-02
         0.37104E-02
         0.24938E-02
        -0.13458E-01
         0.16867E-02
        -0.45956E-02
        -0.61485E-02
         0.94087E-02
         0.60599E-02
        -0.59983E-02
        -0.52498E-02
         0.25867E-01
         0.14237E-01
         0.16336E-01
        -0.16059E-01
        -0.27529E-02
        -0.78324E-02
        -0.28557E-01
        -0.29373E-01
        -0.28667E-01
        -0.20716E-01
        -0.15941E-01
        -0.93229E-02
         0.10087E-01
         0.11926E-01
        -0.15399E-02
         0.18764E-02
         0.19399E-01
         0.17046E-01
         0.10770E+00
         0.10855E+00
         0.97475E-01
         0.80422E-01
         0.59936E-01
         0.27596E-01
        -0.68827E-02
        -0.22276E-01
        -0.29220E-01
        -0.53621E-01
        -0.95319E-01
        -0.11251E+00
        -0.94375E-01
        -0.89805E-01
        -0.98971E-01
        -0.10194E+00
        -0.93014E-01
        -0.87957E-01
        -0.44758E-01
         0.11658E-01
         0.25701E-01
         0.26069E-01
         0.46292E-01
         0.80186E-01
         0.10266E+00
         0.10236E+00
        -0.62518E-02
         0.12928E-02
        -0.24431E-02
        -0.70796E-02
         0.14426E-01
         0.12332E-01
         0.36979E-02
        -0.77917E-02
        -0.36308E-02
        -0.74556E-02
        -0.13898E-02
         0.55691E-02
         0.18189E-01
        -0.13779E-01
        -0.14381E-01
         0.12245E-01
         0.68491E-02
        -0.40194E-02
        -0.27301E-02
        -0.47703E-02
        -0.28494E-01
        -0.27154E-01
        -0.26803E-01
        -0.64853E-02
         0.37226E-02
         0.25001E-02
        -0.13461E-01
         0.16556E-02
        -0.46273E-02
        -0.61519E-02
         0.94248E-02
         0.60614E-02
        -0.59726E-02
        -0.52521E-02
         0.25880E-01
         0.14230E-01
         0.16331E-01
        -0.16085E-01
        -0.27783E-02
        -0.78572E-02
        -0.28577E-01
        -0.29393E-01
        -0.28673E-01
        -0.20715E-01
        -0.15935E-01
        -0.93175E-02
         0.10086E-01
         0.11931E-01
        -0.15281E-02
         0.18698E-02
         0.19387E-01
         0.17021E-01
         0.10766E+00
         0.10852E+00
         0.97466E-01
         0.80422E-01
         0.59917E-01
         0.27588E-01
        -0.68905E-02
        -0.22290E-01
        -0.29195E-01
        -0.53599E-01
        -0.95304E-01
        -0.11252E+00
        -0.94370E-01
        -0.89802E-01
        -0.98986E-01
        -0.10197E+00
        -0.93034E-01
        -0.87973E-01
        -0.44746E-01
         0.11663E-01
         0.25682E-01
         0.26059E-01
         0.46258E-01
         0.80137E-01
         0.10261E+00
         0.10231E+00
        -0.62630E-02
         0.12980E-02
        -0.24471E-02
        -0.70841E-02
         0.14412E-01
         0.12320E-01
         0.37209E-02
        -0.77712E-02
        -0.36335E-02
        -0.74468E-02
        -0.13592E-02
         0.55825E-02
         0.18200E-01
        -0.13744E-01
        -0.14373E-01
         0.12261E-01
         0.68656E-02
        -0.40079E-02
        -0.27286E-02
        -0.47621E-02
        -0.28494E-01
        -0.27153E-01
        -0.26805E-01
        -0.64858E-02
         0.37347E-02
         0.25066E-02
        -0.13464E-01
         0.16247E-02
        -0.46591E-02
        -0.61558E-02
         0.94409E-02
         0.60627E-02
        -0.59467E-02
        -0.52542E-02
         0.25893E-01
         0.14225E-01
         0.16326E-01
        -0.16110E-01
        -0.28038E-02
        -0.78819E-02
        -0.28596E-01
        -0.29413E-01
        -0.28679E-01
        -0.20714E-01
        -0.15929E-01
        -0.93129E-02
         0.10084E-01
         0.11935E-01
        -0.15160E-02
         0.18638E-02
         0.19375E-01
         0.16996E-01
         0.10762E+00
         0.10849E+00
         0.97457E-01
         0.80423E-01
         0.59899E-01
         0.27580E-01
        -0.68981E-02
        -0.22304E-01
        -0.29171E-01
        -0.53578E-01
        -0.95289E-01
        -0.11252E+00
        -0.94367E-01
        -0.89799E-01
        -0.99002E-01
        -0.10200E+00
        -0.93055E-01
        -0.87990E-01
        -0.44733E-01
         0.11668E-01
         0.25663E-01
         0.26049E-01
         0.46224E-01
         0.80089E-01
         0.10256E+00
         0.10227E+00
        -0.62733E-02
         0.13043E-02
        -0.24502E-02
        -0.70885E-02
         0.14399E-01
         0.12309E-01
         0.37444E-02
        -0.77502E-02
        -0.36364E-02
        -0.74385E-02
        -0.13285E-02
         0.55960E-02
         0.18211E-01
        -0.13710E-01
        -0.14365E-01
         0.12276E-01
         0.68815E-02
        -0.39964E-02
        -0.27274E-02
        -0.47540E-02
        -0.28493E-01
        -0.27152E-01
        -0.26807E-01
        -0.64866E-02
         0.37455E-02
         0.25123E-02
        -0.13467E-01
         0.15931E-02
        -0.46912E-02
        -0.61604E-02
         0.94560E-02
         0.60630E-02
        -0.59202E-02
        -0.52557E-02
         0.25907E-01
         0.14219E-01
         0.16322E-01
        -0.16136E-01
        -0.28295E-02
        -0.79072E-02
        -0.28616E-01
        -0.29433E-01
        -0.28686E-01
        -0.20713E-01
        -0.15924E-01
        -0.93086E-02
         0.10082E-01
         0.11939E-01
        -0.15029E-02
         0.18591E-02
         0.19364E-01
         0.16972E-01
         0.10759E+00
         0.10847E+00
         0.97449E-01
         0.80423E-01
         0.59880E-01
         0.27571E-01
        -0.69058E-02
        -0.22318E-01
        -0.29146E-01
        -0.53557E-01
        -0.95273E-01
        -0.11253E+00
        -0.94364E-01
        -0.89796E-01
        -0.99018E-01
        -0.10203E+00
        -0.93077E-01
        -0.88005E-01
        -0.44720E-01
         0.11672E-01
         0.25643E-01
         0.26038E-01
         0.46191E-01
         0.80040E-01
         0.10251E+00
         0.10222E+00
        -0.62831E-02
         0.13108E-02
        -0.24529E-02
        -0.70927E-02
         0.14385E-01
         0.12298E-01
         0.37681E-02
        -0.77290E-02
        -0.36393E-02
        -0.74306E-02
        -0.12978E-02
         0.56095E-02
         0.18223E-01
        -0.13676E-01
        -0.14357E-01
         0.12292E-01
         0.68971E-02
        -0.39848E-02
        -0.27259E-02
        -0.47465E-02
        -0.28493E-01
        -0.27151E-01
        -0.26809E-01
        -0.64872E-02
         0.37555E-02
         0.25177E-02
        -0.13469E-01
         0.15612E-02
        -0.47238E-02
        -0.61653E-02
         0.94707E-02
         0.60626E-02
        -0.58934E-02
        -0.52570E-02
         0.25921E-01
         0.14215E-01
         0.16318E-01
        -0.16161E-01
        -0.28552E-02
        -0.79323E-02
        -0.28636E-01
        -0.29454E-01
        -0.28693E-01
        -0.20713E-01
        -0.15919E-01
        -0.93052E-02
         0.10079E-01
         0.11943E-01
        -0.14894E-02
         0.18550E-02
         0.19354E-01
         0.16947E-01
         0.10755E+00
         0.10844E+00
         0.97439E-01
         0.80423E-01
         0.59862E-01
         0.27563E-01
        -0.69134E-02
        -0.22331E-01
        -0.29121E-01
        -0.53536E-01
        -0.95257E-01
        -0.11253E+00
        -0.94360E-01
        -0.89793E-01
        -0.99034E-01
        -0.10206E+00
        -0.93098E-01
        -0.88020E-01
        -0.44707E-01
         0.11675E-01
         0.25623E-01
         0.26029E-01
         0.46158E-01
         0.79992E-01
         0.10246E+00
         0.10218E+00
        -0.62930E-02
         0.13175E-02
        -0.24555E-02
        -0.70970E-02
         0.14372E-01
         0.12286E-01
         0.37917E-02
        -0.77079E-02
        -0.36423E-02
        -0.74227E-02
        -0.12671E-02
         0.56230E-02
         0.18234E-01
        -0.13641E-01
        -0.14349E-01
         0.12307E-01
         0.69127E-02
        -0.39732E-02
        -0.27245E-02
        -0.47386E-02
        -0.28493E-01
        -0.27151E-01
        -0.26812E-01
        -0.64882E-02
         0.37655E-02
         0.25230E-02
        -0.13473E-01
         0.15295E-02
        -0.47563E-02
        -0.61702E-02
         0.94855E-02
         0.60622E-02
        -0.58667E-02
        -0.52583E-02
         0.25935E-01
         0.14210E-01
         0.16314E-01
        -0.16186E-01
        -0.28809E-02
        -0.79574E-02
        -0.28655E-01
        -0.29475E-01
        -0.28700E-01
        -0.20713E-01
        -0.15915E-01
        -0.93017E-02
         0.10077E-01
         0.11947E-01
        -0.14759E-02
         0.18511E-02
         0.19344E-01
         0.16923E-01
         0.10751E+00
         0.10841E+00
         0.97430E-01
         0.80423E-01
         0.59843E-01
         0.27554E-01
        -0.69210E-02
        -0.22345E-01
        -0.29097E-01
        -0.53515E-01
        -0.95242E-01
        -0.11253E+00
        -0.94356E-01
        -0.89790E-01
        -0.99050E-01
        -0.10209E+00
        -0.93119E-01
        -0.88035E-01
        -0.44694E-01
         0.11679E-01
         0.25603E-01
         0.26018E-01
         0.46125E-01
         0.79944E-01
         0.10241E+00
         0.10213E+00
        -0.63028E-02
         0.13242E-02
        -0.24581E-02
        -0.71014E-02
         0.14358E-01
         0.12275E-01
         0.38155E-02
        -0.76867E-02
        -0.36453E-02
        -0.74148E-02
        -0.12364E-02
         0.56365E-02
         0.18246E-01
        -0.13607E-01
        -0.14341E-01
         0.12322E-01
         0.69282E-02
        -0.39618E-02
        -0.27230E-02
        -0.47310E-02
        -0.28492E-01
        -0.27150E-01
        -0.26814E-01
        -0.64890E-02
         0.37755E-02
         0.25284E-02
        -0.13476E-01
         0.14979E-02
        -0.47887E-02
        -0.61750E-02
         0.95002E-02
         0.60618E-02
        -0.58400E-02
        -0.52596E-02
         0.25949E-01
         0.14205E-01
         0.16310E-01
        -0.16211E-01
        -0.29067E-02
        -0.79827E-02
        -0.28675E-01
        -0.29496E-01
        -0.28707E-01
        -0.20713E-01
        -0.15910E-01
        -0.92979E-02
         0.10074E-01
         0.11950E-01
        -0.14625E-02
         0.18469E-02
         0.19334E-01
         0.16899E-01
         0.10748E+00
         0.10838E+00
         0.97421E-01
         0.80423E-01
         0.59825E-01
         0.27546E-01
        -0.69285E-02
        -0.22358E-01
        -0.29072E-01
        -0.53494E-01
        -0.95227E-01
        -0.11254E+00
        -0.94352E-01
        -0.89787E-01
        -0.99066E-01
        -0.10212E+00
        -0.93140E-01
        -0.88051E-01
        -0.44681E-01
         0.11683E-01
         0.25583E-01
         0.26008E-01
         0.46092E-01
         0.79896E-01
         0.10236E+00
         0.10209E+00
        -0.63126E-02
         0.13309E-02
        -0.24608E-02
        -0.71055E-02
         0.14345E-01
         0.12264E-01
         0.38390E-02
        -0.76655E-02
        -0.36483E-02
        -0.74071E-02
        -0.12057E-02
         0.56501E-02
         0.18257E-01
        -0.13573E-01
        -0.14333E-01
         0.12338E-01
         0.69438E-02
        -0.39503E-02
        -0.27218E-02
        -0.47231E-02
        -0.28492E-01
        -0.27149E-01
        -0.26816E-01
        -0.64899E-02
         0.37854E-02
         0.25336E-02
        -0.13479E-01
         0.14663E-02
        -0.48210E-02
        -0.61798E-02
         0.95148E-02
         0.60613E-02
        -0.58133E-02
        -0.52608E-02
         0.25963E-01
         0.14200E-01
         0.16306E-01
        -0.16236E-01
        -0.29325E-02
        -0.80077E-02
        -0.28695E-01
        -0.29516E-01
        -0.28714E-01
        -0.20713E-01
        -0.15905E-01
        -0.92946E-02
         0.10071E-01
         0.11954E-01
        -0.14489E-02
         0.18428E-02
         0.19324E-01
         0.16874E-01
         0.10744E+00
         0.10836E+00
         0.97411E-01
         0.80423E-01
         0.59806E-01
         0.27538E-01
        -0.69359E-02
        -0.22372E-01
        -0.29048E-01
        -0.53472E-01
        -0.95211E-01
        -0.11254E+00
        -0.94348E-01
        -0.89784E-01
        -0.99081E-01
        -0.10215E+00
        -0.93161E-01
        -0.88066E-01
        -0.44668E-01
         0.11686E-01
         0.25563E-01
         0.25998E-01
         0.46059E-01
         0.79847E-01
         0.10231E+00
         0.10204E+00
        -0.63224E-02
         0.13376E-02
        -0.24633E-02
        -0.71098E-02
         0.14331E-01
         0.12252E-01
         0.38627E-02
        -0.76443E-02
        -0.36513E-02
        -0.73992E-02
        -0.11751E-02
         0.56637E-02
         0.18268E-01
        -0.13539E-01
        -0.14325E-01
         0.12353E-01
         0.69593E-02
        -0.39388E-02
        -0.27204E-02
        -0.47154E-02
        -0.28491E-01
        -0.27148E-01
        -0.26819E-01
        -0.64909E-02
         0.37953E-02
         0.25391E-02
        -0.13482E-01
         0.14348E-02
        -0.48531E-02
        -0.61848E-02
         0.95296E-02
         0.60609E-02
        -0.57864E-02
        -0.52621E-02
         0.25978E-01
         0.14195E-01
         0.16302E-01
        -0.16261E-01
        -0.29584E-02
        -0.80332E-02
        -0.28715E-01
        -0.29537E-01
        -0.28721E-01
        -0.20713E-01
        -0.15901E-01
        -0.92912E-02
         0.10069E-01
         0.11958E-01
        -0.14353E-02
         0.18389E-02
         0.19314E-01
         0.16850E-01
         0.10740E+00
         0.10833E+00
         0.97402E-01
         0.80423E-01
         0.59788E-01
         0.27529E-01
        -0.69433E-02
        -0.22385E-01
        -0.29023E-01
        -0.53451E-01
        -0.95196E-01
        -0.11255E+00
        -0.94345E-01
        -0.89781E-01
        -0.99097E-01
        -0.10218E+00
        -0.93182E-01
        -0.88081E-01
        -0.44655E-01
         0.11690E-01
         0.25543E-01
         0.25988E-01
         0.46027E-01
         0.79799E-01
         0.10226E+00
         0.10199E+00
        -0.63323E-02
         0.13443E-02
        -0.24659E-02
        -0.71140E-02
         0.14318E-01
         0.12241E-01
         0.38862E-02
        -0.76231E-02
        -0.36542E-02
        -0.73912E-02
        -0.11445E-02
         0.56772E-02
         0.18280E-01
        -0.13505E-01
        -0.14316E-01
         0.12368E-01
         0.69748E-02
        -0.39272E-02
        -0.27190E-02
        -0.47076E-02
        -0.28491E-01
        -0.27147E-01
        -0.26821E-01
        -0.64919E-02
         0.38050E-02
         0.25443E-02
        -0.13485E-01
         0.14033E-02
        -0.48854E-02
        -0.61896E-02
         0.95443E-02
         0.60604E-02
        -0.57596E-02
        -0.52634E-02
         0.25991E-01
         0.14191E-01
         0.16299E-01
        -0.16286E-01
        -0.29844E-02
        -0.80584E-02
        -0.28735E-01
        -0.29557E-01
        -0.28727E-01
        -0.20713E-01
        -0.15896E-01
        -0.92872E-02
         0.10066E-01
         0.11962E-01
        -0.14217E-02
         0.18348E-02
         0.19304E-01
         0.16825E-01
         0.10736E+00
         0.10830E+00
         0.97392E-01
         0.80424E-01
         0.59769E-01
         0.27521E-01
        -0.69509E-02
        -0.22399E-01
        -0.28999E-01
        -0.53430E-01
        -0.95180E-01
        -0.11255E+00
        -0.94341E-01
        -0.89778E-01
        -0.99113E-01
        -0.10221E+00
        -0.93203E-01
        -0.88096E-01
        -0.44642E-01
         0.11693E-01
         0.25523E-01
         0.25978E-01
         0.45994E-01
         0.79751E-01
         0.10221E+00
         0.10195E+00
        -0.63422E-02
         0.13509E-02
        -0.24684E-02
        -0.71181E-02
         0.14305E-01
         0.12229E-01
         0.39096E-02
        -0.76020E-02
        -0.36571E-02
        -0.73832E-02
        -0.11140E-02
         0.56907E-02
         0.18291E-01
        -0.13471E-01
        -0.14308E-01
         0.12383E-01
         0.69903E-02
        -0.39157E-02
        -0.27179E-02
        -0.47000E-02
        -0.28490E-01
        -0.27146E-01
        -0.26824E-01
        -0.64928E-02
         0.38147E-02
         0.25496E-02
        -0.13488E-01
         0.13720E-02
        -0.49177E-02
        -0.61943E-02
         0.95589E-02
         0.60600E-02
        -0.57327E-02
        -0.52646E-02
         0.26006E-01
         0.14186E-01
         0.16295E-01
        -0.16311E-01
        -0.30104E-02
        -0.80839E-02
        -0.28755E-01
        -0.29578E-01
        -0.28734E-01
        -0.20713E-01
        -0.15892E-01
        -0.92838E-02
         0.10063E-01
         0.11966E-01
        -0.14081E-02
         0.18308E-02
         0.19294E-01
         0.16801E-01
         0.10733E+00
         0.10827E+00
         0.97383E-01
         0.80424E-01
         0.59751E-01
         0.27512E-01
        -0.69584E-02
        -0.22411E-01
        -0.28974E-01
        -0.53408E-01
        -0.95165E-01
        -0.11256E+00
        -0.94337E-01
        -0.89775E-01
        -0.99129E-01
        -0.10225E+00
        -0.93224E-01
        -0.88111E-01
        -0.44629E-01
         0.11697E-01
         0.25502E-01
         0.25968E-01
         0.45961E-01
         0.79703E-01
         0.10216E+00
         0.10190E+00
        -0.63520E-02
         0.13575E-02
        -0.24710E-02
        -0.71223E-02
         0.14291E-01
         0.12218E-01
         0.39331E-02
        -0.75808E-02
        -0.36600E-02
        -0.73754E-02
        -0.10835E-02
         0.57045E-02
         0.18303E-01
        -0.13437E-01
        -0.14300E-01
         0.12398E-01
         0.70057E-02
        -0.39043E-02
        -0.27166E-02
        -0.46921E-02
        -0.28490E-01
        -0.27145E-01
        -0.26826E-01
        -0.64938E-02
         0.38244E-02
         0.25549E-02
        -0.13491E-01
         0.13406E-02
        -0.49499E-02
        -0.61990E-02
         0.95735E-02
         0.60595E-02
        -0.57058E-02
        -0.52659E-02
         0.26020E-01
         0.14182E-01
         0.16291E-01
        -0.16335E-01
        -0.30364E-02
        -0.81092E-02
        -0.28774E-01
        -0.29598E-01
        -0.28741E-01
        -0.20713E-01
        -0.15887E-01
        -0.92805E-02
         0.10061E-01
         0.11969E-01
        -0.13943E-02
         0.18268E-02
         0.19284E-01
         0.16777E-01
         0.10729E+00
         0.10825E+00
         0.97374E-01
         0.80424E-01
         0.59733E-01
         0.27504E-01
        -0.69657E-02
        -0.22424E-01
        -0.28949E-01
        -0.53387E-01
        -0.95149E-01
        -0.11256E+00
        -0.94333E-01
        -0.89773E-01
        -0.99145E-01
        -0.10228E+00
        -0.93245E-01
        -0.88126E-01
        -0.44616E-01
         0.11700E-01
         0.25482E-01
         0.25959E-01
         0.45928E-01
         0.79654E-01
         0.10211E+00
         0.10186E+00
        -0.63619E-02
         0.13643E-02
        -0.24735E-02
        -0.71265E-02
         0.14278E-01
         0.12207E-01
         0.39565E-02
        -0.75595E-02
        -0.36629E-02
        -0.73674E-02
        -0.10530E-02
         0.57180E-02
         0.18314E-01
        -0.13403E-01
        -0.14292E-01
         0.12414E-01
         0.70212E-02
        -0.38929E-02
        -0.27152E-02
        -0.46845E-02
        -0.28490E-01
        -0.27144E-01
        -0.26828E-01
        -0.64947E-02
         0.38339E-02
         0.25602E-02
        -0.13494E-01
         0.13093E-02
        -0.49821E-02
        -0.62037E-02
         0.95882E-02
         0.60590E-02
        -0.56789E-02
        -0.52671E-02
         0.26034E-01
         0.14177E-01
         0.16287E-01
        -0.16360E-01
        -0.30625E-02
        -0.81344E-02
        -0.28794E-01
        -0.29618E-01
        -0.28748E-01
        -0.20712E-01
        -0.15882E-01
        -0.92766E-02
         0.10058E-01
         0.11973E-01
        -0.13807E-02
         0.18227E-02
         0.19274E-01
         0.16752E-01
         0.10725E+00
         0.10822E+00
         0.97364E-01
         0.80424E-01
         0.59714E-01
         0.27495E-01
        -0.69729E-02
        -0.22437E-01
        -0.28925E-01
        -0.53366E-01
        -0.95134E-01
        -0.11257E+00
        -0.94330E-01
        -0.89769E-01
        -0.99161E-01
        -0.10231E+00
        -0.93266E-01
        -0.88141E-01
        -0.44603E-01
         0.11704E-01
         0.25462E-01
         0.25949E-01
         0.45895E-01
         0.79606E-01
         0.10206E+00
         0.10181E+00
        -0.63717E-02
         0.13709E-02
        -0.24761E-02
        -0.71306E-02
         0.14265E-01
         0.12196E-01
         0.39800E-02
        -0.75383E-02
        -0.36657E-02
        -0.73591E-02
        -0.10226E-02
         0.57317E-02
         0.18325E-01
        -0.13369E-01
        -0.14283E-01
         0.12429E-01
         0.70367E-02
        -0.38816E-02
        -0.27140E-02
        -0.46766E-02
        -0.28489E-01
        -0.27143E-01
        -0.26830E-01
        -0.64958E-02
         0.38432E-02
         0.25655E-02
        -0.13497E-01
         0.12777E-02
        -0.50140E-02
        -0.62083E-02
         0.96029E-02
         0.60587E-02
        -0.56521E-02
        -0.52685E-02
         0.26049E-01
         0.14172E-01
         0.16283E-01
        -0.16384E-01
        -0.30889E-02
        -0.81600E-02
        -0.28813E-01
        -0.29639E-01
        -0.28755E-01
        -0.20713E-01
        -0.15878E-01
        -0.92733E-02
         0.10056E-01
         0.11977E-01
        -0.13670E-02
         0.18185E-02
         0.19264E-01
         0.16728E-01
         0.10722E+00
         0.10819E+00
         0.97355E-01
         0.80424E-01
         0.59696E-01
         0.27487E-01
        -0.69800E-02
        -0.22450E-01
        -0.28901E-01
        -0.53344E-01
        -0.95119E-01
        -0.11257E+00
        -0.94326E-01
        -0.89766E-01
        -0.99177E-01
        -0.10234E+00
        -0.93287E-01
        -0.88156E-01
        -0.44590E-01
         0.11707E-01
         0.25442E-01
         0.25938E-01
         0.45862E-01
         0.79558E-01
         0.10201E+00
         0.10177E+00
        -0.63816E-02
         0.13775E-02
        -0.24786E-02
        -0.71347E-02
         0.14251E-01
         0.12184E-01
         0.40033E-02
        -0.75171E-02
        -0.36682E-02
        -0.73500E-02
        -0.99213E-03
         0.57453E-02
         0.18337E-01
        -0.13335E-01
        -0.14274E-01
         0.12444E-01
         0.70521E-02
        -0.38701E-02
        -0.27130E-02
        -0.46691E-02
        -0.28489E-01
        -0.27142E-01
        -0.26833E-01
        -0.64967E-02
         0.38519E-02
         0.25709E-02
        -0.13498E-01
         0.12454E-02
        -0.50461E-02
        -0.62133E-02
         0.96176E-02
         0.60581E-02
        -0.56252E-02
        -0.52698E-02
         0.26062E-01
         0.14168E-01
         0.16279E-01
        -0.16408E-01
        -0.31160E-02
        -0.81850E-02
        -0.28831E-01
        -0.29657E-01
        -0.28760E-01
        -0.20713E-01
        -0.15873E-01
        -0.92695E-02
         0.10053E-01
         0.11981E-01
        -0.13535E-02
         0.18144E-02
         0.19254E-01
         0.16703E-01
         0.10718E+00
         0.10816E+00
         0.97345E-01
         0.80423E-01
         0.59677E-01
         0.27479E-01
        -0.69871E-02
        -0.22463E-01
        -0.28876E-01
        -0.53322E-01
        -0.95103E-01
        -0.11258E+00
        -0.94325E-01
        -0.89764E-01
        -0.99192E-01
        -0.10237E+00
        -0.93308E-01
        -0.88171E-01
        -0.44577E-01
         0.11710E-01
         0.25422E-01
         0.25928E-01
         0.45830E-01
         0.79509E-01
         0.10196E+00
         0.10172E+00
        -0.63915E-02
         0.13841E-02
        -0.24810E-02
        -0.71388E-02
         0.14238E-01
         0.12173E-01
         0.40268E-02
        -0.74959E-02
        -0.36705E-02
        -0.73399E-02
        -0.96178E-03
         0.57589E-02
         0.18348E-01
        -0.13300E-01
        -0.14266E-01
         0.12459E-01
         0.70673E-02
        -0.38587E-02
        -0.27118E-02
        -0.46614E-02
        -0.28488E-01
        -0.27141E-01
        -0.26835E-01
        -0.64977E-02
         0.38599E-02
         0.25762E-02
        -0.13499E-01
         0.12120E-02
        -0.50782E-02
        -0.62181E-02
         0.96323E-02
         0.60576E-02
        -0.55982E-02
        -0.52711E-02
         0.26077E-01
         0.14163E-01
         0.16276E-01
        -0.16432E-01
        -0.31438E-02
        -0.82102E-02
        -0.28847E-01
        -0.29674E-01
        -0.28765E-01
        -0.20713E-01
        -0.15869E-01
        -0.92662E-02
         0.10050E-01
         0.11985E-01
        -0.13397E-02
         0.18104E-02
         0.19243E-01
         0.16679E-01
         0.10714E+00
         0.10814E+00
         0.97336E-01
         0.80424E-01
         0.59659E-01
         0.27470E-01
        -0.69942E-02
        -0.22476E-01
        -0.28853E-01
        -0.53300E-01
        -0.95086E-01
        -0.11259E+00
        -0.94325E-01
        -0.89761E-01
        -0.99208E-01
        -0.10240E+00
        -0.93329E-01
        -0.88185E-01
        -0.44564E-01
         0.11714E-01
         0.25402E-01
         0.25918E-01
         0.45797E-01
         0.79461E-01
         0.10191E+00
         0.10168E+00
        -0.64014E-02
         0.13907E-02
        -0.24836E-02
        -0.71430E-02
         0.14225E-01
         0.12162E-01
         0.40499E-02
        -0.74747E-02
        -0.36726E-02
        -0.73297E-02
        -0.93164E-03
         0.57723E-02
         0.18359E-01
        -0.13266E-01
        -0.14257E-01
         0.12474E-01
         0.70825E-02
        -0.38474E-02
        -0.27105E-02
        -0.46539E-02
        -0.28488E-01
        -0.27140E-01
        -0.26837E-01
        -0.64987E-02
         0.38677E-02
         0.25814E-02
        -0.13499E-01
         0.11785E-02
        -0.51100E-02
        -0.62228E-02
         0.96470E-02
         0.60571E-02
        -0.55715E-02
        -0.52725E-02
         0.26092E-01
         0.14159E-01
         0.16272E-01
        -0.16455E-01
        -0.31720E-02
        -0.82347E-02
        -0.28863E-01
        -0.29690E-01
        -0.28770E-01
        -0.20713E-01
        -0.15864E-01
        -0.92627E-02
         0.10048E-01
         0.11989E-01
        -0.13262E-02
         0.18062E-02
         0.19234E-01
         0.16655E-01
         0.10710E+00
         0.10811E+00
         0.97327E-01
         0.80424E-01
         0.59640E-01
         0.27462E-01
        -0.70012E-02
        -0.22488E-01
        -0.28829E-01
        -0.53276E-01
        -0.95070E-01
        -0.11260E+00
        -0.94326E-01
        -0.89759E-01
        -0.99224E-01
        -0.10243E+00
        -0.93350E-01
        -0.88200E-01
        -0.44551E-01
         0.11717E-01
         0.25382E-01
         0.25908E-01
         0.45764E-01
         0.79414E-01
         0.10186E+00
         0.10163E+00
        -0.64373E-02
         0.14018E-02
        -0.24966E-02
        -0.71757E-02
         0.14268E-01
         0.12200E-01
         0.40872E-02
        -0.74870E-02
        -0.36894E-02
        -0.73517E-02
        -0.90920E-03
         0.58058E-02
         0.18443E-01
        -0.13290E-01
        -0.14309E-01
         0.12539E-01
         0.71259E-02
        -0.38524E-02
        -0.27196E-02
        -0.46643E-02
        -0.28597E-01
        -0.27246E-01
        -0.26942E-01
        -0.65256E-02
         0.38907E-02
         0.25965E-02
        -0.13558E-01
         0.11520E-02
        -0.51606E-02
        -0.62527E-02
         0.97000E-02
         0.60808E-02
        -0.55696E-02
        -0.52957E-02
         0.26209E-01
         0.14211E-01
         0.16333E-01
        -0.16546E-01
        -0.32110E-02
        -0.82913E-02
        -0.28997E-01
        -0.29828E-01
        -0.28891E-01
        -0.20792E-01
        -0.15921E-01
        -0.92947E-02
         0.10086E-01
         0.12042E-01
        -0.13194E-02
         0.18092E-02
         0.19301E-01
         0.16699E-01
         0.10751E+00
         0.10852E+00
         0.97721E-01
         0.80752E-01
         0.59870E-01
         0.27566E-01
        -0.70404E-02
        -0.22595E-01
        -0.28931E-01
        -0.53488E-01
        -0.95468E-01
        -0.11309E+00
        -0.94702E-01
        -0.90104E-01
        -0.99616E-01
        -0.10285E+00
        -0.93721E-01
        -0.88561E-01
        -0.44722E-01
         0.11772E-01
         0.25468E-01
         0.26001E-01
         0.45918E-01
         0.79687E-01
         0.10221E+00
         0.10199E+00
        -0.96116E-02
         0.21073E-02
        -0.37207E-02
        -0.10731E-01
         0.20502E-01
         0.17696E-01
         0.61282E-02
        -0.11107E-01
        -0.54912E-02
        -0.10888E-01
        -0.13174E-02
         0.82022E-02
         0.26439E-01
        -0.19429E-01
        -0.20310E-01
         0.18736E-01
         0.10621E-01
        -0.57493E-02
        -0.40076E-02
        -0.68893E-02
        -0.40958E-01
        -0.39527E-01
        -0.38694E-01
        -0.96922E-02
         0.58204E-02
         0.38908E-02
        -0.19995E-01
         0.16930E-02
        -0.77671E-02
        -0.93419E-02
         0.14501E-01
         0.90630E-02
        -0.83093E-02
        -0.79205E-02
         0.36983E-01
         0.20606E-01
         0.23692E-01
        -0.24038E-01
        -0.47466E-02
        -0.12266E-01
        -0.42265E-01
        -0.43793E-01
        -0.42380E-01
        -0.30075E-01
        -0.22954E-01
        -0.13020E-01
         0.14493E-01
         0.17535E-01
        -0.19176E-02
         0.26315E-02
         0.27417E-01
         0.24148E-01
         0.13454E+00
         0.13556E+00
         0.12212E+00
         0.10120E+00
         0.74962E-01
         0.34589E-01
        -0.89491E-02
        -0.28935E-01
        -0.36956E-01
        -0.67937E-01
        -0.12142E+00
        -0.14357E+00
        -0.12157E+00
        -0.11602E+00
        -0.12662E+00
        -0.12924E+00
        -0.11741E+00
        -0.11033E+00
        -0.55680E-01
         0.14686E-01
         0.32076E-01
         0.32891E-01
         0.57873E-01
         0.10079E+00
         0.12888E+00
         0.12814E+00
  
SCALARS                      strain_xy  double 1
LOOKUP_TABLE default
         0.52796E-04
         0.11841E-03
         0.10449E-02
        -0.38837E-04
        -0.44497E-19
         0.43485E-20
         0.65381E-19
         0.99595E-20
         0.10681E-01
        -0.47693E-02
         0.29103E-18
         0.23078E-18
        -0.37483E-03
         0.77581E-04
         0.25688E-19
        -0.77151E-20
        -0.12389E-03
        -0.18829E-02
         0.12788E-20
         0.19488E-19
         0.13590E-02
         0.82656E-02
         0.86877E-02
         0.19816E-18
         0.15780E-18
        -0.23044E-18
         0.86232E-03
         0.67691E-02
         0.26682E-18
         0.41061E-18
         0.33049E-03
        -0.60338E-03
        -0.54999E-04
        -0.14083E-19
         0.55556E-19
        -0.71058E-21
         0.28166E-02
         0.12124E-02
         0.14869E-18
         0.12317E-18
         0.53551E-02
         0.45509E-02
         0.25347E-18
         0.17082E-18
         0.54574E-02
         0.10241E-02
        -0.92336E-20
         0.68745E-19
        -0.12437E-02
         0.20317E-19
         0.34746E-03
        -0.45805E-21
        -0.71072E-04
         0.15356E-18
        -0.34512E-03
         0.23630E-19
        -0.49245E-02
         0.25688E-03
         0.54916E-21
        -0.26941E-20
        -0.42745E-04
         0.42059E-02
         0.14965E-19
         0.38386E-19
        -0.18753E-03
        -0.30385E-20
        -0.26240E-02
         0.24347E-19
         0.13027E-01
         0.47006E-02
         0.18806E-19
        -0.18009E-18
         0.10402E-01
        -0.28794E-18
        -0.34731E-02
         0.19286E-18
        -0.10846E-01
         0.28734E-19
        -0.19036E-01
         0.37364E-19
        -0.38031E-01
        -0.21408E-01
         0.87842E-19
        -0.22274E-19
        -0.28147E-02
        -0.26804E-20
         0.10328E-01
        -0.24175E-18
         0.14788E-01
        -0.26993E-18
         0.31769E-01
         0.14330E-01
        -0.17087E-18
         0.18966E-18
        -0.23407E-02
         0.17270E-18
        -0.58273E-02
         0.74185E-19
        -0.13478E-01
         0.19697E-18
        -0.32999E-01
        -0.19024E-01
         0.42235E-18
         0.21118E-18
         0.51063E-01
        -0.21939E-01
        -0.27441E-18
         0.33605E-18
         0.12348E+00
        -0.77988E-18
         0.16578E+00
        -0.85251E-18
         0.14141E+00
        -0.57859E-18
         0.11254E+00
        -0.61371E-19
         0.45882E-01
         0.17298E-18
        -0.57976E-01
         0.10710E-18
        -0.12973E+00
         0.97908E-19
        -0.17179E+00
         0.21007E-18
        -0.17633E+00
         0.25541E-18
        -0.15671E+00
         0.10063E-18
        -0.91052E-01
         0.61349E-19
         0.65632E-02
         0.10027E-18
         0.83781E-01
         0.67215E-19
         0.13951E+00
        -0.23970E-18
         0.19005E+00
        -0.62895E-18
         0.15790E+00
        -0.79818E-18
         0.96171E-01
        -0.49399E-18
         0.10305E-01
         0.94247E-19
        -0.71608E-01
         0.19975E-18
        -0.10527E+00
         0.31834E-18
        -0.12580E+00
         0.62688E-18
        -0.11303E+00
         0.81343E-18
        -0.10709E+00
         0.57791E-18
        -0.90546E-01
         0.45705E-18
        -0.67071E-05
         0.17508E-05
         0.18008E-05
        -0.11712E-05
         0.13857E-04
         0.11875E-04
         0.17949E-06
        -0.41668E-05
        -0.19464E-05
        -0.49188E-05
        -0.13002E-05
        -0.23789E-04
        -0.34858E-04
         0.12951E-05
         0.19539E-04
        -0.29393E-05
         0.21699E-05
         0.66044E-06
         0.12654E-05
        -0.10408E-05
         0.51409E-05
         0.45631E-05
        -0.13567E-04
         0.35719E-06
         0.31309E-05
         0.34443E-06
         0.55372E-07
         0.10891E-06
         0.13161E-05
        -0.45476E-05
        -0.25525E-05
         0.52243E-06
         0.87448E-06
        -0.67147E-07
        -0.31532E-05
        -0.11296E-04
        -0.23311E-04
         0.34596E-04
         0.17957E-04
         0.31370E-04
         0.59229E-04
         0.14584E-04
        -0.12417E-04
        -0.24863E-04
        -0.28692E-04
        -0.34857E-04
         0.44858E-05
         0.14023E-04
         0.43143E-05
         0.14059E-04
         0.42495E-04
         0.17164E-04
        -0.12975E-03
         0.17263E-03
        -0.41454E-03
        -0.49321E-03
        -0.46703E-03
        -0.27499E-03
         0.15920E-04
         0.17114E-03
         0.24913E-03
         0.40316E-03
         0.41886E-03
         0.24167E-03
         0.99919E-04
         0.42651E-04
        -0.70186E-04
        -0.28094E-03
        -0.46896E-03
        -0.52488E-03
        -0.29802E-03
         0.55083E-04
         0.20468E-03
         0.21554E-03
         0.33805E-03
         0.36586E-03
         0.28788E-03
         0.26928E-03
        -0.56571E-04
         0.73243E-05
        -0.12903E-04
        -0.89115E-05
         0.10010E-03
         0.38472E-04
         0.88881E-05
        -0.67830E-04
        -0.20439E-04
        -0.60651E-04
         0.64779E-05
        -0.10229E-03
        -0.19935E-03
         0.21969E-04
         0.26334E-03
        -0.42149E-04
         0.71108E-05
         0.40661E-05
         0.12334E-04
         0.41876E-05
         0.11077E-03
         0.74953E-04
        -0.42880E-04
         0.87540E-05
         0.20098E-04
        -0.33472E-05
         0.45548E-05
        -0.11243E-05
        -0.45265E-05
        -0.33410E-04
        -0.34899E-04
        -0.59486E-05
         0.14630E-04
         0.10964E-04
         0.25755E-04
        -0.43331E-04
        -0.94898E-04
         0.22194E-03
         0.32769E-04
         0.83727E-04
         0.22597E-03
        -0.57439E-04
        -0.11565E-03
        -0.10445E-03
        -0.10357E-03
        -0.12379E-03
         0.77851E-04
         0.60778E-04
        -0.10098E-04
         0.14353E-04
         0.15244E-03
         0.10075E-04
        -0.10554E-02
         0.15213E-02
        -0.31779E-02
        -0.33874E-02
        -0.32620E-02
        -0.18027E-02
         0.43843E-03
         0.12407E-02
         0.15664E-02
         0.28406E-02
         0.31685E-02
         0.12320E-02
         0.41170E-03
         0.33563E-03
        -0.17125E-03
        -0.14960E-02
        -0.27354E-02
        -0.36008E-02
        -0.23878E-02
         0.68817E-03
         0.13366E-02
         0.12803E-02
         0.22694E-02
         0.27666E-02
         0.18396E-02
         0.17364E-02
        -0.56713E-04
         0.73528E-05
        -0.12934E-04
        -0.89829E-05
         0.10001E-03
         0.38466E-04
         0.89558E-05
        -0.67773E-04
        -0.20498E-04
        -0.60829E-04
         0.63505E-05
        -0.10252E-03
        -0.19952E-03
         0.21915E-04
         0.26353E-03
        -0.42195E-04
         0.71912E-05
         0.40488E-05
         0.12336E-04
         0.41570E-05
         0.11103E-03
         0.75017E-04
        -0.42887E-04
         0.87503E-05
         0.20234E-04
        -0.33466E-05
         0.46099E-05
        -0.11093E-05
        -0.45283E-05
        -0.33502E-04
        -0.34956E-04
        -0.59348E-05
         0.14602E-04
         0.10986E-04
         0.25526E-04
        -0.43339E-04
        -0.94864E-04
         0.22264E-03
         0.33154E-04
         0.84088E-04
         0.22629E-03
        -0.57317E-04
        -0.11577E-03
        -0.10449E-03
        -0.10354E-03
        -0.12373E-03
         0.77844E-04
         0.60762E-04
        -0.10010E-04
         0.14284E-04
         0.15227E-03
         0.99080E-05
        -0.10540E-02
         0.15210E-02
        -0.31782E-02
        -0.33874E-02
        -0.32606E-02
        -0.18016E-02
         0.43874E-03
         0.12411E-02
         0.15647E-02
         0.28387E-02
         0.31673E-02
         0.12326E-02
         0.41163E-03
         0.33630E-03
        -0.16987E-03
        -0.14971E-02
        -0.27371E-02
        -0.36023E-02
        -0.23871E-02
         0.68844E-03
         0.13356E-02
         0.12798E-02
         0.22671E-02
         0.27630E-02
         0.18366E-02
         0.17333E-02
        -0.56857E-04
         0.73810E-05
        -0.12965E-04
        -0.90551E-05
         0.99922E-04
         0.38463E-04
         0.90239E-05
        -0.67714E-04
        -0.20556E-04
        -0.61002E-04
         0.62233E-05
        -0.10276E-03
        -0.19969E-03
         0.21859E-04
         0.26372E-03
        -0.42242E-04
         0.72730E-05
         0.40313E-05
         0.12338E-04
         0.41262E-05
         0.11130E-03
         0.75078E-04
        -0.42901E-04
         0.87454E-05
         0.20373E-04
        -0.33457E-05
         0.46686E-05
        -0.10948E-05
        -0.45271E-05
        -0.33591E-04
        -0.35014E-04
        -0.59186E-05
         0.14572E-04
         0.11009E-04
         0.25295E-04
        -0.43350E-04
        -0.94826E-04
         0.22334E-03
         0.33541E-04
         0.84453E-04
         0.22662E-03
        -0.57180E-04
        -0.11589E-03
        -0.10454E-03
        -0.10352E-03
        -0.12367E-03
         0.77837E-04
         0.60744E-04
        -0.99218E-05
         0.14215E-04
         0.15211E-03
         0.97420E-05
        -0.10527E-02
         0.15207E-02
        -0.31785E-02
        -0.33875E-02
        -0.32592E-02
        -0.18004E-02
         0.43906E-03
         0.12415E-02
         0.15631E-02
         0.28368E-02
         0.31662E-02
         0.12332E-02
         0.41157E-03
         0.33697E-03
        -0.16849E-03
        -0.14983E-02
        -0.27389E-02
        -0.36039E-02
        -0.23864E-02
         0.68871E-03
         0.13345E-02
         0.12792E-02
         0.22649E-02
         0.27593E-02
         0.18337E-02
         0.17303E-02
        -0.57000E-04
         0.74101E-05
        -0.12995E-04
        -0.91275E-05
         0.99835E-04
         0.38459E-04
         0.90922E-05
        -0.67654E-04
        -0.20612E-04
        -0.61164E-04
         0.60963E-05
        -0.10301E-03
        -0.19987E-03
         0.21805E-04
         0.26392E-03
        -0.42295E-04
         0.73568E-05
         0.40137E-05
         0.12342E-04
         0.40938E-05
         0.11158E-03
         0.75136E-04
        -0.42938E-04
         0.87372E-05
         0.20519E-04
        -0.33439E-05
         0.47290E-05
        -0.10827E-05
        -0.45172E-05
        -0.33673E-04
        -0.35072E-04
        -0.58979E-05
         0.14542E-04
         0.11032E-04
         0.25065E-04
        -0.43359E-04
        -0.94789E-04
         0.22404E-03
         0.33929E-04
         0.84824E-04
         0.22698E-03
        -0.56999E-04
        -0.11600E-03
        -0.10463E-03
        -0.10351E-03
        -0.12361E-03
         0.77839E-04
         0.60728E-04
        -0.98332E-05
         0.14145E-04
         0.15195E-03
         0.95766E-05
        -0.10513E-02
         0.15204E-02
        -0.31788E-02
        -0.33875E-02
        -0.32578E-02
        -0.17993E-02
         0.43938E-03
         0.12419E-02
         0.15614E-02
         0.28349E-02
         0.31651E-02
         0.12340E-02
         0.41155E-03
         0.33764E-03
        -0.16710E-03
        -0.14995E-02
        -0.27409E-02
        -0.36055E-02
        -0.23857E-02
         0.68898E-03
         0.13334E-02
         0.12787E-02
         0.22626E-02
         0.27557E-02
         0.18308E-02
         0.17272E-02
        -0.57141E-04
         0.74391E-05
        -0.13026E-04
        -0.91997E-05
         0.99751E-04
         0.38454E-04
         0.91605E-05
        -0.67591E-04
        -0.20665E-04
        -0.61313E-04
         0.59689E-05
        -0.10325E-03
        -0.20004E-03
         0.21753E-04
         0.26411E-03
        -0.42351E-04
         0.74428E-05
         0.39960E-05
         0.12345E-04
         0.40600E-05
         0.11186E-03
         0.75188E-04
        -0.42996E-04
         0.87255E-05
         0.20671E-04
        -0.33408E-05
         0.47960E-05
        -0.10727E-05
        -0.44984E-05
        -0.33746E-04
        -0.35133E-04
        -0.58715E-05
         0.14512E-04
         0.11055E-04
         0.24833E-04
        -0.43368E-04
        -0.94756E-04
         0.22475E-03
         0.34319E-04
         0.85204E-04
         0.22737E-03
        -0.56770E-04
        -0.11609E-03
        -0.10477E-03
        -0.10352E-03
        -0.12356E-03
         0.77848E-04
         0.60718E-04
        -0.97455E-05
         0.14076E-04
         0.15179E-03
         0.94108E-05
        -0.10500E-02
         0.15201E-02
        -0.31791E-02
        -0.33876E-02
        -0.32564E-02
        -0.17981E-02
         0.43969E-03
         0.12423E-02
         0.15598E-02
         0.28330E-02
         0.31641E-02
         0.12349E-02
         0.41157E-03
         0.33829E-03
        -0.16571E-03
        -0.15009E-02
        -0.27432E-02
        -0.36073E-02
        -0.23850E-02
         0.68925E-03
         0.13324E-02
         0.12781E-02
         0.22604E-02
         0.27520E-02
         0.18279E-02
         0.17242E-02
        -0.57277E-04
         0.74700E-05
        -0.13054E-04
        -0.92726E-05
         0.99665E-04
         0.38448E-04
         0.92277E-05
        -0.67519E-04
        -0.20718E-04
        -0.61454E-04
         0.58416E-05
        -0.10349E-03
        -0.20021E-03
         0.21702E-04
         0.26430E-03
        -0.42410E-04
         0.75305E-05
         0.39785E-05
         0.12347E-04
         0.40262E-05
         0.11215E-03
         0.75239E-04
        -0.43065E-04
         0.87128E-05
         0.20821E-04
        -0.33372E-05
         0.48680E-05
        -0.10636E-05
        -0.44756E-05
        -0.33821E-04
        -0.35191E-04
        -0.58418E-05
         0.14481E-04
         0.11078E-04
         0.24600E-04
        -0.43382E-04
        -0.94727E-04
         0.22545E-03
         0.34712E-04
         0.85589E-04
         0.22777E-03
        -0.56526E-04
        -0.11618E-03
        -0.10491E-03
        -0.10354E-03
        -0.12352E-03
         0.77857E-04
         0.60713E-04
        -0.96564E-05
         0.14012E-04
         0.15163E-03
         0.92458E-05
        -0.10486E-02
         0.15198E-02
        -0.31794E-02
        -0.33876E-02
        -0.32550E-02
        -0.17970E-02
         0.43999E-03
         0.12427E-02
         0.15581E-02
         0.28311E-02
         0.31631E-02
         0.12358E-02
         0.41161E-03
         0.33895E-03
        -0.16432E-03
        -0.15024E-02
        -0.27455E-02
        -0.36091E-02
        -0.23843E-02
         0.68949E-03
         0.13313E-02
         0.12775E-02
         0.22582E-02
         0.27484E-02
         0.18250E-02
         0.17211E-02
        -0.57402E-04
         0.75059E-05
        -0.13077E-04
        -0.93472E-05
         0.99583E-04
         0.38445E-04
         0.92939E-05
        -0.67433E-04
        -0.20772E-04
        -0.61588E-04
         0.57144E-05
        -0.10374E-03
        -0.20041E-03
         0.21665E-04
         0.26450E-03
        -0.42470E-04
         0.76196E-05
         0.39609E-05
         0.12351E-04
         0.39925E-05
         0.11243E-03
         0.75293E-04
        -0.43134E-04
         0.87007E-05
         0.20962E-04
        -0.33323E-05
         0.49527E-05
        -0.10543E-05
        -0.44513E-05
        -0.33897E-04
        -0.35244E-04
        -0.58089E-05
         0.14450E-04
         0.11101E-04
         0.24366E-04
        -0.43399E-04
        -0.94704E-04
         0.22616E-03
         0.35109E-04
         0.85980E-04
         0.22819E-03
        -0.56276E-04
        -0.11626E-03
        -0.10506E-03
        -0.10358E-03
        -0.12348E-03
         0.77871E-04
         0.60723E-04
        -0.95630E-05
         0.13959E-04
         0.15148E-03
         0.90794E-05
        -0.10473E-02
         0.15195E-02
        -0.31797E-02
        -0.33876E-02
        -0.32536E-02
        -0.17958E-02
         0.44029E-03
         0.12430E-02
         0.15565E-02
         0.28291E-02
         0.31620E-02
         0.12368E-02
         0.41165E-03
         0.33960E-03
        -0.16293E-03
        -0.15038E-02
        -0.27479E-02
        -0.36108E-02
        -0.23835E-02
         0.68967E-03
         0.13302E-02
         0.12770E-02
         0.22560E-02
         0.27447E-02
         0.18221E-02
         0.17181E-02
        -0.57522E-04
         0.75433E-05
        -0.13097E-04
        -0.94225E-05
         0.99505E-04
         0.38440E-04
         0.93591E-05
        -0.67340E-04
        -0.20828E-04
        -0.61721E-04
         0.55870E-05
        -0.10398E-03
        -0.20060E-03
         0.21629E-04
         0.26469E-03
        -0.42531E-04
         0.77095E-05
         0.39431E-05
         0.12354E-04
         0.39594E-05
         0.11272E-03
         0.75346E-04
        -0.43202E-04
         0.86888E-05
         0.21099E-04
        -0.33270E-05
         0.50408E-05
        -0.10446E-05
        -0.44264E-05
        -0.33975E-04
        -0.35295E-04
        -0.57739E-05
         0.14418E-04
         0.11124E-04
         0.24130E-04
        -0.43421E-04
        -0.94689E-04
         0.22688E-03
         0.35508E-04
         0.86372E-04
         0.22860E-03
        -0.56026E-04
        -0.11635E-03
        -0.10522E-03
        -0.10361E-03
        -0.12347E-03
         0.77887E-04
         0.60738E-04
        -0.94679E-05
         0.13911E-04
         0.15134E-03
         0.89139E-05
        -0.10460E-02
         0.15192E-02
        -0.31799E-02
        -0.33877E-02
        -0.32522E-02
        -0.17946E-02
         0.44059E-03
         0.12434E-02
         0.15549E-02
         0.28272E-02
         0.31610E-02
         0.12378E-02
         0.41170E-03
         0.34027E-03
        -0.16153E-03
        -0.15052E-02
        -0.27503E-02
        -0.36125E-02
        -0.23828E-02
         0.68985E-03
         0.13291E-02
         0.12765E-02
         0.22538E-02
         0.27411E-02
         0.18192E-02
         0.17150E-02
        -0.57642E-04
         0.75812E-05
        -0.13117E-04
        -0.94980E-05
         0.99423E-04
         0.38435E-04
         0.94241E-05
        -0.67247E-04
        -0.20883E-04
        -0.61854E-04
         0.54597E-05
        -0.10423E-03
        -0.20079E-03
         0.21597E-04
         0.26488E-03
        -0.42593E-04
         0.78002E-05
         0.39254E-05
         0.12357E-04
         0.39259E-05
         0.11301E-03
         0.75401E-04
        -0.43271E-04
         0.86773E-05
         0.21236E-04
        -0.33216E-05
         0.51312E-05
        -0.10344E-05
        -0.44009E-05
        -0.34052E-04
        -0.35346E-04
        -0.57393E-05
         0.14386E-04
         0.11146E-04
         0.23893E-04
        -0.43438E-04
        -0.94671E-04
         0.22760E-03
         0.35910E-04
         0.86762E-04
         0.22902E-03
        -0.55777E-04
        -0.11643E-03
        -0.10537E-03
        -0.10366E-03
        -0.12345E-03
         0.77901E-04
         0.60753E-04
        -0.93730E-05
         0.13865E-04
         0.15121E-03
         0.87478E-05
        -0.10446E-02
         0.15189E-02
        -0.31802E-02
        -0.33877E-02
        -0.32508E-02
        -0.17935E-02
         0.44088E-03
         0.12438E-02
         0.15532E-02
         0.28253E-02
         0.31600E-02
         0.12387E-02
         0.41175E-03
         0.34095E-03
        -0.16014E-03
        -0.15067E-02
        -0.27526E-02
        -0.36143E-02
        -0.23820E-02
         0.69003E-03
         0.13280E-02
         0.12760E-02
         0.22516E-02
         0.27375E-02
         0.18163E-02
         0.17120E-02
        -0.57761E-04
         0.76194E-05
        -0.13137E-04
        -0.95733E-05
         0.99342E-04
         0.38430E-04
         0.94895E-05
        -0.67153E-04
        -0.20939E-04
        -0.61985E-04
         0.53323E-05
        -0.10447E-03
        -0.20099E-03
         0.21562E-04
         0.26508E-03
        -0.42654E-04
         0.78914E-05
         0.39078E-05
         0.12360E-04
         0.38925E-05
         0.11329E-03
         0.75453E-04
        -0.43335E-04
         0.86658E-05
         0.21373E-04
        -0.33162E-05
         0.52192E-05
        -0.10238E-05
        -0.43747E-05
        -0.34130E-04
        -0.35397E-04
        -0.57045E-05
         0.14353E-04
         0.11169E-04
         0.23655E-04
        -0.43460E-04
        -0.94656E-04
         0.22831E-03
         0.36313E-04
         0.87158E-04
         0.22943E-03
        -0.55529E-04
        -0.11652E-03
        -0.10552E-03
        -0.10370E-03
        -0.12343E-03
         0.77917E-04
         0.60771E-04
        -0.92788E-05
         0.13815E-04
         0.15106E-03
         0.85829E-05
        -0.10433E-02
         0.15186E-02
        -0.31804E-02
        -0.33877E-02
        -0.32494E-02
        -0.17923E-02
         0.44117E-03
         0.12442E-02
         0.15516E-02
         0.28234E-02
         0.31590E-02
         0.12396E-02
         0.41180E-03
         0.34163E-03
        -0.15876E-03
        -0.15081E-02
        -0.27550E-02
        -0.36160E-02
        -0.23812E-02
         0.69019E-03
         0.13269E-02
         0.12755E-02
         0.22493E-02
         0.27339E-02
         0.18134E-02
         0.17089E-02
        -0.57879E-04
         0.76571E-05
        -0.13158E-04
        -0.96485E-05
         0.99263E-04
         0.38425E-04
         0.95551E-05
        -0.67057E-04
        -0.20995E-04
        -0.62116E-04
         0.52045E-05
        -0.10472E-03
        -0.20118E-03
         0.21529E-04
         0.26527E-03
        -0.42715E-04
         0.79832E-05
         0.38903E-05
         0.12364E-04
         0.38588E-05
         0.11358E-03
         0.75505E-04
        -0.43404E-04
         0.86546E-05
         0.21510E-04
        -0.33107E-05
         0.53089E-05
        -0.10125E-05
        -0.43478E-05
        -0.34207E-04
        -0.35447E-04
        -0.56699E-05
         0.14320E-04
         0.11192E-04
         0.23417E-04
        -0.43480E-04
        -0.94641E-04
         0.22903E-03
         0.36719E-04
         0.87547E-04
         0.22985E-03
        -0.55279E-04
        -0.11660E-03
        -0.10567E-03
        -0.10374E-03
        -0.12341E-03
         0.77932E-04
         0.60786E-04
        -0.91841E-05
         0.13768E-04
         0.15093E-03
         0.84180E-05
        -0.10419E-02
         0.15183E-02
        -0.31807E-02
        -0.33878E-02
        -0.32480E-02
        -0.17911E-02
         0.44145E-03
         0.12445E-02
         0.15500E-02
         0.28214E-02
         0.31579E-02
         0.12406E-02
         0.41184E-03
         0.34229E-03
        -0.15736E-03
        -0.15096E-02
        -0.27574E-02
        -0.36177E-02
        -0.23805E-02
         0.69035E-03
         0.13258E-02
         0.12749E-02
         0.22471E-02
         0.27302E-02
         0.18105E-02
         0.17059E-02
        -0.57998E-04
         0.76949E-05
        -0.13178E-04
        -0.97244E-05
         0.99182E-04
         0.38420E-04
         0.96204E-05
        -0.66961E-04
        -0.21051E-04
        -0.62246E-04
         0.50768E-05
        -0.10497E-03
        -0.20137E-03
         0.21496E-04
         0.26545E-03
        -0.42776E-04
         0.80753E-05
         0.38726E-05
         0.12367E-04
         0.38256E-05
         0.11387E-03
         0.75555E-04
        -0.43473E-04
         0.86435E-05
         0.21647E-04
        -0.33055E-05
         0.53966E-05
        -0.10009E-05
        -0.43198E-05
        -0.34285E-04
        -0.35498E-04
        -0.56352E-05
         0.14286E-04
         0.11216E-04
         0.23176E-04
        -0.43500E-04
        -0.94623E-04
         0.22976E-03
         0.37127E-04
         0.87945E-04
         0.23026E-03
        -0.55032E-04
        -0.11668E-03
        -0.10583E-03
        -0.10378E-03
        -0.12339E-03
         0.77946E-04
         0.60804E-04
        -0.90894E-05
         0.13721E-04
         0.15079E-03
         0.82537E-05
        -0.10405E-02
         0.15179E-02
        -0.31809E-02
        -0.33878E-02
        -0.32466E-02
        -0.17900E-02
         0.44173E-03
         0.12449E-02
         0.15483E-02
         0.28195E-02
         0.31569E-02
         0.12415E-02
         0.41189E-03
         0.34296E-03
        -0.15596E-03
        -0.15110E-02
        -0.27598E-02
        -0.36194E-02
        -0.23797E-02
         0.69052E-03
         0.13246E-02
         0.12744E-02
         0.22449E-02
         0.27266E-02
         0.18077E-02
         0.17029E-02
        -0.58118E-04
         0.77330E-05
        -0.13198E-04
        -0.98005E-05
         0.99101E-04
         0.38415E-04
         0.96857E-05
        -0.66865E-04
        -0.21107E-04
        -0.62374E-04
         0.49492E-05
        -0.10521E-03
        -0.20157E-03
         0.21460E-04
         0.26565E-03
        -0.42837E-04
         0.81678E-05
         0.38549E-05
         0.12370E-04
         0.37925E-05
         0.11415E-03
         0.75607E-04
        -0.43539E-04
         0.86325E-05
         0.21783E-04
        -0.32998E-05
         0.54867E-05
        -0.98863E-06
        -0.42915E-05
        -0.34362E-04
        -0.35549E-04
        -0.56001E-05
         0.14252E-04
         0.11239E-04
         0.22936E-04
        -0.43522E-04
        -0.94608E-04
         0.23047E-03
         0.37537E-04
         0.88340E-04
         0.23068E-03
        -0.54782E-04
        -0.11677E-03
        -0.10598E-03
        -0.10382E-03
        -0.12337E-03
         0.77963E-04
         0.60820E-04
        -0.89946E-05
         0.13674E-04
         0.15064E-03
         0.80902E-05
        -0.10392E-02
         0.15176E-02
        -0.31811E-02
        -0.33878E-02
        -0.32452E-02
        -0.17888E-02
         0.44202E-03
         0.12453E-02
         0.15467E-02
         0.28175E-02
         0.31558E-02
         0.12425E-02
         0.41194E-03
         0.34363E-03
        -0.15457E-03
        -0.15124E-02
        -0.27621E-02
        -0.36211E-02
        -0.23790E-02
         0.69069E-03
         0.13235E-02
         0.12739E-02
         0.22427E-02
         0.27230E-02
         0.18048E-02
         0.16998E-02
        -0.58238E-04
         0.77705E-05
        -0.13218E-04
        -0.98765E-05
         0.99023E-04
         0.38409E-04
         0.97513E-05
        -0.66767E-04
        -0.21163E-04
        -0.62501E-04
         0.48216E-05
        -0.10545E-03
        -0.20176E-03
         0.21426E-04
         0.26583E-03
        -0.42897E-04
         0.82609E-05
         0.38374E-05
         0.12374E-04
         0.37597E-05
         0.11444E-03
         0.75658E-04
        -0.43607E-04
         0.86215E-05
         0.21920E-04
        -0.32941E-05
         0.55745E-05
        -0.97596E-06
        -0.42625E-05
        -0.34439E-04
        -0.35599E-04
        -0.55654E-05
         0.14218E-04
         0.11262E-04
         0.22694E-04
        -0.43542E-04
        -0.94590E-04
         0.23119E-03
         0.37949E-04
         0.88737E-04
         0.23110E-03
        -0.54531E-04
        -0.11685E-03
        -0.10613E-03
        -0.10386E-03
        -0.12335E-03
         0.77979E-04
         0.60836E-04
        -0.88999E-05
         0.13626E-04
         0.15051E-03
         0.79282E-05
        -0.10378E-02
         0.15173E-02
        -0.31813E-02
        -0.33878E-02
        -0.32438E-02
        -0.17876E-02
         0.44230E-03
         0.12456E-02
         0.15451E-02
         0.28156E-02
         0.31548E-02
         0.12434E-02
         0.41198E-03
         0.34430E-03
        -0.15317E-03
        -0.15139E-02
        -0.27645E-02
        -0.36228E-02
        -0.23782E-02
         0.69084E-03
         0.13224E-02
         0.12734E-02
         0.22405E-02
         0.27194E-02
         0.18020E-02
         0.16968E-02
        -0.58357E-04
         0.78078E-05
        -0.13238E-04
        -0.99526E-05
         0.98942E-04
         0.38403E-04
         0.98168E-05
        -0.66669E-04
        -0.21219E-04
        -0.62629E-04
         0.46939E-05
        -0.10571E-03
        -0.20195E-03
         0.21390E-04
         0.26602E-03
        -0.42958E-04
         0.83547E-05
         0.38199E-05
         0.12378E-04
         0.37265E-05
         0.11473E-03
         0.75708E-04
        -0.43673E-04
         0.86107E-05
         0.22057E-04
        -0.32884E-05
         0.56640E-05
        -0.96269E-06
        -0.42331E-05
        -0.34516E-04
        -0.35649E-04
        -0.55303E-05
         0.14183E-04
         0.11285E-04
         0.22451E-04
        -0.43564E-04
        -0.94575E-04
         0.23192E-03
         0.38363E-04
         0.89133E-04
         0.23151E-03
        -0.54281E-04
        -0.11694E-03
        -0.10628E-03
        -0.10390E-03
        -0.12333E-03
         0.77992E-04
         0.60854E-04
        -0.88042E-05
         0.13579E-04
         0.15037E-03
         0.77655E-05
        -0.10365E-02
         0.15170E-02
        -0.31816E-02
        -0.33879E-02
        -0.32424E-02
        -0.17865E-02
         0.44257E-03
         0.12459E-02
         0.15434E-02
         0.28136E-02
         0.31538E-02
         0.12444E-02
         0.41203E-03
         0.34497E-03
        -0.15178E-03
        -0.15153E-02
        -0.27669E-02
        -0.36245E-02
        -0.23774E-02
         0.69100E-03
         0.13213E-02
         0.12729E-02
         0.22383E-02
         0.27158E-02
         0.17991E-02
         0.16938E-02
        -0.58477E-04
         0.78459E-05
        -0.13258E-04
        -0.10028E-04
         0.98861E-04
         0.38399E-04
         0.98821E-05
        -0.66570E-04
        -0.21275E-04
        -0.62755E-04
         0.45658E-05
        -0.10595E-03
        -0.20215E-03
         0.21355E-04
         0.26620E-03
        -0.43020E-04
         0.84492E-05
         0.38026E-05
         0.12381E-04
         0.36937E-05
         0.11501E-03
         0.75756E-04
        -0.43740E-04
         0.86001E-05
         0.22193E-04
        -0.32827E-05
         0.57511E-05
        -0.94892E-06
        -0.42030E-05
        -0.34592E-04
        -0.35699E-04
        -0.54956E-05
         0.14148E-04
         0.11308E-04
         0.22207E-04
        -0.43584E-04
        -0.94559E-04
         0.23264E-03
         0.38779E-04
         0.89527E-04
         0.23193E-03
        -0.54031E-04
        -0.11702E-03
        -0.10643E-03
        -0.10395E-03
        -0.12331E-03
         0.78008E-04
         0.60869E-04
        -0.87098E-05
         0.13531E-04
         0.15023E-03
         0.76032E-05
        -0.10351E-02
         0.15167E-02
        -0.31818E-02
        -0.33879E-02
        -0.32410E-02
        -0.17853E-02
         0.44283E-03
         0.12463E-02
         0.15418E-02
         0.28116E-02
         0.31528E-02
         0.12453E-02
         0.41207E-03
         0.34563E-03
        -0.15038E-03
        -0.15167E-02
        -0.27693E-02
        -0.36262E-02
        -0.23767E-02
         0.69115E-03
         0.13202E-02
         0.12724E-02
         0.22361E-02
         0.27122E-02
         0.17963E-02
         0.16908E-02
        -0.58596E-04
         0.78834E-05
        -0.13278E-04
        -0.10105E-04
         0.98783E-04
         0.38393E-04
         0.99480E-05
        -0.66470E-04
        -0.21331E-04
        -0.62878E-04
         0.44377E-05
        -0.10620E-03
        -0.20234E-03
         0.21318E-04
         0.26638E-03
        -0.43081E-04
         0.85445E-05
         0.37851E-05
         0.12384E-04
         0.36611E-05
         0.11530E-03
         0.75802E-04
        -0.43807E-04
         0.85896E-05
         0.22329E-04
        -0.32767E-05
         0.58404E-05
        -0.93443E-06
        -0.41719E-05
        -0.34668E-04
        -0.35749E-04
        -0.54608E-05
         0.14113E-04
         0.11332E-04
         0.21962E-04
        -0.43604E-04
        -0.94541E-04
         0.23336E-03
         0.39201E-04
         0.89926E-04
         0.23234E-03
        -0.53782E-04
        -0.11711E-03
        -0.10658E-03
        -0.10399E-03
        -0.12329E-03
         0.78025E-04
         0.60888E-04
        -0.86158E-05
         0.13484E-04
         0.15009E-03
         0.74427E-05
        -0.10338E-02
         0.15163E-02
        -0.31820E-02
        -0.33879E-02
        -0.32396E-02
        -0.17841E-02
         0.44309E-03
         0.12466E-02
         0.15402E-02
         0.28096E-02
         0.31518E-02
         0.12463E-02
         0.41210E-03
         0.34628E-03
        -0.14899E-03
        -0.15182E-02
        -0.27717E-02
        -0.36279E-02
        -0.23759E-02
         0.69131E-03
         0.13191E-02
         0.12718E-02
         0.22339E-02
         0.27086E-02
         0.17935E-02
         0.16877E-02
        -0.58716E-04
         0.79209E-05
        -0.13297E-04
        -0.10181E-04
         0.98703E-04
         0.38387E-04
         0.10013E-04
        -0.66369E-04
        -0.21386E-04
        -0.62993E-04
         0.43094E-05
        -0.10645E-03
        -0.20253E-03
         0.21282E-04
         0.26656E-03
        -0.43142E-04
         0.86408E-05
         0.37675E-05
         0.12390E-04
         0.36301E-05
         0.11558E-03
         0.75847E-04
        -0.43875E-04
         0.85786E-05
         0.22462E-04
        -0.32711E-05
         0.59284E-05
        -0.91888E-06
        -0.41404E-05
        -0.34742E-04
        -0.35800E-04
        -0.54253E-05
         0.14077E-04
         0.11355E-04
         0.21716E-04
        -0.43626E-04
        -0.94526E-04
         0.23408E-03
         0.39633E-04
         0.90313E-04
         0.23274E-03
        -0.53527E-04
        -0.11719E-03
        -0.10674E-03
        -0.10403E-03
        -0.12327E-03
         0.78039E-04
         0.60905E-04
        -0.85220E-05
         0.13436E-04
         0.14995E-03
         0.72824E-05
        -0.10324E-02
         0.15160E-02
        -0.31822E-02
        -0.33879E-02
        -0.32382E-02
        -0.17830E-02
         0.44335E-03
         0.12469E-02
         0.15386E-02
         0.28076E-02
         0.31508E-02
         0.12473E-02
         0.41211E-03
         0.34694E-03
        -0.14760E-03
        -0.15196E-02
        -0.27740E-02
        -0.36296E-02
        -0.23752E-02
         0.69146E-03
         0.13180E-02
         0.12713E-02
         0.22317E-02
         0.27050E-02
         0.17907E-02
         0.16847E-02
        -0.58835E-04
         0.79582E-05
        -0.13317E-04
        -0.10258E-04
         0.98621E-04
         0.38380E-04
         0.10079E-04
        -0.66266E-04
        -0.21439E-04
        -0.63099E-04
         0.41813E-05
        -0.10669E-03
        -0.20273E-03
         0.21246E-04
         0.26674E-03
        -0.43202E-04
         0.87384E-05
         0.37500E-05
         0.12393E-04
         0.36000E-05
         0.11587E-03
         0.75889E-04
        -0.43942E-04
         0.85682E-05
         0.22590E-04
        -0.32651E-05
         0.60198E-05
        -0.90209E-06
        -0.41083E-05
        -0.34813E-04
        -0.35849E-04
        -0.53904E-05
         0.14040E-04
         0.11379E-04
         0.21469E-04
        -0.43646E-04
        -0.94510E-04
         0.23480E-03
         0.40075E-04
         0.90700E-04
         0.23312E-03
        -0.53269E-04
        -0.11728E-03
        -0.10689E-03
        -0.10407E-03
        -0.12326E-03
         0.78055E-04
         0.60921E-04
        -0.84275E-05
         0.13389E-04
         0.14981E-03
         0.71212E-05
        -0.10310E-02
         0.15157E-02
        -0.31824E-02
        -0.33880E-02
        -0.32368E-02
        -0.17818E-02
         0.44360E-03
         0.12473E-02
         0.15370E-02
         0.28055E-02
         0.31498E-02
         0.12484E-02
         0.41210E-03
         0.34760E-03
        -0.14620E-03
        -0.15210E-02
        -0.27764E-02
        -0.36313E-02
        -0.23744E-02
         0.69161E-03
         0.13169E-02
         0.12708E-02
         0.22295E-02
         0.27014E-02
         0.17879E-02
         0.16817E-02
        -0.58955E-04
         0.79958E-05
        -0.13337E-04
        -0.10334E-04
         0.98546E-04
         0.38376E-04
         0.10145E-04
        -0.66164E-04
        -0.21492E-04
        -0.63203E-04
         0.40539E-05
        -0.10694E-03
        -0.20292E-03
         0.21208E-04
         0.26691E-03
        -0.43263E-04
         0.88369E-05
         0.37327E-05
         0.12397E-04
         0.35708E-05
         0.11615E-03
         0.75932E-04
        -0.44005E-04
         0.85586E-05
         0.22718E-04
        -0.32594E-05
         0.61087E-05
        -0.88447E-06
        -0.40760E-05
        -0.34882E-04
        -0.35900E-04
        -0.53562E-05
         0.14004E-04
         0.11403E-04
         0.21224E-04
        -0.43667E-04
        -0.94490E-04
         0.23551E-03
         0.40523E-04
         0.91075E-04
         0.23349E-03
        -0.53015E-04
        -0.11737E-03
        -0.10704E-03
        -0.10411E-03
        -0.12324E-03
         0.78072E-04
         0.60940E-04
        -0.83342E-05
         0.13341E-04
         0.14968E-03
         0.69619E-05
        -0.10297E-02
         0.15154E-02
        -0.31826E-02
        -0.33880E-02
        -0.32355E-02
        -0.17806E-02
         0.44384E-03
         0.12476E-02
         0.15354E-02
         0.28033E-02
         0.31489E-02
         0.12494E-02
         0.41206E-03
         0.34826E-03
        -0.14481E-03
        -0.15224E-02
        -0.27788E-02
        -0.36330E-02
        -0.23737E-02
         0.69179E-03
         0.13158E-02
         0.12703E-02
         0.22273E-02
         0.26978E-02
         0.17851E-02
         0.16787E-02
        -0.59656E-04
         0.81070E-05
        -0.13494E-04
        -0.10509E-04
         0.99465E-04
         0.38752E-04
         0.10309E-04
        -0.66750E-04
        -0.21752E-04
        -0.63952E-04
         0.39841E-05
        -0.10824E-03
        -0.20515E-03
         0.21396E-04
         0.26997E-03
        -0.43747E-04
         0.90186E-05
         0.37523E-05
         0.12521E-04
         0.35794E-05
         0.11756E-03
         0.76729E-04
        -0.44457E-04
         0.86386E-05
         0.23070E-04
        -0.32889E-05
         0.62555E-05
        -0.87544E-06
        -0.40942E-05
        -0.35310E-04
        -0.36306E-04
        -0.53844E-05
         0.14109E-04
         0.11539E-04
         0.21219E-04
        -0.44108E-04
        -0.95398E-04
         0.23871E-03
         0.41367E-04
         0.92386E-04
         0.23629E-03
        -0.53377E-04
        -0.11867E-03
        -0.10816E-03
        -0.10514E-03
        -0.12443E-03
         0.78852E-04
         0.61545E-04
        -0.83316E-05
         0.13426E-04
         0.15106E-03
         0.68734E-05
        -0.10407E-02
         0.15334E-02
        -0.32213E-02
        -0.34283E-02
        -0.32734E-02
        -0.18016E-02
         0.44988E-03
         0.12636E-02
         0.15535E-02
         0.28376E-02
         0.31882E-02
         0.12654E-02
         0.41658E-03
         0.35267E-03
        -0.14504E-03
        -0.15401E-02
        -0.28112E-02
        -0.36764E-02
        -0.24019E-02
         0.70057E-03
         0.13302E-02
         0.12841E-02
         0.22511E-02
         0.27257E-02
         0.18029E-02
         0.16950E-02
        -0.13511E-03
         0.18576E-04
        -0.30474E-04
        -0.23983E-04
         0.20948E-03
         0.83114E-04
         0.23549E-04
        -0.14991E-03
        -0.49012E-04
        -0.14311E-03
         0.86607E-05
        -0.22091E-03
        -0.43036E-03
         0.46763E-04
         0.55731E-03
        -0.99185E-04
         0.20487E-04
         0.84815E-05
         0.27674E-04
         0.79352E-05
         0.24619E-03
         0.16471E-03
        -0.93328E-04
         0.19374E-04
         0.52682E-04
        -0.74972E-05
         0.14023E-04
        -0.19679E-05
        -0.93807E-05
        -0.80434E-04
        -0.82376E-04
        -0.12148E-04
         0.32044E-04
         0.26256E-04
         0.42560E-04
        -0.94529E-04
        -0.20456E-03
         0.51516E-03
         0.92094E-04
         0.20648E-03
         0.51338E-03
        -0.11730E-03
        -0.26077E-03
        -0.23039E-03
        -0.22261E-03
        -0.24925E-03
         0.16597E-03
         0.13269E-03
        -0.18011E-04
         0.28936E-04
         0.31093E-03
         0.14425E-04
        -0.16842E-02
         0.24738E-02
        -0.52041E-02
        -0.55638E-02
        -0.53095E-02
        -0.29414E-02
         0.75277E-03
         0.21475E-02
         0.26292E-02
         0.47517E-02
         0.53467E-02
         0.21099E-02
         0.70694E-03
         0.60212E-03
        -0.23954E-03
        -0.25035E-02
        -0.45433E-02
        -0.58919E-02
        -0.38524E-02
         0.11275E-02
         0.21777E-02
         0.21187E-02
         0.36910E-02
         0.44984E-02
         0.29554E-02
         0.27578E-02
  
SCALARS                      strain_eq  double 1
LOOKUP_TABLE default
         0.12829E+02
         0.12663E+02
         0.12767E+02
         0.12958E+02
         0.31366E-08
         0.34779E-08
         0.33790E-08
         0.30404E-08
         0.12646E+02
         0.12709E+02
         0.34206E-08
         0.32712E-08
         0.12420E+02
         0.12412E+02
         0.37424E-08
         0.35639E-08
         0.12930E+02
         0.12424E+02
         0.27918E-08
         0.31399E-08
         0.12239E+02
         0.12090E+02
         0.12319E+02
         0.38544E-08
         0.36768E-08
         0.36571E-08
         0.12099E+02
         0.11885E+02
         0.37334E-08
         0.33908E-08
         0.12921E+02
         0.12701E+02
         0.13133E+02
         0.30380E-08
         0.28529E-08
         0.27327E-08
         0.12792E+02
         0.12513E+02
         0.33121E-08
         0.30195E-08
         0.12680E+02
         0.12462E+02
         0.30808E-08
         0.26578E-08
         0.12862E+02
         0.12946E+02
         0.33267E-08
         0.34499E-08
         0.12293E+02
         0.29815E-08
         0.12930E+02
         0.34668E-08
         0.12040E+02
         0.32596E-08
         0.11973E+02
         0.30088E-08
         0.11972E+02
         0.12210E+02
         0.30490E-08
         0.29981E-08
         0.12916E+02
         0.12829E+02
         0.30763E-08
         0.34824E-08
         0.12969E+02
         0.29527E-08
         0.12867E+02
         0.32339E-08
         0.12585E+02
         0.12569E+02
         0.34591E-08
         0.34569E-08
         0.12513E+02
         0.34983E-08
         0.11809E+02
         0.27964E-08
         0.11770E+02
         0.26028E-08
         0.11785E+02
         0.27114E-08
         0.11877E+02
         0.11992E+02
         0.26225E-08
         0.27239E-08
         0.12212E+02
         0.25653E-08
         0.12856E+02
         0.34444E-08
         0.12750E+02
         0.35075E-08
         0.12656E+02
         0.12624E+02
         0.35042E-08
         0.34375E-08
         0.12686E+02
         0.30848E-08
         0.12725E+02
         0.30204E-08
         0.12686E+02
         0.32670E-08
         0.12663E+02
         0.12707E+02
         0.33586E-08
         0.33494E-08
         0.12420E+02
         0.12504E+02
         0.31936E-08
         0.30826E-08
         0.12387E+02
         0.31014E-08
         0.12484E+02
         0.30280E-08
         0.12380E+02
         0.30244E-08
         0.12134E+02
         0.28354E-08
         0.11887E+02
         0.23992E-08
         0.11746E+02
         0.20273E-08
         0.11732E+02
         0.19662E-08
         0.11738E+02
         0.20949E-08
         0.11895E+02
         0.21610E-08
         0.12163E+02
         0.20244E-08
         0.12467E+02
         0.18476E-08
         0.12660E+02
         0.19122E-08
         0.12848E+02
         0.22666E-08
         0.12970E+02
         0.26461E-08
         0.12958E+02
         0.28202E-08
         0.12688E+02
         0.30114E-08
         0.12505E+02
         0.31646E-08
         0.12414E+02
         0.29527E-08
         0.12508E+02
         0.25996E-08
         0.12572E+02
         0.25945E-08
         0.12498E+02
         0.28551E-08
         0.12514E+02
         0.30296E-08
         0.12570E+02
         0.29315E-08
         0.12647E+02
         0.28661E-08
         0.38193E+00
         0.37663E+00
         0.37736E+00
         0.38398E+00
         0.37129E+00
         0.37806E+00
         0.36940E+00
         0.37404E+00
         0.38300E+00
         0.37761E+00
         0.36421E+00
         0.36290E+00
         0.36712E+00
         0.36718E+00
         0.36475E+00
         0.38369E+00
         0.38250E+00
         0.38573E+00
         0.37603E+00
         0.37792E+00
         0.37541E+00
         0.37726E+00
         0.37383E+00
         0.37453E+00
         0.37779E+00
         0.37753E+00
         0.37189E+00
         0.37241E+00
         0.36798E+00
         0.37462E+00
         0.38311E+00
         0.37654E+00
         0.38305E+00
         0.37882E+00
         0.36170E+00
         0.36752E+00
         0.37026E+00
         0.36721E+00
         0.36670E+00
         0.36118E+00
         0.35720E+00
         0.36700E+00
         0.37559E+00
         0.37439E+00
         0.37003E+00
         0.36197E+00
         0.36881E+00
         0.37575E+00
         0.37527E+00
         0.36992E+00
         0.36423E+00
         0.37192E+00
         0.34855E+00
         0.35716E+00
         0.35604E+00
         0.35814E+00
         0.35803E+00
         0.35409E+00
         0.34919E+00
         0.34703E+00
         0.34755E+00
         0.34729E+00
         0.34503E+00
         0.35729E+00
         0.36085E+00
         0.36220E+00
         0.36519E+00
         0.36747E+00
         0.36761E+00
         0.36437E+00
         0.35168E+00
         0.35504E+00
         0.35905E+00
         0.35873E+00
         0.35804E+00
         0.35372E+00
         0.35998E+00
         0.36230E+00
         0.22285E-01
         0.13390E-01
         0.12630E-01
         0.86608E-02
         0.23142E-01
         0.16001E-01
         0.70628E-02
         0.21917E-01
         0.13729E-01
         0.20652E-01
         0.10069E-01
         0.43389E-01
         0.32948E-01
         0.16479E-01
         0.45443E-01
         0.16192E-01
         0.82033E-02
         0.52337E-02
         0.10903E-01
         0.59028E-02
         0.34121E-01
         0.32012E-01
         0.31175E-01
         0.81129E-02
         0.13328E-01
         0.42379E-02
         0.15547E-01
         0.25252E-02
         0.56943E-02
         0.14456E-01
         0.13833E-01
         0.73577E-02
         0.89597E-02
         0.77509E-02
         0.29915E-01
         0.17902E-01
         0.23173E-01
         0.37060E-01
         0.28508E-01
         0.26534E-01
         0.37685E-01
         0.34162E-01
         0.34389E-01
         0.26622E-01
         0.23775E-01
         0.32523E-01
         0.21321E-01
         0.18130E-01
         0.14950E-01
         0.17654E-01
         0.28866E-01
         0.19818E-01
         0.12671E+00
         0.12974E+00
         0.13561E+00
         0.13463E+00
         0.14351E+00
         0.15408E+00
         0.14785E+00
         0.13148E+00
         0.12813E+00
         0.13712E+00
         0.13439E+00
         0.13256E+00
         0.10959E+00
         0.10418E+00
         0.11445E+00
         0.12258E+00
         0.12721E+00
         0.13891E+00
         0.13362E+00
         0.13724E+00
         0.12358E+00
         0.11734E+00
         0.12513E+00
         0.12233E+00
         0.12588E+00
         0.12482E+00
         0.22301E-01
         0.13393E-01
         0.12637E-01
         0.86732E-02
         0.23132E-01
         0.15991E-01
         0.70842E-02
         0.21938E-01
         0.13753E-01
         0.20713E-01
         0.10069E-01
         0.43387E-01
         0.32961E-01
         0.16440E-01
         0.45490E-01
         0.16205E-01
         0.82263E-02
         0.52206E-02
         0.10909E-01
         0.58898E-02
         0.34124E-01
         0.32010E-01
         0.31173E-01
         0.81127E-02
         0.13385E-01
         0.42369E-02
         0.15553E-01
         0.24985E-02
         0.57215E-02
         0.14482E-01
         0.13846E-01
         0.73553E-02
         0.89446E-02
         0.77580E-02
         0.29929E-01
         0.17897E-01
         0.23167E-01
         0.37118E-01
         0.28572E-01
         0.26570E-01
         0.37710E-01
         0.34180E-01
         0.34393E-01
         0.26622E-01
         0.23770E-01
         0.32521E-01
         0.21321E-01
         0.18128E-01
         0.14929E-01
         0.17630E-01
         0.28850E-01
         0.19788E-01
         0.12666E+00
         0.12971E+00
         0.13561E+00
         0.13463E+00
         0.14349E+00
         0.15403E+00
         0.14779E+00
         0.13145E+00
         0.12810E+00
         0.13708E+00
         0.13437E+00
         0.13257E+00
         0.10958E+00
         0.10417E+00
         0.11446E+00
         0.12261E+00
         0.12724E+00
         0.13894E+00
         0.13361E+00
         0.13723E+00
         0.12357E+00
         0.11733E+00
         0.12509E+00
         0.12225E+00
         0.12581E+00
         0.12476E+00
         0.22318E-01
         0.13396E-01
         0.12644E-01
         0.86857E-02
         0.23121E-01
         0.15983E-01
         0.71057E-02
         0.21959E-01
         0.13777E-01
         0.20773E-01
         0.10069E-01
         0.43386E-01
         0.32974E-01
         0.16402E-01
         0.45536E-01
         0.16219E-01
         0.82496E-02
         0.52072E-02
         0.10916E-01
         0.58770E-02
         0.34127E-01
         0.32008E-01
         0.31171E-01
         0.81123E-02
         0.13442E-01
         0.42356E-02
         0.15558E-01
         0.24728E-02
         0.57484E-02
         0.14506E-01
         0.13859E-01
         0.73529E-02
         0.89294E-02
         0.77650E-02
         0.29942E-01
         0.17892E-01
         0.23162E-01
         0.37175E-01
         0.28636E-01
         0.26607E-01
         0.37735E-01
         0.34198E-01
         0.34398E-01
         0.26623E-01
         0.23766E-01
         0.32520E-01
         0.21321E-01
         0.18127E-01
         0.14908E-01
         0.17606E-01
         0.28834E-01
         0.19758E-01
         0.12662E+00
         0.12968E+00
         0.13561E+00
         0.13463E+00
         0.14346E+00
         0.15397E+00
         0.14773E+00
         0.13141E+00
         0.12806E+00
         0.13704E+00
         0.13434E+00
         0.13257E+00
         0.10957E+00
         0.10417E+00
         0.11447E+00
         0.12264E+00
         0.12727E+00
         0.13897E+00
         0.13361E+00
         0.13722E+00
         0.12355E+00
         0.11733E+00
         0.12505E+00
         0.12217E+00
         0.12574E+00
         0.12469E+00
         0.22335E-01
         0.13399E-01
         0.12652E-01
         0.86982E-02
         0.23111E-01
         0.15973E-01
         0.71274E-02
         0.21980E-01
         0.13801E-01
         0.20832E-01
         0.10069E-01
         0.43385E-01
         0.32988E-01
         0.16363E-01
         0.45584E-01
         0.16233E-01
         0.82739E-02
         0.51938E-02
         0.10923E-01
         0.58636E-02
         0.34132E-01
         0.32006E-01
         0.31172E-01
         0.81115E-02
         0.13498E-01
         0.42337E-02
         0.15562E-01
         0.24500E-02
         0.57738E-02
         0.14529E-01
         0.13873E-01
         0.73511E-02
         0.89141E-02
         0.77721E-02
         0.29955E-01
         0.17887E-01
         0.23156E-01
         0.37233E-01
         0.28701E-01
         0.26647E-01
         0.37762E-01
         0.34217E-01
         0.34404E-01
         0.26626E-01
         0.23763E-01
         0.32520E-01
         0.21323E-01
         0.18126E-01
         0.14887E-01
         0.17582E-01
         0.28818E-01
         0.19727E-01
         0.12657E+00
         0.12965E+00
         0.13561E+00
         0.13463E+00
         0.14344E+00
         0.15392E+00
         0.14767E+00
         0.13138E+00
         0.12803E+00
         0.13700E+00
         0.13432E+00
         0.13258E+00
         0.10956E+00
         0.10417E+00
         0.11449E+00
         0.12268E+00
         0.12731E+00
         0.13900E+00
         0.13360E+00
         0.13722E+00
         0.12354E+00
         0.11732E+00
         0.12501E+00
         0.12209E+00
         0.12567E+00
         0.12462E+00
         0.22352E-01
         0.13402E-01
         0.12659E-01
         0.87106E-02
         0.23100E-01
         0.15964E-01
         0.71489E-02
         0.22001E-01
         0.13824E-01
         0.20890E-01
         0.10069E-01
         0.43384E-01
         0.33001E-01
         0.16325E-01
         0.45631E-01
         0.16249E-01
         0.82991E-02
         0.51804E-02
         0.10930E-01
         0.58499E-02
         0.34137E-01
         0.32006E-01
         0.31173E-01
         0.81103E-02
         0.13552E-01
         0.42308E-02
         0.15566E-01
         0.24302E-02
         0.57976E-02
         0.14549E-01
         0.13888E-01
         0.73495E-02
         0.88989E-02
         0.77791E-02
         0.29968E-01
         0.17882E-01
         0.23151E-01
         0.37292E-01
         0.28768E-01
         0.26687E-01
         0.37791E-01
         0.34236E-01
         0.34412E-01
         0.26631E-01
         0.23762E-01
         0.32521E-01
         0.21326E-01
         0.18126E-01
         0.14866E-01
         0.17557E-01
         0.28802E-01
         0.19696E-01
         0.12652E+00
         0.12961E+00
         0.13561E+00
         0.13463E+00
         0.14342E+00
         0.15387E+00
         0.14761E+00
         0.13134E+00
         0.12800E+00
         0.13696E+00
         0.13430E+00
         0.13259E+00
         0.10956E+00
         0.10417E+00
         0.11450E+00
         0.12272E+00
         0.12735E+00
         0.13904E+00
         0.13359E+00
         0.13721E+00
         0.12353E+00
         0.11731E+00
         0.12496E+00
         0.12201E+00
         0.12560E+00
         0.12456E+00
         0.22368E-01
         0.13404E-01
         0.12666E-01
         0.87231E-02
         0.23090E-01
         0.15955E-01
         0.71699E-02
         0.22020E-01
         0.13848E-01
         0.20946E-01
         0.10070E-01
         0.43383E-01
         0.33014E-01
         0.16286E-01
         0.45678E-01
         0.16265E-01
         0.83244E-02
         0.51670E-02
         0.10937E-01
         0.58366E-02
         0.34143E-01
         0.32005E-01
         0.31177E-01
         0.81090E-02
         0.13605E-01
         0.42276E-02
         0.15569E-01
         0.24120E-02
         0.58212E-02
         0.14568E-01
         0.13902E-01
         0.73473E-02
         0.88837E-02
         0.77861E-02
         0.29982E-01
         0.17878E-01
         0.23147E-01
         0.37350E-01
         0.28835E-01
         0.26729E-01
         0.37821E-01
         0.34257E-01
         0.34421E-01
         0.26638E-01
         0.23763E-01
         0.32524E-01
         0.21329E-01
         0.18126E-01
         0.14846E-01
         0.17533E-01
         0.28786E-01
         0.19667E-01
         0.12648E+00
         0.12958E+00
         0.13561E+00
         0.13463E+00
         0.14339E+00
         0.15382E+00
         0.14755E+00
         0.13131E+00
         0.12797E+00
         0.13692E+00
         0.13428E+00
         0.13259E+00
         0.10955E+00
         0.10416E+00
         0.11452E+00
         0.12276E+00
         0.12740E+00
         0.13907E+00
         0.13359E+00
         0.13720E+00
         0.12351E+00
         0.11730E+00
         0.12492E+00
         0.12193E+00
         0.12553E+00
         0.12449E+00
         0.22382E-01
         0.13405E-01
         0.12672E-01
         0.87357E-02
         0.23080E-01
         0.15946E-01
         0.71901E-02
         0.22037E-01
         0.13872E-01
         0.21000E-01
         0.10073E-01
         0.43383E-01
         0.33029E-01
         0.16248E-01
         0.45725E-01
         0.16281E-01
         0.83492E-02
         0.51534E-02
         0.10945E-01
         0.58235E-02
         0.34149E-01
         0.32006E-01
         0.31180E-01
         0.81080E-02
         0.13657E-01
         0.42238E-02
         0.15573E-01
         0.23942E-02
         0.58452E-02
         0.14587E-01
         0.13916E-01
         0.73437E-02
         0.88683E-02
         0.77929E-02
         0.29996E-01
         0.17875E-01
         0.23143E-01
         0.37409E-01
         0.28903E-01
         0.26771E-01
         0.37851E-01
         0.34277E-01
         0.34430E-01
         0.26644E-01
         0.23765E-01
         0.32528E-01
         0.21333E-01
         0.18128E-01
         0.14829E-01
         0.17511E-01
         0.28772E-01
         0.19637E-01
         0.12643E+00
         0.12955E+00
         0.13561E+00
         0.13463E+00
         0.14337E+00
         0.15377E+00
         0.14748E+00
         0.13127E+00
         0.12794E+00
         0.13687E+00
         0.13426E+00
         0.13260E+00
         0.10955E+00
         0.10416E+00
         0.11454E+00
         0.12280E+00
         0.12744E+00
         0.13910E+00
         0.13358E+00
         0.13719E+00
         0.12350E+00
         0.11730E+00
         0.12488E+00
         0.12185E+00
         0.12546E+00
         0.12443E+00
         0.22397E-01
         0.13405E-01
         0.12679E-01
         0.87483E-02
         0.23070E-01
         0.15937E-01
         0.72097E-02
         0.22052E-01
         0.13896E-01
         0.21053E-01
         0.10077E-01
         0.43383E-01
         0.33044E-01
         0.16210E-01
         0.45773E-01
         0.16297E-01
         0.83739E-02
         0.51398E-02
         0.10952E-01
         0.58109E-02
         0.34155E-01
         0.32006E-01
         0.31183E-01
         0.81070E-02
         0.13707E-01
         0.42198E-02
         0.15578E-01
         0.23771E-02
         0.58700E-02
         0.14607E-01
         0.13928E-01
         0.73393E-02
         0.88528E-02
         0.77997E-02
         0.30011E-01
         0.17872E-01
         0.23140E-01
         0.37469E-01
         0.28971E-01
         0.26814E-01
         0.37881E-01
         0.34298E-01
         0.34439E-01
         0.26652E-01
         0.23767E-01
         0.32534E-01
         0.21339E-01
         0.18131E-01
         0.14813E-01
         0.17488E-01
         0.28758E-01
         0.19608E-01
         0.12639E+00
         0.12952E+00
         0.13561E+00
         0.13463E+00
         0.14334E+00
         0.15371E+00
         0.14742E+00
         0.13124E+00
         0.12790E+00
         0.13683E+00
         0.13423E+00
         0.13261E+00
         0.10955E+00
         0.10416E+00
         0.11456E+00
         0.12284E+00
         0.12748E+00
         0.13914E+00
         0.13357E+00
         0.13718E+00
         0.12349E+00
         0.11729E+00
         0.12483E+00
         0.12177E+00
         0.12539E+00
         0.12436E+00
         0.22410E-01
         0.13405E-01
         0.12685E-01
         0.87609E-02
         0.23060E-01
         0.15928E-01
         0.72293E-02
         0.22067E-01
         0.13921E-01
         0.21105E-01
         0.10080E-01
         0.43383E-01
         0.33059E-01
         0.16173E-01
         0.45821E-01
         0.16313E-01
         0.83986E-02
         0.51262E-02
         0.10959E-01
         0.57980E-02
         0.34160E-01
         0.32006E-01
         0.31187E-01
         0.81062E-02
         0.13758E-01
         0.42158E-02
         0.15582E-01
         0.23605E-02
         0.58949E-02
         0.14626E-01
         0.13941E-01
         0.73350E-02
         0.88375E-02
         0.78064E-02
         0.30026E-01
         0.17869E-01
         0.23136E-01
         0.37528E-01
         0.29039E-01
         0.26856E-01
         0.37911E-01
         0.34319E-01
         0.34448E-01
         0.26660E-01
         0.23769E-01
         0.32539E-01
         0.21343E-01
         0.18134E-01
         0.14797E-01
         0.17466E-01
         0.28745E-01
         0.19578E-01
         0.12634E+00
         0.12949E+00
         0.13560E+00
         0.13464E+00
         0.14332E+00
         0.15366E+00
         0.14736E+00
         0.13120E+00
         0.12787E+00
         0.13679E+00
         0.13421E+00
         0.13262E+00
         0.10954E+00
         0.10416E+00
         0.11457E+00
         0.12288E+00
         0.12753E+00
         0.13917E+00
         0.13356E+00
         0.13717E+00
         0.12348E+00
         0.11729E+00
         0.12479E+00
         0.12169E+00
         0.12532E+00
         0.12429E+00
         0.22424E-01
         0.13405E-01
         0.12692E-01
         0.87736E-02
         0.23051E-01
         0.15919E-01
         0.72490E-02
         0.22082E-01
         0.13945E-01
         0.21158E-01
         0.10084E-01
         0.43383E-01
         0.33074E-01
         0.16135E-01
         0.45869E-01
         0.16329E-01
         0.84233E-02
         0.51128E-02
         0.10966E-01
         0.57853E-02
         0.34166E-01
         0.32006E-01
         0.31190E-01
         0.81054E-02
         0.13809E-01
         0.42118E-02
         0.15586E-01
         0.23445E-02
         0.59200E-02
         0.14646E-01
         0.13954E-01
         0.73306E-02
         0.88223E-02
         0.78132E-02
         0.30040E-01
         0.17866E-01
         0.23133E-01
         0.37588E-01
         0.29107E-01
         0.26898E-01
         0.37941E-01
         0.34340E-01
         0.34456E-01
         0.26667E-01
         0.23772E-01
         0.32544E-01
         0.21349E-01
         0.18137E-01
         0.14781E-01
         0.17444E-01
         0.28731E-01
         0.19549E-01
         0.12629E+00
         0.12946E+00
         0.13560E+00
         0.13464E+00
         0.14330E+00
         0.15361E+00
         0.14730E+00
         0.13116E+00
         0.12784E+00
         0.13675E+00
         0.13419E+00
         0.13263E+00
         0.10954E+00
         0.10416E+00
         0.11459E+00
         0.12292E+00
         0.12757E+00
         0.13920E+00
         0.13355E+00
         0.13717E+00
         0.12347E+00
         0.11728E+00
         0.12475E+00
         0.12161E+00
         0.12525E+00
         0.12423E+00
         0.22438E-01
         0.13404E-01
         0.12698E-01
         0.87862E-02
         0.23041E-01
         0.15910E-01
         0.72690E-02
         0.22097E-01
         0.13970E-01
         0.21210E-01
         0.10087E-01
         0.43384E-01
         0.33089E-01
         0.16097E-01
         0.45917E-01
         0.16345E-01
         0.84481E-02
         0.50993E-02
         0.10973E-01
         0.57723E-02
         0.34172E-01
         0.32006E-01
         0.31193E-01
         0.81047E-02
         0.13859E-01
         0.42079E-02
         0.15591E-01
         0.23289E-02
         0.59454E-02
         0.14665E-01
         0.13967E-01
         0.73263E-02
         0.88072E-02
         0.78199E-02
         0.30055E-01
         0.17863E-01
         0.23130E-01
         0.37647E-01
         0.29176E-01
         0.26940E-01
         0.37971E-01
         0.34361E-01
         0.34465E-01
         0.26674E-01
         0.23774E-01
         0.32549E-01
         0.21354E-01
         0.18140E-01
         0.14766E-01
         0.17422E-01
         0.28718E-01
         0.19520E-01
         0.12625E+00
         0.12943E+00
         0.13560E+00
         0.13464E+00
         0.14327E+00
         0.15356E+00
         0.14723E+00
         0.13113E+00
         0.12781E+00
         0.13671E+00
         0.13417E+00
         0.13264E+00
         0.10953E+00
         0.10415E+00
         0.11461E+00
         0.12296E+00
         0.12762E+00
         0.13923E+00
         0.13354E+00
         0.13716E+00
         0.12346E+00
         0.11728E+00
         0.12470E+00
         0.12153E+00
         0.12518E+00
         0.12416E+00
         0.22452E-01
         0.13404E-01
         0.12705E-01
         0.87990E-02
         0.23031E-01
         0.15901E-01
         0.72887E-02
         0.22112E-01
         0.13995E-01
         0.21263E-01
         0.10091E-01
         0.43384E-01
         0.33103E-01
         0.16060E-01
         0.45964E-01
         0.16362E-01
         0.84729E-02
         0.50857E-02
         0.10981E-01
         0.57596E-02
         0.34178E-01
         0.32005E-01
         0.31197E-01
         0.81041E-02
         0.13910E-01
         0.42042E-02
         0.15596E-01
         0.23139E-02
         0.59706E-02
         0.14684E-01
         0.13979E-01
         0.73219E-02
         0.87920E-02
         0.78267E-02
         0.30070E-01
         0.17861E-01
         0.23127E-01
         0.37707E-01
         0.29244E-01
         0.26982E-01
         0.38001E-01
         0.34381E-01
         0.34474E-01
         0.26682E-01
         0.23776E-01
         0.32555E-01
         0.21359E-01
         0.18143E-01
         0.14750E-01
         0.17400E-01
         0.28704E-01
         0.19490E-01
         0.12620E+00
         0.12940E+00
         0.13560E+00
         0.13464E+00
         0.14325E+00
         0.15350E+00
         0.14717E+00
         0.13109E+00
         0.12778E+00
         0.13666E+00
         0.13415E+00
         0.13265E+00
         0.10953E+00
         0.10415E+00
         0.11463E+00
         0.12300E+00
         0.12766E+00
         0.13926E+00
         0.13353E+00
         0.13715E+00
         0.12345E+00
         0.11727E+00
         0.12466E+00
         0.12145E+00
         0.12511E+00
         0.12410E+00
         0.22466E-01
         0.13404E-01
         0.12711E-01
         0.88118E-02
         0.23021E-01
         0.15892E-01
         0.73085E-02
         0.22127E-01
         0.14019E-01
         0.21315E-01
         0.10096E-01
         0.43384E-01
         0.33119E-01
         0.16022E-01
         0.46012E-01
         0.16378E-01
         0.84977E-02
         0.50721E-02
         0.10988E-01
         0.57468E-02
         0.34184E-01
         0.32006E-01
         0.31200E-01
         0.81034E-02
         0.13960E-01
         0.42003E-02
         0.15600E-01
         0.22993E-02
         0.59964E-02
         0.14703E-01
         0.13992E-01
         0.73175E-02
         0.87769E-02
         0.78335E-02
         0.30084E-01
         0.17858E-01
         0.23124E-01
         0.37767E-01
         0.29313E-01
         0.27024E-01
         0.38031E-01
         0.34402E-01
         0.34483E-01
         0.26690E-01
         0.23779E-01
         0.32559E-01
         0.21365E-01
         0.18146E-01
         0.14735E-01
         0.17378E-01
         0.28690E-01
         0.19461E-01
         0.12616E+00
         0.12937E+00
         0.13560E+00
         0.13464E+00
         0.14323E+00
         0.15345E+00
         0.14711E+00
         0.13106E+00
         0.12774E+00
         0.13662E+00
         0.13412E+00
         0.13265E+00
         0.10952E+00
         0.10415E+00
         0.11464E+00
         0.12304E+00
         0.12770E+00
         0.13930E+00
         0.13352E+00
         0.13714E+00
         0.12344E+00
         0.11727E+00
         0.12462E+00
         0.12137E+00
         0.12504E+00
         0.12403E+00
         0.22479E-01
         0.13404E-01
         0.12717E-01
         0.88245E-02
         0.23012E-01
         0.15883E-01
         0.73285E-02
         0.22142E-01
         0.14044E-01
         0.21367E-01
         0.10100E-01
         0.43384E-01
         0.33134E-01
         0.15985E-01
         0.46060E-01
         0.16394E-01
         0.85226E-02
         0.50586E-02
         0.10995E-01
         0.57343E-02
         0.34189E-01
         0.32005E-01
         0.31204E-01
         0.81028E-02
         0.14010E-01
         0.41964E-02
         0.15604E-01
         0.22854E-02
         0.60225E-02
         0.14722E-01
         0.14005E-01
         0.73132E-02
         0.87620E-02
         0.78403E-02
         0.30099E-01
         0.17855E-01
         0.23121E-01
         0.37827E-01
         0.29382E-01
         0.27066E-01
         0.38061E-01
         0.34423E-01
         0.34492E-01
         0.26697E-01
         0.23782E-01
         0.32565E-01
         0.21370E-01
         0.18149E-01
         0.14719E-01
         0.17356E-01
         0.28677E-01
         0.19432E-01
         0.12611E+00
         0.12934E+00
         0.13559E+00
         0.13464E+00
         0.14320E+00
         0.15340E+00
         0.14704E+00
         0.13102E+00
         0.12771E+00
         0.13658E+00
         0.13410E+00
         0.13266E+00
         0.10952E+00
         0.10415E+00
         0.11466E+00
         0.12308E+00
         0.12775E+00
         0.13933E+00
         0.13352E+00
         0.13713E+00
         0.12343E+00
         0.11726E+00
         0.12457E+00
         0.12130E+00
         0.12497E+00
         0.12396E+00
         0.22493E-01
         0.13404E-01
         0.12724E-01
         0.88374E-02
         0.23002E-01
         0.15874E-01
         0.73484E-02
         0.22157E-01
         0.14068E-01
         0.21420E-01
         0.10104E-01
         0.43385E-01
         0.33149E-01
         0.15947E-01
         0.46108E-01
         0.16410E-01
         0.85476E-02
         0.50451E-02
         0.11002E-01
         0.57214E-02
         0.34195E-01
         0.32005E-01
         0.31207E-01
         0.81021E-02
         0.14060E-01
         0.41926E-02
         0.15609E-01
         0.22718E-02
         0.60488E-02
         0.14742E-01
         0.14017E-01
         0.73088E-02
         0.87470E-02
         0.78471E-02
         0.30114E-01
         0.17853E-01
         0.23118E-01
         0.37886E-01
         0.29450E-01
         0.27108E-01
         0.38091E-01
         0.34443E-01
         0.34501E-01
         0.26705E-01
         0.23784E-01
         0.32570E-01
         0.21375E-01
         0.18152E-01
         0.14703E-01
         0.17333E-01
         0.28663E-01
         0.19402E-01
         0.12606E+00
         0.12931E+00
         0.13559E+00
         0.13464E+00
         0.14318E+00
         0.15335E+00
         0.14698E+00
         0.13099E+00
         0.12768E+00
         0.13653E+00
         0.13408E+00
         0.13267E+00
         0.10952E+00
         0.10415E+00
         0.11468E+00
         0.12312E+00
         0.12779E+00
         0.13936E+00
         0.13351E+00
         0.13712E+00
         0.12341E+00
         0.11725E+00
         0.12453E+00
         0.12122E+00
         0.12490E+00
         0.12390E+00
         0.22506E-01
         0.13404E-01
         0.12730E-01
         0.88502E-02
         0.22992E-01
         0.15865E-01
         0.73683E-02
         0.22172E-01
         0.14093E-01
         0.21472E-01
         0.10109E-01
         0.43385E-01
         0.33164E-01
         0.15910E-01
         0.46156E-01
         0.16426E-01
         0.85726E-02
         0.50317E-02
         0.11010E-01
         0.57088E-02
         0.34201E-01
         0.32005E-01
         0.31210E-01
         0.81016E-02
         0.14111E-01
         0.41889E-02
         0.15613E-01
         0.22588E-02
         0.60752E-02
         0.14761E-01
         0.14030E-01
         0.73046E-02
         0.87322E-02
         0.78540E-02
         0.30129E-01
         0.17850E-01
         0.23115E-01
         0.37946E-01
         0.29519E-01
         0.27149E-01
         0.38121E-01
         0.34464E-01
         0.34510E-01
         0.26712E-01
         0.23787E-01
         0.32575E-01
         0.21380E-01
         0.18155E-01
         0.14688E-01
         0.17311E-01
         0.28650E-01
         0.19373E-01
         0.12602E+00
         0.12928E+00
         0.13559E+00
         0.13464E+00
         0.14316E+00
         0.15329E+00
         0.14692E+00
         0.13095E+00
         0.12765E+00
         0.13649E+00
         0.13406E+00
         0.13268E+00
         0.10951E+00
         0.10414E+00
         0.11470E+00
         0.12316E+00
         0.12784E+00
         0.13939E+00
         0.13350E+00
         0.13711E+00
         0.12340E+00
         0.11725E+00
         0.12449E+00
         0.12114E+00
         0.12483E+00
         0.12383E+00
         0.22520E-01
         0.13404E-01
         0.12736E-01
         0.88631E-02
         0.22983E-01
         0.15856E-01
         0.73884E-02
         0.22187E-01
         0.14118E-01
         0.21524E-01
         0.10114E-01
         0.43385E-01
         0.33179E-01
         0.15872E-01
         0.46204E-01
         0.16442E-01
         0.85977E-02
         0.50183E-02
         0.11017E-01
         0.56960E-02
         0.34207E-01
         0.32005E-01
         0.31213E-01
         0.81011E-02
         0.14161E-01
         0.41851E-02
         0.15617E-01
         0.22460E-02
         0.61016E-02
         0.14779E-01
         0.14043E-01
         0.73004E-02
         0.87176E-02
         0.78609E-02
         0.30144E-01
         0.17847E-01
         0.23111E-01
         0.38006E-01
         0.29588E-01
         0.27191E-01
         0.38151E-01
         0.34484E-01
         0.34518E-01
         0.26719E-01
         0.23789E-01
         0.32581E-01
         0.21386E-01
         0.18158E-01
         0.14672E-01
         0.17289E-01
         0.28636E-01
         0.19344E-01
         0.12597E+00
         0.12925E+00
         0.13559E+00
         0.13464E+00
         0.14313E+00
         0.15324E+00
         0.14685E+00
         0.13091E+00
         0.12762E+00
         0.13644E+00
         0.13404E+00
         0.13269E+00
         0.10951E+00
         0.10414E+00
         0.11471E+00
         0.12320E+00
         0.12788E+00
         0.13943E+00
         0.13349E+00
         0.13711E+00
         0.12339E+00
         0.11724E+00
         0.12444E+00
         0.12106E+00
         0.12476E+00
         0.12377E+00
         0.22534E-01
         0.13403E-01
         0.12743E-01
         0.88760E-02
         0.22973E-01
         0.15847E-01
         0.74084E-02
         0.22202E-01
         0.14143E-01
         0.21576E-01
         0.10119E-01
         0.43386E-01
         0.33194E-01
         0.15835E-01
         0.46251E-01
         0.16458E-01
         0.86228E-02
         0.50048E-02
         0.11024E-01
         0.56838E-02
         0.34213E-01
         0.32005E-01
         0.31217E-01
         0.81004E-02
         0.14211E-01
         0.41816E-02
         0.15620E-01
         0.22331E-02
         0.61285E-02
         0.14797E-01
         0.14056E-01
         0.72959E-02
         0.87028E-02
         0.78678E-02
         0.30159E-01
         0.17845E-01
         0.23108E-01
         0.38067E-01
         0.29656E-01
         0.27230E-01
         0.38179E-01
         0.34502E-01
         0.34526E-01
         0.26727E-01
         0.23792E-01
         0.32586E-01
         0.21391E-01
         0.18161E-01
         0.14657E-01
         0.17267E-01
         0.28623E-01
         0.19315E-01
         0.12593E+00
         0.12922E+00
         0.13559E+00
         0.13464E+00
         0.14311E+00
         0.15319E+00
         0.14679E+00
         0.13088E+00
         0.12758E+00
         0.13640E+00
         0.13402E+00
         0.13270E+00
         0.10951E+00
         0.10414E+00
         0.11473E+00
         0.12325E+00
         0.12792E+00
         0.13946E+00
         0.13348E+00
         0.13710E+00
         0.12338E+00
         0.11724E+00
         0.12440E+00
         0.12098E+00
         0.12469E+00
         0.12370E+00
         0.22547E-01
         0.13403E-01
         0.12749E-01
         0.88889E-02
         0.22964E-01
         0.15838E-01
         0.74284E-02
         0.22216E-01
         0.14168E-01
         0.21627E-01
         0.10123E-01
         0.43386E-01
         0.33209E-01
         0.15797E-01
         0.46299E-01
         0.16474E-01
         0.86479E-02
         0.49913E-02
         0.11031E-01
         0.56716E-02
         0.34219E-01
         0.32004E-01
         0.31220E-01
         0.81000E-02
         0.14260E-01
         0.41778E-02
         0.15622E-01
         0.22201E-02
         0.61556E-02
         0.14814E-01
         0.14068E-01
         0.72917E-02
         0.86882E-02
         0.78747E-02
         0.30174E-01
         0.17842E-01
         0.23105E-01
         0.38127E-01
         0.29724E-01
         0.27269E-01
         0.38205E-01
         0.34519E-01
         0.34533E-01
         0.26734E-01
         0.23795E-01
         0.32592E-01
         0.21396E-01
         0.18164E-01
         0.14641E-01
         0.17245E-01
         0.28609E-01
         0.19285E-01
         0.12588E+00
         0.12919E+00
         0.13558E+00
         0.13464E+00
         0.14308E+00
         0.15314E+00
         0.14672E+00
         0.13084E+00
         0.12755E+00
         0.13635E+00
         0.13400E+00
         0.13272E+00
         0.10951E+00
         0.10414E+00
         0.11475E+00
         0.12329E+00
         0.12797E+00
         0.13949E+00
         0.13347E+00
         0.13709E+00
         0.12337E+00
         0.11723E+00
         0.12436E+00
         0.12090E+00
         0.12462E+00
         0.12363E+00
         0.22561E-01
         0.13403E-01
         0.12756E-01
         0.89019E-02
         0.22954E-01
         0.15829E-01
         0.74486E-02
         0.22231E-01
         0.14193E-01
         0.21678E-01
         0.10129E-01
         0.43386E-01
         0.33224E-01
         0.15759E-01
         0.46347E-01
         0.16490E-01
         0.86732E-02
         0.49779E-02
         0.11039E-01
         0.56597E-02
         0.34225E-01
         0.32003E-01
         0.31223E-01
         0.80996E-02
         0.14310E-01
         0.41744E-02
         0.15623E-01
         0.22072E-02
         0.61827E-02
         0.14831E-01
         0.14081E-01
         0.72875E-02
         0.86739E-02
         0.78818E-02
         0.30189E-01
         0.17840E-01
         0.23102E-01
         0.38188E-01
         0.29793E-01
         0.27306E-01
         0.38230E-01
         0.34535E-01
         0.34540E-01
         0.26742E-01
         0.23797E-01
         0.32597E-01
         0.21402E-01
         0.18168E-01
         0.14626E-01
         0.17223E-01
         0.28596E-01
         0.19256E-01
         0.12583E+00
         0.12916E+00
         0.13558E+00
         0.13464E+00
         0.14306E+00
         0.15308E+00
         0.14666E+00
         0.13081E+00
         0.12752E+00
         0.13630E+00
         0.13397E+00
         0.13274E+00
         0.10951E+00
         0.10414E+00
         0.11476E+00
         0.12333E+00
         0.12801E+00
         0.13952E+00
         0.13346E+00
         0.13708E+00
         0.12336E+00
         0.11723E+00
         0.12431E+00
         0.12082E+00
         0.12456E+00
         0.12357E+00
         0.23044E-01
         0.14104E-01
         0.13482E-01
         0.97248E-02
         0.23562E-01
         0.16522E-01
         0.87469E-02
         0.22823E-01
         0.14823E-01
         0.22314E-01
         0.11345E-01
         0.44020E-01
         0.33823E-01
         0.16625E-01
         0.47046E-01
         0.17027E-01
         0.96674E-02
         0.61605E-02
         0.11904E-01
         0.72366E-02
         0.34741E-01
         0.32534E-01
         0.31719E-01
         0.91139E-02
         0.15138E-01
         0.57439E-02
         0.16510E-01
         0.53851E-02
         0.79621E-02
         0.15659E-01
         0.14686E-01
         0.83732E-02
         0.94992E-02
         0.88714E-02
         0.30832E-01
         0.18553E-01
         0.23706E-01
         0.38879E-01
         0.30516E-01
         0.28016E-01
         0.38869E-01
         0.35136E-01
         0.35087E-01
         0.27248E-01
         0.24367E-01
         0.33209E-01
         0.22055E-01
         0.18812E-01
         0.15331E-01
         0.17889E-01
         0.29185E-01
         0.19877E-01
         0.12701E+00
         0.13033E+00
         0.13684E+00
         0.13586E+00
         0.14433E+00
         0.15444E+00
         0.14800E+00
         0.13208E+00
         0.12879E+00
         0.13764E+00
         0.13528E+00
         0.13399E+00
         0.11051E+00
         0.10506E+00
         0.11575E+00
         0.12438E+00
         0.12910E+00
         0.14075E+00
         0.13472E+00
         0.13836E+00
         0.12447E+00
         0.11827E+00
         0.12539E+00
         0.12185E+00
         0.12559E+00
         0.12460E+00
         0.55197E-01
         0.49750E-01
         0.48730E-01
         0.43117E-01
         0.60283E-01
         0.52587E-01
         0.50308E-01
         0.59698E-01
         0.47564E-01
         0.59205E-01
         0.55795E-01
         0.86627E-01
         0.72950E-01
         0.59970E-01
         0.91512E-01
         0.48535E-01
         0.46547E-01
         0.39840E-01
         0.48943E-01
         0.49150E-01
         0.70589E-01
         0.69542E-01
         0.66196E-01
         0.46005E-01
         0.54485E-01
         0.43317E-01
         0.59812E-01
         0.54223E-01
         0.55182E-01
         0.56350E-01
         0.47158E-01
         0.45523E-01
         0.43297E-01
         0.44727E-01
         0.69840E-01
         0.56785E-01
         0.60898E-01
         0.82606E-01
         0.73799E-01
         0.71083E-01
         0.81876E-01
         0.76201E-01
         0.73967E-01
         0.61199E-01
         0.59994E-01
         0.71790E-01
         0.59562E-01
         0.54778E-01
         0.51602E-01
         0.54764E-01
         0.66831E-01
         0.56246E-01
         0.18364E+00
         0.18609E+00
         0.19448E+00
         0.19253E+00
         0.20341E+00
         0.21768E+00
         0.21274E+00
         0.19537E+00
         0.19160E+00
         0.20197E+00
         0.19809E+00
         0.19366E+00
         0.16355E+00
         0.15553E+00
         0.16644E+00
         0.17534E+00
         0.18072E+00
         0.19624E+00
         0.19187E+00
         0.19639E+00
         0.17887E+00
         0.17115E+00
         0.18009E+00
         0.17619E+00
         0.17966E+00
         0.17788E+00
  
SCALARS                     nodal_mass  double 1
LOOKUP_TABLE default
         0.24608E-05
         0.19551E-05
         0.20945E-05
         0.35953E-05
         0.12304E-05
         0.97770E-06
         0.10472E-05
         0.17973E-05
         0.19315E-05
         0.24627E-05
         0.96570E-06
         0.12312E-05
         0.13823E-05
         0.16614E-05
         0.69133E-06
         0.83095E-06
         0.27274E-05
         0.20125E-05
         0.13635E-05
         0.10066E-05
         0.81737E-06
         0.15393E-05
         0.16929E-05
         0.40889E-06
         0.76975E-06
         0.84649E-06
         0.13859E-05
         0.17532E-05
         0.69345E-06
         0.87672E-06
         0.32470E-05
         0.25355E-05
         0.32225E-05
         0.16233E-05
         0.12675E-05
         0.16109E-05
         0.18980E-05
         0.21673E-05
         0.94902E-06
         0.10836E-05
         0.20482E-05
         0.22683E-05
         0.10242E-05
         0.11342E-05
         0.17426E-05
         0.10823E-05
         0.87140E-06
         0.54121E-06
         0.20598E-05
         0.10301E-05
         0.17103E-05
         0.85523E-06
         0.17977E-05
         0.89958E-06
         0.18362E-05
         0.91859E-06
         0.15911E-05
         0.19369E-05
         0.79575E-06
         0.96860E-06
         0.24553E-05
         0.17361E-05
         0.12277E-05
         0.86816E-06
         0.27409E-05
         0.13702E-05
         0.23792E-05
         0.11891E-05
         0.10821E-05
         0.16705E-05
         0.54106E-06
         0.83538E-06
         0.18955E-05
         0.94787E-06
         0.20026E-05
         0.10014E-05
         0.19316E-05
         0.96578E-06
         0.15181E-05
         0.75906E-06
         0.95443E-06
         0.15782E-05
         0.47723E-06
         0.78918E-06
         0.20886E-05
         0.10443E-05
         0.16867E-05
         0.84342E-06
         0.14838E-05
         0.74203E-06
         0.97224E-06
         0.16569E-05
         0.48620E-06
         0.82849E-06
         0.22482E-05
         0.11241E-05
         0.23568E-05
         0.11783E-05
         0.19018E-05
         0.95085E-06
         0.11709E-05
         0.20091E-05
         0.58544E-06
         0.10044E-05
         0.74681E-06
         0.94889E-06
         0.37348E-06
         0.47447E-06
         0.88885E-06
         0.44455E-06
         0.10466E-05
         0.52333E-06
         0.10205E-05
         0.51021E-06
         0.99108E-06
         0.49550E-06
         0.10560E-05
         0.52791E-06
         0.11142E-05
         0.55694E-06
         0.10497E-05
         0.52469E-06
         0.82085E-06
         0.41039E-06
         0.66950E-06
         0.33475E-06
         0.86397E-06
         0.43199E-06
         0.11504E-05
         0.57519E-06
         0.12637E-05
         0.63182E-06
         0.12132E-05
         0.60658E-06
         0.10948E-05
         0.54745E-06
         0.99429E-06
         0.49718E-06
         0.80759E-06
         0.40382E-06
         0.67982E-06
         0.33995E-06
         0.88797E-06
         0.44401E-06
         0.11753E-05
         0.58766E-06
         0.12140E-05
         0.60702E-06
         0.98236E-06
         0.49125E-06
         0.79766E-06
         0.39889E-06
         0.97540E-06
         0.48769E-06
         0.11548E-05
         0.57743E-06
         0.24609E-05
         0.19547E-05
         0.20946E-05
         0.35969E-05
         0.19318E-05
         0.24634E-05
         0.13815E-05
         0.16603E-05
         0.27283E-05
         0.20111E-05
         0.81658E-06
         0.15390E-05
         0.16927E-05
         0.13839E-05
         0.17528E-05
         0.32479E-05
         0.25367E-05
         0.32241E-05
         0.18980E-05
         0.21675E-05
         0.20481E-05
         0.22684E-05
         0.17424E-05
         0.10822E-05
         0.20589E-05
         0.17102E-05
         0.17950E-05
         0.18344E-05
         0.15904E-05
         0.19365E-05
         0.24555E-05
         0.17359E-05
         0.27423E-05
         0.23814E-05
         0.10820E-05
         0.16702E-05
         0.18953E-05
         0.20025E-05
         0.19317E-05
         0.15181E-05
         0.95442E-06
         0.15780E-05
         0.20884E-05
         0.16864E-05
         0.14835E-05
         0.97197E-06
         0.16567E-05
         0.22482E-05
         0.23571E-05
         0.19022E-05
         0.11709E-05
         0.20101E-05
         0.74658E-06
         0.94886E-06
         0.88841E-06
         0.10467E-05
         0.10207E-05
         0.99128E-06
         0.10565E-05
         0.11150E-05
         0.10503E-05
         0.82102E-06
         0.66954E-06
         0.86398E-06
         0.11506E-05
         0.12640E-05
         0.12133E-05
         0.10948E-05
         0.99421E-06
         0.80751E-06
         0.67970E-06
         0.88789E-06
         0.11752E-05
         0.12140E-05
         0.98215E-06
         0.79747E-06
         0.97551E-06
         0.11548E-05
         0.24611E-05
         0.19543E-05
         0.20949E-05
         0.35987E-05
         0.19321E-05
         0.24642E-05
         0.13808E-05
         0.16594E-05
         0.27293E-05
         0.20098E-05
         0.81582E-06
         0.15388E-05
         0.16927E-05
         0.13821E-05
         0.17525E-05
         0.32489E-05
         0.25379E-05
         0.32257E-05
         0.18982E-05
         0.21678E-05
         0.20480E-05
         0.22685E-05
         0.17423E-05
         0.10821E-05
         0.20580E-05
         0.17101E-05
         0.17924E-05
         0.18326E-05
         0.15898E-05
         0.19361E-05
         0.24558E-05
         0.17357E-05
         0.27438E-05
         0.23836E-05
         0.10821E-05
         0.16699E-05
         0.18951E-05
         0.20024E-05
         0.19318E-05
         0.15183E-05
         0.95445E-06
         0.15778E-05
         0.20884E-05
         0.16862E-05
         0.14831E-05
         0.97174E-06
         0.16566E-05
         0.22483E-05
         0.23575E-05
         0.19026E-05
         0.11709E-05
         0.20112E-05
         0.74636E-06
         0.94886E-06
         0.88800E-06
         0.10467E-05
         0.10210E-05
         0.99152E-06
         0.10570E-05
         0.11159E-05
         0.10509E-05
         0.82122E-06
         0.66961E-06
         0.86402E-06
         0.11507E-05
         0.12643E-05
         0.12135E-05
         0.10948E-05
         0.99417E-06
         0.80747E-06
         0.67961E-06
         0.88784E-06
         0.11752E-05
         0.12140E-05
         0.98197E-06
         0.79731E-06
         0.97565E-06
         0.11548E-05
         0.24612E-05
         0.19539E-05
         0.20950E-05
         0.36004E-05
         0.19324E-05
         0.24650E-05
         0.13801E-05
         0.16584E-05
         0.27303E-05
         0.20085E-05
         0.81504E-06
         0.15385E-05
         0.16925E-05
         0.13801E-05
         0.17521E-05
         0.32498E-05
         0.25390E-05
         0.32274E-05
         0.18982E-05
         0.21681E-05
         0.20479E-05
         0.22686E-05
         0.17421E-05
         0.10820E-05
         0.20571E-05
         0.17099E-05
         0.17897E-05
         0.18308E-05
         0.15891E-05
         0.19356E-05
         0.24561E-05
         0.17355E-05
         0.27453E-05
         0.23857E-05
         0.10820E-05
         0.16696E-05
         0.18948E-05
         0.20022E-05
         0.19320E-05
         0.15183E-05
         0.95445E-06
         0.15776E-05
         0.20883E-05
         0.16859E-05
         0.14828E-05
         0.97149E-06
         0.16564E-05
         0.22483E-05
         0.23578E-05
         0.19030E-05
         0.11710E-05
         0.20122E-05
         0.74613E-06
         0.94884E-06
         0.88756E-06
         0.10467E-05
         0.10212E-05
         0.99173E-06
         0.10574E-05
         0.11167E-05
         0.10515E-05
         0.82140E-06
         0.66966E-06
         0.86404E-06
         0.11509E-05
         0.12646E-05
         0.12136E-05
         0.10947E-05
         0.99410E-06
         0.80740E-06
         0.67950E-06
         0.88777E-06
         0.11752E-05
         0.12140E-05
         0.98177E-06
         0.79713E-06
         0.97576E-06
         0.11547E-05
         0.24613E-05
         0.19535E-05
         0.20952E-05
         0.36022E-05
         0.19327E-05
         0.24657E-05
         0.13794E-05
         0.16574E-05
         0.27313E-05
         0.20072E-05
         0.81426E-06
         0.15382E-05
         0.16924E-05
         0.13782E-05
         0.17517E-05
         0.32508E-05
         0.25402E-05
         0.32290E-05
         0.18983E-05
         0.21684E-05
         0.20479E-05
         0.22687E-05
         0.17420E-05
         0.10819E-05
         0.20563E-05
         0.17098E-05
         0.17870E-05
         0.18290E-05
         0.15884E-05
         0.19352E-05
         0.24563E-05
         0.17353E-05
         0.27467E-05
         0.23879E-05
         0.10820E-05
         0.16693E-05
         0.18946E-05
         0.20021E-05
         0.19321E-05
         0.15184E-05
         0.95445E-06
         0.15773E-05
         0.20882E-05
         0.16857E-05
         0.14824E-05
         0.97124E-06
         0.16563E-05
         0.22484E-05
         0.23582E-05
         0.19034E-05
         0.11710E-05
         0.20132E-05
         0.74590E-06
         0.94883E-06
         0.88713E-06
         0.10468E-05
         0.10215E-05
         0.99194E-06
         0.10579E-05
         0.11175E-05
         0.10521E-05
         0.82159E-06
         0.66972E-06
         0.86406E-06
         0.11510E-05
         0.12649E-05
         0.12138E-05
         0.10947E-05
         0.99404E-06
         0.80734E-06
         0.67940E-06
         0.88771E-06
         0.11752E-05
         0.12140E-05
         0.98157E-06
         0.79696E-06
         0.97588E-06
         0.11547E-05
         0.24615E-05
         0.19531E-05
         0.20954E-05
         0.36039E-05
         0.19331E-05
         0.24665E-05
         0.13787E-05
         0.16564E-05
         0.27322E-05
         0.20059E-05
         0.81349E-06
         0.15380E-05
         0.16923E-05
         0.13763E-05
         0.17514E-05
         0.32518E-05
         0.25414E-05
         0.32306E-05
         0.18984E-05
         0.21687E-05
         0.20478E-05
         0.22688E-05
         0.17418E-05
         0.10818E-05
         0.20554E-05
         0.17096E-05
         0.17843E-05
         0.18272E-05
         0.15878E-05
         0.19347E-05
         0.24566E-05
         0.17351E-05
         0.27482E-05
         0.23901E-05
         0.10820E-05
         0.16690E-05
         0.18943E-05
         0.20019E-05
         0.19322E-05
         0.15185E-05
         0.95446E-06
         0.15771E-05
         0.20881E-05
         0.16855E-05
         0.14821E-05
         0.97100E-06
         0.16562E-05
         0.22484E-05
         0.23586E-05
         0.19038E-05
         0.11710E-05
         0.20142E-05
         0.74568E-06
         0.94882E-06
         0.88671E-06
         0.10468E-05
         0.10217E-05
         0.99216E-06
         0.10583E-05
         0.11183E-05
         0.10528E-05
         0.82178E-06
         0.66977E-06
         0.86408E-06
         0.11512E-05
         0.12652E-05
         0.12139E-05
         0.10947E-05
         0.99398E-06
         0.80728E-06
         0.67930E-06
         0.88766E-06
         0.11752E-05
         0.12140E-05
         0.98138E-06
         0.79679E-06
         0.97601E-06
         0.11547E-05
         0.24616E-05
         0.19527E-05
         0.20956E-05
         0.36056E-05
         0.19334E-05
         0.24672E-05
         0.13779E-05
         0.16554E-05
         0.27332E-05
         0.20046E-05
         0.81271E-06
         0.15377E-05
         0.16922E-05
         0.13744E-05
         0.17510E-05
         0.32527E-05
         0.25425E-05
         0.32322E-05
         0.18984E-05
         0.21689E-05
         0.20477E-05
         0.22689E-05
         0.17416E-05
         0.10816E-05
         0.20545E-05
         0.17095E-05
         0.17817E-05
         0.18254E-05
         0.15871E-05
         0.19343E-05
         0.24568E-05
         0.17349E-05
         0.27496E-05
         0.23922E-05
         0.10820E-05
         0.16686E-05
         0.18941E-05
         0.20018E-05
         0.19324E-05
         0.15186E-05
         0.95446E-06
         0.15769E-05
         0.20880E-05
         0.16852E-05
         0.14817E-05
         0.97074E-06
         0.16560E-05
         0.22484E-05
         0.23589E-05
         0.19042E-05
         0.11710E-05
         0.20152E-05
         0.74544E-06
         0.94880E-06
         0.88627E-06
         0.10469E-05
         0.10219E-05
         0.99237E-06
         0.10588E-05
         0.11191E-05
         0.10534E-05
         0.82196E-06
         0.66982E-06
         0.86410E-06
         0.11513E-05
         0.12654E-05
         0.12140E-05
         0.10947E-05
         0.99391E-06
         0.80721E-06
         0.67919E-06
         0.88759E-06
         0.11751E-05
         0.12140E-05
         0.98118E-06
         0.79661E-06
         0.97612E-06
         0.11546E-05
         0.24618E-05
         0.19523E-05
         0.20957E-05
         0.36073E-05
         0.19337E-05
         0.24680E-05
         0.13772E-05
         0.16545E-05
         0.27341E-05
         0.20033E-05
         0.81194E-06
         0.15374E-05
         0.16921E-05
         0.13725E-05
         0.17506E-05
         0.32537E-05
         0.25437E-05
         0.32339E-05
         0.18985E-05
         0.21692E-05
         0.20476E-05
         0.22690E-05
         0.17414E-05
         0.10815E-05
         0.20536E-05
         0.17093E-05
         0.17790E-05
         0.18236E-05
         0.15864E-05
         0.19339E-05
         0.24571E-05
         0.17347E-05
         0.27511E-05
         0.23944E-05
         0.10820E-05
         0.16683E-05
         0.18938E-05
         0.20016E-05
         0.19325E-05
         0.15186E-05
         0.95446E-06
         0.15767E-05
         0.20878E-05
         0.16850E-05
         0.14814E-05
         0.97050E-06
         0.16559E-05
         0.22484E-05
         0.23593E-05
         0.19046E-05
         0.11711E-05
         0.20162E-05
         0.74522E-06
         0.94878E-06
         0.88584E-06
         0.10469E-05
         0.10222E-05
         0.99258E-06
         0.10593E-05
         0.11199E-05
         0.10540E-05
         0.82215E-06
         0.66988E-06
         0.86413E-06
         0.11515E-05
         0.12657E-05
         0.12142E-05
         0.10946E-05
         0.99385E-06
         0.80715E-06
         0.67909E-06
         0.88752E-06
         0.11751E-05
         0.12140E-05
         0.98098E-06
         0.79643E-06
         0.97624E-06
         0.11546E-05
         0.24619E-05
         0.19519E-05
         0.20959E-05
         0.36091E-05
         0.19340E-05
         0.24688E-05
         0.13765E-05
         0.16535E-05
         0.27351E-05
         0.20020E-05
         0.81117E-06
         0.15372E-05
         0.16920E-05
         0.13706E-05
         0.17503E-05
         0.32546E-05
         0.25448E-05
         0.32355E-05
         0.18986E-05
         0.21695E-05
         0.20475E-05
         0.22691E-05
         0.17413E-05
         0.10814E-05
         0.20527E-05
         0.17092E-05
         0.17763E-05
         0.18219E-05
         0.15858E-05
         0.19334E-05
         0.24573E-05
         0.17345E-05
         0.27525E-05
         0.23966E-05
         0.10820E-05
         0.16680E-05
         0.18936E-05
         0.20015E-05
         0.19326E-05
         0.15187E-05
         0.95447E-06
         0.15765E-05
         0.20878E-05
         0.16848E-05
         0.14810E-05
         0.97025E-06
         0.16557E-05
         0.22485E-05
         0.23597E-05
         0.19050E-05
         0.11711E-05
         0.20172E-05
         0.74499E-06
         0.94877E-06
         0.88541E-06
         0.10469E-05
         0.10224E-05
         0.99280E-06
         0.10597E-05
         0.11207E-05
         0.10546E-05
         0.82234E-06
         0.66994E-06
         0.86415E-06
         0.11517E-05
         0.12660E-05
         0.12143E-05
         0.10946E-05
         0.99379E-06
         0.80709E-06
         0.67898E-06
         0.88746E-06
         0.11751E-05
         0.12140E-05
         0.98079E-06
         0.79626E-06
         0.97636E-06
         0.11546E-05
         0.24621E-05
         0.19515E-05
         0.20961E-05
         0.36108E-05
         0.19343E-05
         0.24695E-05
         0.13758E-05
         0.16525E-05
         0.27361E-05
         0.20006E-05
         0.81039E-06
         0.15369E-05
         0.16919E-05
         0.13686E-05
         0.17499E-05
         0.32556E-05
         0.25460E-05
         0.32371E-05
         0.18986E-05
         0.21697E-05
         0.20474E-05
         0.22692E-05
         0.17411E-05
         0.10813E-05
         0.20519E-05
         0.17091E-05
         0.17736E-05
         0.18201E-05
         0.15851E-05
         0.19330E-05
         0.24575E-05
         0.17342E-05
         0.27540E-05
         0.23987E-05
         0.10820E-05
         0.16677E-05
         0.18933E-05
         0.20014E-05
         0.19328E-05
         0.15188E-05
         0.95448E-06
         0.15763E-05
         0.20876E-05
         0.16845E-05
         0.14807E-05
         0.97000E-06
         0.16556E-05
         0.22485E-05
         0.23600E-05
         0.19053E-05
         0.11711E-05
         0.20182E-05
         0.74476E-06
         0.94875E-06
         0.88498E-06
         0.10470E-05
         0.10227E-05
         0.99301E-06
         0.10602E-05
         0.11215E-05
         0.10553E-05
         0.82252E-06
         0.66999E-06
         0.86417E-06
         0.11518E-05
         0.12663E-05
         0.12145E-05
         0.10946E-05
         0.99373E-06
         0.80702E-06
         0.67888E-06
         0.88740E-06
         0.11751E-05
         0.12140E-05
         0.98058E-06
         0.79608E-06
         0.97648E-06
         0.11546E-05
         0.24622E-05
         0.19511E-05
         0.20963E-05
         0.36125E-05
         0.19346E-05
         0.24703E-05
         0.13751E-05
         0.16515E-05
         0.27370E-05
         0.19993E-05
         0.80962E-06
         0.15366E-05
         0.16917E-05
         0.13667E-05
         0.17495E-05
         0.32565E-05
         0.25471E-05
         0.32388E-05
         0.18987E-05
         0.21700E-05
         0.20473E-05
         0.22693E-05
         0.17409E-05
         0.10812E-05
         0.20510E-05
         0.17089E-05
         0.17710E-05
         0.18183E-05
         0.15844E-05
         0.19325E-05
         0.24578E-05
         0.17340E-05
         0.27554E-05
         0.24009E-05
         0.10820E-05
         0.16674E-05
         0.18931E-05
         0.20012E-05
         0.19329E-05
         0.15189E-05
         0.95448E-06
         0.15760E-05
         0.20875E-05
         0.16843E-05
         0.14803E-05
         0.96975E-06
         0.16555E-05
         0.22485E-05
         0.23604E-05
         0.19057E-05
         0.11712E-05
         0.20192E-05
         0.74453E-06
         0.94874E-06
         0.88455E-06
         0.10470E-05
         0.10229E-05
         0.99322E-06
         0.10606E-05
         0.11223E-05
         0.10559E-05
         0.82270E-06
         0.67004E-06
         0.86419E-06
         0.11520E-05
         0.12666E-05
         0.12146E-05
         0.10945E-05
         0.99366E-06
         0.80696E-06
         0.67877E-06
         0.88733E-06
         0.11751E-05
         0.12140E-05
         0.98038E-06
         0.79590E-06
         0.97660E-06
         0.11545E-05
         0.24623E-05
         0.19507E-05
         0.20964E-05
         0.36142E-05
         0.19349E-05
         0.24710E-05
         0.13743E-05
         0.16505E-05
         0.27380E-05
         0.19980E-05
         0.80885E-06
         0.15364E-05
         0.16916E-05
         0.13648E-05
         0.17492E-05
         0.32575E-05
         0.25483E-05
         0.32404E-05
         0.18988E-05
         0.21703E-05
         0.20473E-05
         0.22694E-05
         0.17407E-05
         0.10811E-05
         0.20501E-05
         0.17088E-05
         0.17683E-05
         0.18165E-05
         0.15837E-05
         0.19321E-05
         0.24580E-05
         0.17338E-05
         0.27569E-05
         0.24031E-05
         0.10820E-05
         0.16670E-05
         0.18928E-05
         0.20011E-05
         0.19330E-05
         0.15189E-05
         0.95448E-06
         0.15758E-05
         0.20874E-05
         0.16840E-05
         0.14800E-05
         0.96950E-06
         0.16553E-05
         0.22485E-05
         0.23608E-05
         0.19061E-05
         0.11712E-05
         0.20202E-05
         0.74430E-06
         0.94872E-06
         0.88412E-06
         0.10470E-05
         0.10231E-05
         0.99344E-06
         0.10611E-05
         0.11231E-05
         0.10565E-05
         0.82289E-06
         0.67009E-06
         0.86422E-06
         0.11521E-05
         0.12669E-05
         0.12147E-05
         0.10945E-05
         0.99360E-06
         0.80690E-06
         0.67867E-06
         0.88727E-06
         0.11750E-05
         0.12140E-05
         0.98019E-06
         0.79573E-06
         0.97672E-06
         0.11545E-05
         0.24625E-05
         0.19503E-05
         0.20966E-05
         0.36160E-05
         0.19352E-05
         0.24718E-05
         0.13736E-05
         0.16496E-05
         0.27389E-05
         0.19967E-05
         0.80807E-06
         0.15361E-05
         0.16915E-05
         0.13629E-05
         0.17488E-05
         0.32584E-05
         0.25495E-05
         0.32420E-05
         0.18988E-05
         0.21705E-05
         0.20472E-05
         0.22695E-05
         0.17406E-05
         0.10810E-05
         0.20492E-05
         0.17086E-05
         0.17656E-05
         0.18147E-05
         0.15831E-05
         0.19317E-05
         0.24583E-05
         0.17336E-05
         0.27583E-05
         0.24053E-05
         0.10820E-05
         0.16667E-05
         0.18926E-05
         0.20009E-05
         0.19331E-05
         0.15190E-05
         0.95449E-06
         0.15756E-05
         0.20873E-05
         0.16838E-05
         0.14796E-05
         0.96925E-06
         0.16552E-05
         0.22486E-05
         0.23611E-05
         0.19065E-05
         0.11712E-05
         0.20212E-05
         0.74407E-06
         0.94870E-06
         0.88368E-06
         0.10471E-05
         0.10234E-05
         0.99365E-06
         0.10616E-05
         0.11239E-05
         0.10571E-05
         0.82307E-06
         0.67014E-06
         0.86424E-06
         0.11523E-05
         0.12672E-05
         0.12149E-05
         0.10945E-05
         0.99354E-06
         0.80683E-06
         0.67856E-06
         0.88721E-06
         0.11750E-05
         0.12140E-05
         0.97999E-06
         0.79555E-06
         0.97684E-06
         0.11545E-05
         0.24626E-05
         0.19499E-05
         0.20968E-05
         0.36177E-05
         0.19355E-05
         0.24725E-05
         0.13729E-05
         0.16486E-05
         0.27399E-05
         0.19954E-05
         0.80730E-06
         0.15358E-05
         0.16914E-05
         0.13610E-05
         0.17484E-05
         0.32594E-05
         0.25506E-05
         0.32437E-05
         0.18989E-05
         0.21708E-05
         0.20471E-05
         0.22696E-05
         0.17404E-05
         0.10808E-05
         0.20483E-05
         0.17085E-05
         0.17629E-05
         0.18129E-05
         0.15824E-05
         0.19312E-05
         0.24585E-05
         0.17334E-05
         0.27598E-05
         0.24074E-05
         0.10820E-05
         0.16664E-05
         0.18923E-05
         0.20008E-05
         0.19333E-05
         0.15191E-05
         0.95449E-06
         0.15754E-05
         0.20872E-05
         0.16835E-05
         0.14793E-05
         0.96901E-06
         0.16550E-05
         0.22486E-05
         0.23615E-05
         0.19069E-05
         0.11713E-05
         0.20222E-05
         0.74384E-06
         0.94869E-06
         0.88325E-06
         0.10471E-05
         0.10236E-05
         0.99386E-06
         0.10620E-05
         0.11247E-05
         0.10577E-05
         0.82326E-06
         0.67020E-06
         0.86426E-06
         0.11524E-05
         0.12674E-05
         0.12150E-05
         0.10944E-05
         0.99348E-06
         0.80677E-06
         0.67846E-06
         0.88714E-06
         0.11750E-05
         0.12140E-05
         0.97979E-06
         0.79538E-06
         0.97696E-06
         0.11544E-05
         0.24628E-05
         0.19495E-05
         0.20970E-05
         0.36194E-05
         0.19358E-05
         0.24733E-05
         0.13722E-05
         0.16476E-05
         0.27409E-05
         0.19941E-05
         0.80652E-06
         0.15355E-05
         0.16913E-05
         0.13591E-05
         0.17481E-05
         0.32604E-05
         0.25518E-05
         0.32453E-05
         0.18990E-05
         0.21711E-05
         0.20470E-05
         0.22697E-05
         0.17402E-05
         0.10807E-05
         0.20474E-05
         0.17084E-05
         0.17603E-05
         0.18111E-05
         0.15817E-05
         0.19308E-05
         0.24588E-05
         0.17332E-05
         0.27613E-05
         0.24096E-05
         0.10819E-05
         0.16661E-05
         0.18921E-05
         0.20006E-05
         0.19334E-05
         0.15192E-05
         0.95450E-06
         0.15752E-05
         0.20871E-05
         0.16833E-05
         0.14789E-05
         0.96876E-06
         0.16549E-05
         0.22486E-05
         0.23619E-05
         0.19073E-05
         0.11713E-05
         0.20232E-05
         0.74362E-06
         0.94868E-06
         0.88282E-06
         0.10472E-05
         0.10238E-05
         0.99408E-06
         0.10625E-05
         0.11255E-05
         0.10584E-05
         0.82345E-06
         0.67025E-06
         0.86428E-06
         0.11526E-05
         0.12677E-05
         0.12152E-05
         0.10944E-05
         0.99342E-06
         0.80671E-06
         0.67836E-06
         0.88709E-06
         0.11750E-05
         0.12140E-05
         0.97959E-06
         0.79521E-06
         0.97708E-06
         0.11544E-05
         0.24629E-05
         0.19491E-05
         0.20972E-05
         0.36212E-05
         0.19361E-05
         0.24741E-05
         0.13715E-05
         0.16466E-05
         0.27418E-05
         0.19928E-05
         0.80575E-06
         0.15353E-05
         0.16912E-05
         0.13572E-05
         0.17477E-05
         0.32613E-05
         0.25529E-05
         0.32469E-05
         0.18990E-05
         0.21714E-05
         0.20469E-05
         0.22698E-05
         0.17400E-05
         0.10806E-05
         0.20466E-05
         0.17082E-05
         0.17576E-05
         0.18093E-05
         0.15810E-05
         0.19303E-05
         0.24590E-05
         0.17330E-05
         0.27627E-05
         0.24118E-05
         0.10819E-05
         0.16658E-05
         0.18919E-05
         0.20005E-05
         0.19335E-05
         0.15192E-05
         0.95450E-06
         0.15750E-05
         0.20870E-05
         0.16831E-05
         0.14786E-05
         0.96851E-06
         0.16548E-05
         0.22487E-05
         0.23622E-05
         0.19077E-05
         0.11713E-05
         0.20242E-05
         0.74339E-06
         0.94866E-06
         0.88239E-06
         0.10472E-05
         0.10241E-05
         0.99429E-06
         0.10630E-05
         0.11263E-05
         0.10590E-05
         0.82363E-06
         0.67030E-06
         0.86430E-06
         0.11527E-05
         0.12680E-05
         0.12153E-05
         0.10944E-05
         0.99335E-06
         0.80665E-06
         0.67825E-06
         0.88702E-06
         0.11749E-05
         0.12140E-05
         0.97939E-06
         0.79503E-06
         0.97720E-06
         0.11544E-05
         0.24631E-05
         0.19487E-05
         0.20973E-05
         0.36229E-05
         0.19364E-05
         0.24748E-05
         0.13707E-05
         0.16456E-05
         0.27428E-05
         0.19915E-05
         0.80498E-06
         0.15350E-05
         0.16911E-05
         0.13553E-05
         0.17473E-05
         0.32623E-05
         0.25541E-05
         0.32486E-05
         0.18991E-05
         0.21716E-05
         0.20468E-05
         0.22699E-05
         0.17399E-05
         0.10805E-05
         0.20457E-05
         0.17081E-05
         0.17549E-05
         0.18075E-05
         0.15804E-05
         0.19299E-05
         0.24592E-05
         0.17328E-05
         0.27642E-05
         0.24140E-05
         0.10819E-05
         0.16654E-05
         0.18916E-05
         0.20003E-05
         0.19337E-05
         0.15193E-05
         0.95450E-06
         0.15748E-05
         0.20869E-05
         0.16828E-05
         0.14782E-05
         0.96826E-06
         0.16546E-05
         0.22487E-05
         0.23626E-05
         0.19081E-05
         0.11714E-05
         0.20253E-05
         0.74316E-06
         0.94864E-06
         0.88196E-06
         0.10472E-05
         0.10243E-05
         0.99450E-06
         0.10634E-05
         0.11271E-05
         0.10596E-05
         0.82381E-06
         0.67036E-06
         0.86432E-06
         0.11529E-05
         0.12683E-05
         0.12154E-05
         0.10943E-05
         0.99329E-06
         0.80658E-06
         0.67815E-06
         0.88696E-06
         0.11749E-05
         0.12140E-05
         0.97919E-06
         0.79485E-06
         0.97732E-06
         0.11544E-05
         0.24632E-05
         0.19483E-05
         0.20975E-05
         0.36246E-05
         0.19368E-05
         0.24756E-05
         0.13700E-05
         0.16447E-05
         0.27437E-05
         0.19902E-05
         0.80421E-06
         0.15347E-05
         0.16910E-05
         0.13534E-05
         0.17470E-05
         0.32632E-05
         0.25552E-05
         0.32502E-05
         0.18992E-05
         0.21719E-05
         0.20467E-05
         0.22700E-05
         0.17397E-05
         0.10804E-05
         0.20448E-05
         0.17079E-05
         0.17523E-05
         0.18057E-05
         0.15797E-05
         0.19295E-05
         0.24595E-05
         0.17326E-05
         0.27656E-05
         0.24161E-05
         0.10819E-05
         0.16651E-05
         0.18914E-05
         0.20002E-05
         0.19338E-05
         0.15194E-05
         0.95451E-06
         0.15745E-05
         0.20868E-05
         0.16826E-05
         0.14779E-05
         0.96801E-06
         0.16545E-05
         0.22487E-05
         0.23630E-05
         0.19085E-05
         0.11714E-05
         0.20263E-05
         0.74293E-06
         0.94863E-06
         0.88153E-06
         0.10473E-05
         0.10245E-05
         0.99472E-06
         0.10639E-05
         0.11279E-05
         0.10602E-05
         0.82400E-06
         0.67041E-06
         0.86435E-06
         0.11530E-05
         0.12686E-05
         0.12156E-05
         0.10943E-05
         0.99323E-06
         0.80652E-06
         0.67804E-06
         0.88690E-06
         0.11749E-05
         0.12140E-05
         0.97900E-06
         0.79468E-06
         0.97744E-06
         0.11543E-05
         0.24633E-05
         0.19479E-05
         0.20977E-05
         0.36264E-05
         0.19371E-05
         0.24763E-05
         0.13693E-05
         0.16437E-05
         0.27447E-05
         0.19888E-05
         0.80343E-06
         0.15345E-05
         0.16908E-05
         0.13515E-05
         0.17466E-05
         0.32642E-05
         0.25564E-05
         0.32518E-05
         0.18992E-05
         0.21722E-05
         0.20466E-05
         0.22701E-05
         0.17395E-05
         0.10803E-05
         0.20439E-05
         0.17078E-05
         0.17496E-05
         0.18039E-05
         0.15790E-05
         0.19290E-05
         0.24597E-05
         0.17323E-05
         0.27671E-05
         0.24183E-05
         0.10819E-05
         0.16648E-05
         0.18911E-05
         0.20001E-05
         0.19339E-05
         0.15195E-05
         0.95452E-06
         0.15743E-05
         0.20867E-05
         0.16823E-05
         0.14775E-05
         0.96776E-06
         0.16543E-05
         0.22487E-05
         0.23633E-05
         0.19089E-05
         0.11714E-05
         0.20273E-05
         0.74270E-06
         0.94861E-06
         0.88109E-06
         0.10473E-05
         0.10248E-05
         0.99493E-06
         0.10643E-05
         0.11287E-05
         0.10609E-05
         0.82418E-06
         0.67046E-06
         0.86437E-06
         0.11532E-05
         0.12689E-05
         0.12157E-05
         0.10943E-05
         0.99316E-06
         0.80646E-06
         0.67794E-06
         0.88683E-06
         0.11749E-05
         0.12140E-05
         0.97879E-06
         0.79450E-06
         0.97755E-06
         0.11543E-05
         0.24635E-05
         0.19475E-05
         0.20979E-05
         0.36281E-05
         0.19374E-05
         0.24771E-05
         0.13686E-05
         0.16427E-05
         0.27456E-05
         0.19875E-05
         0.80266E-06
         0.15342E-05
         0.16907E-05
         0.13496E-05
         0.17463E-05
         0.32651E-05
         0.25575E-05
         0.32534E-05
         0.18993E-05
         0.21724E-05
         0.20466E-05
         0.22702E-05
         0.17393E-05
         0.10802E-05
         0.20430E-05
         0.17076E-05
         0.17469E-05
         0.18021E-05
         0.15784E-05
         0.19286E-05
         0.24600E-05
         0.17321E-05
         0.27685E-05
         0.24205E-05
         0.10819E-05
         0.16645E-05
         0.18909E-05
         0.19999E-05
         0.19341E-05
         0.15195E-05
         0.95452E-06
         0.15741E-05
         0.20866E-05
         0.16821E-05
         0.14772E-05
         0.96751E-06
         0.16542E-05
         0.22488E-05
         0.23637E-05
         0.19092E-05
         0.11715E-05
         0.20283E-05
         0.74247E-06
         0.94860E-06
         0.88066E-06
         0.10473E-05
         0.10250E-05
         0.99514E-06
         0.10648E-05
         0.11295E-05
         0.10615E-05
         0.82437E-06
         0.67052E-06
         0.86439E-06
         0.11533E-05
         0.12691E-05
         0.12159E-05
         0.10942E-05
         0.99310E-06
         0.80639E-06
         0.67783E-06
         0.88676E-06
         0.11748E-05
         0.12140E-05
         0.97859E-06
         0.79433E-06
         0.97767E-06
         0.11543E-05
         0.24636E-05
         0.19471E-05
         0.20980E-05
         0.36298E-05
         0.19377E-05
         0.24779E-05
         0.13679E-05
         0.16417E-05
         0.27466E-05
         0.19862E-05
         0.80189E-06
         0.15339E-05
         0.16906E-05
         0.13477E-05
         0.17459E-05
         0.32661E-05
         0.25587E-05
         0.32551E-05
         0.18994E-05
         0.21727E-05
         0.20465E-05
         0.22703E-05
         0.17392E-05
         0.10800E-05
         0.20421E-05
         0.17075E-05
         0.17443E-05
         0.18003E-05
         0.15777E-05
         0.19281E-05
         0.24602E-05
         0.17319E-05
         0.27700E-05
         0.24227E-05
         0.10819E-05
         0.16642E-05
         0.18906E-05
         0.19998E-05
         0.19342E-05
         0.15196E-05
         0.95453E-06
         0.15739E-05
         0.20865E-05
         0.16819E-05
         0.14768E-05
         0.96727E-06
         0.16541E-05
         0.22488E-05
         0.23640E-05
         0.19096E-05
         0.11715E-05
         0.20293E-05
         0.74225E-06
         0.94859E-06
         0.88023E-06
         0.10474E-05
         0.10253E-05
         0.99535E-06
         0.10653E-05
         0.11303E-05
         0.10621E-05
         0.82456E-06
         0.67057E-06
         0.86441E-06
         0.11535E-05
         0.12694E-05
         0.12160E-05
         0.10942E-05
         0.99304E-06
         0.80633E-06
         0.67773E-06
         0.88671E-06
         0.11748E-05
         0.12140E-05
         0.97840E-06
         0.79415E-06
         0.97780E-06
         0.11542E-05
         0.24637E-05
         0.19466E-05
         0.20982E-05
         0.36315E-05
         0.19380E-05
         0.24786E-05
         0.13671E-05
         0.16407E-05
         0.27475E-05
         0.19849E-05
         0.80110E-06
         0.15336E-05
         0.16905E-05
         0.13457E-05
         0.17455E-05
         0.32669E-05
         0.25598E-05
         0.32567E-05
         0.18994E-05
         0.21729E-05
         0.20464E-05
         0.22703E-05
         0.17390E-05
         0.10799E-05
         0.20412E-05
         0.17073E-05
         0.17416E-05
         0.17985E-05
         0.15770E-05
         0.19277E-05
         0.24604E-05
         0.17317E-05
         0.27714E-05
         0.24248E-05
         0.10819E-05
         0.16638E-05
         0.18903E-05
         0.19996E-05
         0.19343E-05
         0.15196E-05
         0.95451E-06
         0.15737E-05
         0.20864E-05
         0.16816E-05
         0.14765E-05
         0.96700E-06
         0.16539E-05
         0.22488E-05
         0.23644E-05
         0.19100E-05
         0.11715E-05
         0.20303E-05
         0.74200E-06
         0.94855E-06
         0.87978E-06
         0.10474E-05
         0.10255E-05
         0.99555E-06
         0.10657E-05
         0.11311E-05
         0.10627E-05
         0.82472E-06
         0.67061E-06
         0.86442E-06
         0.11536E-05
         0.12697E-05
         0.12161E-05
         0.10941E-05
         0.99295E-06
         0.80625E-06
         0.67761E-06
         0.88662E-06
         0.11748E-05
         0.12140E-05
         0.97818E-06
         0.79396E-06
         0.97790E-06
         0.11542E-05
         0.24639E-05
         0.19463E-05
         0.20984E-05
         0.36333E-05
         0.19383E-05
         0.24794E-05
         0.13664E-05
         0.16398E-05
         0.27485E-05
         0.19836E-05
         0.80034E-06
         0.15334E-05
         0.16904E-05
         0.13439E-05
         0.17452E-05
         0.32679E-05
         0.25610E-05
         0.32583E-05
         0.18995E-05
         0.21732E-05
         0.20463E-05
         0.22704E-05
         0.17388E-05
         0.10798E-05
         0.20404E-05
         0.17072E-05
         0.17389E-05
         0.17967E-05
         0.15763E-05
         0.19272E-05
         0.24607E-05
         0.17315E-05
         0.27729E-05
         0.24270E-05
         0.10819E-05
         0.16635E-05
         0.18901E-05
         0.19995E-05
         0.19345E-05
         0.15197E-05
         0.95453E-06
         0.15735E-05
         0.20863E-05
         0.16814E-05
         0.14761E-05
         0.96677E-06
         0.16538E-05
         0.22488E-05
         0.23647E-05
         0.19104E-05
         0.11716E-05
         0.20313E-05
         0.74179E-06
         0.94855E-06
         0.87936E-06
         0.10475E-05
         0.10257E-05
         0.99577E-06
         0.10662E-05
         0.11319E-05
         0.10633E-05
         0.82492E-06
         0.67068E-06
         0.86446E-06
         0.11538E-05
         0.12700E-05
         0.12163E-05
         0.10941E-05
         0.99291E-06
         0.80620E-06
         0.67752E-06
         0.88657E-06
         0.11748E-05
         0.12140E-05
         0.97800E-06
         0.79380E-06
         0.97803E-06
         0.11542E-05
         0.12320E-05
         0.97306E-06
         0.10493E-05
         0.18171E-05
         0.96926E-06
         0.12399E-05
         0.68306E-06
         0.81967E-06
         0.13745E-05
         0.99152E-06
         0.39999E-06
         0.76665E-06
         0.84519E-06
         0.67148E-06
         0.87252E-06
         0.16343E-05
         0.12808E-05
         0.16296E-05
         0.94981E-06
         0.10867E-05
         0.10232E-05
         0.11353E-05
         0.86940E-06
         0.53990E-06
         0.10200E-05
         0.85360E-06
         0.86884E-06
         0.89793E-06
         0.78802E-06
         0.96354E-06
         0.12305E-05
         0.86572E-06
         0.13869E-05
         0.12141E-05
         0.54095E-06
         0.83170E-06
         0.94503E-06
         0.99975E-06
         0.96729E-06
         0.75992E-06
         0.47728E-06
         0.78670E-06
         0.10432E-05
         0.84065E-06
         0.73800E-06
         0.48334E-06
         0.82688E-06
         0.11245E-05
         0.11825E-05
         0.95534E-06
         0.58581E-06
         0.10159E-05
         0.37085E-06
         0.47429E-06
         0.43959E-06
         0.52375E-06
         0.51294E-06
         0.49796E-06
         0.53322E-06
         0.56619E-06
         0.53185E-06
         0.41252E-06
         0.33536E-06
         0.43225E-06
         0.57696E-06
         0.63509E-06
         0.60820E-06
         0.54708E-06
         0.49646E-06
         0.40310E-06
         0.33875E-06
         0.44329E-06
         0.58740E-06
         0.60700E-06
         0.48897E-06
         0.39687E-06
         0.48906E-06
         0.57710E-06
  
SCALARS                 Poissons_ratio  double 1
LOOKUP_TABLE default
         0.30000E+00
         0.30000E+00
         0.30000E+00
         0.30000E+00
         0.30000E+00
         0.30000E+00
         0.30000E+00
         0.30000E+00
         0.30000E+00
         0.30000E+00
         0.30000E+00
         0.30000E+00
         0.30000E+00
         0.30000E+00
         0.30000E+00
         0.30000E+00
         0.30000E+00
         0.30000E+00
         0.30000E+00
         0.30000E+00
         0.30000E+00
         0.30000E+00
         0.30000E+00
         0.30000E+00
         0.30000E+00
         0.30000E+00
         0.30000E+00
         0.30000E+00
         0.30000E+00
         0.30000E+00
         0.30000E+00
         0.30000E+00
         0.30000E+00
         0.30000E+00
         0.30000E+00
         0.30000E+00
         0.30000E+00
         0.30000E+00
         0.30000E+00
         0.30000E+00
         0.30000E+00
         0.30000E+00
         0.30000E+00
         0.30000E+00
         0.30000E+00
         0.30000E+00
         0.30000E+00
         0.30000E+00
         0.30000E+00
         0.30000E+00
         0.30000E+00
         0.30000E+00
         0.30000E+00
         0.30000E+00
         0.30000E+00
         0.30000E+00
         0.30000E+00
         0.30000E+00
         0.30000E+00
         0.30000E+00
         0.30000E+00
         0.30000E+00
         0.30000E+00
         0.30000E+00
         0.30000E+00
         0.30000E+00
         0.30000E+00
         0.30000E+00
         0.30000E+00
         0.30000E+00
         0.30000E+00
         0.30000E+00
         0.30000E+00
         0.30000E+00
         0.30000E+00
         0.30000E+00
         0.30000E+00
         0.30000E+00
         0.30000E+00
         0.30000E+00
         0.30000E+00
         0.30000E+00
         0.30000E+00
         0.30000E+00
         0.30000E+00
         0.30000E+00
         0.30000E+00
         0.30000E+00
         0.30000E+00
         0.30000E+00
         0.30000E+00
         0.30000E+00
         0.30000E+00
         0.30000E+00
         0.30000E+00
         0.30000E+00
         0.30000E+00
         0.30000E+00
         0.30000E+00
         0.30000E+00
         0.30000E+00
         0.30000E+00
         0.30000E+00
         0.30000E+00
         0.30000E+00
         0.30000E+00
         0.30000E+00
         0.30000E+00
         0.30000E+00
         0.30000E+00
         0.30000E+00
         0.30000E+00
         0.30000E+00
         0.30000E+00
         0.30000E+00
         0.30000E+00
         0.30000E+00
         0.30000E+00
         0.30000E+00
         0.30000E+00
         0.30000E+00
         0.30000E+00
         0.30000E+00
         0.30000E+00
         0.30000E+00
         0.30000E+00
         0.30000E+00
         0.30000E+00
         0.30000E+00
         0.30000E+00
         0.30000E+00
         0.30000E+00
         0.30000E+00
         0.30000E+00
         0.30000E+00
         0.30000E+00
         0.30000E+00
         0.30000E+00
         0.30000E+00
         0.30000E+00
         0.30000E+00
         0.30000E+00
         0.30000E+00
         0.30000E+00
         0.30000E+00
         0.30000E+00
         0.30000E+00
         0.30000E+00
         0.30000E+00
         0.30000E+00
         0.30000E+00
         0.30000E+00
         0.30000E+00
         0.30000E+00
         0.30000E+00
         0.30000E+00
         0.30000E+00
         0.30000E+00
         0.30000E+00
         0.30000E+00
         0.30000E+00
         0.30000E+00
         0.30000E+00
         0.30000E+00
         0.30000E+00
         0.30000E+00
         0.30000E+00
         0.30000E+00
         0.30000E+00
         0.30000E+00
         0.30000E+00
         0.30000E+00
         0.30000E+00
         0.30000E+00
         0.30000E+00
         0.30000E+00
         0.30000E+00
         0.30000E+00
         0.30000E+00
         0.30000E+00
         0.30000E+00
         0.30000E+00
         0.30000E+00
         0.30000E+00
         0.30000E+00
         0.30000E+00
         0.30000E+00
         0.30000E+00
         0.30000E+00
         0.30000E+00
         0.30000E+00
         0.30000E+00
         0.30000E+00
         0.30000E+00
         0.30000E+00
         0.30000E+00
         0.30000E+00
         0.30000E+00
         0.30000E+00
         0.30000E+00
         0.30000E+00
         0.30000E+00
         0.30000E+00
         0.30000E+00
         0.30000E+00
         0.30000E+00
         0.30000E+00
         0.30000E+00
         0.30000E+00
         0.30000E+00
         0.30000E+00
         0.30000E+00
         0.30000E+00
         0.30000E+00
         0.30000E+00
         0.30000E+00
         0.30000E+00
         0.30000E+00
         0.30000E+00
         0.30000E+00
         0.30000E+00
         0.30000E+00
         0.30000E+00
         0.30000E+00
         0.30000E+00
         0.30000E+00
         0.30000E+00
         0.30000E+00
         0.30000E+00
         0.30000E+00
         0.30000E+00
         0.30000E+00
         0.30000E+00
         0.30000E+00
         0.30000E+00
         0.30000E+00
         0.30000E+00
         0.30000E+00
         0.30000E+00
         0.30000E+00
         0.30000E+00
         0.30000E+00
         0.30000E+00
         0.30000E+00
         0.30000E+00
         0.30000E+00
         0.30000E+00
         0.30000E+00
         0.30000E+00
         0.30000E+00
         0.30000E+00
         0.30000E+00
         0.30000E+00
         0.30000E+00
         0.30000E+00
         0.30000E+00
         0.30000E+00
         0.30000E+00
         0.30000E+00
         0.30000E+00
         0.30000E+00
         0.30000E+00
         0.30000E+00
         0.30000E+00
         0.30000E+00
         0.30000E+00
         0.30000E+00
         0.30000E+00
         0.30000E+00
         0.30000E+00
         0.30000E+00
         0.30000E+00
         0.30000E+00
         0.30000E+00
         0.30000E+00
         0.30000E+00
         0.30000E+00
         0.30000E+00
         0.30000E+00
         0.30000E+00
         0.30000E+00
         0.30000E+00
         0.30000E+00
         0.30000E+00
         0.30000E+00
         0.30000E+00
         0.30000E+00
         0.30000E+00
         0.30000E+00
         0.30000E+00
         0.30000E+00
         0.30000E+00
         0.30000E+00
         0.30000E+00
         0.30000E+00
         0.30000E+00
         0.30000E+00
         0.30000E+00
         0.30000E+00
         0.30000E+00
         0.30000E+00
         0.30000E+00
         0.30000E+00
         0.30000E+00
         0.30000E+00
         0.30000E+00
         0.30000E+00
         0.30000E+00
         0.30000E+00
         0.30000E+00
         0.30000E+00
         0.30000E+00
         0.30000E+00
         0.30000E+00
         0.30000E+00
         0.30000E+00
         0.30000E+00
         0.30000E+00
         0.30000E+00
         0.30000E+00
         0.30000E+00
         0.30000E+00
         0.30000E+00
         0.30000E+00
         0.30000E+00
         0.30000E+00
         0.30000E+00
         0.30000E+00
         0.30000E+00
         0.30000E+00
         0.30000E+00
         0.30000E+00
         0.30000E+00
         0.30000E+00
         0.30000E+00
         0.30000E+00
         0.30000E+00
         0.30000E+00
         0.30000E+00
         0.30000E+00
         0.30000E+00
         0.30000E+00
         0.30000E+00
         0.30000E+00
         0.30000E+00
         0.30000E+00
         0.30000E+00
         0.30000E+00
         0.30000E+00
         0.30000E+00
         0.30000E+00
         0.30000E+00
         0.30000E+00
         0.30000E+00
         0.30000E+00
         0.30000E+00
         0.30000E+00
         0.30000E+00
         0.30000E+00
         0.30000E+00
         0.30000E+00
         0.30000E+00
         0.30000E+00
         0.30000E+00
         0.30000E+00
         0.30000E+00
         0.30000E+00
         0.30000E+00
         0.30000E+00
         0.30000E+00
         0.30000E+00
         0.30000E+00
         0.30000E+00
         0.30000E+00
         0.30000E+00
         0.30000E+00
         0.30000E+00
         0.30000E+00
         0.30000E+00
         0.30000E+00
         0.30000E+00
         0.30000E+00
         0.30000E+00
         0.30000E+00
         0.30000E+00
         0.30000E+00
         0.30000E+00
         0.30000E+00
         0.30000E+00
         0.30000E+00
         0.30000E+00
         0.30000E+00
         0.30000E+00
         0.30000E+00
         0.30000E+00
         0.30000E+00
         0.30000E+00
         0.30000E+00
         0.30000E+00
         0.30000E+00
         0.30000E+00
         0.30000E+00
         0.30000E+00
         0.30000E+00
         0.30000E+00
         0.30000E+00
         0.30000E+00
         0.30000E+00
         0.30000E+00
         0.30000E+00
         0.30000E+00
         0.30000E+00
         0.30000E+00
         0.30000E+00
         0.30000E+00
         0.30000E+00
         0.30000E+00
         0.30000E+00
         0.30000E+00
         0.30000E+00
         0.30000E+00
         0.30000E+00
         0.30000E+00
         0.30000E+00
         0.30000E+00
         0.30000E+00
         0.30000E+00
         0.30000E+00
         0.30000E+00
         0.30000E+00
         0.30000E+00
         0.30000E+00
         0.30000E+00
         0.30000E+00
         0.30000E+00
         0.30000E+00
         0.30000E+00
         0.30000E+00
         0.30000E+00
         0.30000E+00
         0.30000E+00
         0.30000E+00
         0.30000E+00
         0.30000E+00
         0.30000E+00
         0.30000E+00
         0.30000E+00
         0.30000E+00
         0.30000E+00
         0.30000E+00
         0.30000E+00
         0.30000E+00
         0.30000E+00
         0.30000E+00
         0.30000E+00
         0.30000E+00
         0.30000E+00
         0.30000E+00
         0.30000E+00
         0.30000E+00
         0.30000E+00
         0.30000E+00
         0.30000E+00
         0.30000E+00
         0.30000E+00
         0.30000E+00
         0.30000E+00
         0.30000E+00
         0.30000E+00
         0.30000E+00
         0.30000E+00
         0.30000E+00
         0.30000E+00
         0.30000E+00
         0.30000E+00
         0.30000E+00
         0.30000E+00
         0.30000E+00
         0.30000E+00
         0.30000E+00
         0.30000E+00
         0.30000E+00
         0.30000E+00
         0.30000E+00
         0.30000E+00
         0.30000E+00
         0.30000E+00
         0.30000E+00
         0.30000E+00
         0.30000E+00
         0.30000E+00
         0.30000E+00
         0.30000E+00
         0.30000E+00
         0.30000E+00
         0.30000E+00
         0.30000E+00
         0.30000E+00
         0.30000E+00
         0.30000E+00
         0.30000E+00
         0.30000E+00
         0.30000E+00
         0.30000E+00
         0.30000E+00
         0.30000E+00
         0.30000E+00
         0.30000E+00
         0.30000E+00
         0.30000E+00
         0.30000E+00
         0.30000E+00
         0.30000E+00
         0.30000E+00
         0.30000E+00
         0.30000E+00
         0.30000E+00
         0.30000E+00
         0.30000E+00
         0.30000E+00
         0.30000E+00
         0.30000E+00
         0.30000E+00
         0.30000E+00
         0.30000E+00
         0.30000E+00
         0.30000E+00
         0.30000E+00
         0.30000E+00
         0.30000E+00
         0.30000E+00
         0.30000E+00
         0.30000E+00
         0.30000E+00
         0.30000E+00
         0.30000E+00
         0.30000E+00
         0.30000E+00
         0.30000E+00
         0.30000E+00
         0.30000E+00
         0.30000E+00
         0.30000E+00
         0.30000E+00
         0.30000E+00
         0.30000E+00
         0.30000E+00
         0.30000E+00
         0.30000E+00
         0.30000E+00
         0.30000E+00
         0.30000E+00
         0.30000E+00
         0.30000E+00
         0.30000E+00
         0.30000E+00
         0.30000E+00
         0.30000E+00
         0.30000E+00
         0.30000E+00
         0.30000E+00
         0.30000E+00
         0.30000E+00
         0.30000E+00
         0.30000E+00
         0.30000E+00
         0.30000E+00
         0.30000E+00
         0.30000E+00
         0.30000E+00
         0.30000E+00
         0.30000E+00
         0.30000E+00
         0.30000E+00
         0.30000E+00
         0.30000E+00
         0.30000E+00
         0.30000E+00
         0.30000E+00
         0.30000E+00
         0.30000E+00
         0.30000E+00
         0.30000E+00
         0.30000E+00
         0.30000E+00
         0.30000E+00
         0.30000E+00
         0.30000E+00
         0.30000E+00
         0.30000E+00
         0.30000E+00
         0.30000E+00
         0.30000E+00
         0.30000E+00
         0.30000E+00
         0.30000E+00
         0.30000E+00
         0.30000E+00
         0.30000E+00
         0.30000E+00
         0.30000E+00
         0.30000E+00
         0.30000E+00
         0.30000E+00
         0.30000E+00
         0.30000E+00
         0.30000E+00
         0.30000E+00
         0.30000E+00
         0.30000E+00
         0.30000E+00
         0.30000E+00
         0.30000E+00
         0.30000E+00
         0.30000E+00
         0.30000E+00
         0.30000E+00
         0.30000E+00
         0.30000E+00
         0.30000E+00
         0.30000E+00
         0.30000E+00
         0.30000E+00
         0.30000E+00
         0.30000E+00
         0.30000E+00
         0.30000E+00
         0.30000E+00
         0.30000E+00
         0.30000E+00
         0.30000E+00
         0.30000E+00
         0.30000E+00
         0.30000E+00
         0.30000E+00
         0.30000E+00
         0.30000E+00
         0.30000E+00
         0.30000E+00
         0.30000E+00
         0.30000E+00
         0.30000E+00
         0.30000E+00
         0.30000E+00
         0.30000E+00
         0.30000E+00
         0.30000E+00
         0.30000E+00
         0.30000E+00
         0.30000E+00
         0.30000E+00
         0.30000E+00
         0.30000E+00
         0.30000E+00
         0.30000E+00
         0.30000E+00
         0.30000E+00
         0.30000E+00
         0.30000E+00
         0.30000E+00
         0.30000E+00
         0.30000E+00
         0.30000E+00
         0.30000E+00
         0.30000E+00
         0.30000E+00
         0.30000E+00
         0.30000E+00
         0.30000E+00
         0.30000E+00
         0.30000E+00
         0.30000E+00
         0.30000E+00
         0.30000E+00
         0.30000E+00
         0.30000E+00
         0.30000E+00
         0.30000E+00
         0.30000E+00
         0.30000E+00
         0.30000E+00
         0.30000E+00
         0.30000E+00
         0.30000E+00
         0.30000E+00
         0.30000E+00
         0.30000E+00
         0.30000E+00
         0.30000E+00
         0.30000E+00
         0.30000E+00
         0.30000E+00
         0.30000E+00
         0.30000E+00
         0.30000E+00
         0.30000E+00
         0.30000E+00
         0.30000E+00
         0.30000E+00
         0.30000E+00
         0.30000E+00
         0.30000E+00
         0.30000E+00
         0.30000E+00
         0.30000E+00
         0.30000E+00
         0.30000E+00
         0.30000E+00
         0.30000E+00
         0.30000E+00
         0.30000E+00
         0.30000E+00
         0.30000E+00
         0.30000E+00
         0.30000E+00
         0.30000E+00
         0.30000E+00
         0.30000E+00
         0.30000E+00
         0.30000E+00
         0.30000E+00
         0.30000E+00
         0.30000E+00
         0.30000E+00
         0.30000E+00
         0.30000E+00
         0.30000E+00
         0.30000E+00
         0.30000E+00
         0.30000E+00
         0.30000E+00
         0.30000E+00
         0.30000E+00
         0.30000E+00
         0.30000E+00
         0.30000E+00
         0.30000E+00
         0.30000E+00
         0.30000E+00
         0.30000E+00
         0.30000E+00
         0.30000E+00
         0.30000E+00
         0.30000E+00
         0.30000E+00
         0.30000E+00
         0.30000E+00
         0.30000E+00
         0.30000E+00
         0.30000E+00
         0.30000E+00
         0.30000E+00
         0.30000E+00
         0.30000E+00
         0.30000E+00
         0.30000E+00
         0.30000E+00
         0.30000E+00
         0.30000E+00
         0.30000E+00
         0.30000E+00
         0.30000E+00
         0.30000E+00
         0.30000E+00
         0.30000E+00
         0.30000E+00
         0.30000E+00
         0.30000E+00
         0.30000E+00
         0.30000E+00
         0.30000E+00
         0.30000E+00
         0.30000E+00
         0.30000E+00
         0.30000E+00
         0.30000E+00
         0.30000E+00
         0.30000E+00
         0.30000E+00
         0.30000E+00
         0.30000E+00
         0.30000E+00
         0.30000E+00
         0.30000E+00
         0.30000E+00
         0.30000E+00
         0.30000E+00
         0.30000E+00
         0.30000E+00
         0.30000E+00
         0.30000E+00
         0.30000E+00
         0.30000E+00
         0.30000E+00
         0.30000E+00
         0.30000E+00
         0.30000E+00
         0.30000E+00
         0.30000E+00
         0.30000E+00
         0.30000E+00
         0.30000E+00
         0.30000E+00
         0.30000E+00
         0.30000E+00
         0.30000E+00
         0.30000E+00
         0.30000E+00
         0.30000E+00
         0.30000E+00
         0.30000E+00
         0.30000E+00
         0.30000E+00
         0.30000E+00
         0.30000E+00
         0.30000E+00
         0.30000E+00
         0.30000E+00
         0.30000E+00
         0.30000E+00
         0.30000E+00
         0.30000E+00
         0.30000E+00
         0.30000E+00
         0.30000E+00
         0.30000E+00
         0.30000E+00
         0.30000E+00
         0.30000E+00
         0.30000E+00
         0.30000E+00
         0.30000E+00
         0.30000E+00
         0.30000E+00
         0.30000E+00
         0.30000E+00
         0.30000E+00
         0.30000E+00
         0.30000E+00
         0.30000E+00
         0.30000E+00
         0.30000E+00
         0.30000E+00
         0.30000E+00
         0.30000E+00
         0.30000E+00
         0.30000E+00
         0.30000E+00
         0.30000E+00
         0.30000E+00
         0.30000E+00
         0.30000E+00
         0.30000E+00
         0.30000E+00
         0.30000E+00
         0.30000E+00
         0.30000E+00
         0.30000E+00
         0.30000E+00
         0.30000E+00
         0.30000E+00
         0.30000E+00
         0.30000E+00
         0.30000E+00
         0.30000E+00
         0.30000E+00
         0.30000E+00
         0.30000E+00
         0.30000E+00
         0.30000E+00
         0.30000E+00
         0.30000E+00
         0.30000E+00
         0.30000E+00
         0.30000E+00
         0.30000E+00
         0.30000E+00
         0.30000E+00
         0.30000E+00
         0.30000E+00
         0.30000E+00
         0.30000E+00
         0.30000E+00
         0.30000E+00
         0.30000E+00
         0.30000E+00
         0.30000E+00
         0.30000E+00
         0.30000E+00
         0.30000E+00
         0.30000E+00
         0.30000E+00
         0.30000E+00
         0.30000E+00
         0.30000E+00
         0.30000E+00
         0.30000E+00
         0.30000E+00
         0.30000E+00
         0.30000E+00
         0.30000E+00
         0.30000E+00
         0.30000E+00
         0.30000E+00
         0.30000E+00
         0.30000E+00
         0.30000E+00
         0.30000E+00
         0.30000E+00
         0.30000E+00
         0.30000E+00
         0.30000E+00
         0.30000E+00
         0.30000E+00
         0.30000E+00
         0.30000E+00
         0.30000E+00
         0.30000E+00
         0.30000E+00
         0.30000E+00
         0.30000E+00
         0.30000E+00
         0.30000E+00
         0.30000E+00
         0.30000E+00
         0.30000E+00
         0.30000E+00
         0.30000E+00
         0.30000E+00
         0.30000E+00
         0.30000E+00
         0.30000E+00
         0.30000E+00
         0.30000E+00
         0.30000E+00
         0.30000E+00
         0.30000E+00
         0.30000E+00
         0.30000E+00
         0.30000E+00
         0.30000E+00
         0.30000E+00
         0.30000E+00
         0.30000E+00
         0.30000E+00
         0.30000E+00
         0.30000E+00
         0.30000E+00
         0.30000E+00
         0.30000E+00
         0.30000E+00
         0.30000E+00
         0.30000E+00
         0.30000E+00
         0.30000E+00
         0.30000E+00
         0.30000E+00
         0.30000E+00
         0.30000E+00
         0.30000E+00
         0.30000E+00
         0.30000E+00
         0.30000E+00
         0.30000E+00
         0.30000E+00
         0.30000E+00
         0.30000E+00
         0.30000E+00
         0.30000E+00
         0.30000E+00
         0.30000E+00
         0.30000E+00
         0.30000E+00
         0.30000E+00
         0.30000E+00
         0.30000E+00
         0.30000E+00
         0.30000E+00
         0.30000E+00
         0.30000E+00
         0.30000E+00
         0.30000E+00
         0.30000E+00
         0.30000E+00
         0.30000E+00
         0.30000E+00
         0.30000E+00
         0.30000E+00
         0.30000E+00
         0.30000E+00
         0.30000E+00
         0.30000E+00
         0.30000E+00
         0.30000E+00
         0.30000E+00
         0.30000E+00
         0.30000E+00
         0.30000E+00
         0.30000E+00
         0.30000E+00
         0.30000E+00
         0.30000E+00
         0.30000E+00
         0.30000E+00
         0.30000E+00
         0.30000E+00
         0.30000E+00
         0.30000E+00
         0.30000E+00
         0.30000E+00
         0.30000E+00
         0.30000E+00
         0.30000E+00
         0.30000E+00
         0.30000E+00
         0.30000E+00
         0.30000E+00
         0.30000E+00
         0.30000E+00
         0.30000E+00
         0.30000E+00
         0.30000E+00
         0.30000E+00
         0.30000E+00
         0.30000E+00
         0.30000E+00
         0.30000E+00
         0.30000E+00
         0.30000E+00
         0.30000E+00
         0.30000E+00
         0.30000E+00
         0.30000E+00
         0.30000E+00
         0.30000E+00
         0.30000E+00
         0.30000E+00
         0.30000E+00
         0.30000E+00
         0.30000E+00
         0.30000E+00
         0.30000E+00
         0.30000E+00
         0.30000E+00
         0.30000E+00
         0.30000E+00
         0.30000E+00
         0.30000E+00
         0.30000E+00
         0.30000E+00
         0.30000E+00
         0.30000E+00
         0.30000E+00
         0.30000E+00
         0.30000E+00
         0.30000E+00
         0.30000E+00
         0.30000E+00
         0.30000E+00
         0.30000E+00
         0.30000E+00
         0.30000E+00
         0.30000E+00
         0.30000E+00
         0.30000E+00
         0.30000E+00
         0.30000E+00
         0.30000E+00
         0.30000E+00
         0.30000E+00
         0.30000E+00
         0.30000E+00
         0.30000E+00
         0.30000E+00
         0.30000E+00
         0.30000E+00
         0.30000E+00
         0.30000E+00
         0.30000E+00
         0.30000E+00
         0.30000E+00
         0.30000E+00
         0.30000E+00
         0.30000E+00
         0.30000E+00
         0.30000E+00
         0.30000E+00
         0.30000E+00
         0.30000E+00
         0.30000E+00
         0.30000E+00
         0.30000E+00
         0.30000E+00
         0.30000E+00
         0.30000E+00
         0.30000E+00
         0.30000E+00
         0.30000E+00
         0.30000E+00
         0.30000E+00
         0.30000E+00
         0.30000E+00
         0.30000E+00
         0.30000E+00
         0.30000E+00
         0.30000E+00
         0.30000E+00
         0.30000E+00
         0.30000E+00
         0.30000E+00
         0.30000E+00
         0.30000E+00
         0.30000E+00
         0.30000E+00
         0.30000E+00
         0.30000E+00
         0.30000E+00
         0.30000E+00
         0.30000E+00
         0.30000E+00
         0.30000E+00
         0.30000E+00
         0.30000E+00
         0.30000E+00
         0.30000E+00
         0.30000E+00
         0.30000E+00
         0.30000E+00
         0.30000E+00
         0.30000E+00
         0.30000E+00
         0.30000E+00
         0.30000E+00
         0.30000E+00
         0.30000E+00
         0.30000E+00
         0.30000E+00
         0.30000E+00
         0.30000E+00
         0.30000E+00
         0.30000E+00
         0.30000E+00
         0.30000E+00
         0.30000E+00
         0.30000E+00
         0.30000E+00
         0.30000E+00
         0.30000E+00
         0.30000E+00
         0.30000E+00
         0.30000E+00
         0.30000E+00
         0.30000E+00
         0.30000E+00
         0.30000E+00
         0.30000E+00
         0.30000E+00
         0.30000E+00
         0.30000E+00
         0.30000E+00
         0.30000E+00
         0.30000E+00
         0.30000E+00
         0.30000E+00
         0.30000E+00
         0.30000E+00
         0.30000E+00
         0.30000E+00
         0.30000E+00
         0.30000E+00
         0.30000E+00
         0.30000E+00
         0.30000E+00
         0.30000E+00
         0.30000E+00
         0.30000E+00
         0.30000E+00
         0.30000E+00
         0.30000E+00
         0.30000E+00
         0.30000E+00
         0.30000E+00
         0.30000E+00
         0.30000E+00
         0.30000E+00
         0.30000E+00
         0.30000E+00
         0.30000E+00
         0.30000E+00
         0.30000E+00
         0.30000E+00
         0.30000E+00
         0.30000E+00
         0.30000E+00
         0.30000E+00
         0.30000E+00
         0.30000E+00
         0.30000E+00
         0.30000E+00
         0.30000E+00
         0.30000E+00
         0.30000E+00
         0.30000E+00
         0.30000E+00
         0.30000E+00
         0.30000E+00
         0.30000E+00
         0.30000E+00
         0.30000E+00
         0.30000E+00
         0.30000E+00
         0.30000E+00
         0.30000E+00
         0.30000E+00
         0.30000E+00
         0.30000E+00
         0.30000E+00
         0.30000E+00
         0.30000E+00
         0.30000E+00
         0.30000E+00
         0.30000E+00
         0.30000E+00
         0.30000E+00
         0.30000E+00
         0.30000E+00
         0.30000E+00
         0.30000E+00
         0.30000E+00
         0.30000E+00
         0.30000E+00
         0.30000E+00
         0.30000E+00
         0.30000E+00
         0.30000E+00
         0.30000E+00
         0.30000E+00
         0.30000E+00
         0.30000E+00
         0.30000E+00
         0.30000E+00
         0.30000E+00
         0.30000E+00
         0.30000E+00
         0.30000E+00
         0.30000E+00
         0.30000E+00
         0.30000E+00
         0.30000E+00
         0.30000E+00
         0.30000E+00
         0.30000E+00
         0.30000E+00
         0.30000E+00
         0.30000E+00
         0.30000E+00
         0.30000E+00
         0.30000E+00
         0.30000E+00
         0.30000E+00
         0.30000E+00
         0.30000E+00
         0.30000E+00
         0.30000E+00
         0.30000E+00
         0.30000E+00
         0.30000E+00
         0.30000E+00
         0.30000E+00
         0.30000E+00
         0.30000E+00
         0.30000E+00
         0.30000E+00
         0.30000E+00
         0.30000E+00
         0.30000E+00
         0.30000E+00
         0.30000E+00
         0.30000E+00
         0.30000E+00
         0.30000E+00
         0.30000E+00
         0.30000E+00
         0.30000E+00
         0.30000E+00
         0.30000E+00
         0.30000E+00
         0.30000E+00
         0.30000E+00
         0.30000E+00
         0.30000E+00
         0.30000E+00
         0.30000E+00
         0.30000E+00
         0.30000E+00
         0.30000E+00
         0.30000E+00
         0.30000E+00
         0.30000E+00
         0.30000E+00
         0.30000E+00
         0.30000E+00
         0.30000E+00
         0.30000E+00
         0.30000E+00
         0.30000E+00
         0.30000E+00
         0.30000E+00
         0.30000E+00
         0.30000E+00
         0.30000E+00
         0.30000E+00
         0.30000E+00
         0.30000E+00
         0.30000E+00
         0.30000E+00
         0.30000E+00
         0.30000E+00
         0.30000E+00
         0.30000E+00
         0.30000E+00
         0.30000E+00
         0.30000E+00
         0.30000E+00
         0.30000E+00
         0.30000E+00
         0.30000E+00
         0.30000E+00
         0.30000E+00
         0.30000E+00
         0.30000E+00
         0.30000E+00
         0.30000E+00
         0.30000E+00
         0.30000E+00
         0.30000E+00
         0.30000E+00
         0.30000E+00
         0.30000E+00
         0.30000E+00
         0.30000E+00
         0.30000E+00
         0.30000E+00
         0.30000E+00
         0.30000E+00
         0.30000E+00
         0.30000E+00
         0.30000E+00
         0.30000E+00
         0.30000E+00
         0.30000E+00
         0.30000E+00
         0.30000E+00
         0.30000E+00
         0.30000E+00
         0.30000E+00
         0.30000E+00
         0.30000E+00
         0.30000E+00
         0.30000E+00
         0.30000E+00
         0.30000E+00
         0.30000E+00
         0.30000E+00
         0.30000E+00
         0.30000E+00
         0.30000E+00
         0.30000E+00
         0.30000E+00
         0.30000E+00
         0.30000E+00
         0.30000E+00
         0.30000E+00
         0.30000E+00
         0.30000E+00
         0.30000E+00
         0.30000E+00
         0.30000E+00
         0.30000E+00
         0.30000E+00
         0.30000E+00
         0.30000E+00
         0.30000E+00
         0.30000E+00
         0.30000E+00
         0.30000E+00
         0.30000E+00
         0.30000E+00
         0.30000E+00
         0.30000E+00
         0.30000E+00
         0.30000E+00
         0.30000E+00
         0.30000E+00
         0.30000E+00
         0.30000E+00
         0.30000E+00
         0.30000E+00
         0.30000E+00
         0.30000E+00
         0.30000E+00
         0.30000E+00
         0.30000E+00
         0.30000E+00
         0.30000E+00
         0.30000E+00
         0.30000E+00
         0.30000E+00
         0.30000E+00
         0.30000E+00
         0.30000E+00
         0.30000E+00
         0.30000E+00
         0.30000E+00
         0.30000E+00
         0.30000E+00
         0.30000E+00
         0.30000E+00
         0.30000E+00
         0.30000E+00
         0.30000E+00
         0.30000E+00
         0.30000E+00
         0.30000E+00
         0.30000E+00
         0.30000E+00
         0.30000E+00
         0.30000E+00
         0.30000E+00
         0.30000E+00
         0.30000E+00
         0.30000E+00
         0.30000E+00
         0.30000E+00
         0.30000E+00
         0.30000E+00
         0.30000E+00
         0.30000E+00
         0.30000E+00
         0.30000E+00
         0.30000E+00
         0.30000E+00
         0.30000E+00
         0.30000E+00
         0.30000E+00
         0.30000E+00
         0.30000E+00
         0.30000E+00
         0.30000E+00
         0.30000E+00
         0.30000E+00
         0.30000E+00
         0.30000E+00
         0.30000E+00
         0.30000E+00
         0.30000E+00
         0.30000E+00
         0.30000E+00
         0.30000E+00
         0.30000E+00
         0.30000E+00
         0.30000E+00
         0.30000E+00
         0.30000E+00
         0.30000E+00
         0.30000E+00
         0.30000E+00
         0.30000E+00
         0.30000E+00
         0.30000E+00
         0.30000E+00
         0.30000E+00
         0.30000E+00
         0.30000E+00
         0.30000E+00
         0.30000E+00
         0.30000E+00
         0.30000E+00
         0.30000E+00
         0.30000E+00
         0.30000E+00
         0.30000E+00
         0.30000E+00
         0.30000E+00
         0.30000E+00
         0.30000E+00
         0.30000E+00
         0.30000E+00
         0.30000E+00
         0.30000E+00
         0.30000E+00
         0.30000E+00
         0.30000E+00
         0.30000E+00
         0.30000E+00
         0.30000E+00
         0.30000E+00
         0.30000E+00
         0.30000E+00
         0.30000E+00
         0.30000E+00
         0.30000E+00
         0.30000E+00
         0.30000E+00
         0.30000E+00
         0.30000E+00
         0.30000E+00
         0.30000E+00
         0.30000E+00
         0.30000E+00
         0.30000E+00
         0.30000E+00
         0.30000E+00
         0.30000E+00
         0.30000E+00
         0.30000E+00
         0.30000E+00
         0.30000E+00
         0.30000E+00
         0.30000E+00
         0.30000E+00
         0.30000E+00
         0.30000E+00
         0.30000E+00
         0.30000E+00
         0.30000E+00
         0.30000E+00
         0.30000E+00
         0.30000E+00
         0.30000E+00
         0.30000E+00
         0.30000E+00
         0.30000E+00
         0.30000E+00
         0.30000E+00
         0.30000E+00
         0.30000E+00
         0.30000E+00
         0.30000E+00
         0.30000E+00
         0.30000E+00
         0.30000E+00
         0.30000E+00
         0.30000E+00
         0.30000E+00
         0.30000E+00
         0.30000E+00
         0.30000E+00
         0.30000E+00
         0.30000E+00
         0.30000E+00
         0.30000E+00
         0.30000E+00
         0.30000E+00
         0.30000E+00
         0.30000E+00
         0.30000E+00
         0.30000E+00
         0.30000E+00
         0.30000E+00
         0.30000E+00
         0.30000E+00
         0.30000E+00
         0.30000E+00
         0.30000E+00
         0.30000E+00
         0.30000E+00
         0.30000E+00
         0.30000E+00
         0.30000E+00
         0.30000E+00
         0.30000E+00
         0.30000E+00
         0.30000E+00
         0.30000E+00
         0.30000E+00
         0.30000E+00
         0.30000E+00
         0.30000E+00
         0.30000E+00
         0.30000E+00
         0.30000E+00
         0.30000E+00
         0.30000E+00
         0.30000E+00
         0.30000E+00
         0.30000E+00
         0.30000E+00
         0.30000E+00
         0.30000E+00
         0.30000E+00
         0.30000E+00
         0.30000E+00
         0.30000E+00
         0.30000E+00
         0.30000E+00
         0.30000E+00
         0.30000E+00
         0.30000E+00
         0.30000E+00
         0.30000E+00
         0.30000E+00
         0.30000E+00
         0.30000E+00
         0.30000E+00
         0.30000E+00
         0.30000E+00
         0.30000E+00
         0.30000E+00
         0.30000E+00
         0.30000E+00
         0.30000E+00
         0.30000E+00
         0.30000E+00
         0.30000E+00
         0.30000E+00
         0.30000E+00
         0.30000E+00
         0.30000E+00
         0.30000E+00
         0.30000E+00
         0.30000E+00
         0.30000E+00
         0.30000E+00
         0.30000E+00
         0.30000E+00
         0.30000E+00
         0.30000E+00
         0.30000E+00
         0.30000E+00
         0.30000E+00
         0.30000E+00
         0.30000E+00
         0.30000E+00
         0.30000E+00
         0.30000E+00
         0.30000E+00
         0.30000E+00
         0.30000E+00
         0.30000E+00
         0.30000E+00
         0.30000E+00
         0.30000E+00
         0.30000E+00
         0.30000E+00
         0.30000E+00
         0.30000E+00
         0.30000E+00
         0.30000E+00
         0.30000E+00
         0.30000E+00
         0.30000E+00
         0.30000E+00
         0.30000E+00
         0.30000E+00
         0.30000E+00
         0.30000E+00
         0.30000E+00
         0.30000E+00
         0.30000E+00
         0.30000E+00
         0.30000E+00
         0.30000E+00
         0.30000E+00
         0.30000E+00
         0.30000E+00
         0.30000E+00
         0.30000E+00
         0.30000E+00
         0.30000E+00
         0.30000E+00
         0.30000E+00
         0.30000E+00
         0.30000E+00
         0.30000E+00
         0.30000E+00
         0.30000E+00
         0.30000E+00
         0.30000E+00
         0.30000E+00
         0.30000E+00
         0.30000E+00
         0.30000E+00
         0.30000E+00
         0.30000E+00
         0.30000E+00
         0.30000E+00
         0.30000E+00
         0.30000E+00
         0.30000E+00
         0.30000E+00
         0.30000E+00
         0.30000E+00
         0.30000E+00
         0.30000E+00
         0.30000E+00
         0.30000E+00
         0.30000E+00
         0.30000E+00
         0.30000E+00
         0.30000E+00
         0.30000E+00
         0.30000E+00
         0.30000E+00
         0.30000E+00
         0.30000E+00
         0.30000E+00
         0.30000E+00
         0.30000E+00
         0.30000E+00
         0.30000E+00
         0.30000E+00
         0.30000E+00
         0.30000E+00
         0.30000E+00
         0.30000E+00
         0.30000E+00
         0.30000E+00
         0.30000E+00
         0.30000E+00
         0.30000E+00
         0.30000E+00
         0.30000E+00
         0.30000E+00
         0.30000E+00
         0.30000E+00
         0.30000E+00
         0.30000E+00
         0.30000E+00
         0.30000E+00
         0.30000E+00
         0.30000E+00
         0.30000E+00
         0.30000E+00
         0.30000E+00
         0.30000E+00
         0.30000E+00
         0.30000E+00
         0.30000E+00
         0.30000E+00
         0.30000E+00
         0.30000E+00
         0.30000E+00
         0.30000E+00
         0.30000E+00
         0.30000E+00
         0.30000E+00
         0.30000E+00
         0.30000E+00
         0.30000E+00
         0.30000E+00
         0.30000E+00
         0.30000E+00
         0.30000E+00
         0.30000E+00
         0.30000E+00
         0.30000E+00
         0.30000E+00
         0.30000E+00
         0.30000E+00
         0.30000E+00
         0.30000E+00
         0.30000E+00
         0.30000E+00
         0.30000E+00
         0.30000E+00
         0.30000E+00
         0.30000E+00
         0.30000E+00
         0.30000E+00
         0.30000E+00
         0.30000E+00
         0.30000E+00
         0.30000E+00
         0.30000E+00
         0.30000E+00
         0.30000E+00
         0.30000E+00
         0.30000E+00
         0.30000E+00
         0.30000E+00
         0.30000E+00
         0.30000E+00
         0.30000E+00
         0.30000E+00
         0.30000E+00
         0.30000E+00
         0.30000E+00
         0.30000E+00
         0.30000E+00
         0.30000E+00
         0.30000E+00
         0.30000E+00
         0.30000E+00
         0.30000E+00
         0.30000E+00
         0.30000E+00
         0.30000E+00
         0.30000E+00
         0.30000E+00
         0.30000E+00
         0.30000E+00
         0.30000E+00
         0.30000E+00
         0.30000E+00
         0.30000E+00
         0.30000E+00
         0.30000E+00
         0.30000E+00
         0.30000E+00
         0.30000E+00
         0.30000E+00
         0.30000E+00
         0.30000E+00
         0.30000E+00
         0.30000E+00
         0.30000E+00
         0.30000E+00
         0.30000E+00
         0.30000E+00
         0.30000E+00
         0.30000E+00
         0.30000E+00
         0.30000E+00
         0.30000E+00
         0.30000E+00
         0.30000E+00
         0.30000E+00
         0.30000E+00
         0.30000E+00
         0.30000E+00
         0.30000E+00
         0.30000E+00
         0.30000E+00
         0.30000E+00
         0.30000E+00
         0.30000E+00
         0.30000E+00
         0.30000E+00
         0.30000E+00
         0.30000E+00
         0.30000E+00
         0.30000E+00
         0.30000E+00
         0.30000E+00
         0.30000E+00
         0.30000E+00
         0.30000E+00
         0.30000E+00
         0.30000E+00
         0.30000E+00
         0.30000E+00
         0.30000E+00
         0.30000E+00
         0.30000E+00
         0.30000E+00
         0.30000E+00
         0.30000E+00
         0.30000E+00
         0.30000E+00
         0.30000E+00
         0.30000E+00
         0.30000E+00
         0.30000E+00
         0.30000E+00
         0.30000E+00
         0.30000E+00
         0.30000E+00
         0.30000E+00
         0.30000E+00
         0.30000E+00
         0.30000E+00
         0.30000E+00
         0.30000E+00
         0.30000E+00
         0.30000E+00
         0.30000E+00
         0.30000E+00
         0.30000E+00
         0.30000E+00
         0.30000E+00
         0.30000E+00
         0.30000E+00
         0.30000E+00
         0.30000E+00
         0.30000E+00
         0.30000E+00
         0.30000E+00
         0.30000E+00
         0.30000E+00
         0.30000E+00
         0.30000E+00
         0.30000E+00
         0.30000E+00
         0.30000E+00
         0.30000E+00
         0.30000E+00
         0.30000E+00
         0.30000E+00
         0.30000E+00
         0.30000E+00
         0.30000E+00
         0.30000E+00
         0.30000E+00
         0.30000E+00
         0.30000E+00
         0.30000E+00
         0.30000E+00
         0.30000E+00
         0.30000E+00
         0.30000E+00
         0.30000E+00
         0.30000E+00
         0.30000E+00
         0.30000E+00
         0.30000E+00
         0.30000E+00
         0.30000E+00
         0.30000E+00
         0.30000E+00
         0.30000E+00
         0.30000E+00
         0.30000E+00
         0.30000E+00
         0.30000E+00
         0.30000E+00
         0.30000E+00
         0.30000E+00
         0.30000E+00
         0.30000E+00
         0.30000E+00
         0.30000E+00
         0.30000E+00
         0.30000E+00
         0.30000E+00
         0.30000E+00
         0.30000E+00
         0.30000E+00
         0.30000E+00
         0.30000E+00
         0.30000E+00
         0.30000E+00
         0.30000E+00
         0.30000E+00
         0.30000E+00
         0.30000E+00
         0.30000E+00
         0.30000E+00
         0.30000E+00
         0.30000E+00
  
SCALARS                 Youngs_modulus  double 1
LOOKUP_TABLE default
         0.78200E+11
         0.78200E+11
         0.78200E+11
         0.78200E+11
         0.78200E+11
         0.78200E+11
         0.78200E+11
         0.78200E+11
         0.78200E+11
         0.78200E+11
         0.78200E+11
         0.78200E+11
         0.78200E+11
         0.78200E+11
         0.78200E+11
         0.78200E+11
         0.78200E+11
         0.78200E+11
         0.78200E+11
         0.78200E+11
         0.78200E+11
         0.78200E+11
         0.78200E+11
         0.78200E+11
         0.78200E+11
         0.78200E+11
         0.78200E+11
         0.78200E+11
         0.78200E+11
         0.78200E+11
         0.78200E+11
         0.78200E+11
         0.78200E+11
         0.78200E+11
         0.78200E+11
         0.78200E+11
         0.78200E+11
         0.78200E+11
         0.78200E+11
         0.78200E+11
         0.78200E+11
         0.78200E+11
         0.78200E+11
         0.78200E+11
         0.78200E+11
         0.78200E+11
         0.78200E+11
         0.78200E+11
         0.78200E+11
         0.78200E+11
         0.78200E+11
         0.78200E+11
         0.78200E+11
         0.78200E+11
         0.78200E+11
         0.78200E+11
         0.78200E+11
         0.78200E+11
         0.78200E+11
         0.78200E+11
         0.78200E+11
         0.78200E+11
         0.78200E+11
         0.78200E+11
         0.78200E+11
         0.78200E+11
         0.78200E+11
         0.78200E+11
         0.78200E+11
         0.78200E+11
         0.78200E+11
         0.78200E+11
         0.78200E+11
         0.78200E+11
         0.78200E+11
         0.78200E+11
         0.78200E+11
         0.78200E+11
         0.78200E+11
         0.78200E+11
         0.78200E+11
         0.78200E+11
         0.78200E+11
         0.78200E+11
         0.78200E+11
         0.78200E+11
         0.78200E+11
         0.78200E+11
         0.78200E+11
         0.78200E+11
         0.78200E+11
         0.78200E+11
         0.78200E+11
         0.78200E+11
         0.78200E+11
         0.78200E+11
         0.78200E+11
         0.78200E+11
         0.78200E+11
         0.78200E+11
         0.78200E+11
         0.78200E+11
         0.78200E+11
         0.78200E+11
         0.78200E+11
         0.78200E+11
         0.78200E+11
         0.78200E+11
         0.78200E+11
         0.78200E+11
         0.78200E+11
         0.78200E+11
         0.78200E+11
         0.78200E+11
         0.78200E+11
         0.78200E+11
         0.78200E+11
         0.78200E+11
         0.78200E+11
         0.78200E+11
         0.78200E+11
         0.78200E+11
         0.78200E+11
         0.78200E+11
         0.78200E+11
         0.78200E+11
         0.78200E+11
         0.78200E+11
         0.78200E+11
         0.78200E+11
         0.78200E+11
         0.78200E+11
         0.78200E+11
         0.78200E+11
         0.78200E+11
         0.78200E+11
         0.78200E+11
         0.78200E+11
         0.78200E+11
         0.78200E+11
         0.78200E+11
         0.78200E+11
         0.78200E+11
         0.78200E+11
         0.78200E+11
         0.78200E+11
         0.78200E+11
         0.78200E+11
         0.78200E+11
         0.78200E+11
         0.78200E+11
         0.78200E+11
         0.78200E+11
         0.78200E+11
         0.78200E+11
         0.78200E+11
         0.78200E+11
         0.78200E+11
         0.78200E+11
         0.78200E+11
         0.78200E+11
         0.78200E+11
         0.78200E+11
         0.78200E+11
         0.78200E+11
         0.78200E+11
         0.78200E+11
         0.78200E+11
         0.78200E+11
         0.78200E+11
         0.78200E+11
         0.78200E+11
         0.78200E+11
         0.78200E+11
         0.78200E+11
         0.78200E+11
         0.78200E+11
         0.78200E+11
         0.78200E+11
         0.78200E+11
         0.78200E+11
         0.78200E+11
         0.78200E+11
         0.78200E+11
         0.78200E+11
         0.78200E+11
         0.78200E+11
         0.78200E+11
         0.78200E+11
         0.78200E+11
         0.78200E+11
         0.78200E+11
         0.78200E+11
         0.78200E+11
         0.78200E+11
         0.78200E+11
         0.78200E+11
         0.78200E+11
         0.78200E+11
         0.78200E+11
         0.78200E+11
         0.78200E+11
         0.78200E+11
         0.78200E+11
         0.78200E+11
         0.78200E+11
         0.78200E+11
         0.78200E+11
         0.78200E+11
         0.78200E+11
         0.78200E+11
         0.78200E+11
         0.78200E+11
         0.78200E+11
         0.78200E+11
         0.78200E+11
         0.78200E+11
         0.78200E+11
         0.78200E+11
         0.78200E+11
         0.78200E+11
         0.78200E+11
         0.78200E+11
         0.78200E+11
         0.78200E+11
         0.78200E+11
         0.78200E+11
         0.78200E+11
         0.78200E+11
         0.78200E+11
         0.78200E+11
         0.78200E+11
         0.78200E+11
         0.78200E+11
         0.78200E+11
         0.78200E+11
         0.78200E+11
         0.78200E+11
         0.78200E+11
         0.78200E+11
         0.78200E+11
         0.78200E+11
         0.78200E+11
         0.78200E+11
         0.78200E+11
         0.78200E+11
         0.78200E+11
         0.78200E+11
         0.78200E+11
         0.78200E+11
         0.78200E+11
         0.78200E+11
         0.78200E+11
         0.78200E+11
         0.78200E+11
         0.78200E+11
         0.78200E+11
         0.78200E+11
         0.78200E+11
         0.78200E+11
         0.78200E+11
         0.78200E+11
         0.78200E+11
         0.78200E+11
         0.78200E+11
         0.78200E+11
         0.78200E+11
         0.78200E+11
         0.78200E+11
         0.78200E+11
         0.78200E+11
         0.78200E+11
         0.78200E+11
         0.78200E+11
         0.78200E+11
         0.78200E+11
         0.78200E+11
         0.78200E+11
         0.78200E+11
         0.78200E+11
         0.78200E+11
         0.78200E+11
         0.78200E+11
         0.78200E+11
         0.78200E+11
         0.78200E+11
         0.78200E+11
         0.78200E+11
         0.78200E+11
         0.78200E+11
         0.78200E+11
         0.78200E+11
         0.78200E+11
         0.78200E+11
         0.78200E+11
         0.78200E+11
         0.78200E+11
         0.78200E+11
         0.78200E+11
         0.78200E+11
         0.78200E+11
         0.78200E+11
         0.78200E+11
         0.78200E+11
         0.78200E+11
         0.78200E+11
         0.78200E+11
         0.78200E+11
         0.78200E+11
         0.78200E+11
         0.78200E+11
         0.78200E+11
         0.78200E+11
         0.78200E+11
         0.78200E+11
         0.78200E+11
         0.78200E+11
         0.78200E+11
         0.78200E+11
         0.78200E+11
         0.78200E+11
         0.78200E+11
         0.78200E+11
         0.78200E+11
         0.78200E+11
         0.78200E+11
         0.78200E+11
         0.78200E+11
         0.78200E+11
         0.78200E+11
         0.78200E+11
         0.78200E+11
         0.78200E+11
         0.78200E+11
         0.78200E+11
         0.78200E+11
         0.78200E+11
         0.78200E+11
         0.78200E+11
         0.78200E+11
         0.78200E+11
         0.78200E+11
         0.78200E+11
         0.78200E+11
         0.78200E+11
         0.78200E+11
         0.78200E+11
         0.78200E+11
         0.78200E+11
         0.78200E+11
         0.78200E+11
         0.78200E+11
         0.78200E+11
         0.78200E+11
         0.78200E+11
         0.78200E+11
         0.78200E+11
         0.78200E+11
         0.78200E+11
         0.78200E+11
         0.78200E+11
         0.78200E+11
         0.78200E+11
         0.78200E+11
         0.78200E+11
         0.78200E+11
         0.78200E+11
         0.78200E+11
         0.78200E+11
         0.78200E+11
         0.78200E+11
         0.78200E+11
         0.78200E+11
         0.78200E+11
         0.78200E+11
         0.78200E+11
         0.78200E+11
         0.78200E+11
         0.78200E+11
         0.78200E+11
         0.78200E+11
         0.78200E+11
         0.78200E+11
         0.78200E+11
         0.78200E+11
         0.78200E+11
         0.78200E+11
         0.78200E+11
         0.78200E+11
         0.78200E+11
         0.78200E+11
         0.78200E+11
         0.78200E+11
         0.78200E+11
         0.78200E+11
         0.78200E+11
         0.78200E+11
         0.78200E+11
         0.78200E+11
         0.78200E+11
         0.78200E+11
         0.78200E+11
         0.78200E+11
         0.78200E+11
         0.78200E+11
         0.78200E+11
         0.78200E+11
         0.78200E+11
         0.78200E+11
         0.78200E+11
         0.78200E+11
         0.78200E+11
         0.78200E+11
         0.78200E+11
         0.78200E+11
         0.78200E+11
         0.78200E+11
         0.78200E+11
         0.78200E+11
         0.78200E+11
         0.78200E+11
         0.78200E+11
         0.78200E+11
         0.78200E+11
         0.78200E+11
         0.78200E+11
         0.78200E+11
         0.78200E+11
         0.78200E+11
         0.78200E+11
         0.78200E+11
         0.78200E+11
         0.78200E+11
         0.78200E+11
         0.78200E+11
         0.78200E+11
         0.78200E+11
         0.78200E+11
         0.78200E+11
         0.78200E+11
         0.78200E+11
         0.78200E+11
         0.78200E+11
         0.78200E+11
         0.78200E+11
         0.78200E+11
         0.78200E+11
         0.78200E+11
         0.78200E+11
         0.78200E+11
         0.78200E+11
         0.78200E+11
         0.78200E+11
         0.78200E+11
         0.78200E+11
         0.78200E+11
         0.78200E+11
         0.78200E+11
         0.78200E+11
         0.78200E+11
         0.78200E+11
         0.78200E+11
         0.78200E+11
         0.78200E+11
         0.78200E+11
         0.78200E+11
         0.78200E+11
         0.78200E+11
         0.78200E+11
         0.78200E+11
         0.78200E+11
         0.78200E+11
         0.78200E+11
         0.78200E+11
         0.78200E+11
         0.78200E+11
         0.78200E+11
         0.78200E+11
         0.78200E+11
         0.78200E+11
         0.78200E+11
         0.78200E+11
         0.78200E+11
         0.78200E+11
         0.78200E+11
         0.78200E+11
         0.78200E+11
         0.78200E+11
         0.78200E+11
         0.78200E+11
         0.78200E+11
         0.78200E+11
         0.78200E+11
         0.78200E+11
         0.78200E+11
         0.78200E+11
         0.78200E+11
         0.78200E+11
         0.78200E+11
         0.78200E+11
         0.78200E+11
         0.78200E+11
         0.78200E+11
         0.78200E+11
         0.78200E+11
         0.78200E+11
         0.78200E+11
         0.78200E+11
         0.78200E+11
         0.78200E+11
         0.78200E+11
         0.78200E+11
         0.78200E+11
         0.78200E+11
         0.78200E+11
         0.78200E+11
         0.78200E+11
         0.78200E+11
         0.78200E+11
         0.78200E+11
         0.78200E+11
         0.78200E+11
         0.78200E+11
         0.78200E+11
         0.78200E+11
         0.78200E+11
         0.78200E+11
         0.78200E+11
         0.78200E+11
         0.78200E+11
         0.78200E+11
         0.78200E+11
         0.78200E+11
         0.78200E+11
         0.78200E+11
         0.78200E+11
         0.78200E+11
         0.78200E+11
         0.78200E+11
         0.78200E+11
         0.78200E+11
         0.78200E+11
         0.78200E+11
         0.78200E+11
         0.78200E+11
         0.78200E+11
         0.78200E+11
         0.78200E+11
         0.78200E+11
         0.78200E+11
         0.78200E+11
         0.78200E+11
         0.78200E+11
         0.78200E+11
         0.78200E+11
         0.78200E+11
         0.78200E+11
         0.78200E+11
         0.78200E+11
         0.78200E+11
         0.78200E+11
         0.78200E+11
         0.78200E+11
         0.78200E+11
         0.78200E+11
         0.78200E+11
         0.78200E+11
         0.78200E+11
         0.78200E+11
         0.78200E+11
         0.78200E+11
         0.78200E+11
         0.78200E+11
         0.78200E+11
         0.78200E+11
         0.78200E+11
         0.78200E+11
         0.78200E+11
         0.78200E+11
         0.78200E+11
         0.78200E+11
         0.78200E+11
         0.78200E+11
         0.78200E+11
         0.78200E+11
         0.78200E+11
         0.78200E+11
         0.78200E+11
         0.78200E+11
         0.78200E+11
         0.78200E+11
         0.78200E+11
         0.78200E+11
         0.78200E+11
         0.78200E+11
         0.78200E+11
         0.78200E+11
         0.78200E+11
         0.78200E+11
         0.78200E+11
         0.78200E+11
         0.78200E+11
         0.78200E+11
         0.78200E+11
         0.78200E+11
         0.78200E+11
         0.78200E+11
         0.78200E+11
         0.78200E+11
         0.78200E+11
         0.78200E+11
         0.78200E+11
         0.78200E+11
         0.78200E+11
         0.78200E+11
         0.78200E+11
         0.78200E+11
         0.78200E+11
         0.78200E+11
         0.78200E+11
         0.78200E+11
         0.78200E+11
         0.78200E+11
         0.78200E+11
         0.78200E+11
         0.78200E+11
         0.78200E+11
         0.78200E+11
         0.78200E+11
         0.78200E+11
         0.78200E+11
         0.78200E+11
         0.78200E+11
         0.78200E+11
         0.78200E+11
         0.78200E+11
         0.78200E+11
         0.78200E+11
         0.78200E+11
         0.78200E+11
         0.78200E+11
         0.78200E+11
         0.78200E+11
         0.78200E+11
         0.78200E+11
         0.78200E+11
         0.78200E+11
         0.78200E+11
         0.78200E+11
         0.78200E+11
         0.78200E+11
         0.78200E+11
         0.78200E+11
         0.78200E+11
         0.78200E+11
         0.78200E+11
         0.78200E+11
         0.78200E+11
         0.78200E+11
         0.78200E+11
         0.78200E+11
         0.78200E+11
         0.78200E+11
         0.78200E+11
         0.78200E+11
         0.78200E+11
         0.78200E+11
         0.78200E+11
         0.78200E+11
         0.78200E+11
         0.78200E+11
         0.78200E+11
         0.78200E+11
         0.78200E+11
         0.78200E+11
         0.78200E+11
         0.78200E+11
         0.78200E+11
         0.78200E+11
         0.78200E+11
         0.78200E+11
         0.78200E+11
         0.78200E+11
         0.78200E+11
         0.78200E+11
         0.78200E+11
         0.78200E+11
         0.78200E+11
         0.78200E+11
         0.78200E+11
         0.78200E+11
         0.78200E+11
         0.78200E+11
         0.78200E+11
         0.78200E+11
         0.78200E+11
         0.78200E+11
         0.78200E+11
         0.78200E+11
         0.78200E+11
         0.78200E+11
         0.78200E+11
         0.78200E+11
         0.78200E+11
         0.78200E+11
         0.78200E+11
         0.78200E+11
         0.78200E+11
         0.78200E+11
         0.78200E+11
         0.78200E+11
         0.78200E+11
         0.78200E+11
         0.78200E+11
         0.78200E+11
         0.78200E+11
         0.78200E+11
         0.78200E+11
         0.78200E+11
         0.78200E+11
         0.78200E+11
         0.78200E+11
         0.78200E+11
         0.78200E+11
         0.78200E+11
         0.78200E+11
         0.78200E+11
         0.78200E+11
         0.78200E+11
         0.78200E+11
         0.78200E+11
         0.78200E+11
         0.78200E+11
         0.78200E+11
         0.78200E+11
         0.78200E+11
         0.78200E+11
         0.78200E+11
         0.78200E+11
         0.78200E+11
         0.78200E+11
         0.78200E+11
         0.78200E+11
         0.78200E+11
         0.78200E+11
         0.78200E+11
         0.78200E+11
         0.78200E+11
         0.78200E+11
         0.78200E+11
         0.78200E+11
         0.78200E+11
         0.78200E+11
         0.78200E+11
         0.78200E+11
         0.78200E+11
         0.78200E+11
         0.78200E+11
         0.78200E+11
         0.78200E+11
         0.78200E+11
         0.78200E+11
         0.78200E+11
         0.78200E+11
         0.78200E+11
         0.78200E+11
         0.78200E+11
         0.78200E+11
         0.78200E+11
         0.78200E+11
         0.78200E+11
         0.78200E+11
         0.78200E+11
         0.78200E+11
         0.78200E+11
         0.78200E+11
         0.78200E+11
         0.78200E+11
         0.78200E+11
         0.78200E+11
         0.78200E+11
         0.78200E+11
         0.78200E+11
         0.78200E+11
         0.78200E+11
         0.78200E+11
         0.78200E+11
         0.78200E+11
         0.78200E+11
         0.78200E+11
         0.78200E+11
         0.78200E+11
         0.78200E+11
         0.78200E+11
         0.78200E+11
         0.78200E+11
         0.78200E+11
         0.78200E+11
         0.78200E+11
         0.78200E+11
         0.78200E+11
         0.78200E+11
         0.78200E+11
         0.78200E+11
         0.78200E+11
         0.78200E+11
         0.78200E+11
         0.78200E+11
         0.78200E+11
         0.78200E+11
         0.78200E+11
         0.78200E+11
         0.78200E+11
         0.78200E+11
         0.78200E+11
         0.78200E+11
         0.78200E+11
         0.78200E+11
         0.78200E+11
         0.78200E+11
         0.78200E+11
         0.78200E+11
         0.78200E+11
         0.78200E+11
         0.78200E+11
         0.78200E+11
         0.78200E+11
         0.78200E+11
         0.78200E+11
         0.78200E+11
         0.78200E+11
         0.78200E+11
         0.78200E+11
         0.78200E+11
         0.78200E+11
         0.78200E+11
         0.78200E+11
         0.78200E+11
         0.78200E+11
         0.78200E+11
         0.78200E+11
         0.78200E+11
         0.78200E+11
         0.78200E+11
         0.78200E+11
         0.78200E+11
         0.78200E+11
         0.78200E+11
         0.78200E+11
         0.78200E+11
         0.78200E+11
         0.78200E+11
         0.78200E+11
         0.78200E+11
         0.78200E+11
         0.78200E+11
         0.78200E+11
         0.78200E+11
         0.78200E+11
         0.78200E+11
         0.78200E+11
         0.78200E+11
         0.78200E+11
         0.78200E+11
         0.78200E+11
         0.78200E+11
         0.78200E+11
         0.78200E+11
         0.78200E+11
         0.78200E+11
         0.78200E+11
         0.78200E+11
         0.78200E+11
         0.78200E+11
         0.78200E+11
         0.78200E+11
         0.78200E+11
         0.78200E+11
         0.78200E+11
         0.78200E+11
         0.78200E+11
         0.78200E+11
         0.78200E+11
         0.78200E+11
         0.78200E+11
         0.78200E+11
         0.78200E+11
         0.78200E+11
         0.78200E+11
         0.78200E+11
         0.78200E+11
         0.78200E+11
         0.78200E+11
         0.78200E+11
         0.78200E+11
         0.78200E+11
         0.78200E+11
         0.78200E+11
         0.78200E+11
         0.78200E+11
         0.78200E+11
         0.78200E+11
         0.78200E+11
         0.78200E+11
         0.78200E+11
         0.78200E+11
         0.78200E+11
         0.78200E+11
         0.78200E+11
         0.78200E+11
         0.78200E+11
         0.78200E+11
         0.78200E+11
         0.78200E+11
         0.78200E+11
         0.78200E+11
         0.78200E+11
         0.78200E+11
         0.78200E+11
         0.78200E+11
         0.78200E+11
         0.78200E+11
         0.78200E+11
         0.78200E+11
         0.78200E+11
         0.78200E+11
         0.78200E+11
         0.78200E+11
         0.78200E+11
         0.78200E+11
         0.78200E+11
         0.78200E+11
         0.78200E+11
         0.78200E+11
         0.78200E+11
         0.78200E+11
         0.78200E+11
         0.78200E+11
         0.78200E+11
         0.78200E+11
         0.78200E+11
         0.78200E+11
         0.78200E+11
         0.78200E+11
         0.78200E+11
         0.78200E+11
         0.78200E+11
         0.78200E+11
         0.78200E+11
         0.78200E+11
         0.78200E+11
         0.78200E+11
         0.78200E+11
         0.78200E+11
         0.78200E+11
         0.78200E+11
         0.78200E+11
         0.78200E+11
         0.78200E+11
         0.78200E+11
         0.78200E+11
         0.78200E+11
         0.78200E+11
         0.78200E+11
         0.78200E+11
         0.78200E+11
         0.78200E+11
         0.78200E+11
         0.78200E+11
         0.78200E+11
         0.78200E+11
         0.78200E+11
         0.78200E+11
         0.78200E+11
         0.78200E+11
         0.78200E+11
         0.78200E+11
         0.78200E+11
         0.78200E+11
         0.78200E+11
         0.78200E+11
         0.78200E+11
         0.78200E+11
         0.78200E+11
         0.78200E+11
         0.78200E+11
         0.78200E+11
         0.78200E+11
         0.78200E+11
         0.78200E+11
         0.78200E+11
         0.78200E+11
         0.78200E+11
         0.78200E+11
         0.78200E+11
         0.78200E+11
         0.78200E+11
         0.78200E+11
         0.78200E+11
         0.78200E+11
         0.78200E+11
         0.78200E+11
         0.78200E+11
         0.78200E+11
         0.78200E+11
         0.78200E+11
         0.78200E+11
         0.78200E+11
         0.78200E+11
         0.78200E+11
         0.78200E+11
         0.78200E+11
         0.78200E+11
         0.78200E+11
         0.78200E+11
         0.78200E+11
         0.78200E+11
         0.78200E+11
         0.78200E+11
         0.78200E+11
         0.78200E+11
         0.78200E+11
         0.78200E+11
         0.78200E+11
         0.78200E+11
         0.78200E+11
         0.78200E+11
         0.78200E+11
         0.78200E+11
         0.78200E+11
         0.78200E+11
         0.78200E+11
         0.78200E+11
         0.78200E+11
         0.78200E+11
         0.78200E+11
         0.78200E+11
         0.78200E+11
         0.78200E+11
         0.78200E+11
         0.78200E+11
         0.78200E+11
         0.78200E+11
         0.78200E+11
         0.78200E+11
         0.78200E+11
         0.78200E+11
         0.78200E+11
         0.78200E+11
         0.78200E+11
         0.78200E+11
         0.78200E+11
         0.78200E+11
         0.78200E+11
         0.78200E+11
         0.78200E+11
         0.78200E+11
         0.78200E+11
         0.78200E+11
         0.78200E+11
         0.78200E+11
         0.78200E+11
         0.78200E+11
         0.78200E+11
         0.78200E+11
         0.78200E+11
         0.78200E+11
         0.78200E+11
         0.78200E+11
         0.78200E+11
         0.78200E+11
         0.78200E+11
         0.78200E+11
         0.78200E+11
         0.78200E+11
         0.78200E+11
         0.78200E+11
         0.78200E+11
         0.78200E+11
         0.78200E+11
         0.78200E+11
         0.78200E+11
         0.78200E+11
         0.78200E+11
         0.78200E+11
         0.78200E+11
         0.78200E+11
         0.78200E+11
         0.78200E+11
         0.78200E+11
         0.78200E+11
         0.78200E+11
         0.78200E+11
         0.78200E+11
         0.78200E+11
         0.78200E+11
         0.78200E+11
         0.78200E+11
         0.78200E+11
         0.78200E+11
         0.78200E+11
         0.78200E+11
         0.78200E+11
         0.78200E+11
         0.78200E+11
         0.78200E+11
         0.78200E+11
         0.78200E+11
         0.78200E+11
         0.78200E+11
         0.78200E+11
         0.78200E+11
         0.78200E+11
         0.78200E+11
         0.78200E+11
         0.78200E+11
         0.78200E+11
         0.78200E+11
         0.78200E+11
         0.78200E+11
         0.78200E+11
         0.78200E+11
         0.78200E+11
         0.78200E+11
         0.78200E+11
         0.78200E+11
         0.78200E+11
         0.78200E+11
         0.78200E+11
         0.78200E+11
         0.78200E+11
         0.78200E+11
         0.78200E+11
         0.78200E+11
         0.78200E+11
         0.78200E+11
         0.78200E+11
         0.78200E+11
         0.78200E+11
         0.78200E+11
         0.78200E+11
         0.78200E+11
         0.78200E+11
         0.78200E+11
         0.78200E+11
         0.78200E+11
         0.78200E+11
         0.78200E+11
         0.78200E+11
         0.78200E+11
         0.78200E+11
         0.78200E+11
         0.78200E+11
         0.78200E+11
         0.78200E+11
         0.78200E+11
         0.78200E+11
         0.78200E+11
         0.78200E+11
         0.78200E+11
         0.78200E+11
         0.78200E+11
         0.78200E+11
         0.78200E+11
         0.78200E+11
         0.78200E+11
         0.78200E+11
         0.78200E+11
         0.78200E+11
         0.78200E+11
         0.78200E+11
         0.78200E+11
         0.78200E+11
         0.78200E+11
         0.78200E+11
         0.78200E+11
         0.78200E+11
         0.78200E+11
         0.78200E+11
         0.78200E+11
         0.78200E+11
         0.78200E+11
         0.78200E+11
         0.78200E+11
         0.78200E+11
         0.78200E+11
         0.78200E+11
         0.78200E+11
         0.78200E+11
         0.78200E+11
         0.78200E+11
         0.78200E+11
         0.78200E+11
         0.78200E+11
         0.78200E+11
         0.78200E+11
         0.78200E+11
         0.78200E+11
         0.78200E+11
         0.78200E+11
         0.78200E+11
         0.78200E+11
         0.78200E+11
         0.78200E+11
         0.78200E+11
         0.78200E+11
         0.78200E+11
         0.78200E+11
         0.78200E+11
         0.78200E+11
         0.78200E+11
         0.78200E+11
         0.78200E+11
         0.78200E+11
         0.78200E+11
         0.78200E+11
         0.78200E+11
         0.78200E+11
         0.78200E+11
         0.78200E+11
         0.78200E+11
         0.78200E+11
         0.78200E+11
         0.78200E+11
         0.78200E+11
         0.78200E+11
         0.78200E+11
         0.78200E+11
         0.78200E+11
         0.78200E+11
         0.78200E+11
         0.78200E+11
         0.78200E+11
         0.78200E+11
         0.78200E+11
         0.78200E+11
         0.78200E+11
         0.78200E+11
         0.78200E+11
         0.78200E+11
         0.78200E+11
         0.78200E+11
         0.78200E+11
         0.78200E+11
         0.78200E+11
         0.78200E+11
         0.78200E+11
         0.78200E+11
         0.78200E+11
         0.78200E+11
         0.78200E+11
         0.78200E+11
         0.78200E+11
         0.78200E+11
         0.78200E+11
         0.78200E+11
         0.78200E+11
         0.78200E+11
         0.78200E+11
         0.78200E+11
         0.78200E+11
         0.78200E+11
         0.78200E+11
         0.78200E+11
         0.78200E+11
         0.78200E+11
         0.78200E+11
         0.78200E+11
         0.78200E+11
         0.78200E+11
         0.78200E+11
         0.78200E+11
         0.78200E+11
         0.78200E+11
         0.78200E+11
         0.78200E+11
         0.78200E+11
         0.78200E+11
         0.78200E+11
         0.78200E+11
         0.78200E+11
         0.78200E+11
         0.78200E+11
         0.78200E+11
         0.78200E+11
         0.78200E+11
         0.78200E+11
         0.78200E+11
         0.78200E+11
         0.78200E+11
         0.78200E+11
         0.78200E+11
         0.78200E+11
         0.78200E+11
         0.78200E+11
         0.78200E+11
         0.78200E+11
         0.78200E+11
         0.78200E+11
         0.78200E+11
         0.78200E+11
         0.78200E+11
         0.78200E+11
         0.78200E+11
         0.78200E+11
         0.78200E+11
         0.78200E+11
         0.78200E+11
         0.78200E+11
         0.78200E+11
         0.78200E+11
         0.78200E+11
         0.78200E+11
         0.78200E+11
         0.78200E+11
         0.78200E+11
         0.78200E+11
         0.78200E+11
         0.78200E+11
         0.78200E+11
         0.78200E+11
         0.78200E+11
         0.78200E+11
         0.78200E+11
         0.78200E+11
         0.78200E+11
         0.78200E+11
         0.78200E+11
         0.78200E+11
         0.78200E+11
         0.78200E+11
         0.78200E+11
         0.78200E+11
         0.78200E+11
         0.78200E+11
         0.78200E+11
         0.78200E+11
         0.78200E+11
         0.78200E+11
         0.78200E+11
         0.78200E+11
         0.78200E+11
         0.78200E+11
         0.78200E+11
         0.78200E+11
         0.78200E+11
         0.78200E+11
         0.78200E+11
         0.78200E+11
         0.78200E+11
         0.78200E+11
         0.78200E+11
         0.78200E+11
         0.78200E+11
         0.78200E+11
         0.78200E+11
         0.78200E+11
         0.78200E+11
         0.78200E+11
         0.78200E+11
         0.78200E+11
         0.78200E+11
         0.78200E+11
         0.78200E+11
         0.78200E+11
         0.78200E+11
         0.78200E+11
         0.78200E+11
         0.78200E+11
         0.78200E+11
         0.78200E+11
         0.78200E+11
         0.78200E+11
         0.78200E+11
         0.78200E+11
         0.78200E+11
         0.78200E+11
         0.78200E+11
         0.78200E+11
         0.78200E+11
         0.78200E+11
         0.78200E+11
         0.78200E+11
         0.78200E+11
         0.78200E+11
         0.78200E+11
         0.78200E+11
         0.78200E+11
         0.78200E+11
         0.78200E+11
         0.78200E+11
         0.78200E+11
         0.78200E+11
         0.78200E+11
         0.78200E+11
         0.78200E+11
         0.78200E+11
         0.78200E+11
         0.78200E+11
         0.78200E+11
         0.78200E+11
         0.78200E+11
         0.78200E+11
         0.78200E+11
         0.78200E+11
         0.78200E+11
         0.78200E+11
         0.78200E+11
         0.78200E+11
         0.78200E+11
         0.78200E+11
         0.78200E+11
         0.78200E+11
         0.78200E+11
         0.78200E+11
         0.78200E+11
         0.78200E+11
         0.78200E+11
         0.78200E+11
         0.78200E+11
         0.78200E+11
         0.78200E+11
         0.78200E+11
         0.78200E+11
         0.78200E+11
         0.78200E+11
         0.78200E+11
         0.78200E+11
         0.78200E+11
         0.78200E+11
         0.78200E+11
         0.78200E+11
         0.78200E+11
         0.78200E+11
         0.78200E+11
         0.78200E+11
         0.78200E+11
         0.78200E+11
         0.78200E+11
         0.78200E+11
         0.78200E+11
         0.78200E+11
         0.78200E+11
         0.78200E+11
         0.78200E+11
         0.78200E+11
         0.78200E+11
         0.78200E+11
         0.78200E+11
         0.78200E+11
         0.78200E+11
         0.78200E+11
         0.78200E+11
         0.78200E+11
         0.78200E+11
         0.78200E+11
         0.78200E+11
         0.78200E+11
         0.78200E+11
         0.78200E+11
         0.78200E+11
         0.78200E+11
         0.78200E+11
         0.78200E+11
         0.78200E+11
         0.78200E+11
         0.78200E+11
         0.78200E+11
         0.78200E+11
         0.78200E+11
         0.78200E+11
         0.78200E+11
         0.78200E+11
         0.78200E+11
         0.78200E+11
         0.78200E+11
         0.78200E+11
         0.78200E+11
         0.78200E+11
         0.78200E+11
         0.78200E+11
         0.78200E+11
         0.78200E+11
         0.78200E+11
         0.78200E+11
         0.78200E+11
         0.78200E+11
         0.78200E+11
         0.78200E+11
         0.78200E+11
         0.78200E+11
         0.78200E+11
         0.78200E+11
         0.78200E+11
         0.78200E+11
         0.78200E+11
         0.78200E+11
         0.78200E+11
         0.78200E+11
         0.78200E+11
         0.78200E+11
         0.78200E+11
         0.78200E+11
         0.78200E+11
         0.78200E+11
         0.78200E+11
         0.78200E+11
         0.78200E+11
         0.78200E+11
         0.78200E+11
         0.78200E+11
         0.78200E+11
         0.78200E+11
         0.78200E+11
         0.78200E+11
         0.78200E+11
         0.78200E+11
         0.78200E+11
         0.78200E+11
         0.78200E+11
         0.78200E+11
         0.78200E+11
         0.78200E+11
         0.78200E+11
         0.78200E+11
         0.78200E+11
         0.78200E+11
         0.78200E+11
         0.78200E+11
         0.78200E+11
         0.78200E+11
         0.78200E+11
         0.78200E+11
         0.78200E+11
         0.78200E+11
         0.78200E+11
         0.78200E+11
         0.78200E+11
         0.78200E+11
         0.78200E+11
         0.78200E+11
         0.78200E+11
         0.78200E+11
         0.78200E+11
         0.78200E+11
         0.78200E+11
         0.78200E+11
         0.78200E+11
         0.78200E+11
         0.78200E+11
         0.78200E+11
         0.78200E+11
         0.78200E+11
         0.78200E+11
         0.78200E+11
         0.78200E+11
         0.78200E+11
         0.78200E+11
         0.78200E+11
         0.78200E+11
         0.78200E+11
         0.78200E+11
         0.78200E+11
         0.78200E+11
         0.78200E+11
         0.78200E+11
         0.78200E+11
         0.78200E+11
         0.78200E+11
         0.78200E+11
         0.78200E+11
         0.78200E+11
         0.78200E+11
         0.78200E+11
         0.78200E+11
         0.78200E+11
         0.78200E+11
         0.78200E+11
         0.78200E+11
         0.78200E+11
         0.78200E+11
         0.78200E+11
         0.78200E+11
         0.78200E+11
         0.78200E+11
         0.78200E+11
         0.78200E+11
         0.78200E+11
         0.78200E+11
         0.78200E+11
         0.78200E+11
         0.78200E+11
         0.78200E+11
         0.78200E+11
         0.78200E+11
         0.78200E+11
         0.78200E+11
         0.78200E+11
         0.78200E+11
         0.78200E+11
         0.78200E+11
         0.78200E+11
         0.78200E+11
         0.78200E+11
         0.78200E+11
         0.78200E+11
         0.78200E+11
         0.78200E+11
         0.78200E+11
         0.78200E+11
         0.78200E+11
         0.78200E+11
         0.78200E+11
         0.78200E+11
         0.78200E+11
         0.78200E+11
         0.78200E+11
         0.78200E+11
         0.78200E+11
         0.78200E+11
         0.78200E+11
         0.78200E+11
         0.78200E+11
         0.78200E+11
         0.78200E+11
         0.78200E+11
         0.78200E+11
         0.78200E+11
         0.78200E+11
         0.78200E+11
         0.78200E+11
         0.78200E+11
         0.78200E+11
         0.78200E+11
         0.78200E+11
         0.78200E+11
         0.78200E+11
         0.78200E+11
         0.78200E+11
         0.78200E+11
         0.78200E+11
         0.78200E+11
         0.78200E+11
         0.78200E+11
         0.78200E+11
         0.78200E+11
         0.78200E+11
         0.78200E+11
         0.78200E+11
         0.78200E+11
         0.78200E+11
         0.78200E+11
         0.78200E+11
         0.78200E+11
         0.78200E+11
         0.78200E+11
         0.78200E+11
         0.78200E+11
         0.78200E+11
         0.78200E+11
         0.78200E+11
         0.78200E+11
         0.78200E+11
         0.78200E+11
         0.78200E+11
         0.78200E+11
         0.78200E+11
         0.78200E+11
         0.78200E+11
         0.78200E+11
         0.78200E+11
         0.78200E+11
         0.78200E+11
         0.78200E+11
         0.78200E+11
         0.78200E+11
         0.78200E+11
         0.78200E+11
         0.78200E+11
         0.78200E+11
         0.78200E+11
         0.78200E+11
         0.78200E+11
         0.78200E+11
         0.78200E+11
         0.78200E+11
         0.78200E+11
         0.78200E+11
         0.78200E+11
         0.78200E+11
         0.78200E+11
         0.78200E+11
         0.78200E+11
         0.78200E+11
         0.78200E+11
         0.78200E+11
         0.78200E+11
         0.78200E+11
         0.78200E+11
         0.78200E+11
         0.78200E+11
         0.78200E+11
         0.78200E+11
         0.78200E+11
         0.78200E+11
         0.78200E+11
         0.78200E+11
         0.78200E+11
         0.78200E+11
         0.78200E+11
         0.78200E+11
         0.78200E+11
         0.78200E+11
         0.78200E+11
         0.78200E+11
         0.78200E+11
         0.78200E+11
         0.78200E+11
         0.78200E+11
         0.78200E+11
         0.78200E+11
         0.78200E+11
         0.78200E+11
         0.78200E+11
         0.78200E+11
         0.78200E+11
         0.78200E+11
         0.78200E+11
         0.78200E+11
         0.78200E+11
         0.78200E+11
         0.78200E+11
         0.78200E+11
         0.78200E+11
         0.78200E+11
         0.78200E+11
         0.78200E+11
         0.78200E+11
         0.78200E+11
         0.78200E+11
         0.78200E+11
         0.78200E+11
         0.78200E+11
         0.78200E+11
         0.78200E+11
         0.78200E+11
         0.78200E+11
         0.78200E+11
         0.78200E+11
         0.78200E+11
         0.78200E+11
         0.78200E+11
         0.78200E+11
         0.78200E+11
         0.78200E+11
         0.78200E+11
         0.78200E+11
         0.78200E+11
         0.78200E+11
         0.78200E+11
         0.78200E+11
         0.78200E+11
         0.78200E+11
         0.78200E+11
         0.78200E+11
         0.78200E+11
         0.78200E+11
         0.78200E+11
         0.78200E+11
         0.78200E+11
         0.78200E+11
         0.78200E+11
         0.78200E+11
         0.78200E+11
         0.78200E+11
         0.78200E+11
         0.78200E+11
         0.78200E+11
         0.78200E+11
         0.78200E+11
         0.78200E+11
         0.78200E+11
         0.78200E+11
         0.78200E+11
         0.78200E+11
         0.78200E+11
         0.78200E+11
         0.78200E+11
         0.78200E+11
         0.78200E+11
         0.78200E+11
         0.78200E+11
         0.78200E+11
         0.78200E+11
         0.78200E+11
         0.78200E+11
         0.78200E+11
         0.78200E+11
         0.78200E+11
         0.78200E+11
         0.78200E+11
         0.78200E+11
         0.78200E+11
         0.78200E+11
         0.78200E+11
         0.78200E+11
         0.78200E+11
         0.78200E+11
         0.78200E+11
         0.78200E+11
         0.78200E+11
         0.78200E+11
         0.78200E+11
         0.78200E+11
         0.78200E+11
         0.78200E+11
         0.78200E+11
         0.78200E+11
         0.78200E+11
         0.78200E+11
         0.78200E+11
         0.78200E+11
         0.78200E+11
         0.78200E+11
         0.78200E+11
         0.78200E+11
         0.78200E+11
         0.78200E+11
         0.78200E+11
         0.78200E+11
         0.78200E+11
         0.78200E+11
         0.78200E+11
         0.78200E+11
         0.78200E+11
         0.78200E+11
         0.78200E+11
         0.78200E+11
         0.78200E+11
         0.78200E+11
         0.78200E+11
         0.78200E+11
         0.78200E+11
         0.78200E+11
         0.78200E+11
         0.78200E+11
         0.78200E+11
         0.78200E+11
         0.78200E+11
         0.78200E+11
         0.78200E+11
         0.78200E+11
         0.78200E+11
         0.78200E+11
         0.78200E+11
         0.78200E+11
         0.78200E+11
         0.78200E+11
         0.78200E+11
         0.78200E+11
         0.78200E+11
         0.78200E+11
         0.78200E+11
         0.78200E+11
         0.78200E+11
         0.78200E+11
         0.78200E+11
         0.78200E+11
         0.78200E+11
         0.78200E+11
         0.78200E+11
         0.78200E+11
         0.78200E+11
         0.78200E+11
         0.78200E+11
         0.78200E+11
         0.78200E+11
         0.78200E+11
         0.78200E+11
         0.78200E+11
         0.78200E+11
         0.78200E+11
         0.78200E+11
         0.78200E+11
         0.78200E+11
         0.78200E+11
         0.78200E+11
         0.78200E+11
         0.78200E+11
         0.78200E+11
         0.78200E+11
         0.78200E+11
         0.78200E+11
         0.78200E+11
         0.78200E+11
         0.78200E+11
         0.78200E+11
         0.78200E+11
         0.78200E+11
         0.78200E+11
         0.78200E+11
         0.78200E+11
         0.78200E+11
         0.78200E+11
         0.78200E+11
         0.78200E+11
         0.78200E+11
         0.78200E+11
         0.78200E+11
         0.78200E+11
         0.78200E+11
         0.78200E+11
         0.78200E+11
         0.78200E+11
         0.78200E+11
         0.78200E+11
         0.78200E+11
         0.78200E+11
         0.78200E+11
         0.78200E+11
         0.78200E+11
         0.78200E+11
         0.78200E+11
         0.78200E+11
         0.78200E+11
         0.78200E+11
         0.78200E+11
         0.78200E+11
         0.78200E+11
         0.78200E+11
         0.78200E+11
         0.78200E+11
         0.78200E+11
         0.78200E+11
         0.78200E+11
         0.78200E+11
         0.78200E+11
         0.78200E+11
         0.78200E+11
         0.78200E+11
         0.78200E+11
         0.78200E+11
         0.78200E+11
         0.78200E+11
         0.78200E+11
         0.78200E+11
         0.78200E+11
         0.78200E+11
         0.78200E+11
         0.78200E+11
  
SCALARS                        density  double 1
LOOKUP_TABLE default
         0.27000E+04
         0.27000E+04
         0.27000E+04
         0.27000E+04
         0.27000E+04
         0.27000E+04
         0.27000E+04
         0.27000E+04
         0.27000E+04
         0.27000E+04
         0.27000E+04
         0.27000E+04
         0.27000E+04
         0.27000E+04
         0.27000E+04
         0.27000E+04
         0.27000E+04
         0.27000E+04
         0.27000E+04
         0.27000E+04
         0.27000E+04
         0.27000E+04
         0.27000E+04
         0.27000E+04
         0.27000E+04
         0.27000E+04
         0.27000E+04
         0.27000E+04
         0.27000E+04
         0.27000E+04
         0.27000E+04
         0.27000E+04
         0.27000E+04
         0.27000E+04
         0.27000E+04
         0.27000E+04
         0.27000E+04
         0.27000E+04
         0.27000E+04
         0.27000E+04
         0.27000E+04
         0.27000E+04
         0.27000E+04
         0.27000E+04
         0.27000E+04
         0.27000E+04
         0.27000E+04
         0.27000E+04
         0.27000E+04
         0.27000E+04
         0.27000E+04
         0.27000E+04
         0.27000E+04
         0.27000E+04
         0.27000E+04
         0.27000E+04
         0.27000E+04
         0.27000E+04
         0.27000E+04
         0.27000E+04
         0.27000E+04
         0.27000E+04
         0.27000E+04
         0.27000E+04
         0.27000E+04
         0.27000E+04
         0.27000E+04
         0.27000E+04
         0.27000E+04
         0.27000E+04
         0.27000E+04
         0.27000E+04
         0.27000E+04
         0.27000E+04
         0.27000E+04
         0.27000E+04
         0.27000E+04
         0.27000E+04
         0.27000E+04
         0.27000E+04
         0.27000E+04
         0.27000E+04
         0.27000E+04
         0.27000E+04
         0.27000E+04
         0.27000E+04
         0.27000E+04
         0.27000E+04
         0.27000E+04
         0.27000E+04
         0.27000E+04
         0.27000E+04
         0.27000E+04
         0.27000E+04
         0.27000E+04
         0.27000E+04
         0.27000E+04
         0.27000E+04
         0.27000E+04
         0.27000E+04
         0.27000E+04
         0.27000E+04
         0.27000E+04
         0.27000E+04
         0.27000E+04
         0.27000E+04
         0.27000E+04
         0.27000E+04
         0.27000E+04
         0.27000E+04
         0.27000E+04
         0.27000E+04
         0.27000E+04
         0.27000E+04
         0.27000E+04
         0.27000E+04
         0.27000E+04
         0.27000E+04
         0.27000E+04
         0.27000E+04
         0.27000E+04
         0.27000E+04
         0.27000E+04
         0.27000E+04
         0.27000E+04
         0.27000E+04
         0.27000E+04
         0.27000E+04
         0.27000E+04
         0.27000E+04
         0.27000E+04
         0.27000E+04
         0.27000E+04
         0.27000E+04
         0.27000E+04
         0.27000E+04
         0.27000E+04
         0.27000E+04
         0.27000E+04
         0.27000E+04
         0.27000E+04
         0.27000E+04
         0.27000E+04
         0.27000E+04
         0.27000E+04
         0.27000E+04
         0.27000E+04
         0.27000E+04
         0.27000E+04
         0.27000E+04
         0.27000E+04
         0.27000E+04
         0.27000E+04
         0.27000E+04
         0.27000E+04
         0.27000E+04
         0.27000E+04
         0.27000E+04
         0.27000E+04
         0.27000E+04
         0.27000E+04
         0.27000E+04
         0.27000E+04
         0.27000E+04
         0.27000E+04
         0.27000E+04
         0.27000E+04
         0.27000E+04
         0.27000E+04
         0.27000E+04
         0.27000E+04
         0.27000E+04
         0.27000E+04
         0.27000E+04
         0.27000E+04
         0.27000E+04
         0.27000E+04
         0.27000E+04
         0.27000E+04
         0.27000E+04
         0.27000E+04
         0.27000E+04
         0.27000E+04
         0.27000E+04
         0.27000E+04
         0.27000E+04
         0.27000E+04
         0.27000E+04
         0.27000E+04
         0.27000E+04
         0.27000E+04
         0.27000E+04
         0.27000E+04
         0.27000E+04
         0.27000E+04
         0.27000E+04
         0.27000E+04
         0.27000E+04
         0.27000E+04
         0.27000E+04
         0.27000E+04
         0.27000E+04
         0.27000E+04
         0.27000E+04
         0.27000E+04
         0.27000E+04
         0.27000E+04
         0.27000E+04
         0.27000E+04
         0.27000E+04
         0.27000E+04
         0.27000E+04
         0.27000E+04
         0.27000E+04
         0.27000E+04
         0.27000E+04
         0.27000E+04
         0.27000E+04
         0.27000E+04
         0.27000E+04
         0.27000E+04
         0.27000E+04
         0.27000E+04
         0.27000E+04
         0.27000E+04
         0.27000E+04
         0.27000E+04
         0.27000E+04
         0.27000E+04
         0.27000E+04
         0.27000E+04
         0.27000E+04
         0.27000E+04
         0.27000E+04
         0.27000E+04
         0.27000E+04
         0.27000E+04
         0.27000E+04
         0.27000E+04
         0.27000E+04
         0.27000E+04
         0.27000E+04
         0.27000E+04
         0.27000E+04
         0.27000E+04
         0.27000E+04
         0.27000E+04
         0.27000E+04
         0.27000E+04
         0.27000E+04
         0.27000E+04
         0.27000E+04
         0.27000E+04
         0.27000E+04
         0.27000E+04
         0.27000E+04
         0.27000E+04
         0.27000E+04
         0.27000E+04
         0.27000E+04
         0.27000E+04
         0.27000E+04
         0.27000E+04
         0.27000E+04
         0.27000E+04
         0.27000E+04
         0.27000E+04
         0.27000E+04
         0.27000E+04
         0.27000E+04
         0.27000E+04
         0.27000E+04
         0.27000E+04
         0.27000E+04
         0.27000E+04
         0.27000E+04
         0.27000E+04
         0.27000E+04
         0.27000E+04
         0.27000E+04
         0.27000E+04
         0.27000E+04
         0.27000E+04
         0.27000E+04
         0.27000E+04
         0.27000E+04
         0.27000E+04
         0.27000E+04
         0.27000E+04
         0.27000E+04
         0.27000E+04
         0.27000E+04
         0.27000E+04
         0.27000E+04
         0.27000E+04
         0.27000E+04
         0.27000E+04
         0.27000E+04
         0.27000E+04
         0.27000E+04
         0.27000E+04
         0.27000E+04
         0.27000E+04
         0.27000E+04
         0.27000E+04
         0.27000E+04
         0.27000E+04
         0.27000E+04
         0.27000E+04
         0.27000E+04
         0.27000E+04
         0.27000E+04
         0.27000E+04
         0.27000E+04
         0.27000E+04
         0.27000E+04
         0.27000E+04
         0.27000E+04
         0.27000E+04
         0.27000E+04
         0.27000E+04
         0.27000E+04
         0.27000E+04
         0.27000E+04
         0.27000E+04
         0.27000E+04
         0.27000E+04
         0.27000E+04
         0.27000E+04
         0.27000E+04
         0.27000E+04
         0.27000E+04
         0.27000E+04
         0.27000E+04
         0.27000E+04
         0.27000E+04
         0.27000E+04
         0.27000E+04
         0.27000E+04
         0.27000E+04
         0.27000E+04
         0.27000E+04
         0.27000E+04
         0.27000E+04
         0.27000E+04
         0.27000E+04
         0.27000E+04
         0.27000E+04
         0.27000E+04
         0.27000E+04
         0.27000E+04
         0.27000E+04
         0.27000E+04
         0.27000E+04
         0.27000E+04
         0.27000E+04
         0.27000E+04
         0.27000E+04
         0.27000E+04
         0.27000E+04
         0.27000E+04
         0.27000E+04
         0.27000E+04
         0.27000E+04
         0.27000E+04
         0.27000E+04
         0.27000E+04
         0.27000E+04
         0.27000E+04
         0.27000E+04
         0.27000E+04
         0.27000E+04
         0.27000E+04
         0.27000E+04
         0.27000E+04
         0.27000E+04
         0.27000E+04
         0.27000E+04
         0.27000E+04
         0.27000E+04
         0.27000E+04
         0.27000E+04
         0.27000E+04
         0.27000E+04
         0.27000E+04
         0.27000E+04
         0.27000E+04
         0.27000E+04
         0.27000E+04
         0.27000E+04
         0.27000E+04
         0.27000E+04
         0.27000E+04
         0.27000E+04
         0.27000E+04
         0.27000E+04
         0.27000E+04
         0.27000E+04
         0.27000E+04
         0.27000E+04
         0.27000E+04
         0.27000E+04
         0.27000E+04
         0.27000E+04
         0.27000E+04
         0.27000E+04
         0.27000E+04
         0.27000E+04
         0.27000E+04
         0.27000E+04
         0.27000E+04
         0.27000E+04
         0.27000E+04
         0.27000E+04
         0.27000E+04
         0.27000E+04
         0.27000E+04
         0.27000E+04
         0.27000E+04
         0.27000E+04
         0.27000E+04
         0.27000E+04
         0.27000E+04
         0.27000E+04
         0.27000E+04
         0.27000E+04
         0.27000E+04
         0.27000E+04
         0.27000E+04
         0.27000E+04
         0.27000E+04
         0.27000E+04
         0.27000E+04
         0.27000E+04
         0.27000E+04
         0.27000E+04
         0.27000E+04
         0.27000E+04
         0.27000E+04
         0.27000E+04
         0.27000E+04
         0.27000E+04
         0.27000E+04
         0.27000E+04
         0.27000E+04
         0.27000E+04
         0.27000E+04
         0.27000E+04
         0.27000E+04
         0.27000E+04
         0.27000E+04
         0.27000E+04
         0.27000E+04
         0.27000E+04
         0.27000E+04
         0.27000E+04
         0.27000E+04
         0.27000E+04
         0.27000E+04
         0.27000E+04
         0.27000E+04
         0.27000E+04
         0.27000E+04
         0.27000E+04
         0.27000E+04
         0.27000E+04
         0.27000E+04
         0.27000E+04
         0.27000E+04
         0.27000E+04
         0.27000E+04
         0.27000E+04
         0.27000E+04
         0.27000E+04
         0.27000E+04
         0.27000E+04
         0.27000E+04
         0.27000E+04
         0.27000E+04
         0.27000E+04
         0.27000E+04
         0.27000E+04
         0.27000E+04
         0.27000E+04
         0.27000E+04
         0.27000E+04
         0.27000E+04
         0.27000E+04
         0.27000E+04
         0.27000E+04
         0.27000E+04
         0.27000E+04
         0.27000E+04
         0.27000E+04
         0.27000E+04
         0.27000E+04
         0.27000E+04
         0.27000E+04
         0.27000E+04
         0.27000E+04
         0.27000E+04
         0.27000E+04
         0.27000E+04
         0.27000E+04
         0.27000E+04
         0.27000E+04
         0.27000E+04
         0.27000E+04
         0.27000E+04
         0.27000E+04
         0.27000E+04
         0.27000E+04
         0.27000E+04
         0.27000E+04
         0.27000E+04
         0.27000E+04
         0.27000E+04
         0.27000E+04
         0.27000E+04
         0.27000E+04
         0.27000E+04
         0.27000E+04
         0.27000E+04
         0.27000E+04
         0.27000E+04
         0.27000E+04
         0.27000E+04
         0.27000E+04
         0.27000E+04
         0.27000E+04
         0.27000E+04
         0.27000E+04
         0.27000E+04
         0.27000E+04
         0.27000E+04
         0.27000E+04
         0.27000E+04
         0.27000E+04
         0.27000E+04
         0.27000E+04
         0.27000E+04
         0.27000E+04
         0.27000E+04
         0.27000E+04
         0.27000E+04
         0.27000E+04
         0.27000E+04
         0.27000E+04
         0.27000E+04
         0.27000E+04
         0.27000E+04
         0.27000E+04
         0.27000E+04
         0.27000E+04
         0.27000E+04
         0.27000E+04
         0.27000E+04
         0.27000E+04
         0.27000E+04
         0.27000E+04
         0.27000E+04
         0.27000E+04
         0.27000E+04
         0.27000E+04
         0.27000E+04
         0.27000E+04
         0.27000E+04
         0.27000E+04
         0.27000E+04
         0.27000E+04
         0.27000E+04
         0.27000E+04
         0.27000E+04
         0.27000E+04
         0.27000E+04
         0.27000E+04
         0.27000E+04
         0.27000E+04
         0.27000E+04
         0.27000E+04
         0.27000E+04
         0.27000E+04
         0.27000E+04
         0.27000E+04
         0.27000E+04
         0.27000E+04
         0.27000E+04
         0.27000E+04
         0.27000E+04
         0.27000E+04
         0.27000E+04
         0.27000E+04
         0.27000E+04
         0.27000E+04
         0.27000E+04
         0.27000E+04
         0.27000E+04
         0.27000E+04
         0.27000E+04
         0.27000E+04
         0.27000E+04
         0.27000E+04
         0.27000E+04
         0.27000E+04
         0.27000E+04
         0.27000E+04
         0.27000E+04
         0.27000E+04
         0.27000E+04
         0.27000E+04
         0.27000E+04
         0.27000E+04
         0.27000E+04
         0.27000E+04
         0.27000E+04
         0.27000E+04
         0.27000E+04
         0.27000E+04
         0.27000E+04
         0.27000E+04
         0.27000E+04
         0.27000E+04
         0.27000E+04
         0.27000E+04
         0.27000E+04
         0.27000E+04
         0.27000E+04
         0.27000E+04
         0.27000E+04
         0.27000E+04
         0.27000E+04
         0.27000E+04
         0.27000E+04
         0.27000E+04
         0.27000E+04
         0.27000E+04
         0.27000E+04
         0.27000E+04
         0.27000E+04
         0.27000E+04
         0.27000E+04
         0.27000E+04
         0.27000E+04
         0.27000E+04
         0.27000E+04
         0.27000E+04
         0.27000E+04
         0.27000E+04
         0.27000E+04
         0.27000E+04
         0.27000E+04
         0.27000E+04
         0.27000E+04
         0.27000E+04
         0.27000E+04
         0.27000E+04
         0.27000E+04
         0.27000E+04
         0.27000E+04
         0.27000E+04
         0.27000E+04
         0.27000E+04
         0.27000E+04
         0.27000E+04
         0.27000E+04
         0.27000E+04
         0.27000E+04
         0.27000E+04
         0.27000E+04
         0.27000E+04
         0.27000E+04
         0.27000E+04
         0.27000E+04
         0.27000E+04
         0.27000E+04
         0.27000E+04
         0.27000E+04
         0.27000E+04
         0.27000E+04
         0.27000E+04
         0.27000E+04
         0.27000E+04
         0.27000E+04
         0.27000E+04
         0.27000E+04
         0.27000E+04
         0.27000E+04
         0.27000E+04
         0.27000E+04
         0.27000E+04
         0.27000E+04
         0.27000E+04
         0.27000E+04
         0.27000E+04
         0.27000E+04
         0.27000E+04
         0.27000E+04
         0.27000E+04
         0.27000E+04
         0.27000E+04
         0.27000E+04
         0.27000E+04
         0.27000E+04
         0.27000E+04
         0.27000E+04
         0.27000E+04
         0.27000E+04
         0.27000E+04
         0.27000E+04
         0.27000E+04
         0.27000E+04
         0.27000E+04
         0.27000E+04
         0.27000E+04
         0.27000E+04
         0.27000E+04
         0.27000E+04
         0.27000E+04
         0.27000E+04
         0.27000E+04
         0.27000E+04
         0.27000E+04
         0.27000E+04
         0.27000E+04
         0.27000E+04
         0.27000E+04
         0.27000E+04
         0.27000E+04
         0.27000E+04
         0.27000E+04
         0.27000E+04
         0.27000E+04
         0.27000E+04
         0.27000E+04
         0.27000E+04
         0.27000E+04
         0.27000E+04
         0.27000E+04
         0.27000E+04
         0.27000E+04
         0.27000E+04
         0.27000E+04
         0.27000E+04
         0.27000E+04
         0.27000E+04
         0.27000E+04
         0.27000E+04
         0.27000E+04
         0.27000E+04
         0.27000E+04
         0.27000E+04
         0.27000E+04
         0.27000E+04
         0.27000E+04
         0.27000E+04
         0.27000E+04
         0.27000E+04
         0.27000E+04
         0.27000E+04
         0.27000E+04
         0.27000E+04
         0.27000E+04
         0.27000E+04
         0.27000E+04
         0.27000E+04
         0.27000E+04
         0.27000E+04
         0.27000E+04
         0.27000E+04
         0.27000E+04
         0.27000E+04
         0.27000E+04
         0.27000E+04
         0.27000E+04
         0.27000E+04
         0.27000E+04
         0.27000E+04
         0.27000E+04
         0.27000E+04
         0.27000E+04
         0.27000E+04
         0.27000E+04
         0.27000E+04
         0.27000E+04
         0.27000E+04
         0.27000E+04
         0.27000E+04
         0.27000E+04
         0.27000E+04
         0.27000E+04
         0.27000E+04
         0.27000E+04
         0.27000E+04
         0.27000E+04
         0.27000E+04
         0.27000E+04
         0.27000E+04
         0.27000E+04
         0.27000E+04
         0.27000E+04
         0.27000E+04
         0.27000E+04
         0.27000E+04
         0.27000E+04
         0.27000E+04
         0.27000E+04
         0.27000E+04
         0.27000E+04
         0.27000E+04
         0.27000E+04
         0.27000E+04
         0.27000E+04
         0.27000E+04
         0.27000E+04
         0.27000E+04
         0.27000E+04
         0.27000E+04
         0.27000E+04
         0.27000E+04
         0.27000E+04
         0.27000E+04
         0.27000E+04
         0.27000E+04
         0.27000E+04
         0.27000E+04
         0.27000E+04
         0.27000E+04
         0.27000E+04
         0.27000E+04
         0.27000E+04
         0.27000E+04
         0.27000E+04
         0.27000E+04
         0.27000E+04
         0.27000E+04
         0.27000E+04
         0.27000E+04
         0.27000E+04
         0.27000E+04
         0.27000E+04
         0.27000E+04
         0.27000E+04
         0.27000E+04
         0.27000E+04
         0.27000E+04
         0.27000E+04
         0.27000E+04
         0.27000E+04
         0.27000E+04
         0.27000E+04
         0.27000E+04
         0.27000E+04
         0.27000E+04
         0.27000E+04
         0.27000E+04
         0.27000E+04
         0.27000E+04
         0.27000E+04
         0.27000E+04
         0.27000E+04
         0.27000E+04
         0.27000E+04
         0.27000E+04
         0.27000E+04
         0.27000E+04
         0.27000E+04
         0.27000E+04
         0.27000E+04
         0.27000E+04
         0.27000E+04
         0.27000E+04
         0.27000E+04
         0.27000E+04
         0.27000E+04
         0.27000E+04
         0.27000E+04
         0.27000E+04
         0.27000E+04
         0.27000E+04
         0.27000E+04
         0.27000E+04
         0.27000E+04
         0.27000E+04
         0.27000E+04
         0.27000E+04
         0.27000E+04
         0.27000E+04
         0.27000E+04
         0.27000E+04
         0.27000E+04
         0.27000E+04
         0.27000E+04
         0.27000E+04
         0.27000E+04
         0.27000E+04
         0.27000E+04
         0.27000E+04
         0.27000E+04
         0.27000E+04
         0.27000E+04
         0.27000E+04
         0.27000E+04
         0.27000E+04
         0.27000E+04
         0.27000E+04
         0.27000E+04
         0.27000E+04
         0.27000E+04
         0.27000E+04
         0.27000E+04
         0.27000E+04
         0.27000E+04
         0.27000E+04
         0.27000E+04
         0.27000E+04
         0.27000E+04
         0.27000E+04
         0.27000E+04
         0.27000E+04
         0.27000E+04
         0.27000E+04
         0.27000E+04
         0.27000E+04
         0.27000E+04
         0.27000E+04
         0.27000E+04
         0.27000E+04
         0.27000E+04
         0.27000E+04
         0.27000E+04
         0.27000E+04
         0.27000E+04
         0.27000E+04
         0.27000E+04
         0.27000E+04
         0.27000E+04
         0.27000E+04
         0.27000E+04
         0.27000E+04
         0.27000E+04
         0.27000E+04
         0.27000E+04
         0.27000E+04
         0.27000E+04
         0.27000E+04
         0.27000E+04
         0.27000E+04
         0.27000E+04
         0.27000E+04
         0.27000E+04
         0.27000E+04
         0.27000E+04
         0.27000E+04
         0.27000E+04
         0.27000E+04
         0.27000E+04
         0.27000E+04
         0.27000E+04
         0.27000E+04
         0.27000E+04
         0.27000E+04
         0.27000E+04
         0.27000E+04
         0.27000E+04
         0.27000E+04
         0.27000E+04
         0.27000E+04
         0.27000E+04
         0.27000E+04
         0.27000E+04
         0.27000E+04
         0.27000E+04
         0.27000E+04
         0.27000E+04
         0.27000E+04
         0.27000E+04
         0.27000E+04
         0.27000E+04
         0.27000E+04
         0.27000E+04
         0.27000E+04
         0.27000E+04
         0.27000E+04
         0.27000E+04
         0.27000E+04
         0.27000E+04
         0.27000E+04
         0.27000E+04
         0.27000E+04
         0.27000E+04
         0.27000E+04
         0.27000E+04
         0.27000E+04
         0.27000E+04
         0.27000E+04
         0.27000E+04
         0.27000E+04
         0.27000E+04
         0.27000E+04
         0.27000E+04
         0.27000E+04
         0.27000E+04
         0.27000E+04
         0.27000E+04
         0.27000E+04
         0.27000E+04
         0.27000E+04
         0.27000E+04
         0.27000E+04
         0.27000E+04
         0.27000E+04
         0.27000E+04
         0.27000E+04
         0.27000E+04
         0.27000E+04
         0.27000E+04
         0.27000E+04
         0.27000E+04
         0.27000E+04
         0.27000E+04
         0.27000E+04
         0.27000E+04
         0.27000E+04
         0.27000E+04
         0.27000E+04
         0.27000E+04
         0.27000E+04
         0.27000E+04
         0.27000E+04
         0.27000E+04
         0.27000E+04
         0.27000E+04
         0.27000E+04
         0.27000E+04
         0.27000E+04
         0.27000E+04
         0.27000E+04
         0.27000E+04
         0.27000E+04
         0.27000E+04
         0.27000E+04
         0.27000E+04
         0.27000E+04
         0.27000E+04
         0.27000E+04
         0.27000E+04
         0.27000E+04
         0.27000E+04
         0.27000E+04
         0.27000E+04
         0.27000E+04
         0.27000E+04
         0.27000E+04
         0.27000E+04
         0.27000E+04
         0.27000E+04
         0.27000E+04
         0.27000E+04
         0.27000E+04
         0.27000E+04
         0.27000E+04
         0.27000E+04
         0.27000E+04
         0.27000E+04
         0.27000E+04
         0.27000E+04
         0.27000E+04
         0.27000E+04
         0.27000E+04
         0.27000E+04
         0.27000E+04
         0.27000E+04
         0.27000E+04
         0.27000E+04
         0.27000E+04
         0.27000E+04
         0.27000E+04
         0.27000E+04
         0.27000E+04
         0.27000E+04
         0.27000E+04
         0.27000E+04
         0.27000E+04
         0.27000E+04
         0.27000E+04
         0.27000E+04
         0.27000E+04
         0.27000E+04
         0.27000E+04
         0.27000E+04
         0.27000E+04
         0.27000E+04
         0.27000E+04
         0.27000E+04
         0.27000E+04
         0.27000E+04
         0.27000E+04
         0.27000E+04
         0.27000E+04
         0.27000E+04
         0.27000E+04
         0.27000E+04
         0.27000E+04
         0.27000E+04
         0.27000E+04
         0.27000E+04
         0.27000E+04
         0.27000E+04
         0.27000E+04
         0.27000E+04
         0.27000E+04
         0.27000E+04
         0.27000E+04
         0.27000E+04
         0.27000E+04
         0.27000E+04
         0.27000E+04
         0.27000E+04
         0.27000E+04
         0.27000E+04
         0.27000E+04
         0.27000E+04
         0.27000E+04
         0.27000E+04
         0.27000E+04
         0.27000E+04
         0.27000E+04
         0.27000E+04
         0.27000E+04
         0.27000E+04
         0.27000E+04
         0.27000E+04
         0.27000E+04
         0.27000E+04
         0.27000E+04
         0.27000E+04
         0.27000E+04
         0.27000E+04
         0.27000E+04
         0.27000E+04
         0.27000E+04
         0.27000E+04
         0.27000E+04
         0.27000E+04
         0.27000E+04
         0.27000E+04
         0.27000E+04
         0.27000E+04
         0.27000E+04
         0.27000E+04
         0.27000E+04
         0.27000E+04
         0.27000E+04
         0.27000E+04
         0.27000E+04
         0.27000E+04
         0.27000E+04
         0.27000E+04
         0.27000E+04
         0.27000E+04
         0.27000E+04
         0.27000E+04
         0.27000E+04
         0.27000E+04
         0.27000E+04
         0.27000E+04
         0.27000E+04
         0.27000E+04
         0.27000E+04
         0.27000E+04
         0.27000E+04
         0.27000E+04
         0.27000E+04
         0.27000E+04
         0.27000E+04
         0.27000E+04
         0.27000E+04
         0.27000E+04
         0.27000E+04
         0.27000E+04
         0.27000E+04
         0.27000E+04
         0.27000E+04
         0.27000E+04
         0.27000E+04
         0.27000E+04
         0.27000E+04
         0.27000E+04
         0.27000E+04
         0.27000E+04
         0.27000E+04
         0.27000E+04
         0.27000E+04
         0.27000E+04
         0.27000E+04
         0.27000E+04
         0.27000E+04
         0.27000E+04
         0.27000E+04
         0.27000E+04
         0.27000E+04
         0.27000E+04
         0.27000E+04
         0.27000E+04
         0.27000E+04
         0.27000E+04
         0.27000E+04
         0.27000E+04
         0.27000E+04
         0.27000E+04
         0.27000E+04
         0.27000E+04
         0.27000E+04
         0.27000E+04
         0.27000E+04
         0.27000E+04
         0.27000E+04
         0.27000E+04
         0.27000E+04
         0.27000E+04
         0.27000E+04
         0.27000E+04
         0.27000E+04
         0.27000E+04
         0.27000E+04
         0.27000E+04
         0.27000E+04
         0.27000E+04
         0.27000E+04
         0.27000E+04
         0.27000E+04
         0.27000E+04
         0.27000E+04
         0.27000E+04
         0.27000E+04
         0.27000E+04
         0.27000E+04
         0.27000E+04
         0.27000E+04
         0.27000E+04
         0.27000E+04
         0.27000E+04
         0.27000E+04
         0.27000E+04
         0.27000E+04
         0.27000E+04
         0.27000E+04
         0.27000E+04
         0.27000E+04
         0.27000E+04
         0.27000E+04
         0.27000E+04
         0.27000E+04
         0.27000E+04
         0.27000E+04
         0.27000E+04
         0.27000E+04
         0.27000E+04
         0.27000E+04
         0.27000E+04
         0.27000E+04
         0.27000E+04
         0.27000E+04
         0.27000E+04
         0.27000E+04
         0.27000E+04
         0.27000E+04
         0.27000E+04
         0.27000E+04
         0.27000E+04
         0.27000E+04
         0.27000E+04
         0.27000E+04
         0.27000E+04
         0.27000E+04
         0.27000E+04
         0.27000E+04
         0.27000E+04
         0.27000E+04
         0.27000E+04
         0.27000E+04
         0.27000E+04
         0.27000E+04
         0.27000E+04
         0.27000E+04
         0.27000E+04
         0.27000E+04
         0.27000E+04
         0.27000E+04
         0.27000E+04
         0.27000E+04
         0.27000E+04
         0.27000E+04
         0.27000E+04
         0.27000E+04
         0.27000E+04
         0.27000E+04
         0.27000E+04
         0.27000E+04
         0.27000E+04
         0.27000E+04
         0.27000E+04
         0.27000E+04
         0.27000E+04
         0.27000E+04
         0.27000E+04
         0.27000E+04
         0.27000E+04
         0.27000E+04
         0.27000E+04
         0.27000E+04
         0.27000E+04
         0.27000E+04
         0.27000E+04
         0.27000E+04
         0.27000E+04
         0.27000E+04
         0.27000E+04
         0.27000E+04
         0.27000E+04
         0.27000E+04
         0.27000E+04
         0.27000E+04
         0.27000E+04
         0.27000E+04
         0.27000E+04
         0.27000E+04
         0.27000E+04
         0.27000E+04
         0.27000E+04
         0.27000E+04
         0.27000E+04
         0.27000E+04
         0.27000E+04
         0.27000E+04
         0.27000E+04
         0.27000E+04
         0.27000E+04
         0.27000E+04
         0.27000E+04
         0.27000E+04
         0.27000E+04
         0.27000E+04
         0.27000E+04
         0.27000E+04
         0.27000E+04
         0.27000E+04
         0.27000E+04
         0.27000E+04
         0.27000E+04
         0.27000E+04
         0.27000E+04
         0.27000E+04
         0.27000E+04
         0.27000E+04
         0.27000E+04
         0.27000E+04
         0.27000E+04
         0.27000E+04
         0.27000E+04
         0.27000E+04
         0.27000E+04
         0.27000E+04
         0.27000E+04
         0.27000E+04
         0.27000E+04
         0.27000E+04
         0.27000E+04
         0.27000E+04
         0.27000E+04
         0.27000E+04
         0.27000E+04
         0.27000E+04
         0.27000E+04
         0.27000E+04
         0.27000E+04
         0.27000E+04
         0.27000E+04
         0.27000E+04
         0.27000E+04
         0.27000E+04
         0.27000E+04
         0.27000E+04
         0.27000E+04
         0.27000E+04
         0.27000E+04
         0.27000E+04
         0.27000E+04
         0.27000E+04
         0.27000E+04
         0.27000E+04
         0.27000E+04
         0.27000E+04
         0.27000E+04
         0.27000E+04
         0.27000E+04
         0.27000E+04
         0.27000E+04
         0.27000E+04
         0.27000E+04
         0.27000E+04
         0.27000E+04
         0.27000E+04
         0.27000E+04
         0.27000E+04
         0.27000E+04
         0.27000E+04
         0.27000E+04
         0.27000E+04
         0.27000E+04
         0.27000E+04
         0.27000E+04
         0.27000E+04
         0.27000E+04
         0.27000E+04
         0.27000E+04
         0.27000E+04
         0.27000E+04
         0.27000E+04
         0.27000E+04
         0.27000E+04
         0.27000E+04
         0.27000E+04
         0.27000E+04
         0.27000E+04
         0.27000E+04
         0.27000E+04
         0.27000E+04
         0.27000E+04
         0.27000E+04
         0.27000E+04
         0.27000E+04
         0.27000E+04
         0.27000E+04
         0.27000E+04
         0.27000E+04
         0.27000E+04
         0.27000E+04
         0.27000E+04
         0.27000E+04
         0.27000E+04
         0.27000E+04
         0.27000E+04
         0.27000E+04
         0.27000E+04
         0.27000E+04
         0.27000E+04
         0.27000E+04
         0.27000E+04
         0.27000E+04
         0.27000E+04
         0.27000E+04
         0.27000E+04
         0.27000E+04
         0.27000E+04
         0.27000E+04
         0.27000E+04
         0.27000E+04
         0.27000E+04
         0.27000E+04
         0.27000E+04
         0.27000E+04
         0.27000E+04
         0.27000E+04
         0.27000E+04
         0.27000E+04
         0.27000E+04
         0.27000E+04
         0.27000E+04
         0.27000E+04
         0.27000E+04
         0.27000E+04
         0.27000E+04
         0.27000E+04
         0.27000E+04
         0.27000E+04
         0.27000E+04
         0.27000E+04
         0.27000E+04
         0.27000E+04
         0.27000E+04
         0.27000E+04
         0.27000E+04
         0.27000E+04
         0.27000E+04
         0.27000E+04
         0.27000E+04
         0.27000E+04
         0.27000E+04
         0.27000E+04
         0.27000E+04
         0.27000E+04
         0.27000E+04
         0.27000E+04
         0.27000E+04
         0.27000E+04
         0.27000E+04
         0.27000E+04
         0.27000E+04
         0.27000E+04
         0.27000E+04
         0.27000E+04
         0.27000E+04
         0.27000E+04
         0.27000E+04
         0.27000E+04
         0.27000E+04
         0.27000E+04
         0.27000E+04
         0.27000E+04
         0.27000E+04
         0.27000E+04
         0.27000E+04
         0.27000E+04
         0.27000E+04
         0.27000E+04
         0.27000E+04
         0.27000E+04
         0.27000E+04
         0.27000E+04
         0.27000E+04
         0.27000E+04
         0.27000E+04
         0.27000E+04
         0.27000E+04
         0.27000E+04
         0.27000E+04
         0.27000E+04
         0.27000E+04
         0.27000E+04
         0.27000E+04
         0.27000E+04
         0.27000E+04
         0.27000E+04
         0.27000E+04
         0.27000E+04
         0.27000E+04
         0.27000E+04
         0.27000E+04
         0.27000E+04
         0.27000E+04
         0.27000E+04
         0.27000E+04
         0.27000E+04
         0.27000E+04
         0.27000E+04
         0.27000E+04
         0.27000E+04
         0.27000E+04
         0.27000E+04
         0.27000E+04
         0.27000E+04
         0.27000E+04
         0.27000E+04
         0.27000E+04
         0.27000E+04
         0.27000E+04
         0.27000E+04
         0.27000E+04
         0.27000E+04
         0.27000E+04
         0.27000E+04
         0.27000E+04
         0.27000E+04
         0.27000E+04
         0.27000E+04
         0.27000E+04
         0.27000E+04
         0.27000E+04
         0.27000E+04
         0.27000E+04
         0.27000E+04
         0.27000E+04
         0.27000E+04
         0.27000E+04
         0.27000E+04
         0.27000E+04
         0.27000E+04
         0.27000E+04
         0.27000E+04
         0.27000E+04
         0.27000E+04
         0.27000E+04
         0.27000E+04
         0.27000E+04
         0.27000E+04
         0.27000E+04
         0.27000E+04
         0.27000E+04
         0.27000E+04
         0.27000E+04
         0.27000E+04
         0.27000E+04
         0.27000E+04
         0.27000E+04
         0.27000E+04
         0.27000E+04
         0.27000E+04
         0.27000E+04
         0.27000E+04
         0.27000E+04
         0.27000E+04
         0.27000E+04
         0.27000E+04
         0.27000E+04
         0.27000E+04
         0.27000E+04
         0.27000E+04
         0.27000E+04
         0.27000E+04
         0.27000E+04
         0.27000E+04
         0.27000E+04
         0.27000E+04
         0.27000E+04
         0.27000E+04
         0.27000E+04
         0.27000E+04
         0.27000E+04
         0.27000E+04
         0.27000E+04
         0.27000E+04
         0.27000E+04
         0.27000E+04
         0.27000E+04
         0.27000E+04
         0.27000E+04
         0.27000E+04
         0.27000E+04
         0.27000E+04
         0.27000E+04
         0.27000E+04
         0.27000E+04
         0.27000E+04
         0.27000E+04
         0.27000E+04
         0.27000E+04
         0.27000E+04
         0.27000E+04
         0.27000E+04
         0.27000E+04
         0.27000E+04
         0.27000E+04
         0.27000E+04
         0.27000E+04
         0.27000E+04
         0.27000E+04
         0.27000E+04
         0.27000E+04
         0.27000E+04
         0.27000E+04
         0.27000E+04
         0.27000E+04
         0.27000E+04
         0.27000E+04
         0.27000E+04
         0.27000E+04
         0.27000E+04
         0.27000E+04
         0.27000E+04
         0.27000E+04
         0.27000E+04
         0.27000E+04
         0.27000E+04
         0.27000E+04
         0.27000E+04
         0.27000E+04
         0.27000E+04
         0.27000E+04
         0.27000E+04
         0.27000E+04
         0.27000E+04
         0.27000E+04
         0.27000E+04
         0.27000E+04
         0.27000E+04
         0.27000E+04
         0.27000E+04
         0.27000E+04
         0.27000E+04
         0.27000E+04
         0.27000E+04
         0.27000E+04
         0.27000E+04
         0.27000E+04
         0.27000E+04
         0.27000E+04
         0.27000E+04
         0.27000E+04
         0.27000E+04
         0.27000E+04
         0.27000E+04
         0.27000E+04
         0.27000E+04
         0.27000E+04
         0.27000E+04
         0.27000E+04
         0.27000E+04
         0.27000E+04
         0.27000E+04
         0.27000E+04
         0.27000E+04
         0.27000E+04
         0.27000E+04
         0.27000E+04
         0.27000E+04
         0.27000E+04
         0.27000E+04
         0.27000E+04
         0.27000E+04
         0.27000E+04
         0.27000E+04
         0.27000E+04
         0.27000E+04
         0.27000E+04
         0.27000E+04
         0.27000E+04
         0.27000E+04
         0.27000E+04
         0.27000E+04
         0.27000E+04
         0.27000E+04
         0.27000E+04
         0.27000E+04
         0.27000E+04
         0.27000E+04
         0.27000E+04
         0.27000E+04
         0.27000E+04
         0.27000E+04
         0.27000E+04
         0.27000E+04
         0.27000E+04
         0.27000E+04
         0.27000E+04
         0.27000E+04
         0.27000E+04
         0.27000E+04
         0.27000E+04
         0.27000E+04
         0.27000E+04
         0.27000E+04
         0.27000E+04
         0.27000E+04
         0.27000E+04
         0.27000E+04
         0.27000E+04
         0.27000E+04
         0.27000E+04
         0.27000E+04
         0.27000E+04
         0.27000E+04
         0.27000E+04
         0.27000E+04
         0.27000E+04
         0.27000E+04
         0.27000E+04
         0.27000E+04
         0.27000E+04
         0.27000E+04
         0.27000E+04
         0.27000E+04
         0.27000E+04
         0.27000E+04
         0.27000E+04
         0.27000E+04
         0.27000E+04
         0.27000E+04
         0.27000E+04
         0.27000E+04
         0.27000E+04
         0.27000E+04
         0.27000E+04
         0.27000E+04
         0.27000E+04
         0.27000E+04
         0.27000E+04
         0.27000E+04
         0.27000E+04
         0.27000E+04
         0.27000E+04
         0.27000E+04
         0.27000E+04
         0.27000E+04
         0.27000E+04
         0.27000E+04
         0.27000E+04
         0.27000E+04
         0.27000E+04
         0.27000E+04
         0.27000E+04
         0.27000E+04
         0.27000E+04
         0.27000E+04
         0.27000E+04
         0.27000E+04
         0.27000E+04
         0.27000E+04
         0.27000E+04
         0.27000E+04
         0.27000E+04
         0.27000E+04
         0.27000E+04
         0.27000E+04
         0.27000E+04
         0.27000E+04
         0.27000E+04
         0.27000E+04
         0.27000E+04
         0.27000E+04
         0.27000E+04
         0.27000E+04
         0.27000E+04
         0.27000E+04
         0.27000E+04
         0.27000E+04
         0.27000E+04
         0.27000E+04
         0.27000E+04
         0.27000E+04
         0.27000E+04
         0.27000E+04
         0.27000E+04
         0.27000E+04
         0.27000E+04
         0.27000E+04
         0.27000E+04
         0.27000E+04
         0.27000E+04
         0.27000E+04
         0.27000E+04
         0.27000E+04
         0.27000E+04
         0.27000E+04
         0.27000E+04
         0.27000E+04
         0.27000E+04
         0.27000E+04
         0.27000E+04
         0.27000E+04
         0.27000E+04
         0.27000E+04
         0.27000E+04
         0.27000E+04
         0.27000E+04
         0.27000E+04
         0.27000E+04
         0.27000E+04
         0.27000E+04
         0.27000E+04
         0.27000E+04
         0.27000E+04
         0.27000E+04
         0.27000E+04
         0.27000E+04
         0.27000E+04
         0.27000E+04
         0.27000E+04
         0.27000E+04
         0.27000E+04
         0.27000E+04
         0.27000E+04
         0.27000E+04
         0.27000E+04
         0.27000E+04
         0.27000E+04
         0.27000E+04
         0.27000E+04
         0.27000E+04
         0.27000E+04
         0.27000E+04
         0.27000E+04
         0.27000E+04
         0.27000E+04
         0.27000E+04
         0.27000E+04
         0.27000E+04
         0.27000E+04
         0.27000E+04
         0.27000E+04
         0.27000E+04
         0.27000E+04
         0.27000E+04
         0.27000E+04
         0.27000E+04
         0.27000E+04
         0.27000E+04
         0.27000E+04
         0.27000E+04
         0.27000E+04
         0.27000E+04
         0.27000E+04
         0.27000E+04
         0.27000E+04
         0.27000E+04
         0.27000E+04
         0.27000E+04
         0.27000E+04
         0.27000E+04
         0.27000E+04
         0.27000E+04
         0.27000E+04
         0.27000E+04
         0.27000E+04
         0.27000E+04
         0.27000E+04
         0.27000E+04
         0.27000E+04
         0.27000E+04
         0.27000E+04
         0.27000E+04
         0.27000E+04
         0.27000E+04
         0.27000E+04
         0.27000E+04
         0.27000E+04
         0.27000E+04
         0.27000E+04
         0.27000E+04
         0.27000E+04
         0.27000E+04
         0.27000E+04
         0.27000E+04
         0.27000E+04
         0.27000E+04
         0.27000E+04
         0.27000E+04
         0.27000E+04
         0.27000E+04
         0.27000E+04
         0.27000E+04
         0.27000E+04
         0.27000E+04
         0.27000E+04
         0.27000E+04
         0.27000E+04
         0.27000E+04
         0.27000E+04
         0.27000E+04
         0.27000E+04
         0.27000E+04
         0.27000E+04
         0.27000E+04
         0.27000E+04
         0.27000E+04
         0.27000E+04
         0.27000E+04
         0.27000E+04
         0.27000E+04
         0.27000E+04
